<?xml version="1.0"?>
<VTKFile type="UnstructuredGrid" version="0.1" byte_order="LittleEndian">
<UnstructuredGrid>
<Piece NumberOfPoints="30881" NumberOfCells="10862">
<Points>
<DataArray type="Float64" NumberOfComponents="3" format="ascii">
-0.49999999999999828 -0.48677703703187492 0 -0.5 -0.5 0 -0.48129281494584059 -0.49338851851593718 0 -0.5 -0.5 0 -0.48129281494584059 -0.49338851851593718 0 -0.46258562989168328 -0.5 0 -0.49999999999999828 -0.48677703703187492 0 -0.48129281494584059 -0.49338851851593718 0 -0.49999999999999828 -0.48677703703187492 0 -0.4824545428279598 -0.47451624516148783 0 -0.48129281494584059 -0.49338851851593718 0 -0.49999999999999828 -0.48677703703187492 0 -0.4824545428279598 -0.47451624516148783 0 -0.5 -0.46599539173150673 0 -0.4824545428279598 -0.47451624516148783 0 -0.46853075243710779 -0.48354990242643758 0 -0.46411508256092049 -0.46598235294430129 0 -0.4824545428279598 -0.47451624516148783 0 -0.48129281494584059 -0.49338851851593718 0 -0.46853075243710779 -0.48354990242643758 0 -0.48129281494584059 -0.49338851851593718 0 -0.46258562989168328 -0.5 0 -0.48129281494584059 -0.49338851851593718 0 -0.46258562989168328 -0.5 0 -0.46853075243710779 -0.48354990242643758 0 -0.46258562989168328 -0.5 0 -0.46853075243710779 -0.48354990242643758 0 -0.45147378687733691 -0.48362213557840178 0 -0.46853075243710779 -0.48354990242643758 0 -0.45147378687733691 -0.48362213557840178 0 -0.46411508256092049 -0.46598235294430129 0 -0.4457251648104853 -0.47020164095208389 0 -0.45147378687733691 -0.48362213557840178 0 -0.46411508256092049 -0.46598235294430129 0 -0.4457251648104853 -0.47020164095208389 0 -0.45147378687733691 -0.48362213557840178 0 -0.43513446131126993 -0.48199891714758791 0 -0.45147378687733691 -0.48362213557840178 0 -0.43275163025255442 -0.5 0 -0.43513446131126993 -0.48199891714758791 0 -0.46258562989168328 -0.5 0 -0.45147378687733691 -0.48362213557840178 0 -0.43275163025255442 -0.5 0 -0.4467190029717853 -0.45478934699519452 0 -0.4422915115958943 -0.43555510214664611 0 -0.43246707723660932 -0.44794326854796312 0 -0.4457251648104853 -0.47020164095208389 0 -0.4467190029717853 -0.45478934699519452 0 -0.46411508256092049 -0.46598235294430129 0 -0.4457251648104853 -0.47020164095208389 0 -0.4467190029717853 -0.45478934699519452 0 -0.43016578207734568 -0.46313500011938619 0 -0.4467190029717853 -0.45478934699519452 0 -0.46411508256092049 -0.46598235294430129 0 -0.47114575579794699 -0.4403844242888923 0 -0.4467190029717853 -0.45478934699519452 0 -0.47114575579794699 -0.4403844242888923 0 -0.4422915115958943 -0.43555510214664611 0 -0.47114575579794699 -0.4403844242888923 0 -0.4422915115958943 -0.43555510214664611 0 -0.46411508256092049 -0.46598235294430129 0 -0.47114575579794699 -0.4403844242888923 0 -0.48354307623736548 -0.45841843211146538 0 -0.4824545428279598 -0.47451624516148783 0 -0.46411508256092049 -0.46598235294430129 0 -0.48354307623736548 -0.45841843211146538 0 -0.4824545428279598 -0.47451624516148783 0 -0.48354307623736548 -0.45841843211146538 0 -0.5 -0.46599539173150673 0 -0.48354307623736548 -0.45841843211146538 0 -0.5 -0.46599539173150673 0 -0.49999999999999972 -0.44521374643113848 0 -0.47114575579794699 -0.4403844242888923 0 -0.49999999999999972 -0.44521374643113848 0 -0.47114575579794699 -0.4403844242888923 0 -0.49999999999999972 -0.44521374643113848 0 -0.48704432221743971 -0.42935617662229603 0 -0.47114575579794699 -0.4403844242888923 0 -0.48354307623736548 -0.45841843211146538 0 -0.49999999999999972 -0.44521374643113848 0 -0.49999999999999972 -0.44521374643113848 0 -0.48704432221743971 -0.42935617662229603 0 -0.5 -0.41591957503128979 0 -0.48704432221743971 -0.42935617662229603 0 -0.5 -0.41591957503128979 0 -0.47703153307181151 -0.41590696073786332 0 -0.5 -0.41591957503128979 0 -0.47703153307181151 -0.41590696073786332 0 -0.48817838912021821 -0.4022119694541284 0 -0.47114575579794699 -0.4403844242888923 0 -0.48704432221743971 -0.42935617662229603 0 -0.47703153307181151 -0.41590696073786332 0 -0.5 -0.38662540363144121 0 -0.47568202340906118 -0.39039593841591919 0 -0.4947615751445838 -0.37332156409002909 0 -0.47568202340906118 -0.39039593841591919 0 -0.4947615751445838 -0.37332156409002909 0 -0.5 -0.38662540363144121 0 -0.48817838912021821 -0.4022119694541284 0 -0.47568202340906118 -0.39039593841591919 0 -0.5 -0.41591957503128979 0 -0.5 -0.38662540363144121 0 -0.48817838912021821 -0.4022119694541284 0 -0.47703153307181151 -0.41590696073786332 0 -0.48817838912021821 -0.4022119694541284 0 -0.47568202340906118 -0.39039593841591919 0 -0.47703153307181151 -0.41590696073786332 0 -0.47568202340906118 -0.39039593841591919 0 -0.45660247167353862 -0.40747031274180939 0 -0.47568202340906118 -0.39039593841591919 0 -0.48030931097003587 -0.37191064435083931 0 -0.46669490250066459 -0.37481721741951951 0 -0.47568202340906118 -0.39039593841591919 0 -0.4947615751445838 -0.37332156409002909 0 -0.48030931097003587 -0.37191064435083931 0 -0.45332061783919553 -0.38729481725706361 0 -0.46669490250066459 -0.37481721741951951 0 -0.45095991715087752 -0.36968037302039969 0 -0.47568202340906118 -0.39039593841591919 0 -0.45332061783919553 -0.38729481725706361 0 -0.46669490250066459 -0.37481721741951951 0 -0.47568202340906118 -0.39039593841591919 0 -0.45660247167353862 -0.40747031274180939 0 -0.47568202340906118 -0.39039593841591919 0 -0.45332061783919553 -0.38729481725706361 0 -0.45660247167353862 -0.40747031274180939 0 -0.44332653075004852 -0.401690115615219 0 -0.44646247228389868 -0.41654464256061052 0 -0.42870657106664078 -0.39987574649354879 0 -0.45332061783919553 -0.38729481725706361 0 -0.44332653075004852 -0.401690115615219 0 -0.43479631603355468 -0.39077639303142497 0 -0.45332061783919553 -0.38729481725706361 0 -0.44332653075004852 -0.401690115615219 0 -0.45660247167353862 -0.40747031274180939 0 -0.45332061783919553 -0.38729481725706361 0 -0.43421362475025049 -0.37527491429266319 0 -0.43479631603355468 -0.39077639303142497 0 -0.45332061783919553 -0.38729481725706361 0 -0.43421362475025049 -0.37527491429266319 0 -0.45095991715087752 -0.36968037302039969 0 -0.47114575579794699 -0.4403844242888923 0 -0.45663439814062529 -0.42533932462455271 0 -0.4422915115958943 -0.43555510214664611 0 -0.47114575579794699 -0.4403844242888923 0 -0.47703153307181151 -0.41590696073786332 0 -0.45663439814062529 -0.42533932462455271 0 -0.45663439814062529 -0.42533932462455271 0 -0.45660247167353862 -0.40747031274180939 0 -0.44646247228389868 -0.41654464256061052 0 -0.47703153307181151 -0.41590696073786332 0 -0.45663439814062529 -0.42533932462455271 0 -0.45660247167353862 -0.40747031274180939 0 -0.44332653075004852 -0.401690115615219 0 -0.45660247167353862 -0.40747031274180939 0 -0.44646247228389868 -0.41654464256061052 0 -0.45660247167353862 -0.40747031274180939 0 -0.44646247228389868 -0.41654464256061052 0 -0.44646247228389868 -0.41654464256061052 0 -0.4375229199380159 -0.42454468706769971 0 -0.45663439814062529 -0.42533932462455271 0 -0.4375229199380159 -0.42454468706769971 0 -0.4422915115958943 -0.43555510214664611 0 -0.45663439814062529 -0.42533932462455271 0 -0.44646247228389868 -0.41654464256061052 0 -0.4375229199380159 -0.42454468706769971 0 -0.4375229199380159 -0.42454468706769971 0 -0.4422915115958943 -0.43555510214664611 0 -0.43077617074680319 -0.43406335077952207 0 -0.43077617074680319 -0.43406335077952207 0 -0.42550232634077589 -0.42345940056268039 0 -0.41950844772475421 -0.43888456563633732 0 -0.4375229199380159 -0.42454468706769971 0 -0.43077617074680319 -0.43406335077952207 0 -0.42550232634077589 -0.42345940056268039 0 -0.44646247228389868 -0.41654464256061052 0 -0.41657232816672918 -0.41306671883907142 0 -0.42870657106664078 -0.39987574649354879 0 -0.44646247228389868 -0.41654464256061052 0 -0.4375229199380159 -0.42454468706769971 0 -0.42550232634077589 -0.42345940056268039 0 -0.44646247228389868 -0.41654464256061052 0 -0.42550232634077589 -0.42345940056268039 0 -0.41657232816672918 -0.41306671883907142 0 -0.44646247228389868 -0.41654464256061052 0 -0.41657232816672918 -0.41306671883907142 0 -0.42550232634077589 -0.42345940056268039 0 -0.41657232816672918 -0.41306671883907142 0 -0.41333489101611293 -0.42699700567040988 0 -0.41657232816672918 -0.41306671883907142 0 -0.41333489101611293 -0.42699700567040988 0 -0.39893236021425188 -0.42931692235905211 0 -0.41333489101611293 -0.42699700567040988 0 -0.39893236021425188 -0.42931692235905211 0 -0.41950844772475421 -0.43888456563633732 0 -0.42550232634077589 -0.42345940056268039 0 -0.41333489101611293 -0.42699700567040988 0 -0.41950844772475421 -0.43888456563633732 0 -0.43421362475025049 -0.37527491429266319 0 -0.42478231784314502 -0.38643128255249681 0 -0.41656514696884139 -0.37636588688318029 0 -0.43421362475025049 -0.37527491429266319 0 -0.42478231784314502 -0.38643128255249681 0 -0.43479631603355468 -0.39077639303142497 0 -0.42478231784314502 -0.38643128255249681 0 -0.43479631603355468 -0.39077639303142497 0 -0.42870657106664078 -0.39987574649354879 0 -0.44332653075004852 -0.401690115615219 0 -0.43479631603355468 -0.39077639303142497 0 -0.42870657106664078 -0.39987574649354879 0 -0.41657232816672918 -0.41306671883907142 0 -0.40962993039643741 -0.3898634720616666 0 -0.3946356370269814 -0.39577424904278191 0 -0.42478231784314502 -0.38643128255249681 0 -0.42870657106664078 -0.39987574649354879 0 -0.40962993039643741 -0.3898634720616666 0 -0.41657232816672918 -0.41306671883907142 0 -0.42870657106664078 -0.39987574649354879 0 -0.40962993039643741 -0.3898634720616666 0 -0.42478231784314502 -0.38643128255249681 0 -0.40962993039643741 -0.3898634720616666 0 -0.41656514696884139 -0.37636588688318029 0 -0.40962993039643741 -0.3898634720616666 0 -0.41656514696884139 -0.37636588688318029 0 -0.40465459864295228 -0.37650109000307358 0 -0.39431275766669582 -0.38061373190328529 0 -0.40465459864295228 -0.37650109000307358 0 -0.3968495855878465 -0.36923685638487008 0 -0.40962993039643741 -0.3898634720616666 0 -0.39431275766669582 -0.38061373190328529 0 -0.40465459864295228 -0.37650109000307358 0 -0.40962993039643741 -0.3898634720616666 0 -0.39431275766669582 -0.38061373190328529 0 -0.3946356370269814 -0.39577424904278191 0 -0.3946356370269814 -0.39577424904278191 0 -0.38704143117499401 -0.40999023144455299 0 -0.37464038230528551 -0.396492613407532 0 -0.3946356370269814 -0.39577424904278191 0 -0.37522403377147279 -0.38060127254172499 0 -0.37464038230528551 -0.396492613407532 0 -0.39431275766669582 -0.38061373190328529 0 -0.3946356370269814 -0.39577424904278191 0 -0.37522403377147279 -0.38060127254172499 0 -0.39431275766669582 -0.38061373190328529 0 -0.37522403377147279 -0.38060127254172499 0 -0.38569326772338258 -0.37053454129240582 0 -0.41657232816672918 -0.41306671883907142 0 -0.39893236021425188 -0.42931692235905211 0 -0.38704143117499401 -0.40999023144455299 0 -0.41657232816672918 -0.41306671883907142 0 -0.3946356370269814 -0.39577424904278191 0 -0.38704143117499401 -0.40999023144455299 0 -0.41657232816672918 -0.41306671883907142 0 -0.38704143117499401 -0.40999023144455299 0 -0.38704143117499401 -0.40999023144455299 0 -0.38131756488089769 -0.42670085612339947 0 -0.36377437909963828 -0.41972983174959272 0 -0.38131756488089769 -0.42670085612339947 0 -0.38339996822118783 -0.44368928783448319 0 -0.36866352395763108 -0.4313760290561211 0 -0.39893236021425188 -0.42931692235905211 0 -0.38131756488089769 -0.42670085612339947 0 -0.38339996822118783 -0.44368928783448319 0 -0.39893236021425188 -0.42931692235905211 0 -0.38704143117499401 -0.40999023144455299 0 -0.38131756488089769 -0.42670085612339947 0 -0.38339996822118783 -0.44368928783448319 0 -0.40446438048225181 -0.45117017211807442 0 -0.3895931593355052 -0.46351353191466821 0 -0.39893236021425188 -0.42931692235905211 0 -0.38339996822118783 -0.44368928783448319 0 -0.40446438048225181 -0.45117017211807442 0 -0.40446438048225181 -0.45117017211807442 0 -0.3895931593355052 -0.46351353191466821 0 -0.40280611050484572 -0.47090640128894168 0 -0.38339996822118783 -0.44368928783448319 0 -0.3895931593355052 -0.46351353191466821 0 -0.37415472949075129 -0.45946062715310632 0 -0.3895931593355052 -0.46351353191466821 0 -0.38039451612360919 -0.47713749807852829 0 -0.37415472949075129 -0.45946062715310632 0 -0.38039451612360919 -0.47713749807852829 0 -0.39198476482648659 -0.49312537606366408 0 -0.39366244928105898 -0.47747566409097131 0 -0.3895931593355052 -0.46351353191466821 0 -0.38039451612360919 -0.47713749807852829 0 -0.39366244928105898 -0.47747566409097131 0 -0.39198476482648659 -0.49312537606366408 0 -0.37055643484088358 -0.49425936316784103 0 -0.39198476482648659 -0.49312537606366408 0 -0.40291763061342539 -0.5 0 -0.37308363097429631 -0.50000000000000244 0 -0.39198476482648659 -0.49312537606366408 0 -0.37055643484088358 -0.49425936316784103 0 -0.37308363097429631 -0.50000000000000244 0 -0.38039451612360919 -0.47713749807852829 0 -0.39198476482648659 -0.49312537606366408 0 -0.37055643484088358 -0.49425936316784103 0 -0.39198476482648659 -0.49312537606366408 0 -0.41341309481208982 -0.49199138895948757 0 -0.39198476482648659 -0.49312537606366408 0 -0.39366244928105898 -0.47747566409097131 0 -0.40353369561484831 -0.48269551310905429 0 -0.39198476482648659 -0.49312537606366408 0 -0.40291763061342539 -0.5 0 -0.41341309481208982 -0.49199138895948757 0 -0.39198476482648659 -0.49312537606366408 0 -0.40353369561484831 -0.48269551310905429 0 -0.41341309481208982 -0.49199138895948757 0 -0.3895931593355052 -0.46351353191466821 0 -0.39366244928105898 -0.47747566409097131 0 -0.40280611050484572 -0.47090640128894168 0 -0.39366244928105898 -0.47747566409097131 0 -0.40353369561484831 -0.48269551310905429 0 -0.40280611050484572 -0.47090640128894168 0 -0.40280611050484572 -0.47090640128894168 0 -0.41792735015940108 -0.47619959015896091 0 -0.41524515795200517 -0.46243146669528151 0 -0.40353369561484831 -0.48269551310905429 0 -0.41792735015940108 -0.47619959015896091 0 -0.41341309481208982 -0.49199138895948757 0 -0.40353369561484831 -0.48269551310905429 0 -0.40280611050484572 -0.47090640128894168 0 -0.41792735015940108 -0.47619959015896091 0 -0.41792735015940108 -0.47619959015896091 0 -0.41341309481208982 -0.49199138895948757 0 -0.42480663413382869 -0.48754747406650911 0 -0.40291763061342539 -0.5 0 -0.41341309481208982 -0.49199138895948757 0 -0.43275163025255442 -0.5 0 -0.41341309481208982 -0.49199138895948757 0 -0.42480663413382869 -0.48754747406650911 0 -0.43275163025255442 -0.5 0 -0.42480663413382869 -0.48754747406650911 0 -0.43275163025255442 -0.5 0 -0.43513446131126993 -0.48199891714758791 0 -0.4457251648104853 -0.47020164095208389 0 -0.43513446131126993 -0.48199891714758791 0 -0.43016578207734568 -0.46313500011938619 0 -0.41792735015940108 -0.47619959015896091 0 -0.43513446131126993 -0.48199891714758791 0 -0.43016578207734568 -0.46313500011938619 0 -0.41792735015940108 -0.47619959015896091 0 -0.42480663413382869 -0.48754747406650911 0 -0.43513446131126993 -0.48199891714758791 0 -0.4467190029717853 -0.45478934699519452 0 -0.43016578207734568 -0.46313500011938619 0 -0.43246707723660932 -0.44794326854796312 0 -0.43016578207734568 -0.46313500011938619 0 -0.42051073979218989 -0.45215097324273301 0 -0.41524515795200517 -0.46243146669528151 0 -0.43016578207734568 -0.46313500011938619 0 -0.43246707723660932 -0.44794326854796312 0 -0.42051073979218989 -0.45215097324273301 0 -0.4422915115958943 -0.43555510214664611 0 -0.43077617074680319 -0.43406335077952207 0 -0.43246707723660932 -0.44794326854796312 0 -0.43077617074680319 -0.43406335077952207 0 -0.43246707723660932 -0.44794326854796312 0 -0.41950844772475421 -0.43888456563633732 0 -0.43246707723660932 -0.44794326854796312 0 -0.42051073979218989 -0.45215097324273301 0 -0.41950844772475421 -0.43888456563633732 0 -0.39893236021425188 -0.42931692235905211 0 -0.40446438048225181 -0.45117017211807442 0 -0.41950844772475421 -0.43888456563633732 0 -0.40446438048225181 -0.45117017211807442 0 -0.42051073979218989 -0.45215097324273301 0 -0.41950844772475421 -0.43888456563633732 0 -0.40446438048225181 -0.45117017211807442 0 -0.42051073979218989 -0.45215097324273301 0 -0.41524515795200517 -0.46243146669528151 0 -0.40446438048225181 -0.45117017211807442 0 -0.40280611050484572 -0.47090640128894168 0 -0.41524515795200517 -0.46243146669528151 0 -0.41792735015940108 -0.47619959015896091 0 -0.43016578207734568 -0.46313500011938619 0 -0.41524515795200517 -0.46243146669528151 0 -0.45018232007011222 -0.256765034028549 0 -0.429874989515865 -0.26165756953837482 0 -0.43598079583492633 -0.24721882136819351 0 -0.45018232007011222 -0.256765034028549 0 -0.43765198640052377 -0.27443700488157741 0 -0.429874989515865 -0.26165756953837482 0 -0.45018232007011222 -0.256765034028549 0 -0.43598079583492633 -0.24721882136819351 0 -0.45139902778349827 -0.24711062934306771 0 -0.45018232007011222 -0.256765034028549 0 -0.43765198640052377 -0.27443700488157741 0 -0.46196722525855399 -0.27174391220054139 0 -0.43765198640052377 -0.27443700488157741 0 -0.46196722525855399 -0.27174391220054139 0 -0.4476129789611048 -0.29283803371489903 0 -0.46196722525855399 -0.27174391220054139 0 -0.48050148842732221 -0.25523221810557922 0 -0.46267023581878858 -0.24817136713935201 0 -0.45018232007011222 -0.256765034028549 0 -0.46196722525855399 -0.27174391220054139 0 -0.46267023581878858 -0.24817136713935201 0 -0.45018232007011222 -0.256765034028549 0 -0.46267023581878858 -0.24817136713935201 0 -0.45139902778349827 -0.24711062934306771 0 -0.48050148842732221 -0.25523221810557922 0 -0.5 -0.26944871803204617 0 -0.5 -0.2401545466321974 0 -0.48050148842732221 -0.25523221810557922 0 -0.5 -0.26944871803204617 0 -0.48245797385404121 -0.28063059353633901 0 -0.46196722525855399 -0.27174391220054139 0 -0.48050148842732221 -0.25523221810557922 0 -0.48245797385404121 -0.28063059353633901 0 -0.46196722525855399 -0.27174391220054139 0 -0.48245797385404121 -0.28063059353633901 0 -0.46937090116945868 -0.29821258941183898 0 -0.48245797385404121 -0.28063059353633901 0 -0.5 -0.29874288943189498 0 -0.46937090116945868 -0.29821258941183898 0 -0.5 -0.26944871803204617 0 -0.48245797385404121 -0.28063059353633901 0 -0.5 -0.29874288943189498 0 -0.5 -0.29874288943189498 0 -0.46937090116945868 -0.29821258941183898 0 -0.47623524987602139 -0.32201367690444971 0 -0.46937090116945868 -0.29821258941183898 0 -0.4476129789611048 -0.29283803371489903 0 -0.45018982867155483 -0.32180400573951162 0 -0.46196722525855399 -0.27174391220054139 0 -0.46937090116945868 -0.29821258941183898 0 -0.4476129789611048 -0.29283803371489903 0 -0.43765198640052377 -0.27443700488157741 0 -0.4476129789611048 -0.29283803371489903 0 -0.43236213870239748 -0.29002705800971151 0 -0.4476129789611048 -0.29283803371489903 0 -0.45018982867155483 -0.32180400573951162 0 -0.4314578060398388 -0.3048790663939604 0 -0.45018982867155483 -0.32180400573951162 0 -0.4314578060398388 -0.3048790663939604 0 -0.45018982867155483 -0.32180400573951162 0 -0.46157657978994598 -0.34139555482026068 0 -0.43521386225128428 -0.33802231259611382 0 -0.46157657978994598 -0.34139555482026068 0 -0.43521386225128428 -0.33802231259611382 0 -0.45018982867155483 -0.32180400573951162 0 -0.46157657978994598 -0.34139555482026068 0 -0.47623524987602139 -0.32201367690444971 0 -0.46937090116945868 -0.29821258941183898 0 -0.45018982867155483 -0.32180400573951162 0 -0.47623524987602139 -0.32201367690444971 0 -0.5 -0.29874288943189498 0 -0.47623524987602139 -0.32201367690444971 0 -0.5 -0.32803706083174372 0 -0.47623524987602139 -0.32201367690444971 0 -0.5 -0.32803706083174372 0 -0.48561656391384522 -0.34384835974822991 0 -0.5 -0.32803706083174372 0 -0.5 -0.35733123223159241 0 -0.48561656391384522 -0.34384835974822991 0 -0.46157657978994598 -0.34139555482026068 0 -0.47623524987602139 -0.32201367690444971 0 -0.48561656391384522 -0.34384835974822991 0 -0.46157657978994598 -0.34139555482026068 0 -0.47568148196104371 -0.35852722048879659 0 -0.48561656391384522 -0.34384835974822991 0 -0.47568148196104371 -0.35852722048879659 0 -0.48561656391384522 -0.34384835974822991 0 -0.48768886795130861 -0.36141736908419309 0 -0.5 -0.35733123223159241 0 -0.48561656391384522 -0.34384835974822991 0 -0.48768886795130861 -0.36141736908419309 0 -0.5 -0.35733123223159241 0 -0.4947615751445838 -0.37332156409002909 0 -0.48768886795130861 -0.36141736908419309 0 -0.5 -0.38662540363144121 0 -0.5 -0.35733123223159241 0 -0.4947615751445838 -0.37332156409002909 0 -0.4947615751445838 -0.37332156409002909 0 -0.48768886795130861 -0.36141736908419309 0 -0.48030931097003587 -0.37191064435083931 0 -0.47568148196104371 -0.35852722048879659 0 -0.48030931097003587 -0.37191064435083931 0 -0.46669490250066459 -0.37481721741951951 0 -0.47568148196104371 -0.35852722048879659 0 -0.48768886795130861 -0.36141736908419309 0 -0.48030931097003587 -0.37191064435083931 0 -0.46669490250066459 -0.37481721741951951 0 -0.45985290530711531 -0.35919053618658509 0 -0.45095991715087752 -0.36968037302039969 0 -0.47568148196104371 -0.35852722048879659 0 -0.46669490250066459 -0.37481721741951951 0 -0.45985290530711531 -0.35919053618658509 0 -0.46157657978994598 -0.34139555482026068 0 -0.47568148196104371 -0.35852722048879659 0 -0.45985290530711531 -0.35919053618658509 0 -0.46157657978994598 -0.34139555482026068 0 -0.45985290530711531 -0.35919053618658509 0 -0.44091292170358748 -0.35617636658334351 0 -0.46157657978994598 -0.34139555482026068 0 -0.44091292170358748 -0.35617636658334351 0 -0.43521386225128428 -0.33802231259611382 0 -0.43421362475025049 -0.37527491429266319 0 -0.44091292170358748 -0.35617636658334351 0 -0.45095991715087752 -0.36968037302039969 0 -0.45985290530711531 -0.35919053618658509 0 -0.44091292170358748 -0.35617636658334351 0 -0.45095991715087752 -0.36968037302039969 0 -0.43421362475025049 -0.37527491429266319 0 -0.41656514696884139 -0.37636588688318029 0 -0.42218579342164808 -0.36334977441807748 0 -0.43421362475025049 -0.37527491429266319 0 -0.44091292170358748 -0.35617636658334351 0 -0.42218579342164808 -0.36334977441807748 0 -0.44091292170358748 -0.35617636658334351 0 -0.42218579342164808 -0.36334977441807748 0 -0.42066840753926321 -0.34864312644900147 0 -0.44091292170358748 -0.35617636658334351 0 -0.42066840753926321 -0.34864312644900147 0 -0.43521386225128428 -0.33802231259611382 0 -0.42218579342164808 -0.36334977441807748 0 -0.42066840753926321 -0.34864312644900147 0 -0.40690054455725883 -0.35815659477868023 0 -0.40690054455725883 -0.35815659477868023 0 -0.40885114471262263 -0.334649070371968 0 -0.42066840753926321 -0.34864312644900147 0 -0.40690054455725883 -0.35815659477868023 0 -0.40885114471262263 -0.334649070371968 0 -0.42218579342164808 -0.36334977441807748 0 -0.40690054455725883 -0.35815659477868023 0 -0.40625971269279348 -0.36587953617857771 0 -0.40690054455725883 -0.35815659477868023 0 -0.40625971269279348 -0.36587953617857771 0 -0.41656514696884139 -0.37636588688318029 0 -0.42218579342164808 -0.36334977441807748 0 -0.40625971269279348 -0.36587953617857771 0 -0.42218579342164808 -0.36334977441807748 0 -0.40690054455725883 -0.35815659477868023 0 -0.41656514696884139 -0.37636588688318029 0 -0.40465459864295228 -0.37650109000307358 0 -0.40625971269279348 -0.36587953617857771 0 -0.40465459864295228 -0.37650109000307358 0 -0.40625971269279348 -0.36587953617857771 0 -0.3968495855878465 -0.36923685638487008 0 -0.40690054455725883 -0.35815659477868023 0 -0.40029228617445223 -0.36350286704594809 0 -0.3911593018599101 -0.36073848084166482 0 -0.40625971269279348 -0.36587953617857771 0 -0.40029228617445223 -0.36350286704594809 0 -0.3968495855878465 -0.36923685638487008 0 -0.40690054455725883 -0.35815659477868023 0 -0.40625971269279348 -0.36587953617857771 0 -0.40029228617445223 -0.36350286704594809 0 -0.3911593018599101 -0.36073848084166482 0 -0.3968495855878465 -0.36923685638487008 0 -0.38569326772338258 -0.37053454129240582 0 -0.40029228617445223 -0.36350286704594809 0 -0.3911593018599101 -0.36073848084166482 0 -0.3968495855878465 -0.36923685638487008 0 -0.39431275766669582 -0.38061373190328529 0 -0.3968495855878465 -0.36923685638487008 0 -0.38569326772338258 -0.37053454129240582 0 -0.3911593018599101 -0.36073848084166482 0 -0.38569326772338258 -0.37053454129240582 0 -0.37568472164775779 -0.36524225821647011 0 -0.37522403377147279 -0.38060127254172499 0 -0.38569326772338258 -0.37053454129240582 0 -0.37568472164775779 -0.36524225821647011 0 -0.3911593018599101 -0.36073848084166482 0 -0.37568472164775779 -0.36524225821647011 0 -0.38024887903539811 -0.3491016629308506 0 -0.40690054455725883 -0.35815659477868023 0 -0.3911593018599101 -0.36073848084166482 0 -0.38024887903539811 -0.3491016629308506 0 -0.40690054455725883 -0.35815659477868023 0 -0.38024887903539811 -0.3491016629308506 0 -0.39533213247953691 -0.34338662223350158 0 -0.40690054455725883 -0.35815659477868023 0 -0.39533213247953691 -0.34338662223350158 0 -0.40885114471262263 -0.334649070371968 0 -0.40690054455725883 -0.35815659477868023 0 -0.38024887903539811 -0.3491016629308506 0 -0.39533213247953691 -0.34338662223350158 0 -0.38532796161286798 -0.33163916085250739 0 -0.40885114471262263 -0.334649070371968 0 -0.38532796161286798 -0.33163916085250739 0 -0.40885114471262263 -0.334649070371968 0 -0.38024887903539811 -0.3491016629308506 0 -0.39533213247953691 -0.34338662223350158 0 -0.38532796161286798 -0.33163916085250739 0 -0.38024887903539811 -0.3491016629308506 0 -0.38532796161286798 -0.33163916085250739 0 -0.37024470816872912 -0.33735420154985679 0 -0.38532796161286798 -0.33163916085250739 0 -0.37601492727600683 -0.3197696392392384 0 -0.39293033406270472 -0.31505081143976649 0 -0.37601492727600683 -0.3197696392392384 0 -0.39293033406270472 -0.31505081143976649 0 -0.37651642550459341 -0.307078797330949 0 -0.38532796161286798 -0.33163916085250739 0 -0.39293033406270472 -0.31505081143976649 0 -0.40885114471262263 -0.334649070371968 0 -0.39293033406270472 -0.31505081143976649 0 -0.40885114471262263 -0.334649070371968 0 -0.41078846406037228 -0.3113015987101887 0 -0.40885114471262263 -0.334649070371968 0 -0.42554877913925399 -0.3223331804902434 0 -0.41078846406037228 -0.3113015987101887 0 -0.40885114471262263 -0.334649070371968 0 -0.41078846406037228 -0.3113015987101887 0 -0.42066840753926321 -0.34864312644900147 0 -0.40885114471262263 -0.334649070371968 0 -0.43521386225128428 -0.33802231259611382 0 -0.40885114471262263 -0.334649070371968 0 -0.43521386225128428 -0.33802231259611382 0 -0.40885114471262263 -0.334649070371968 0 -0.43521386225128428 -0.33802231259611382 0 -0.42554877913925399 -0.3223331804902434 0 -0.42554877913925399 -0.3223331804902434 0 -0.4314578060398388 -0.3048790663939604 0 -0.41078846406037228 -0.3113015987101887 0 -0.45018982867155483 -0.32180400573951162 0 -0.43521386225128428 -0.33802231259611382 0 -0.42554877913925399 -0.3223331804902434 0 -0.45018982867155483 -0.32180400573951162 0 -0.42554877913925399 -0.3223331804902434 0 -0.4314578060398388 -0.3048790663939604 0 -0.4476129789611048 -0.29283803371489903 0 -0.4314578060398388 -0.3048790663939604 0 -0.43236213870239748 -0.29002705800971151 0 -0.4314578060398388 -0.3048790663939604 0 -0.43236213870239748 -0.29002705800971151 0 -0.41272578340812272 -0.2879541270484095 0 -0.4314578060398388 -0.3048790663939604 0 -0.41272578340812272 -0.2879541270484095 0 -0.43765198640052377 -0.27443700488157741 0 -0.43236213870239748 -0.29002705800971151 0 -0.41272578340812272 -0.2879541270484095 0 -0.4314578060398388 -0.3048790663939604 0 -0.41272578340812272 -0.2879541270484095 0 -0.41078846406037228 -0.3113015987101887 0 -0.41272578340812272 -0.2879541270484095 0 -0.41078846406037228 -0.3113015987101887 0 -0.41272578340812272 -0.2879541270484095 0 -0.41078846406037228 -0.3113015987101887 0 -0.39233272698174793 -0.29435547039456872 0 -0.39293033406270472 -0.31505081143976649 0 -0.41078846406037228 -0.3113015987101887 0 -0.39233272698174793 -0.29435547039456872 0 -0.39293033406270472 -0.31505081143976649 0 -0.37651642550459341 -0.307078797330949 0 -0.39233272698174793 -0.29435547039456872 0 -0.39233272698174793 -0.29435547039456872 0 -0.39278725088820249 -0.26993907014966689 0 -0.37040839911066209 -0.28171057629616708 0 -0.37651642550459341 -0.307078797330949 0 -0.39233272698174793 -0.29435547039456872 0 -0.37040839911066209 -0.28171057629616708 0 -0.41272578340812272 -0.2879541270484095 0 -0.39233272698174793 -0.29435547039456872 0 -0.39278725088820249 -0.26993907014966689 0 -0.41272578340812272 -0.2879541270484095 0 -0.39278725088820249 -0.26993907014966689 0 -0.39278725088820249 -0.26993907014966689 0 -0.37040839911066209 -0.28171057629616708 0 -0.39278725088820249 -0.26993907014966689 0 -0.37533687834285862 -0.25417213976024849 0 -0.37040839911066209 -0.28171057629616708 0 -0.39278725088820249 -0.26993907014966689 0 -0.37533687834285862 -0.25417213976024849 0 -0.39826986996263802 -0.25360934065352753 0 -0.39278725088820249 -0.26993907014966689 0 -0.37533687834285862 -0.25417213976024849 0 -0.39278725088820249 -0.26993907014966689 0 -0.39826986996263802 -0.25360934065352753 0 -0.41519883225968468 -0.25815034790020708 0 -0.39278725088820249 -0.26993907014966689 0 -0.41519883225968468 -0.25815034790020708 0 -0.39826986996263802 -0.25360934065352753 0 -0.41519883225968468 -0.25815034790020708 0 -0.41615383063077721 -0.2466412503256647 0 -0.41519883225968468 -0.25815034790020708 0 -0.41615383063077721 -0.2466412503256647 0 -0.41272578340812272 -0.2879541270484095 0 -0.41519883225968468 -0.25815034790020708 0 -0.41272578340812272 -0.2879541270484095 0 -0.41519883225968468 -0.25815034790020708 0 -0.429874989515865 -0.26165756953837482 0 -0.41272578340812272 -0.2879541270484095 0 -0.39278725088820249 -0.26993907014966689 0 -0.41519883225968468 -0.25815034790020708 0 -0.43765198640052377 -0.27443700488157741 0 -0.41272578340812272 -0.2879541270484095 0 -0.429874989515865 -0.26165756953837482 0 -0.41519883225968468 -0.25815034790020708 0 -0.43598079583492633 -0.24721882136819351 0 -0.41519883225968468 -0.25815034790020708 0 -0.429874989515865 -0.26165756953837482 0 -0.43598079583492633 -0.24721882136819351 0 -0.41519883225968468 -0.25815034790020708 0 -0.43598079583492633 -0.24721882136819351 0 -0.41615383063077721 -0.2466412503256647 0 -0.31968345090478489 -0.25798973640781447 0 -0.33623326073948312 -0.25365348176558788 0 -0.32213598881581812 -0.2442700999577708 0 -0.31968345090478489 -0.25798973640781447 0 -0.31319680135340772 -0.27337899374224139 0 -0.30564385326437488 -0.26015983685037081 0 -0.31968345090478489 -0.25798973640781447 0 -0.31319680135340772 -0.27337899374224139 0 -0.33256675641106698 -0.27199424518209242 0 -0.31319680135340772 -0.27337899374224139 0 -0.33256675641106698 -0.27199424518209242 0 -0.3219330120753135 -0.28752383142540722 0 -0.33256675641106698 -0.27199424518209242 0 -0.33623326073948312 -0.25365348176558788 0 -0.35329637777243872 -0.26495799818728782 0 -0.31968345090478489 -0.25798973640781447 0 -0.33256675641106698 -0.27199424518209242 0 -0.33623326073948312 -0.25365348176558788 0 -0.33623326073948312 -0.25365348176558788 0 -0.35329637777243872 -0.26495799818728782 0 -0.35305879752332059 -0.24486073726717009 0 -0.37533687834285862 -0.25417213976024849 0 -0.35329637777243872 -0.26495799818728782 0 -0.35305879752332059 -0.24486073726717009 0 -0.37533687834285862 -0.25417213976024849 0 -0.35329637777243872 -0.26495799818728782 0 -0.37040839911066209 -0.28171057629616708 0 -0.35329637777243872 -0.26495799818728782 0 -0.34802954733312141 -0.29348208244266671 0 -0.37040839911066209 -0.28171057629616708 0 -0.33256675641106698 -0.27199424518209242 0 -0.35329637777243872 -0.26495799818728782 0 -0.34802954733312141 -0.29348208244266671 0 -0.34802954733312141 -0.29348208244266671 0 -0.37040839911066209 -0.28171057629616708 0 -0.37651642550459341 -0.307078797330949 0 -0.37040839911066209 -0.28171057629616708 0 -0.36249180620921062 -0.30132401124355712 0 -0.34802954733312141 -0.29348208244266671 0 -0.37040839911066209 -0.28171057629616708 0 -0.36249180620921062 -0.30132401124355712 0 -0.37651642550459341 -0.307078797330949 0 -0.36249180620921062 -0.30132401124355712 0 -0.36514172279026702 -0.314674684486903 0 -0.36249180620921062 -0.30132401124355712 0 -0.35217384865543538 -0.31302074178168637 0 -0.36514172279026702 -0.314674684486903 0 -0.34802954733312141 -0.29348208244266671 0 -0.33894022777705518 -0.31261958861733652 0 -0.35217384865543538 -0.31302074178168637 0 -0.34802954733312141 -0.29348208244266671 0 -0.36249180620921062 -0.30132401124355712 0 -0.35217384865543538 -0.31302074178168637 0 -0.34802954733312141 -0.29348208244266671 0 -0.32565069555558063 -0.30525358858916618 0 -0.33894022777705518 -0.31261958861733652 0 -0.34802954733312141 -0.29348208244266671 0 -0.32565069555558063 -0.30525358858916618 0 -0.32565069555558063 -0.30525358858916618 0 -0.32940773276489932 -0.31652548782855527 0 -0.33894022777705518 -0.31261958861733652 0 -0.33256675641106698 -0.27199424518209242 0 -0.34802954733312141 -0.29348208244266671 0 -0.3219330120753135 -0.28752383142540722 0 -0.34802954733312141 -0.29348208244266671 0 -0.3219330120753135 -0.28752383142540722 0 -0.32565069555558063 -0.30525358858916618 0 -0.3219330120753135 -0.28752383142540722 0 -0.31228269981280887 -0.29918463989613459 0 -0.30483638085835207 -0.28788342401786787 0 -0.31319680135340772 -0.27337899374224139 0 -0.3219330120753135 -0.28752383142540722 0 -0.30483638085835207 -0.28788342401786787 0 -0.32565069555558063 -0.30525358858916618 0 -0.30327184377803978 -0.31702509473566581 0 -0.31228269981280887 -0.29918463989613459 0 -0.3219330120753135 -0.28752383142540722 0 -0.32565069555558063 -0.30525358858916618 0 -0.31228269981280887 -0.29918463989613459 0 -0.32565069555558063 -0.30525358858916618 0 -0.30327184377803978 -0.31702509473566581 0 -0.31475841231360341 -0.32260943229412947 0 -0.32694554799167658 -0.33099179923519167 0 -0.33828159541335823 -0.32561934181358893 0 -0.32565069555558063 -0.30525358858916618 0 -0.31475841231360341 -0.32260943229412947 0 -0.30327184377803978 -0.31702509473566581 0 -0.31475841231360341 -0.32260943229412947 0 -0.33828159541335823 -0.32561934181358893 0 -0.32940773276489932 -0.31652548782855527 0 -0.32565069555558063 -0.30525358858916618 0 -0.31475841231360341 -0.32260943229412947 0 -0.32940773276489932 -0.31652548782855527 0 -0.31475841231360341 -0.32260943229412947 0 -0.33828159541335823 -0.32561934181358893 0 -0.31475841231360341 -0.32260943229412947 0 -0.31372637242327511 -0.33497634201883658 0 -0.32694554799167658 -0.33099179923519167 0 -0.32694554799167658 -0.33099179923519167 0 -0.32737612656656928 -0.35021722948502532 0 -0.3170311031704231 -0.34491623006635341 0 -0.31372637242327511 -0.33497634201883658 0 -0.32694554799167658 -0.33099179923519167 0 -0.3170311031704231 -0.34491623006635341 0 -0.31372637242327511 -0.33497634201883658 0 -0.3170311031704231 -0.34491623006635341 0 -0.30849554643820359 -0.34481279163420842 0 -0.32694554799167658 -0.33099179923519167 0 -0.33828159541335823 -0.32561934181358893 0 -0.35359721351353718 -0.34004673108302108 0 -0.32694554799167658 -0.33099179923519167 0 -0.35359721351353718 -0.34004673108302108 0 -0.33765025977867152 -0.34480892108230998 0 -0.32694554799167658 -0.33099179923519167 0 -0.35359721351353718 -0.34004673108302108 0 -0.32694554799167658 -0.33099179923519167 0 -0.33765025977867152 -0.34480892108230998 0 -0.32737612656656928 -0.35021722948502532 0 -0.33828159541335823 -0.32561934181358893 0 -0.32940773276489932 -0.31652548782855527 0 -0.33894022777705518 -0.31261958861733652 0 -0.33828159541335823 -0.32561934181358893 0 -0.33894022777705518 -0.31261958861733652 0 -0.35217384865543538 -0.31302074178168637 0 -0.33828159541335823 -0.32561934181358893 0 -0.3618047785131131 -0.32862925133304821 0 -0.33828159541335823 -0.32561934181358893 0 -0.35217384865543538 -0.31302074178168637 0 -0.3618047785131131 -0.32862925133304821 0 -0.38532796161286798 -0.33163916085250739 0 -0.37601492727600683 -0.3197696392392384 0 -0.3618047785131131 -0.32862925133304821 0 -0.35217384865543538 -0.31302074178168637 0 -0.36514172279026702 -0.314674684486903 0 -0.3618047785131131 -0.32862925133304821 0 -0.37601492727600683 -0.3197696392392384 0 -0.36514172279026702 -0.314674684486903 0 -0.3618047785131131 -0.32862925133304821 0 -0.37601492727600683 -0.3197696392392384 0 -0.37651642550459341 -0.307078797330949 0 -0.36514172279026702 -0.314674684486903 0 -0.38532796161286798 -0.33163916085250739 0 -0.37024470816872912 -0.33735420154985679 0 -0.3618047785131131 -0.32862925133304821 0 -0.37024470816872912 -0.33735420154985679 0 -0.3618047785131131 -0.32862925133304821 0 -0.35359721351353718 -0.34004673108302108 0 -0.38532796161286798 -0.33163916085250739 0 -0.3618047785131131 -0.32862925133304821 0 -0.38024887903539811 -0.3491016629308506 0 -0.37024470816872912 -0.33735420154985679 0 -0.35359721351353718 -0.34004673108302108 0 -0.33828159541335823 -0.32561934181358893 0 -0.3618047785131131 -0.32862925133304821 0 -0.35359721351353718 -0.34004673108302108 0 -0.35359721351353718 -0.34004673108302108 0 -0.36247207576052709 -0.35740109745143939 0 -0.34268215104290278 -0.35797992452600158 0 -0.35359721351353718 -0.34004673108302108 0 -0.34268215104290278 -0.35797992452600158 0 -0.33765025977867152 -0.34480892108230998 0 -0.37568472164775779 -0.36524225821647011 0 -0.38024887903539811 -0.3491016629308506 0 -0.36247207576052709 -0.35740109745143939 0 -0.38024887903539811 -0.3491016629308506 0 -0.35359721351353718 -0.34004673108302108 0 -0.36247207576052709 -0.35740109745143939 0 -0.38024887903539811 -0.3491016629308506 0 -0.35359721351353718 -0.34004673108302108 0 -0.37522403377147279 -0.38060127254172499 0 -0.37568472164775779 -0.36524225821647011 0 -0.35964608014779109 -0.37334112637938882 0 -0.37568472164775779 -0.36524225821647011 0 -0.36247207576052709 -0.35740109745143939 0 -0.35964608014779109 -0.37334112637938882 0 -0.36247207576052709 -0.35740109745143939 0 -0.35964608014779109 -0.37334112637938882 0 -0.34268215104290278 -0.35797992452600158 0 -0.35964608014779109 -0.37334112637938882 0 -0.34268215104290278 -0.35797992452600158 0 -0.34254000635277743 -0.38197763020755832 0 -0.34268215104290278 -0.35797992452600158 0 -0.32737612656656928 -0.35021722948502532 0 -0.32270418411731933 -0.37181077970513959 0 -0.34268215104290278 -0.35797992452600158 0 -0.32270418411731933 -0.37181077970513959 0 -0.34254000635277743 -0.38197763020755832 0 -0.34268215104290278 -0.35797992452600158 0 -0.34254000635277743 -0.38197763020755832 0 -0.34268215104290278 -0.35797992452600158 0 -0.33765025977867152 -0.34480892108230998 0 -0.32737612656656928 -0.35021722948502532 0 -0.32737612656656928 -0.35021722948502532 0 -0.31662274924076123 -0.35606216629487569 0 -0.32270418411731933 -0.37181077970513959 0 -0.32737612656656928 -0.35021722948502532 0 -0.3170311031704231 -0.34491623006635341 0 -0.31662274924076123 -0.35606216629487569 0 -0.3170311031704231 -0.34491623006635341 0 -0.31662274924076123 -0.35606216629487569 0 -0.30902027636205309 -0.35243705172998302 0 -0.31662274924076123 -0.35606216629487569 0 -0.32270418411731933 -0.37181077970513959 0 -0.30796050174877349 -0.36016317053514468 0 -0.32270418411731933 -0.37181077970513959 0 -0.29719619905707523 -0.36594012765828582 0 -0.30796050174877349 -0.36016317053514468 0 -0.32270418411731933 -0.37181077970513959 0 -0.29719619905707523 -0.36594012765828582 0 -0.3103864423796594 -0.37828470113645102 0 -0.32270418411731933 -0.37181077970513959 0 -0.29719619905707523 -0.36594012765828582 0 -0.29719619905707523 -0.36594012765828582 0 -0.29943295026653399 -0.35953932364306618 0 -0.30796050174877349 -0.36016317053514468 0 -0.29719619905707523 -0.36594012765828582 0 -0.29584447723995128 -0.37444813956539807 0 -0.3103864423796594 -0.37828470113645102 0 -0.31662274924076123 -0.35606216629487569 0 -0.30796050174877349 -0.36016317053514468 0 -0.30902027636205309 -0.35243705172998302 0 -0.30796050174877349 -0.36016317053514468 0 -0.30902027636205309 -0.35243705172998302 0 -0.30278665144889838 -0.35518957417951802 0 -0.3170311031704231 -0.34491623006635341 0 -0.30902027636205309 -0.35243705172998302 0 -0.30849554643820359 -0.34481279163420842 0 -0.30902027636205309 -0.35243705172998302 0 -0.30849554643820359 -0.34481279163420842 0 -0.30076474035813339 -0.34759465108555682 0 -0.30849554643820359 -0.34481279163420842 0 -0.30076474035813339 -0.34759465108555682 0 -0.30398917998114899 -0.33934800480643368 0 -0.30902027636205309 -0.35243705172998302 0 -0.30076474035813339 -0.34759465108555682 0 -0.30278665144889838 -0.35518957417951802 0 -0.29943295026653399 -0.35953932364306618 0 -0.30796050174877349 -0.36016317053514468 0 -0.30278665144889838 -0.35518957417951802 0 -0.30076474035813339 -0.34759465108555682 0 -0.30278665144889838 -0.35518957417951802 0 -0.29719830368448108 -0.35301728683459582 0 -0.29943295026653399 -0.35953932364306618 0 -0.30278665144889838 -0.35518957417951802 0 -0.29719830368448108 -0.35301728683459582 0 -0.29943295026653399 -0.35953932364306618 0 -0.29719830368448108 -0.35301728683459582 0 -0.29016743694869812 -0.35649807524262711 0 -0.29016743694869812 -0.35649807524262711 0 -0.28284547851944208 -0.35047845284871731 0 -0.27168821399683141 -0.36006947561143121 0 -0.29719830368448108 -0.35301728683459582 0 -0.29016743694869812 -0.35649807524262711 0 -0.2925915294609488 -0.34919256188026188 0 -0.2925915294609488 -0.34919256188026188 0 -0.28611540962297188 -0.3426453659285974 0 -0.29619358151489988 -0.34015641309103278 0 -0.30076474035813339 -0.34759465108555682 0 -0.29719830368448108 -0.35301728683459582 0 -0.2925915294609488 -0.34919256188026188 0 -0.30076474035813339 -0.34759465108555682 0 -0.2925915294609488 -0.34919256188026188 0 -0.29619358151489988 -0.34015641309103278 0 -0.2925915294609488 -0.34919256188026188 0 -0.28284547851944208 -0.35047845284871731 0 -0.28611540962297188 -0.3426453659285974 0 -0.28284547851944208 -0.35047845284871731 0 -0.27676447355633299 -0.3457480812413124 0 -0.28611540962297188 -0.3426453659285974 0 -0.29016743694869812 -0.35649807524262711 0 -0.2925915294609488 -0.34919256188026188 0 -0.28284547851944208 -0.35047845284871731 0 -0.29202770366946113 -0.36668513997228358 0 -0.27168821399683141 -0.36006947561143121 0 -0.28307956849111848 -0.3828068929804474 0 -0.29719619905707523 -0.36594012765828582 0 -0.27168821399683141 -0.36006947561143121 0 -0.29202770366946113 -0.36668513997228358 0 -0.28307956849111848 -0.3828068929804474 0 -0.29202770366946113 -0.36668513997228358 0 -0.29584447723995128 -0.37444813956539807 0 -0.28307956849111848 -0.3828068929804474 0 -0.29719619905707523 -0.36594012765828582 0 -0.29016743694869812 -0.35649807524262711 0 -0.27168821399683141 -0.36006947561143121 0 -0.29719619905707523 -0.36594012765828582 0 -0.29202770366946113 -0.36668513997228358 0 -0.27168821399683141 -0.36006947561143121 0 -0.29719619905707523 -0.36594012765828582 0 -0.29943295026653399 -0.35953932364306618 0 -0.29016743694869812 -0.35649807524262711 0 -0.29719619905707523 -0.36594012765828582 0 -0.29202770366946113 -0.36668513997228358 0 -0.29584447723995128 -0.37444813956539807 0 -0.27168821399683141 -0.36006947561143121 0 -0.28307956849111848 -0.3828068929804474 0 -0.27168821399683141 -0.36006947561143121 0 -0.28307956849111848 -0.3828068929804474 0 -0.26050234447883253 -0.38027693877573482 0 -0.27168821399683141 -0.36006947561143121 0 -0.25721723303835431 -0.36623646057876708 0 -0.26050234447883253 -0.38027693877573482 0 -0.27168821399683141 -0.36006947561143121 0 -0.25721723303835431 -0.36623646057876708 0 -0.24850069890613241 -0.35473287875334369 0 -0.25721723303835431 -0.36623646057876708 0 -0.24817767477162081 -0.36986654917455902 0 -0.24850069890613241 -0.35473287875334369 0 -0.25721723303835431 -0.36623646057876708 0 -0.26050234447883253 -0.38027693877573482 0 -0.24817767477162081 -0.36986654917455902 0 -0.27168821399683141 -0.36006947561143121 0 -0.25445926970156468 -0.34270101061729968 0 -0.24850069890613241 -0.35473287875334369 0 -0.27168821399683141 -0.36006947561143121 0 -0.26120815563270988 -0.3391510272218049 0 -0.25445926970156468 -0.34270101061729968 0 -0.27168821399683141 -0.36006947561143121 0 -0.24850069890613241 -0.35473287875334369 0 -0.27168821399683141 -0.36006947561143121 0 -0.27676447355633299 -0.3457480812413124 0 -0.26120815563270988 -0.3391510272218049 0 -0.27168821399683141 -0.36006947561143121 0 -0.26120815563270988 -0.3391510272218049 0 -0.28284547851944208 -0.35047845284871731 0 -0.27168821399683141 -0.36006947561143121 0 -0.27676447355633299 -0.3457480812413124 0 -0.27676447355633299 -0.3457480812413124 0 -0.27858368134566353 -0.33798527866036399 0 -0.28611540962297188 -0.3426453659285974 0 -0.27676447355633299 -0.3457480812413124 0 -0.27858368134566353 -0.33798527866036399 0 -0.26120815563270988 -0.3391510272218049 0 -0.28089299200049878 -0.32879660088216478 0 -0.26120815563270988 -0.3391510272218049 0 -0.28089299200049878 -0.32879660088216478 0 -0.26120815563270988 -0.3391510272218049 0 -0.26730676106940449 -0.32685643845792262 0 -0.27858368134566353 -0.33798527866036399 0 -0.28089299200049878 -0.32879660088216478 0 -0.26120815563270988 -0.3391510272218049 0 -0.26120815563270988 -0.3391510272218049 0 -0.26057751607960811 -0.32279583566460812 0 -0.26730676106940449 -0.32685643845792262 0 -0.26120815563270988 -0.3391510272218049 0 -0.25273748935779161 -0.32224337373924072 0 -0.26120815563270988 -0.3391510272218049 0 -0.25207330520806498 -0.33378255792528982 0 -0.25273748935779161 -0.32224337373924072 0 -0.26120815563270988 -0.3391510272218049 0 -0.25445926970156468 -0.34270101061729968 0 -0.25207330520806498 -0.33378255792528982 0 -0.25445926970156468 -0.34270101061729968 0 -0.2460450098649074 -0.33743905859998191 0 -0.26120815563270988 -0.3391510272218049 0 -0.25207330520806498 -0.33378255792528982 0 -0.25445926970156468 -0.34270101061729968 0 -0.25273748935779161 -0.32224337373924072 0 -0.26050456352867191 -0.3149367065078193 0 -0.24426682308287331 -0.30533572025667649 0 -0.26120815563270988 -0.3391510272218049 0 -0.25273748935779161 -0.32224337373924072 0 -0.26057751607960811 -0.32279583566460812 0 -0.26057751607960811 -0.32279583566460812 0 -0.26050456352867191 -0.3149367065078193 0 -0.26730676106940449 -0.32685643845792262 0 -0.25273748935779161 -0.32224337373924072 0 -0.26057751607960811 -0.32279583566460812 0 -0.26050456352867191 -0.3149367065078193 0 -0.28089299200049878 -0.32879660088216478 0 -0.26050456352867191 -0.3149367065078193 0 -0.27445713665833338 -0.31633796571173628 0 -0.28089299200049878 -0.32879660088216478 0 -0.26050456352867191 -0.3149367065078193 0 -0.26050456352867191 -0.3149367065078193 0 -0.27445713665833338 -0.31633796571173628 0 -0.26793999894844561 -0.31004618489902153 0 -0.28089299200049878 -0.32879660088216478 0 -0.26050456352867191 -0.3149367065078193 0 -0.26730676106940449 -0.32685643845792262 0 -0.28089299200049878 -0.32879660088216478 0 -0.27445713665833338 -0.31633796571173628 0 -0.28125105682705043 -0.31976055402590231 0 -0.27445713665833338 -0.31633796571173628 0 -0.28252008875028978 -0.31254235777143202 0 -0.28125105682705043 -0.31976055402590231 0 -0.28252008875028978 -0.31254235777143202 0 -0.28823329624350208 -0.31711313423980658 0 -0.29327146190654751 -0.30876504511160502 0 -0.28089299200049878 -0.32879660088216478 0 -0.28823329624350208 -0.31711313423980658 0 -0.30327184377803978 -0.31702509473566581 0 -0.28089299200049878 -0.32879660088216478 0 -0.29457520052377689 -0.33013191680287202 0 -0.30327184377803978 -0.31702509473566581 0 -0.28089299200049878 -0.32879660088216478 0 -0.30327184377803978 -0.31702509473566581 0 -0.28252008875028978 -0.31254235777143202 0 -0.28125105682705043 -0.31976055402590231 0 -0.28823329624350208 -0.31711313423980658 0 -0.28823329624350208 -0.31711313423980658 0 -0.30327184377803978 -0.31702509473566581 0 -0.29327146190654751 -0.30876504511160502 0 -0.28089299200049878 -0.32879660088216478 0 -0.28125105682705043 -0.31976055402590231 0 -0.28823329624350208 -0.31711313423980658 0 -0.28089299200049878 -0.32879660088216478 0 -0.28793737591580382 -0.33358531802794061 0 -0.27858368134566353 -0.33798527866036399 0 -0.28089299200049878 -0.32879660088216478 0 -0.28793737591580382 -0.33358531802794061 0 -0.28089299200049878 -0.32879660088216478 0 -0.28793737591580382 -0.33358531802794061 0 -0.29457520052377689 -0.33013191680287202 0 -0.27858368134566353 -0.33798527866036399 0 -0.28793737591580382 -0.33358531802794061 0 -0.28611540962297188 -0.3426453659285974 0 -0.28793737591580382 -0.33358531802794061 0 -0.28611540962297188 -0.3426453659285974 0 -0.29619358151489988 -0.34015641309103278 0 -0.28793737591580382 -0.33358531802794061 0 -0.29619358151489988 -0.34015641309103278 0 -0.29457520052377689 -0.33013191680287202 0 -0.29619358151489988 -0.34015641309103278 0 -0.29457520052377689 -0.33013191680287202 0 -0.30458020940964259 -0.3310961572775562 0 -0.30076474035813339 -0.34759465108555682 0 -0.29619358151489988 -0.34015641309103278 0 -0.30398917998114899 -0.33934800480643368 0 -0.29619358151489988 -0.34015641309103278 0 -0.30458020940964259 -0.3310961572775562 0 -0.30398917998114899 -0.33934800480643368 0 -0.31372637242327511 -0.33497634201883658 0 -0.30849554643820359 -0.34481279163420842 0 -0.30398917998114899 -0.33934800480643368 0 -0.31475841231360341 -0.32260943229412947 0 -0.31372637242327511 -0.33497634201883658 0 -0.30458020940964259 -0.3310961572775562 0 -0.31372637242327511 -0.33497634201883658 0 -0.30458020940964259 -0.3310961572775562 0 -0.30398917998114899 -0.33934800480643368 0 -0.31475841231360341 -0.32260943229412947 0 -0.30458020940964259 -0.3310961572775562 0 -0.30327184377803978 -0.31702509473566581 0 -0.29457520052377689 -0.33013191680287202 0 -0.30458020940964259 -0.3310961572775562 0 -0.30327184377803978 -0.31702509473566581 0 -0.30327184377803978 -0.31702509473566581 0 -0.30068554560480582 -0.30112982209441241 0 -0.31228269981280887 -0.29918463989613459 0 -0.30327184377803978 -0.31702509473566581 0 -0.30068554560480582 -0.30112982209441241 0 -0.29327146190654751 -0.30876504511160502 0 -0.30068554560480582 -0.30112982209441241 0 -0.30483638085835207 -0.28788342401786787 0 -0.28888361246081401 -0.29493054457851903 0 -0.30068554560480582 -0.30112982209441241 0 -0.31228269981280887 -0.29918463989613459 0 -0.30483638085835207 -0.28788342401786787 0 -0.28888361246081401 -0.29493054457851903 0 -0.28078806465599399 -0.28300047521785149 0 -0.29451735460655398 -0.27472288856989607 0 -0.30483638085835207 -0.28788342401786787 0 -0.28888361246081401 -0.29493054457851903 0 -0.29451735460655398 -0.27472288856989607 0 -0.28888361246081401 -0.29493054457851903 0 -0.28295382644196537 -0.3038897035906043 0 -0.27388309143310768 -0.29511411685975181 0 -0.28888361246081401 -0.29493054457851903 0 -0.28295382644196537 -0.3038897035906043 0 -0.29327146190654751 -0.30876504511160502 0 -0.30068554560480582 -0.30112982209441241 0 -0.28888361246081401 -0.29493054457851903 0 -0.29327146190654751 -0.30876504511160502 0 -0.28252008875028978 -0.31254235777143202 0 -0.28295382644196537 -0.3038897035906043 0 -0.29327146190654751 -0.30876504511160502 0 -0.27445713665833338 -0.31633796571173628 0 -0.28252008875028978 -0.31254235777143202 0 -0.27524002690986649 -0.30828041126704497 0 -0.28252008875028978 -0.31254235777143202 0 -0.28295382644196537 -0.3038897035906043 0 -0.27524002690986649 -0.30828041126704497 0 -0.28295382644196537 -0.3038897035906043 0 -0.27524002690986649 -0.30828041126704497 0 -0.27388309143310768 -0.29511411685975181 0 -0.26808679199009749 -0.30362992927208171 0 -0.26252268864995981 -0.29761987486456531 0 -0.27388309143310768 -0.29511411685975181 0 -0.27524002690986649 -0.30828041126704497 0 -0.26808679199009749 -0.30362992927208171 0 -0.27388309143310768 -0.29511411685975181 0 -0.27445713665833338 -0.31633796571173628 0 -0.27524002690986649 -0.30828041126704497 0 -0.26793999894844561 -0.31004618489902153 0 -0.27524002690986649 -0.30828041126704497 0 -0.26808679199009749 -0.30362992927208171 0 -0.26793999894844561 -0.31004618489902153 0 -0.26808679199009749 -0.30362992927208171 0 -0.26793999894844561 -0.31004618489902153 0 -0.26278193746552841 -0.30551063084933561 0 -0.26050456352867191 -0.3149367065078193 0 -0.25485564421046719 -0.30132045870319019 0 -0.24011613505684479 -0.30107681213347393 0 -0.26050456352867191 -0.3149367065078193 0 -0.24011613505684479 -0.30107681213347393 0 -0.26050456352867191 -0.3149367065078193 0 -0.26278193746552841 -0.30551063084933561 0 -0.25485564421046719 -0.30132045870319019 0 -0.26050456352867191 -0.3149367065078193 0 -0.26793999894844561 -0.31004618489902153 0 -0.26278193746552841 -0.30551063084933561 0 -0.26278193746552841 -0.30551063084933561 0 -0.26252268864995981 -0.29761987486456531 0 -0.25485564421046719 -0.30132045870319019 0 -0.26252268864995981 -0.29761987486456531 0 -0.25485564421046719 -0.30132045870319019 0 -0.2567143935458242 -0.29223768812186002 0 -0.26808679199009749 -0.30362992927208171 0 -0.26278193746552841 -0.30551063084933561 0 -0.26252268864995981 -0.29761987486456531 0 -0.25608276685525683 -0.28295324223861612 0 -0.2567143935458242 -0.29223768812186002 0 -0.24732420154209239 -0.29033586459568173 0 -0.25485564421046719 -0.30132045870319019 0 -0.2567143935458242 -0.29223768812186002 0 -0.24732420154209239 -0.29033586459568173 0 -0.26252268864995981 -0.29761987486456531 0 -0.2567143935458242 -0.29223768812186002 0 -0.26350989061834318 -0.28909490770035701 0 -0.25608276685525683 -0.28295324223861612 0 -0.26350989061834318 -0.28909490770035701 0 -0.26907982973782107 -0.2804670883869903 0 -0.25608276685525683 -0.28295324223861612 0 -0.2567143935458242 -0.29223768812186002 0 -0.26350989061834318 -0.28909490770035701 0 -0.26350989061834318 -0.28909490770035701 0 -0.27388309143310768 -0.29511411685975181 0 -0.26907982973782107 -0.2804670883869903 0 -0.26252268864995981 -0.29761987486456531 0 -0.26350989061834318 -0.28909490770035701 0 -0.27388309143310768 -0.29511411685975181 0 -0.28888361246081401 -0.29493054457851903 0 -0.27388309143310768 -0.29511411685975181 0 -0.28078806465599399 -0.28300047521785149 0 -0.27388309143310768 -0.29511411685975181 0 -0.28078806465599399 -0.28300047521785149 0 -0.26907982973782107 -0.2804670883869903 0 -0.27772768471542669 -0.26767482265106679 0 -0.26907982973782107 -0.2804670883869903 0 -0.25958550566062261 -0.27102626557679149 0 -0.28078806465599399 -0.28300047521785149 0 -0.27772768471542669 -0.26767482265106679 0 -0.26907982973782107 -0.2804670883869903 0 -0.25608276685525683 -0.28295324223861612 0 -0.26907982973782107 -0.2804670883869903 0 -0.25958550566062261 -0.27102626557679149 0 -0.25608276685525683 -0.28295324223861612 0 -0.25958550566062261 -0.27102626557679149 0 -0.2444485511135471 -0.27534046621033159 0 -0.26398002587916253 -0.25656090854441049 0 -0.24465976002352091 -0.25387891845332877 0 -0.25992972331208369 -0.2410680052130979 0 -0.25958550566062261 -0.27102626557679149 0 -0.26398002587916253 -0.25656090854441049 0 -0.24465976002352091 -0.25387891845332877 0 -0.27772768471542669 -0.26767482265106679 0 -0.26398002587916253 -0.25656090854441049 0 -0.27722523139620658 -0.24922189107985179 0 -0.27772768471542669 -0.26767482265106679 0 -0.25958550566062261 -0.27102626557679149 0 -0.26398002587916253 -0.25656090854441049 0 -0.27772768471542669 -0.26767482265106679 0 -0.29131753467172561 -0.25675805269722002 0 -0.27722523139620658 -0.24922189107985179 0 -0.28078806465599399 -0.28300047521785149 0 -0.27772768471542669 -0.26767482265106679 0 -0.29451735460655398 -0.27472288856989607 0 -0.27772768471542669 -0.26767482265106679 0 -0.29131753467172561 -0.25675805269722002 0 -0.29451735460655398 -0.27472288856989607 0 -0.31319680135340772 -0.27337899374224139 0 -0.29451735460655398 -0.27472288856989607 0 -0.30564385326437488 -0.26015983685037081 0 -0.31319680135340772 -0.27337899374224139 0 -0.30483638085835207 -0.28788342401786787 0 -0.29451735460655398 -0.27472288856989607 0 -0.29131753467172561 -0.25675805269722002 0 -0.29451735460655398 -0.27472288856989607 0 -0.30564385326437488 -0.26015983685037081 0 -0.29131753467172561 -0.25675805269722002 0 -0.30564385326437488 -0.26015983685037081 0 -0.30769212114973271 -0.24578220261295139 0 -0.31968345090478489 -0.25798973640781447 0 -0.30564385326437488 -0.26015983685037081 0 -0.30769212114973271 -0.24578220261295139 0 -0.34207866423036198 -0.45986413066326443 0 -0.33141508850449702 -0.45187214799378478 0 -0.32594289259428999 -0.46085836632795257 0 -0.34207866423036198 -0.45986413066326443 0 -0.32594289259428999 -0.46085836632795257 0 -0.33264581849560632 -0.47431014716802089 0 -0.34207866423036198 -0.45986413066326443 0 -0.34225571697252682 -0.42997304157067162 0 -0.34207866423036198 -0.45986413066326443 0 -0.33358626016413989 -0.44229992863572659 0 -0.33141508850449702 -0.45187214799378478 0 -0.34207866423036198 -0.45986413066326443 0 -0.33358626016413989 -0.44229992863572659 0 -0.34225571697252682 -0.42997304157067162 0 -0.33358626016413989 -0.44229992863572659 0 -0.33141508850449702 -0.45187214799378478 0 -0.32300139100864811 -0.44723989508536771 0 -0.33358626016413989 -0.44229992863572659 0 -0.32300139100864811 -0.44723989508536771 0 -0.32413493920603592 -0.43586432580396972 0 -0.32300139100864811 -0.44723989508536771 0 -0.31385630152515048 -0.44199725430357722 0 -0.32413493920603592 -0.43586432580396972 0 -0.32300139100864811 -0.44723989508536771 0 -0.31385630152515048 -0.44199725430357722 0 -0.31044958537109257 -0.45255960714027171 0 -0.32594289259428999 -0.46085836632795257 0 -0.31333683559556219 -0.46686726284272168 0 -0.31044958537109257 -0.45255960714027171 0 -0.32594289259428999 -0.46085836632795257 0 -0.31333683559556219 -0.46686726284272168 0 -0.32224857144892449 -0.47649828689453749 0 -0.32300139100864811 -0.44723989508536771 0 -0.32594289259428999 -0.46085836632795257 0 -0.31044958537109257 -0.45255960714027171 0 -0.33141508850449702 -0.45187214799378478 0 -0.32300139100864811 -0.44723989508536771 0 -0.32594289259428999 -0.46085836632795257 0 -0.31333683559556219 -0.46686726284272168 0 -0.32224857144892449 -0.47649828689453749 0 -0.30503152439861497 -0.48190266549989857 0 -0.32224857144892449 -0.47649828689453749 0 -0.32279626626388608 -0.48781718170045291 0 -0.30503152439861497 -0.48190266549989857 0 -0.32594289259428999 -0.46085836632795257 0 -0.32224857144892449 -0.47649828689453749 0 -0.33264581849560632 -0.47431014716802089 0 -0.32224857144892449 -0.47649828689453749 0 -0.32279626626388608 -0.48781718170045291 0 -0.33105735271625752 -0.4845747321984929 0 -0.32006214434654462 -0.5 0 -0.32279626626388608 -0.48781718170045291 0 -0.30503152439861497 -0.48190266549989857 0 -0.32006214434654462 -0.5 0 -0.32279626626388608 -0.48781718170045291 0 -0.33558173840908911 -0.49611022390933512 0 -0.32006214434654462 -0.5 0 -0.33558173840908911 -0.49611022390933512 0 -0.34657288766042038 -0.5 0 -0.33558173840908911 -0.49611022390933512 0 -0.34190161148819742 -0.48975521975585701 0 -0.35306908662498632 -0.4951847935385878 0 -0.32279626626388608 -0.48781718170045291 0 -0.33558173840908911 -0.49611022390933512 0 -0.33105735271625752 -0.4845747321984929 0 -0.33558173840908911 -0.49611022390933512 0 -0.33105735271625752 -0.4845747321984929 0 -0.34190161148819742 -0.48975521975585701 0 -0.34207866423036198 -0.45986413066326443 0 -0.34190161148819742 -0.48975521975585701 0 -0.34207866423036198 -0.45986413066326443 0 -0.34190161148819742 -0.48975521975585701 0 -0.33264581849560632 -0.47431014716802089 0 -0.33105735271625752 -0.4845747321984929 0 -0.34190161148819742 -0.48975521975585701 0 -0.33264581849560632 -0.47431014716802089 0 -0.32224857144892449 -0.47649828689453749 0 -0.33105735271625752 -0.4845747321984929 0 -0.33264581849560632 -0.47431014716802089 0 -0.34190161148819742 -0.48975521975585701 0 -0.35001641252228072 -0.47142734906239081 0 -0.35328963507943428 -0.48328499015431992 0 -0.34207866423036198 -0.45986413066326443 0 -0.34190161148819742 -0.48975521975585701 0 -0.35001641252228072 -0.47142734906239081 0 -0.35328963507943428 -0.48328499015431992 0 -0.35950950469085041 -0.48638993404071668 0 -0.36112286221809747 -0.47283058930211808 0 -0.35001641252228072 -0.47142734906239081 0 -0.35328963507943428 -0.48328499015431992 0 -0.36112286221809747 -0.47283058930211808 0 -0.33558173840908911 -0.49611022390933512 0 -0.35306908662498632 -0.4951847935385878 0 -0.33558173840908911 -0.49611022390933512 0 -0.34657288766042038 -0.5 0 -0.35306908662498632 -0.4951847935385878 0 -0.34657288766042038 -0.5 0 -0.35306908662498632 -0.4951847935385878 0 -0.37308363097429631 -0.50000000000000244 0 -0.34190161148819742 -0.48975521975585701 0 -0.35328963507943428 -0.48328499015431992 0 -0.35306908662498632 -0.4951847935385878 0 -0.35328963507943428 -0.48328499015431992 0 -0.35306908662498632 -0.4951847935385878 0 -0.35950950469085041 -0.48638993404071668 0 -0.35306908662498632 -0.4951847935385878 0 -0.35950950469085041 -0.48638993404071668 0 -0.37055643484088358 -0.49425936316784103 0 -0.35306908662498632 -0.4951847935385878 0 -0.37055643484088358 -0.49425936316784103 0 -0.35950950469085041 -0.48638993404071668 0 -0.37055643484088358 -0.49425936316784103 0 -0.36112286221809747 -0.47283058930211808 0 -0.35306908662498632 -0.4951847935385878 0 -0.37055643484088358 -0.49425936316784103 0 -0.37308363097429631 -0.50000000000000244 0 -0.37055643484088358 -0.49425936316784103 0 -0.37308363097429631 -0.50000000000000244 0 -0.38039451612360919 -0.47713749807852829 0 -0.37055643484088358 -0.49425936316784103 0 -0.36112286221809747 -0.47283058930211808 0 -0.37055643484088358 -0.49425936316784103 0 -0.36112286221809747 -0.47283058930211808 0 -0.38039451612360919 -0.47713749807852829 0 -0.36112286221809747 -0.47283058930211808 0 -0.37415472949075129 -0.45946062715310632 0 -0.37415472949075129 -0.45946062715310632 0 -0.3629811744391212 -0.45722253899736259 0 -0.36406731613876331 -0.44506275929787698 0 -0.36112286221809747 -0.47283058930211808 0 -0.37415472949075129 -0.45946062715310632 0 -0.3629811744391212 -0.45722253899736259 0 -0.36112286221809747 -0.47283058930211808 0 -0.3629811744391212 -0.45722253899736259 0 -0.35168928959531232 -0.4514018154363949 0 -0.36112286221809747 -0.47283058930211808 0 -0.35168928959531232 -0.4514018154363949 0 -0.35001641252228072 -0.47142734906239081 0 -0.36112286221809747 -0.47283058930211808 0 -0.35168928959531232 -0.4514018154363949 0 -0.34207866423036198 -0.45986413066326443 0 -0.35001641252228072 -0.47142734906239081 0 -0.35168928959531232 -0.4514018154363949 0 -0.35168928959531232 -0.4514018154363949 0 -0.34225571697252682 -0.42997304157067162 0 -0.35168928959531232 -0.4514018154363949 0 -0.36406731613876331 -0.44506275929787698 0 -0.34225571697252682 -0.42997304157067162 0 -0.34207866423036198 -0.45986413066326443 0 -0.35168928959531232 -0.4514018154363949 0 -0.34225571697252682 -0.42997304157067162 0 -0.38339996822118783 -0.44368928783448319 0 -0.36406731613876331 -0.44506275929787698 0 -0.36866352395763108 -0.4313760290561211 0 -0.38339996822118783 -0.44368928783448319 0 -0.37415472949075129 -0.45946062715310632 0 -0.36406731613876331 -0.44506275929787698 0 -0.3629811744391212 -0.45722253899736259 0 -0.35168928959531232 -0.4514018154363949 0 -0.36406731613876331 -0.44506275929787698 0 -0.38131756488089769 -0.42670085612339947 0 -0.36866352395763108 -0.4313760290561211 0 -0.36377437909963828 -0.41972983174959272 0 -0.38704143117499401 -0.40999023144455299 0 -0.3575105341832589 -0.40691374405003478 0 -0.38704143117499401 -0.40999023144455299 0 -0.36377437909963828 -0.41972983174959272 0 -0.3575105341832589 -0.40691374405003478 0 -0.35062038894632092 -0.41624612172537079 0 -0.34239786166265201 -0.40597533588911489 0 -0.34225571697252682 -0.42997304157067162 0 -0.36377437909963828 -0.41972983174959272 0 -0.3575105341832589 -0.40691374405003478 0 -0.35062038894632092 -0.41624612172537079 0 -0.3575105341832589 -0.40691374405003478 0 -0.35062038894632092 -0.41624612172537079 0 -0.34239786166265201 -0.40597533588911489 0 -0.36406731613876331 -0.44506275929787698 0 -0.36866352395763108 -0.4313760290561211 0 -0.34225571697252682 -0.42997304157067162 0 -0.36866352395763108 -0.4313760290561211 0 -0.36377437909963828 -0.41972983174959272 0 -0.34225571697252682 -0.42997304157067162 0 -0.36377437909963828 -0.41972983174959272 0 -0.35062038894632092 -0.41624612172537079 0 -0.34225571697252682 -0.42997304157067162 0 -0.37522403377147279 -0.38060127254172499 0 -0.37464038230528551 -0.396492613407532 0 -0.35879027536972019 -0.3891835699585654 0 -0.37522403377147279 -0.38060127254172499 0 -0.35964608014779109 -0.37334112637938882 0 -0.35879027536972019 -0.3891835699585654 0 -0.38704143117499401 -0.40999023144455299 0 -0.3575105341832589 -0.40691374405003478 0 -0.37464038230528551 -0.396492613407532 0 -0.3575105341832589 -0.40691374405003478 0 -0.37464038230528551 -0.396492613407532 0 -0.35879027536972019 -0.3891835699585654 0 -0.3575105341832589 -0.40691374405003478 0 -0.35030966939210212 -0.39601257002631829 0 -0.35879027536972019 -0.3891835699585654 0 -0.35030966939210212 -0.39601257002631829 0 -0.34254000635277743 -0.38197763020755832 0 -0.34239786166265201 -0.40597533588911489 0 -0.3575105341832589 -0.40691374405003478 0 -0.35030966939210212 -0.39601257002631829 0 -0.34239786166265201 -0.40597533588911489 0 -0.35964608014779109 -0.37334112637938882 0 -0.35879027536972019 -0.3891835699585654 0 -0.34254000635277743 -0.38197763020755832 0 -0.35030966939210212 -0.39601257002631829 0 -0.35879027536972019 -0.3891835699585654 0 -0.34254000635277743 -0.38197763020755832 0 -0.32270418411731933 -0.37181077970513959 0 -0.34254000635277743 -0.38197763020755832 0 -0.32435131947256218 -0.38428518727128619 0 -0.34254000635277743 -0.38197763020755832 0 -0.33211028503505757 -0.39455092735479258 0 -0.32435131947256218 -0.38428518727128619 0 -0.34254000635277743 -0.38197763020755832 0 -0.33211028503505757 -0.39455092735479258 0 -0.34239786166265201 -0.40597533588911489 0 -0.34254000635277743 -0.38197763020755832 0 -0.34239786166265201 -0.40597533588911489 0 -0.33211028503505757 -0.39455092735479258 0 -0.32627218782356721 -0.40254155632103228 0 -0.33325599186729038 -0.40952977136485508 0 -0.33211028503505757 -0.39455092735479258 0 -0.34239786166265201 -0.40597533588911489 0 -0.33325599186729038 -0.40952977136485508 0 -0.32627218782356721 -0.40254155632103228 0 -0.31778611784491262 -0.39429551077659458 0 -0.31836523457261151 -0.40628576827473822 0 -0.31778611784491262 -0.39429551077659458 0 -0.31836523457261151 -0.40628576827473822 0 -0.30856762168503782 -0.40330407176644772 0 -0.33211028503505757 -0.39455092735479258 0 -0.32627218782356721 -0.40254155632103228 0 -0.31778611784491262 -0.39429551077659458 0 -0.33211028503505757 -0.39455092735479258 0 -0.31778611784491262 -0.39429551077659458 0 -0.32435131947256218 -0.38428518727128619 0 -0.31778611784491262 -0.39429551077659458 0 -0.32435131947256218 -0.38428518727128619 0 -0.3103864423796594 -0.37828470113645102 0 -0.32270418411731933 -0.37181077970513959 0 -0.32435131947256218 -0.38428518727128619 0 -0.3103864423796594 -0.37828470113645102 0 -0.34225571697252682 -0.42997304157067162 0 -0.32127707919304882 -0.42450406978857058 0 -0.32413493920603592 -0.43586432580396972 0 -0.33358626016413989 -0.44229992863572659 0 -0.34225571697252682 -0.42997304157067162 0 -0.32413493920603592 -0.43586432580396972 0 -0.34225571697252682 -0.42997304157067162 0 -0.32547848823970138 -0.41505510354763547 0 -0.32127707919304882 -0.42450406978857058 0 -0.34225571697252682 -0.42997304157067162 0 -0.33325599186729038 -0.40952977136485508 0 -0.34239786166265201 -0.40597533588911489 0 -0.34225571697252682 -0.42997304157067162 0 -0.34225571697252682 -0.42997304157067162 0 -0.33325599186729038 -0.40952977136485508 0 -0.32547848823970138 -0.41505510354763547 0 -0.34239786166265201 -0.40597533588911489 0 -0.34225571697252682 -0.42997304157067162 0 -0.33325599186729038 -0.40952977136485508 0 -0.32627218782356721 -0.40254155632103228 0 -0.33325599186729038 -0.40952977136485508 0 -0.32547848823970138 -0.41505510354763547 0 -0.32547848823970138 -0.41505510354763547 0 -0.3149711123139971 -0.41411215899080989 0 -0.32127707919304882 -0.42450406978857058 0 -0.32627218782356721 -0.40254155632103228 0 -0.32547848823970138 -0.41505510354763547 0 -0.31836523457261151 -0.40628576827473822 0 -0.32547848823970138 -0.41505510354763547 0 -0.31836523457261151 -0.40628576827473822 0 -0.3149711123139971 -0.41411215899080989 0 -0.31836523457261151 -0.40628576827473822 0 -0.3149711123139971 -0.41411215899080989 0 -0.30856762168503782 -0.40330407176644772 0 -0.3149711123139971 -0.41411215899080989 0 -0.32127707919304882 -0.42450406978857058 0 -0.31068047406536009 -0.42124040027518911 0 -0.32127707919304882 -0.42450406978857058 0 -0.31073004788055869 -0.43167813375356229 0 -0.31068047406536009 -0.42124040027518911 0 -0.32127707919304882 -0.42450406978857058 0 -0.32413493920603592 -0.43586432580396972 0 -0.31073004788055869 -0.43167813375356229 0 -0.31385630152515048 -0.44199725430357722 0 -0.32413493920603592 -0.43586432580396972 0 -0.31073004788055869 -0.43167813375356229 0 -0.31073004788055869 -0.43167813375356229 0 -0.29829421210859891 -0.43220714453990322 0 -0.30286215921622678 -0.44210958888768459 0 -0.31073004788055869 -0.43167813375356229 0 -0.29829421210859891 -0.43220714453990322 0 -0.30293836312512551 -0.42244552438862548 0 -0.29829421210859891 -0.43220714453990322 0 -0.30293836312512551 -0.42244552438862548 0 -0.29038846928103268 -0.42353273433611682 0 -0.31073004788055869 -0.43167813375356229 0 -0.30293836312512551 -0.42244552438862548 0 -0.31068047406536009 -0.42124040027518911 0 -0.3149711123139971 -0.41411215899080989 0 -0.31068047406536009 -0.42124040027518911 0 -0.30545777612822328 -0.41428354029227837 0 -0.30293836312512551 -0.42244552438862548 0 -0.31068047406536009 -0.42124040027518911 0 -0.30545777612822328 -0.41428354029227837 0 -0.3149711123139971 -0.41411215899080989 0 -0.30545777612822328 -0.41428354029227837 0 -0.30856762168503782 -0.40330407176644772 0 -0.30545777612822328 -0.41428354029227837 0 -0.30856762168503782 -0.40330407176644772 0 -0.30079847364115991 -0.40578130343003371 0 -0.30545777612822328 -0.41428354029227837 0 -0.2987732092282892 -0.41413177709842958 0 -0.30079847364115991 -0.40578130343003371 0 -0.30293836312512551 -0.42244552438862548 0 -0.2987732092282892 -0.41413177709842958 0 -0.29038846928103268 -0.42353273433611682 0 -0.30293836312512551 -0.42244552438862548 0 -0.2987732092282892 -0.41413177709842958 0 -0.30293836312512551 -0.42244552438862548 0 -0.30545777612822328 -0.41428354029227837 0 -0.2987732092282892 -0.41413177709842958 0 -0.30545777612822328 -0.41428354029227837 0 -0.2987732092282892 -0.41413177709842958 0 -0.2987732092282892 -0.41413177709842958 0 -0.29092638885970451 -0.39846933503943821 0 -0.2987732092282892 -0.41413177709842958 0 -0.28243901841779939 -0.41376093348156762 0 -0.29092638885970451 -0.39846933503943821 0 -0.2987732092282892 -0.41413177709842958 0 -0.28243901841779939 -0.41376093348156762 0 -0.29038846928103268 -0.42353273433611682 0 -0.2987732092282892 -0.41413177709842958 0 -0.28243901841779939 -0.41376093348156762 0 -0.28243901841779939 -0.41376093348156762 0 -0.29038846928103268 -0.42353273433611682 0 -0.27500508569675858 -0.42792788340523652 0 -0.29038846928103268 -0.42353273433611682 0 -0.27500508569675858 -0.42792788340523652 0 -0.28620792983366777 -0.44117103379144762 0 -0.29829421210859891 -0.43220714453990322 0 -0.29038846928103268 -0.42353273433611682 0 -0.28620792983366777 -0.44117103379144762 0 -0.31778611784491262 -0.39429551077659458 0 -0.3103864423796594 -0.37828470113645102 0 -0.30424293331838692 -0.39073887816822978 0 -0.29584447723995128 -0.37444813956539807 0 -0.29713407365637251 -0.38186722723828942 0 -0.3103864423796594 -0.37828470113645102 0 -0.29713407365637251 -0.38186722723828942 0 -0.30424293331838692 -0.39073887816822978 0 -0.29406976999373469 -0.38920344929064732 0 -0.29713407365637251 -0.38186722723828942 0 -0.3103864423796594 -0.37828470113645102 0 -0.30424293331838692 -0.39073887816822978 0 -0.29998863005712628 -0.39809616774203599 0 -0.30424293331838692 -0.39073887816822978 0 -0.30856762168503782 -0.40330407176644772 0 -0.29998863005712628 -0.39809616774203599 0 -0.30424293331838692 -0.39073887816822978 0 -0.29406976999373469 -0.38920344929064732 0 -0.31778611784491262 -0.39429551077659458 0 -0.30424293331838692 -0.39073887816822978 0 -0.30856762168503782 -0.40330407176644772 0 -0.29998863005712628 -0.39809616774203599 0 -0.30079847364115991 -0.40578130343003371 0 -0.29092638885970451 -0.39846933503943821 0 -0.29998863005712628 -0.39809616774203599 0 -0.30856762168503782 -0.40330407176644772 0 -0.30079847364115991 -0.40578130343003371 0 -0.2987732092282892 -0.41413177709842958 0 -0.30079847364115991 -0.40578130343003371 0 -0.29092638885970451 -0.39846933503943821 0 -0.29092638885970451 -0.39846933503943821 0 -0.28307956849111848 -0.3828068929804474 0 -0.29092638885970451 -0.39846933503943821 0 -0.28307956849111848 -0.3828068929804474 0 -0.27459219804921331 -0.39809849142257658 0 -0.28243901841779939 -0.41376093348156762 0 -0.29092638885970451 -0.39846933503943821 0 -0.27459219804921331 -0.39809849142257658 0 -0.29998863005712628 -0.39809616774203599 0 -0.29092638885970451 -0.39846933503943821 0 -0.29406976999373469 -0.38920344929064732 0 -0.29092638885970451 -0.39846933503943821 0 -0.29406976999373469 -0.38920344929064732 0 -0.28307956849111848 -0.3828068929804474 0 -0.29713407365637251 -0.38186722723828942 0 -0.29406976999373469 -0.38920344929064732 0 -0.28307956849111848 -0.3828068929804474 0 -0.29584447723995128 -0.37444813956539807 0 -0.29713407365637251 -0.38186722723828942 0 -0.28307956849111848 -0.3828068929804474 0 -0.28307956849111848 -0.3828068929804474 0 -0.27459219804921331 -0.39809849142257658 0 -0.26050234447883253 -0.38027693877573482 0 -0.28307956849111848 -0.3828068929804474 0 -0.27459219804921331 -0.39809849142257658 0 -0.27459219804921331 -0.39809849142257658 0 -0.26610482760730952 -0.4133900898647066 0 -0.27459219804921331 -0.39809849142257658 0 -0.26088670843651829 -0.40068536336094251 0 -0.26610482760730952 -0.4133900898647066 0 -0.26088670843651829 -0.40068536336094251 0 -0.26050234447883253 -0.38027693877573482 0 -0.2487824818667288 -0.3954643368039899 0 -0.27459219804921331 -0.39809849142257658 0 -0.26088670843651829 -0.40068536336094251 0 -0.26050234447883253 -0.38027693877573482 0 -0.26088670843651829 -0.40068536336094251 0 -0.24694430377570939 -0.41295507854145541 0 -0.2487824818667288 -0.3954643368039899 0 -0.27500508569675858 -0.42792788340523652 0 -0.25298523514652932 -0.43702750984159111 0 -0.27028712802556781 -0.44002206955302048 0 -0.27500508569675858 -0.42792788340523652 0 -0.27028712802556781 -0.44002206955302048 0 -0.28620792983366777 -0.44117103379144762 0 -0.28243901841779939 -0.41376093348156762 0 -0.27500508569675858 -0.42792788340523652 0 -0.26610482760730952 -0.4133900898647066 0 -0.28243901841779939 -0.41376093348156762 0 -0.27459219804921331 -0.39809849142257658 0 -0.26610482760730952 -0.4133900898647066 0 -0.28243901841779939 -0.41376093348156762 0 -0.26610482760730952 -0.4133900898647066 0 -0.26610482760730952 -0.4133900898647066 0 -0.24694430377570939 -0.41295507854145541 0 -0.26610482760730952 -0.4133900898647066 0 -0.25298523514652932 -0.43702750984159111 0 -0.24694430377570939 -0.41295507854145541 0 -0.26088670843651829 -0.40068536336094251 0 -0.26610482760730952 -0.4133900898647066 0 -0.24694430377570939 -0.41295507854145541 0 -0.27500508569675858 -0.42792788340523652 0 -0.26610482760730952 -0.4133900898647066 0 -0.25298523514652932 -0.43702750984159111 0 -0.26610482760730952 -0.4133900898647066 0 -0.25298523514652932 -0.43702750984159111 0 -0.25298523514652932 -0.43702750984159111 0 -0.25823473398406083 -0.46259190486934387 0 -0.27139768853026319 -0.45350369328431828 0 -0.25298523514652932 -0.43702750984159111 0 -0.27139768853026319 -0.45350369328431828 0 -0.27028712802556781 -0.44002206955302048 0 -0.25298523514652932 -0.43702750984159111 0 -0.25823473398406083 -0.46259190486934387 0 -0.2398656426857485 -0.46066492981847512 0 -0.27139768853026319 -0.45350369328431828 0 -0.28665438526504589 -0.45880473289459528 0 -0.27499686831673542 -0.4693274569635677 0 -0.25823473398406083 -0.46259190486934387 0 -0.27139768853026319 -0.45350369328431828 0 -0.27499686831673542 -0.4693274569635677 0 -0.27139768853026319 -0.45350369328431828 0 -0.27028712802556781 -0.44002206955302048 0 -0.28620792983366777 -0.44117103379144762 0 -0.28620792983366777 -0.44117103379144762 0 -0.29665932401628559 -0.4519210782245337 0 -0.28665438526504589 -0.45880473289459528 0 -0.28620792983366777 -0.44117103379144762 0 -0.29665932401628559 -0.4519210782245337 0 -0.30286215921622678 -0.44210958888768459 0 -0.27139768853026319 -0.45350369328431828 0 -0.28620792983366777 -0.44117103379144762 0 -0.28665438526504589 -0.45880473289459528 0 -0.29829421210859891 -0.43220714453990322 0 -0.28620792983366777 -0.44117103379144762 0 -0.30286215921622678 -0.44210958888768459 0 -0.28665438526504589 -0.45880473289459528 0 -0.28928475434474438 -0.47221518125428918 0 -0.27499686831673542 -0.4693274569635677 0 -0.28665438526504589 -0.45880473289459528 0 -0.30029558254474148 -0.46389675841394568 0 -0.28928475434474438 -0.47221518125428918 0 -0.29665932401628559 -0.4519210782245337 0 -0.28665438526504589 -0.45880473289459528 0 -0.30029558254474148 -0.46389675841394568 0 -0.29665932401628559 -0.4519210782245337 0 -0.30029558254474148 -0.46389675841394568 0 -0.31044958537109257 -0.45255960714027171 0 -0.31333683559556219 -0.46686726284272168 0 -0.30029558254474148 -0.46389675841394568 0 -0.31044958537109257 -0.45255960714027171 0 -0.31385630152515048 -0.44199725430357722 0 -0.31044958537109257 -0.45255960714027171 0 -0.30286215921622678 -0.44210958888768459 0 -0.31385630152515048 -0.44199725430357722 0 -0.31073004788055869 -0.43167813375356229 0 -0.30286215921622678 -0.44210958888768459 0 -0.29665932401628559 -0.4519210782245337 0 -0.31044958537109257 -0.45255960714027171 0 -0.30286215921622678 -0.44210958888768459 0 -0.32006214434654462 -0.5 0 -0.30503152439861497 -0.48190266549989857 0 -0.29355140103266869 -0.5 0 -0.30029558254474148 -0.46389675841394568 0 -0.30503152439861497 -0.48190266549989857 0 -0.28928475434474438 -0.47221518125428918 0 -0.31333683559556219 -0.46686726284272168 0 -0.30029558254474148 -0.46389675841394568 0 -0.30503152439861497 -0.48190266549989857 0 -0.30503152439861497 -0.48190266549989857 0 -0.28928475434474438 -0.47221518125428918 0 -0.27944541119858413 -0.48714429249943858 0 -0.30503152439861497 -0.48190266549989857 0 -0.29355140103266869 -0.5 0 -0.27944541119858413 -0.48714429249943858 0 -0.26704065771879287 -0.5 0 -0.27944541119858413 -0.48714429249943858 0 -0.26377894750559139 -0.4817410620592058 0 -0.29355140103266869 -0.5 0 -0.26704065771879287 -0.5 0 -0.27944541119858413 -0.48714429249943858 0 -0.27944541119858413 -0.48714429249943858 0 -0.27499686831673542 -0.4693274569635677 0 -0.26377894750559139 -0.4817410620592058 0 -0.28928475434474438 -0.47221518125428918 0 -0.27944541119858413 -0.48714429249943858 0 -0.27499686831673542 -0.4693274569635677 0 -0.25823473398406083 -0.46259190486934387 0 -0.27499686831673542 -0.4693274569635677 0 -0.26377894750559139 -0.4817410620592058 0 -0.25823473398406083 -0.46259190486934387 0 -0.26377894750559139 -0.4817410620592058 0 -0.24769273461092009 -0.47775775457152359 0 -0.26704065771879287 -0.5 0 -0.26377894750559139 -0.4817410620592058 0 -0.24052991440491719 -0.5 0 -0.26377894750559139 -0.4817410620592058 0 -0.24052991440491719 -0.5 0 -0.24769273461092009 -0.47775775457152359 0 -0.24052991440491719 -0.5 0 -0.24769273461092009 -0.47775775457152359 0 -0.2238647917587385 -0.47868470982513422 0 -0.24769273461092009 -0.47775775457152359 0 -0.2238647917587385 -0.47868470982513422 0 -0.2253613830811457 -0.45761053917550981 0 -0.24052991440491719 -0.5 0 -0.2238647917587385 -0.47868470982513422 0 -0.2140191710910414 -0.49999999999999972 0 -0.25298523514652932 -0.43702750984159111 0 -0.23591515519085041 -0.44398209369878189 0 -0.2398656426857485 -0.46066492981847512 0 -0.25298523514652932 -0.43702750984159111 0 -0.2398656426857485 -0.46066492981847512 0 -0.25823473398406083 -0.46259190486934387 0 -0.24769273461092009 -0.47775775457152359 0 -0.2398656426857485 -0.46066492981847512 0 -0.24769273461092009 -0.47775775457152359 0 -0.2398656426857485 -0.46066492981847512 0 -0.2253613830811457 -0.45761053917550981 0 -0.24769273461092009 -0.47775775457152359 0 -0.2253613830811457 -0.45761053917550981 0 -0.2238647917587385 -0.47868470982513422 0 -0.2253613830811457 -0.45761053917550981 0 -0.20999779143719291 -0.46083672605530768 0 -0.23591515519085041 -0.44398209369878189 0 -0.2398656426857485 -0.46066492981847512 0 -0.2253613830811457 -0.45761053917550981 0 -0.23591515519085041 -0.44398209369878189 0 -0.2253613830811457 -0.45761053917550981 0 -0.22549954629610269 -0.43500765649169948 0 -0.2253613830811457 -0.45761053917550981 0 -0.20999779143719291 -0.46083672605530768 0 -0.2030300315513712 -0.43746332377949593 0 -0.2253613830811457 -0.45761053917550981 0 -0.2030300315513712 -0.43746332377949593 0 -0.20999779143719291 -0.46083672605530768 0 -0.19715634076338631 -0.4518064782969281 0 -0.2030300315513712 -0.43746332377949593 0 -0.2253613830811457 -0.45761053917550981 0 -0.2030300315513712 -0.43746332377949593 0 -0.22549954629610269 -0.43500765649169948 0 -0.20999779143719291 -0.46083672605530768 0 -0.19715634076338631 -0.4518064782969281 0 -0.2055877559272139 -0.47590323914846377 0 -0.19715634076338631 -0.4518064782969281 0 -0.2055877559272139 -0.47590323914846377 0 -0.19179305986328829 -0.46711759196808689 0 -0.19715634076338631 -0.4518064782969281 0 -0.2055877559272139 -0.47590323914846377 0 -0.19179305986328829 -0.46711759196808689 0 -0.19715634076338631 -0.4518064782969281 0 -0.184822707974968 -0.45592422963236362 0 -0.19715634076338631 -0.4518064782969281 0 -0.2030300315513712 -0.43746332377949593 0 -0.18872492559955881 -0.42770971744539221 0 -0.19715634076338631 -0.4518064782969281 0 -0.18872492559955881 -0.42770971744539221 0 -0.19715634076338631 -0.4518064782969281 0 -0.1870173619903012 -0.44414077979923022 0 -0.18872492559955881 -0.42770971744539221 0 -0.19715634076338631 -0.4518064782969281 0 -0.184822707974968 -0.45592422963236362 0 -0.1870173619903012 -0.44414077979923022 0 -0.2140191710910414 -0.49999999999999972 0 -0.2055877559272139 -0.47590323914846377 0 -0.2140191710910414 -0.49999999999999972 0 -0.2055877559272139 -0.47590323914846377 0 -0.1915741566131953 -0.48274482478870012 0 -0.2238647917587385 -0.47868470982513422 0 -0.2140191710910414 -0.49999999999999972 0 -0.2055877559272139 -0.47590323914846377 0 -0.2238647917587385 -0.47868470982513422 0 -0.20999779143719291 -0.46083672605530768 0 -0.2055877559272139 -0.47590323914846377 0 -0.19179305986328829 -0.46711759196808689 0 -0.2055877559272139 -0.47590323914846377 0 -0.1915741566131953 -0.48274482478870012 0 -0.19179305986328829 -0.46711759196808689 0 -0.1915741566131953 -0.48274482478870012 0 -0.17982433803767831 -0.46920918797397909 0 -0.2140191710910414 -0.49999999999999972 0 -0.1915741566131953 -0.48274482478870012 0 -0.1841956238768391 -0.5 0 -0.1915741566131953 -0.48274482478870012 0 -0.1841956238768391 -0.5 0 -0.17247084166804699 -0.48396500267038112 0 -0.1841956238768391 -0.5 0 -0.17247084166804699 -0.48396500267038112 0 -0.15437207666263669 -0.50000000000000022 0 -0.15669106487963419 -0.47716915445828201 0 -0.17247084166804699 -0.48396500267038112 0 -0.15437207666263669 -0.50000000000000022 0 -0.15669106487963419 -0.47716915445828201 0 -0.17247084166804699 -0.48396500267038112 0 -0.1680230602922401 -0.4683158249620154 0 -0.17247084166804699 -0.48396500267038112 0 -0.17982433803767831 -0.46920918797397909 0 -0.1680230602922401 -0.4683158249620154 0 -0.1915741566131953 -0.48274482478870012 0 -0.17247084166804699 -0.48396500267038112 0 -0.17982433803767831 -0.46920918797397909 0 -0.19179305986328829 -0.46711759196808689 0 -0.17982433803767831 -0.46920918797397909 0 -0.184822707974968 -0.45592422963236362 0 -0.17982433803767831 -0.46920918797397909 0 -0.184822707974968 -0.45592422963236362 0 -0.17211900377920919 -0.45689747079087062 0 -0.17982433803767831 -0.46920918797397909 0 -0.17211900377920919 -0.45689747079087062 0 -0.1680230602922401 -0.4683158249620154 0 -0.1870173619903012 -0.44414077979923022 0 -0.17843006300647921 -0.44542980211747812 0 -0.1823118302108766 -0.43680876328769058 0 -0.184822707974968 -0.45592422963236362 0 -0.1870173619903012 -0.44414077979923022 0 -0.17843006300647921 -0.44542980211747812 0 -0.17211900377920919 -0.45689747079087062 0 -0.17843006300647921 -0.44542980211747812 0 -0.16919262628862339 -0.44362555979768409 0 -0.184822707974968 -0.45592422963236362 0 -0.17211900377920919 -0.45689747079087062 0 -0.17843006300647921 -0.44542980211747812 0 -0.17843006300647921 -0.44542980211747812 0 -0.16919262628862339 -0.44362555979768409 0 -0.17507497024716731 -0.42995475378866199 0 -0.1590100530966318 -0.45433830891656402 0 -0.148881704538534 -0.44296791951084241 0 -0.1613290413136293 -0.43150746337484569 0 -0.1590100530966318 -0.45433830891656402 0 -0.1613290413136293 -0.43150746337484569 0 -0.16919262628862339 -0.44362555979768409 0 -0.1590100530966318 -0.45433830891656402 0 -0.1613290413136293 -0.43150746337484569 0 -0.17211900377920919 -0.45689747079087062 0 -0.16919262628862339 -0.44362555979768409 0 -0.1590100530966318 -0.45433830891656402 0 -0.15669106487963419 -0.47716915445828201 0 -0.1680230602922401 -0.4683158249620154 0 -0.1590100530966318 -0.45433830891656402 0 -0.15669106487963419 -0.47716915445828201 0 -0.1590100530966318 -0.45433830891656402 0 -0.17211900377920919 -0.45689747079087062 0 -0.1680230602922401 -0.4683158249620154 0 -0.1590100530966318 -0.45433830891656402 0 -0.15669106487963419 -0.47716915445828201 0 -0.1590100530966318 -0.45433830891656402 0 -0.1472923250818238 -0.46077477567243558 0 -0.1590100530966318 -0.45433830891656402 0 -0.1472923250818238 -0.46077477567243558 0 -0.148881704538534 -0.44296791951084241 0 -0.1472923250818238 -0.46077477567243558 0 -0.148881704538534 -0.44296791951084241 0 -0.13194602454298601 -0.43962244526902572 0 -0.13194602454298601 -0.43962244526902572 0 -0.13077987840644981 -0.46069854066347632 0 -0.11615585050415531 -0.45102464773050138 0 -0.1472923250818238 -0.46077477567243558 0 -0.13194602454298601 -0.43962244526902572 0 -0.1472923250818238 -0.46077477567243558 0 -0.13077987840644981 -0.46069854066347632 0 -0.13742439756140509 -0.48004162281001828 0 -0.1472923250818238 -0.46077477567243558 0 -0.13194602454298601 -0.43962244526902572 0 -0.13077987840644981 -0.46069854066347632 0 -0.13742439756140509 -0.48004162281001828 0 -0.12108079434187891 -0.47202921183540031 0 -0.1206292342060253 -0.48641385964910883 0 -0.13077987840644981 -0.46069854066347632 0 -0.13742439756140509 -0.48004162281001828 0 -0.12108079434187891 -0.47202921183540031 0 -0.13742439756140509 -0.48004162281001828 0 -0.131118449396015 -0.5 0 -0.1206292342060253 -0.48641385964910883 0 -0.15669106487963419 -0.47716915445828201 0 -0.13742439756140509 -0.48004162281001828 0 -0.15437207666263669 -0.50000000000000022 0 -0.15669106487963419 -0.47716915445828201 0 -0.15437207666263669 -0.50000000000000022 0 -0.13742439756140509 -0.48004162281001828 0 -0.131118449396015 -0.5 0 -0.15437207666263669 -0.50000000000000022 0 -0.15669106487963419 -0.47716915445828201 0 -0.1472923250818238 -0.46077477567243558 0 -0.13742439756140509 -0.48004162281001828 0 -0.13678826443221431 -0.39755243580027871 0 -0.14931675495270949 -0.41057852288770358 0 -0.15761740849691311 -0.38818340141201402 0 -0.1369224961495438 -0.38192389563367207 0 -0.13678826443221431 -0.39755243580027871 0 -0.15761740849691311 -0.38818340141201402 0 -0.1369224961495438 -0.38192389563367207 0 -0.15761740849691311 -0.38818340141201402 0 -0.148308101659717 -0.36695316985008092 0 -0.1369224961495438 -0.38192389563367207 0 -0.12526638733901391 -0.39147447277512609 0 -0.13678826443221431 -0.39755243580027871 0 -0.1369224961495438 -0.38192389563367207 0 -0.1303219987982592 -0.3665496015062627 0 -0.12201267174342199 -0.37938718301114999 0 -0.1369224961495438 -0.38192389563367207 0 -0.12526638733901391 -0.39147447277512609 0 -0.12201267174342199 -0.37938718301114999 0 -0.12526638733901391 -0.39147447277512609 0 -0.13678826443221431 -0.39755243580027871 0 -0.12592730430259419 -0.40432488328170318 0 -0.13678826443221431 -0.39755243580027871 0 -0.12592730430259419 -0.40432488328170318 0 -0.1345256340888337 -0.41538851269275129 0 -0.13678826443221431 -0.39755243580027871 0 -0.1345256340888337 -0.41538851269275129 0 -0.14931675495270949 -0.41057852288770358 0 -0.12592730430259419 -0.40432488328170318 0 -0.1345256340888337 -0.41538851269275129 0 -0.1165997240041481 -0.41847011486561592 0 -0.13194602454298601 -0.43962244526902572 0 -0.1345256340888337 -0.41538851269275129 0 -0.14483107865759889 -0.42859660432134139 0 -0.13194602454298601 -0.43962244526902572 0 -0.1345256340888337 -0.41538851269275129 0 -0.1165997240041481 -0.41847011486561592 0 -0.148881704538534 -0.44296791951084241 0 -0.14483107865759889 -0.42859660432134139 0 -0.1613290413136293 -0.43150746337484569 0 -0.148881704538534 -0.44296791951084241 0 -0.13194602454298601 -0.43962244526902572 0 -0.14483107865759889 -0.42859660432134139 0 -0.14483107865759889 -0.42859660432134139 0 -0.14931675495270949 -0.41057852288770358 0 -0.1613290413136293 -0.43150746337484569 0 -0.1345256340888337 -0.41538851269275129 0 -0.14483107865759889 -0.42859660432134139 0 -0.14931675495270949 -0.41057852288770358 0 -0.16364802953062679 -0.40867661783312748 0 -0.1613290413136293 -0.43150746337484569 0 -0.14931675495270949 -0.41057852288770358 0 -0.16364802953062679 -0.40867661783312748 0 -0.1613290413136293 -0.43150746337484569 0 -0.16364802953062679 -0.40867661783312748 0 -0.1613290413136293 -0.43150746337484569 0 -0.17507497024716731 -0.42995475378866199 0 -0.16919262628862339 -0.44362555979768409 0 -0.1613290413136293 -0.43150746337484569 0 -0.17507497024716731 -0.42995475378866199 0 -0.1870173619903012 -0.44414077979923022 0 -0.1823118302108766 -0.43680876328769058 0 -0.18872492559955881 -0.42770971744539221 0 -0.17843006300647921 -0.44542980211747812 0 -0.17507497024716731 -0.42995475378866199 0 -0.1823118302108766 -0.43680876328769058 0 -0.17507497024716731 -0.42995475378866199 0 -0.1806986800215967 -0.4173161083834821 0 -0.18872492559955881 -0.42770971744539221 0 -0.17507497024716731 -0.42995475378866199 0 -0.1823118302108766 -0.43680876328769058 0 -0.18872492559955881 -0.42770971744539221 0 -0.1806986800215967 -0.4173161083834821 0 -0.18228064084688081 -0.39610998094782668 0 -0.19209360216251761 -0.40824625574224149 0 -0.16364802953062679 -0.40867661783312748 0 -0.17507497024716731 -0.42995475378866199 0 -0.1806986800215967 -0.4173161083834821 0 -0.16364802953062679 -0.40867661783312748 0 -0.1806986800215967 -0.4173161083834821 0 -0.18228064084688081 -0.39610998094782668 0 -0.16364802953062679 -0.40867661783312748 0 -0.18228064084688081 -0.39610998094782668 0 -0.15761740849691311 -0.38818340141201402 0 -0.14931675495270949 -0.41057852288770358 0 -0.16364802953062679 -0.40867661783312748 0 -0.15761740849691311 -0.38818340141201402 0 -0.15761740849691311 -0.38818340141201402 0 -0.183603859264966 -0.3766054584014627 0 -0.1661931572416451 -0.36889933283976362 0 -0.18228064084688081 -0.39610998094782668 0 -0.15761740849691311 -0.38818340141201402 0 -0.183603859264966 -0.3766054584014627 0 -0.18228064084688081 -0.39610998094782668 0 -0.183603859264966 -0.3766054584014627 0 -0.20216487974800659 -0.3829991661375407 0 -0.18228064084688081 -0.39610998094782668 0 -0.20343785588976751 -0.39944649130885712 0 -0.19209360216251761 -0.40824625574224149 0 -0.18228064084688081 -0.39610998094782668 0 -0.20216487974800659 -0.3829991661375407 0 -0.20343785588976751 -0.39944649130885712 0 -0.20343785588976751 -0.39944649130885712 0 -0.21350444502423929 -0.40864471589815532 0 -0.22035180610084079 -0.39356726900625483 0 -0.20216487974800659 -0.3829991661375407 0 -0.20343785588976751 -0.39944649130885712 0 -0.22035180610084079 -0.39356726900625483 0 -0.20216487974800659 -0.3829991661375407 0 -0.22035180610084079 -0.39356726900625483 0 -0.219169022554425 -0.37113875127287832 0 -0.1806986800215967 -0.4173161083834821 0 -0.2030300315513712 -0.43746332377949593 0 -0.18872492559955881 -0.42770971744539221 0 -0.1806986800215967 -0.4173161083834821 0 -0.2030300315513712 -0.43746332377949593 0 -0.2030300315513712 -0.43746332377949593 0 -0.19369636752838881 -0.41903658901391427 0 -0.2031687955665597 -0.42354741618771741 0 -0.1806986800215967 -0.4173161083834821 0 -0.2030300315513712 -0.43746332377949593 0 -0.19369636752838881 -0.41903658901391427 0 -0.19369636752838881 -0.41903658901391427 0 -0.20299923128825029 -0.41376529568937459 0 -0.2031687955665597 -0.42354741618771741 0 -0.1806986800215967 -0.4173161083834821 0 -0.19369636752838881 -0.41903658901391427 0 -0.19209360216251761 -0.40824625574224149 0 -0.19369636752838881 -0.41903658901391427 0 -0.19209360216251761 -0.40824625574224149 0 -0.20299923128825029 -0.41376529568937459 0 -0.20343785588976751 -0.39944649130885712 0 -0.19209360216251761 -0.40824625574224149 0 -0.20299923128825029 -0.41376529568937459 0 -0.20343785588976751 -0.39944649130885712 0 -0.20299923128825029 -0.41376529568937459 0 -0.21350444502423929 -0.40864471589815532 0 -0.21350444502423929 -0.40864471589815532 0 -0.21294955189822859 -0.42392445626808489 0 -0.2277837799441092 -0.41252006721820539 0 -0.20299923128825029 -0.41376529568937459 0 -0.2031687955665597 -0.42354741618771741 0 -0.21294955189822859 -0.42392445626808489 0 -0.20299923128825029 -0.41376529568937459 0 -0.21350444502423929 -0.40864471589815532 0 -0.21294955189822859 -0.42392445626808489 0 -0.2030300315513712 -0.43746332377949593 0 -0.21294955189822859 -0.42392445626808489 0 -0.22549954629610269 -0.43500765649169948 0 -0.2030300315513712 -0.43746332377949593 0 -0.2031687955665597 -0.42354741618771741 0 -0.21294955189822859 -0.42392445626808489 0 -0.23591515519085041 -0.44398209369878189 0 -0.22549954629610269 -0.43500765649169948 0 -0.23735783041644329 -0.42609093398936743 0 -0.22549954629610269 -0.43500765649169948 0 -0.2277837799441092 -0.41252006721820539 0 -0.23735783041644329 -0.42609093398936743 0 -0.21294955189822859 -0.42392445626808489 0 -0.22549954629610269 -0.43500765649169948 0 -0.2277837799441092 -0.41252006721820539 0 -0.2277837799441092 -0.41252006721820539 0 -0.24694430377570939 -0.41295507854145541 0 -0.2277837799441092 -0.41252006721820539 0 -0.24694430377570939 -0.41295507854145541 0 -0.23735783041644329 -0.42609093398936743 0 -0.2277837799441092 -0.41252006721820539 0 -0.24694430377570939 -0.41295507854145541 0 -0.2359891007147569 -0.39914414181493052 0 -0.25298523514652932 -0.43702750984159111 0 -0.24694430377570939 -0.41295507854145541 0 -0.23735783041644329 -0.42609093398936743 0 -0.25298523514652932 -0.43702750984159111 0 -0.23591515519085041 -0.44398209369878189 0 -0.23735783041644329 -0.42609093398936743 0 -0.22035180610084079 -0.39356726900625483 0 -0.23802591309349369 -0.38358476956933441 0 -0.219169022554425 -0.37113875127287832 0 -0.22035180610084079 -0.39356726900625483 0 -0.2359891007147569 -0.39914414181493052 0 -0.23802591309349369 -0.38358476956933441 0 -0.21350444502423929 -0.40864471589815532 0 -0.2277837799441092 -0.41252006721820539 0 -0.22035180610084079 -0.39356726900625483 0 -0.2277837799441092 -0.41252006721820539 0 -0.22035180610084079 -0.39356726900625483 0 -0.2359891007147569 -0.39914414181493052 0 -0.2359891007147569 -0.39914414181493052 0 -0.2487824818667288 -0.3954643368039899 0 -0.23802591309349369 -0.38358476956933441 0 -0.24694430377570939 -0.41295507854145541 0 -0.2359891007147569 -0.39914414181493052 0 -0.2487824818667288 -0.3954643368039899 0 -0.26050234447883253 -0.38027693877573482 0 -0.2487824818667288 -0.3954643368039899 0 -0.23802591309349369 -0.38358476956933441 0 -0.26050234447883253 -0.38027693877573482 0 -0.23802591309349369 -0.38358476956933441 0 -0.24817767477162081 -0.36986654917455902 0 -0.23802591309349369 -0.38358476956933441 0 -0.24817767477162081 -0.36986654917455902 0 -0.23583729862822109 -0.36574384613307409 0 -0.24817767477162081 -0.36986654917455902 0 -0.23583729862822109 -0.36574384613307409 0 -0.24850069890613241 -0.35473287875334369 0 -0.23583729862822109 -0.36574384613307409 0 -0.219169022554425 -0.37113875127287832 0 -0.22531318381543361 -0.34939628189525529 0 -0.23802591309349369 -0.38358476956933441 0 -0.23583729862822109 -0.36574384613307409 0 -0.219169022554425 -0.37113875127287832 0 -0.22531318381543361 -0.34939628189525529 0 -0.24850069890613241 -0.35473287875334369 0 -0.24219101746094579 -0.34438554910399921 0 -0.23583729862822109 -0.36574384613307409 0 -0.22531318381543361 -0.34939628189525529 0 -0.24850069890613241 -0.35473287875334369 0 -0.22531318381543361 -0.34939628189525529 0 -0.24850069890613241 -0.35473287875334369 0 -0.25445926970156468 -0.34270101061729968 0 -0.24850069890613241 -0.35473287875334369 0 -0.24219101746094579 -0.34438554910399921 0 -0.25445926970156468 -0.34270101061729968 0 -0.24219101746094579 -0.34438554910399921 0 -0.2460450098649074 -0.33743905859998191 0 -0.25207330520806498 -0.33378255792528982 0 -0.2460450098649074 -0.33743905859998191 0 -0.24306356592407591 -0.32787829483024122 0 -0.2348359590034956 -0.33686915078515089 0 -0.24306356592407591 -0.32787829483024122 0 -0.23163603200856511 -0.32708080208212859 0 -0.2460450098649074 -0.33743905859998191 0 -0.2348359590034956 -0.33686915078515089 0 -0.24306356592407591 -0.32787829483024122 0 -0.24219101746094579 -0.34438554910399921 0 -0.2460450098649074 -0.33743905859998191 0 -0.2348359590034956 -0.33686915078515089 0 -0.25273748935779161 -0.32224337373924072 0 -0.24326482791746179 -0.31394285089519419 0 -0.24426682308287331 -0.30533572025667649 0 -0.25273748935779161 -0.32224337373924072 0 -0.24426682308287331 -0.30533572025667649 0 -0.25273748935779161 -0.32224337373924072 0 -0.24326482791746179 -0.31394285089519419 0 -0.2440208243134171 -0.32058552998791068 0 -0.25273748935779161 -0.32224337373924072 0 -0.24306356592407591 -0.32787829483024122 0 -0.2440208243134171 -0.32058552998791068 0 -0.25207330520806498 -0.33378255792528982 0 -0.25273748935779161 -0.32224337373924072 0 -0.24306356592407591 -0.32787829483024122 0 -0.24306356592407591 -0.32787829483024122 0 -0.2440208243134171 -0.32058552998791068 0 -0.23701741405433899 -0.31827760048696663 0 -0.24306356592407591 -0.32787829483024122 0 -0.23701741405433899 -0.31827760048696663 0 -0.23163603200856511 -0.32708080208212859 0 -0.24326482791746179 -0.31394285089519419 0 -0.23701741405433899 -0.31827760048696663 0 -0.2384772558931193 -0.30928307653082621 0 -0.24326482791746179 -0.31394285089519419 0 -0.2440208243134171 -0.32058552998791068 0 -0.23701741405433899 -0.31827760048696663 0 -0.22244826701882919 -0.32070202864358233 0 -0.22802593536356699 -0.30882837184141948 0 -0.21110805984082151 -0.30983785689108939 0 -0.23701741405433899 -0.31827760048696663 0 -0.22244826701882919 -0.32070202864358233 0 -0.22802593536356699 -0.30882837184141948 0 -0.23701741405433899 -0.31827760048696663 0 -0.23163603200856511 -0.32708080208212859 0 -0.22244826701882919 -0.32070202864358233 0 -0.23163603200856511 -0.32708080208212859 0 -0.22244826701882919 -0.32070202864358233 0 -0.22079431421521131 -0.33353493235345111 0 -0.22531318381543361 -0.34939628189525529 0 -0.2348359590034956 -0.33686915078515089 0 -0.22079431421521131 -0.33353493235345111 0 -0.22531318381543361 -0.34939628189525529 0 -0.24219101746094579 -0.34438554910399921 0 -0.2348359590034956 -0.33686915078515089 0 -0.2348359590034956 -0.33686915078515089 0 -0.23163603200856511 -0.32708080208212859 0 -0.22079431421521131 -0.33353493235345111 0 -0.22079431421521131 -0.33353493235345111 0 -0.20839645480677241 -0.32403064402179738 0 -0.20212566872473489 -0.34405968503716688 0 -0.22531318381543361 -0.34939628189525529 0 -0.22079431421521131 -0.33353493235345111 0 -0.20212566872473489 -0.34405968503716688 0 -0.22244826701882919 -0.32070202864358233 0 -0.20839645480677241 -0.32403064402179738 0 -0.21110805984082151 -0.30983785689108939 0 -0.22244826701882919 -0.32070202864358233 0 -0.22079431421521131 -0.33353493235345111 0 -0.20839645480677241 -0.32403064402179738 0 -0.20839645480677241 -0.32403064402179738 0 -0.19575919956014079 -0.31702437624003538 0 -0.21110805984082151 -0.30983785689108939 0 -0.20839645480677241 -0.32403064402179738 0 -0.19575919956014079 -0.31702437624003538 0 -0.19562896033857519 -0.33020038185646122 0 -0.19575919956014079 -0.31702437624003538 0 -0.19562896033857519 -0.33020038185646122 0 -0.18477851095256179 -0.32477614194451959 0 -0.20212566872473489 -0.34405968503716688 0 -0.1789381536340362 -0.33872308817907848 0 -0.19562896033857519 -0.33020038185646122 0 -0.20212566872473489 -0.34405968503716688 0 -0.1789381536340362 -0.33872308817907848 0 -0.20839645480677241 -0.32403064402179738 0 -0.19562896033857519 -0.33020038185646122 0 -0.20212566872473489 -0.34405968503716688 0 -0.20212566872473489 -0.34405968503716688 0 -0.2037839996862793 -0.36234410805543599 0 -0.1863350517553729 -0.35962674217565882 0 -0.20212566872473489 -0.34405968503716688 0 -0.1863350517553729 -0.35962674217565882 0 -0.1789381536340362 -0.33872308817907848 0 -0.183603859264966 -0.3766054584014627 0 -0.20216487974800659 -0.3829991661375407 0 -0.2037839996862793 -0.36234410805543599 0 -0.183603859264966 -0.3766054584014627 0 -0.2037839996862793 -0.36234410805543599 0 -0.1863350517553729 -0.35962674217565882 0 -0.219169022554425 -0.37113875127287832 0 -0.22531318381543361 -0.34939628189525529 0 -0.2037839996862793 -0.36234410805543599 0 -0.20216487974800659 -0.3829991661375407 0 -0.219169022554425 -0.37113875127287832 0 -0.2037839996862793 -0.36234410805543599 0 -0.22531318381543361 -0.34939628189525529 0 -0.20212566872473489 -0.34405968503716688 0 -0.2037839996862793 -0.36234410805543599 0 -0.22531318381543361 -0.34939628189525529 0 -0.20212566872473489 -0.34405968503716688 0 -0.24465976002352091 -0.25387891845332877 0 -0.23199225124923151 -0.26692477658714647 0 -0.21854221021918649 -0.25236034283526498 0 -0.23199225124923151 -0.26692477658714647 0 -0.21864709985809599 -0.27150291036173302 0 -0.21854221021918649 -0.25236034283526498 0 -0.24465976002352091 -0.25387891845332877 0 -0.2444485511135471 -0.27534046621033159 0 -0.23199225124923151 -0.26692477658714647 0 -0.25958550566062261 -0.27102626557679149 0 -0.24465976002352091 -0.25387891845332877 0 -0.2444485511135471 -0.27534046621033159 0 -0.2444485511135471 -0.27534046621033159 0 -0.23199225124923151 -0.26692477658714647 0 -0.23366363503180709 -0.28154124507507411 0 -0.2197277065850177 -0.2872169177591285 0 -0.23366363503180709 -0.28154124507507411 0 -0.21864709985809599 -0.27150291036173302 0 -0.23199225124923151 -0.26692477658714647 0 -0.23366363503180709 -0.28154124507507411 0 -0.21864709985809599 -0.27150291036173302 0 -0.2197277065850177 -0.2872169177591285 0 -0.23366363503180709 -0.28154124507507411 0 -0.24011613505684479 -0.30107681213347393 0 -0.2197277065850177 -0.2872169177591285 0 -0.24011613505684479 -0.30107681213347393 0 -0.2197277065850177 -0.2872169177591285 0 -0.24011613505684479 -0.30107681213347393 0 -0.2201073871300871 -0.30044142834658671 0 -0.2444485511135471 -0.27534046621033159 0 -0.23366363503180709 -0.28154124507507411 0 -0.24732420154209239 -0.29033586459568173 0 -0.23366363503180709 -0.28154124507507411 0 -0.24732420154209239 -0.29033586459568173 0 -0.24011613505684479 -0.30107681213347393 0 -0.25608276685525683 -0.28295324223861612 0 -0.2444485511135471 -0.27534046621033159 0 -0.24732420154209239 -0.29033586459568173 0 -0.26050456352867191 -0.3149367065078193 0 -0.24011613505684479 -0.30107681213347393 0 -0.24426682308287331 -0.30533572025667649 0 -0.25485564421046719 -0.30132045870319019 0 -0.24732420154209239 -0.29033586459568173 0 -0.24011613505684479 -0.30107681213347393 0 -0.24011613505684479 -0.30107681213347393 0 -0.2384772558931193 -0.30928307653082621 0 -0.22802593536356699 -0.30882837184141948 0 -0.24326482791746179 -0.31394285089519419 0 -0.24426682308287331 -0.30533572025667649 0 -0.2384772558931193 -0.30928307653082621 0 -0.24011613505684479 -0.30107681213347393 0 -0.24426682308287331 -0.30533572025667649 0 -0.2384772558931193 -0.30928307653082621 0 -0.23701741405433899 -0.31827760048696663 0 -0.2384772558931193 -0.30928307653082621 0 -0.22802593536356699 -0.30882837184141948 0 -0.22802593536356699 -0.30882837184141948 0 -0.2201073871300871 -0.30044142834658671 0 -0.21110805984082151 -0.30983785689108939 0 -0.24011613505684479 -0.30107681213347393 0 -0.22802593536356699 -0.30882837184141948 0 -0.2201073871300871 -0.30044142834658671 0 -0.2201073871300871 -0.30044142834658671 0 -0.21110805984082151 -0.30983785689108939 0 -0.20155909880418441 -0.29524718310782239 0 -0.21110805984082151 -0.30983785689108939 0 -0.2000775247532616 -0.30687463122530689 0 -0.20155909880418441 -0.29524718310782239 0 -0.19575919956014079 -0.31702437624003538 0 -0.21110805984082151 -0.30983785689108939 0 -0.2000775247532616 -0.30687463122530689 0 -0.18961770926909149 -0.30481471110084102 0 -0.20155909880418441 -0.29524718310782239 0 -0.1798976030385912 -0.29461474791537873 0 -0.19575919956014079 -0.31702437624003538 0 -0.2000775247532616 -0.30687463122530689 0 -0.18961770926909149 -0.30481471110084102 0 -0.19575919956014079 -0.31702437624003538 0 -0.18961770926909149 -0.30481471110084102 0 -0.1803928959391416 -0.31521744924658562 0 -0.2000775247532616 -0.30687463122530689 0 -0.18961770926909149 -0.30481471110084102 0 -0.20155909880418441 -0.29524718310782239 0 -0.19933927811319041 -0.27335702338478318 0 -0.1798976030385912 -0.29461474791537873 0 -0.20155909880418441 -0.29524718310782239 0 -0.19933927811319041 -0.27335702338478318 0 -0.1798976030385912 -0.29461474791537873 0 -0.2197277065850177 -0.2872169177591285 0 -0.20155909880418441 -0.29524718310782239 0 -0.19933927811319041 -0.27335702338478318 0 -0.2197277065850177 -0.2872169177591285 0 -0.2201073871300871 -0.30044142834658671 0 -0.20155909880418441 -0.29524718310782239 0 -0.21864709985809599 -0.27150291036173302 0 -0.19933927811319041 -0.27335702338478318 0 -0.21854221021918649 -0.25236034283526498 0 -0.2197277065850177 -0.2872169177591285 0 -0.21864709985809599 -0.27150291036173302 0 -0.19933927811319041 -0.27335702338478318 0 -0.2197277065850177 -0.2872169177591285 0 -0.19933927811319041 -0.27335702338478318 0 -0.19672455084482071 -0.27157955221738023 0 -0.19563648814007639 -0.2627950405098789 0 -0.1773613401945949 -0.28300380337564962 0 -0.19672455084482071 -0.27157955221738023 0 -0.19933927811319041 -0.27335702338478318 0 -0.1773613401945949 -0.28300380337564962 0 -0.19672455084482071 -0.27157955221738023 0 -0.19933927811319041 -0.27335702338478318 0 -0.19563648814007639 -0.2627950405098789 0 -0.19672455084482071 -0.27157955221738023 0 -0.19933927811319041 -0.27335702338478318 0 -0.19933927811319041 -0.27335702338478318 0 -0.19563648814007639 -0.2627950405098789 0 -0.2024770003035091 -0.25628481747185139 0 -0.19563648814007639 -0.2627950405098789 0 -0.19160736129165659 -0.25262396586623759 0 -0.18182513936558051 -0.25739227955256888 0 -0.19563648814007639 -0.2627950405098789 0 -0.19160736129165659 -0.25262396586623759 0 -0.2024770003035091 -0.25628481747185139 0 -0.19160736129165659 -0.25262396586623759 0 -0.2024770003035091 -0.25628481747185139 0 -0.19988453840298659 -0.24176205441804 0 -0.19933927811319041 -0.27335702338478318 0 -0.2024770003035091 -0.25628481747185139 0 -0.21854221021918649 -0.25236034283526498 0 -0.2024770003035091 -0.25628481747185139 0 -0.21854221021918649 -0.25236034283526498 0 -0.19988453840298659 -0.24176205441804 0 -0.19933927811319041 -0.27335702338478318 0 -0.21854221021918649 -0.25236034283526498 0 -0.16270034237907721 -0.26451024010365409 0 -0.1689202540561075 -0.25519621835756329 0 -0.15263230708737521 -0.24356194903458239 0 -0.16270034237907721 -0.26451024010365409 0 -0.15585924966824549 -0.27338725763800159 0 -0.15263230708737521 -0.24356194903458239 0 -0.16270034237907721 -0.26451024010365409 0 -0.1689202540561075 -0.25519621835756329 0 -0.17291740387759841 -0.2648938158906885 0 -0.1689202540561075 -0.25519621835756329 0 -0.18182513936558051 -0.25739227955256888 0 -0.1745260775709061 -0.24562280720632229 0 -0.19160736129165659 -0.25262396586623759 0 -0.18182513936558051 -0.25739227955256888 0 -0.1745260775709061 -0.24562280720632229 0 -0.19563648814007639 -0.2627950405098789 0 -0.18182513936558051 -0.25739227955256888 0 -0.18269465011250469 -0.26841637399603913 0 -0.1689202540561075 -0.25519621835756329 0 -0.18182513936558051 -0.25739227955256888 0 -0.17291740387759841 -0.2648938158906885 0 -0.18182513936558051 -0.25739227955256888 0 -0.17291740387759841 -0.2648938158906885 0 -0.18269465011250469 -0.26841637399603913 0 -0.19563648814007639 -0.2627950405098789 0 -0.18269465011250469 -0.26841637399603913 0 -0.1773613401945949 -0.28300380337564962 0 -0.17291740387759841 -0.2648938158906885 0 -0.17526212336935321 -0.27297056277525461 0 -0.1680750992927145 -0.27556825783864097 0 -0.19563648814007639 -0.2627950405098789 0 -0.1773613401945949 -0.28300380337564962 0 -0.17291740387759841 -0.2648938158906885 0 -0.17526212336935321 -0.27297056277525461 0 -0.18269465011250469 -0.26841637399603913 0 -0.17526212336935321 -0.27297056277525461 0 -0.18269465011250469 -0.26841637399603913 0 -0.1773613401945949 -0.28300380337564962 0 -0.17526212336935321 -0.27297056277525461 0 -0.1680750992927145 -0.27556825783864097 0 -0.1773613401945949 -0.28300380337564962 0 -0.1680750992927145 -0.27556825783864097 0 -0.1682011228878135 -0.28257539269247411 0 -0.1773613401945949 -0.28300380337564962 0 -0.1680750992927145 -0.27556825783864097 0 -0.1622412594804854 -0.28273310688964581 0 -0.1682011228878135 -0.28257539269247411 0 -0.16270034237907721 -0.26451024010365409 0 -0.17291740387759841 -0.2648938158906885 0 -0.1680750992927145 -0.27556825783864097 0 -0.16270034237907721 -0.26451024010365409 0 -0.1680750992927145 -0.27556825783864097 0 -0.16179622859894191 -0.27503335760685149 0 -0.16270034237907721 -0.26451024010365409 0 -0.16179622859894191 -0.27503335760685149 0 -0.15585924966824549 -0.27338725763800159 0 -0.16179622859894191 -0.27503335760685149 0 -0.1622412594804854 -0.28273310688964581 0 -0.15585924966824549 -0.27338725763800159 0 -0.1680750992927145 -0.27556825783864097 0 -0.16179622859894191 -0.27503335760685149 0 -0.1622412594804854 -0.28273310688964581 0 -0.1622412594804854 -0.28273310688964581 0 -0.16512679258345911 -0.28899640266596011 0 -0.15908619224911419 -0.30321256624142101 0 -0.1622412594804854 -0.28273310688964581 0 -0.15908619224911419 -0.30321256624142101 0 -0.15585924966824549 -0.27338725763800159 0 -0.15908619224911419 -0.30321256624142101 0 -0.15585924966824549 -0.27338725763800159 0 -0.16512679258345911 -0.28899640266596011 0 -0.1773613401945949 -0.28300380337564962 0 -0.15908619224911419 -0.30321256624142101 0 -0.1773613401945949 -0.28300380337564962 0 -0.15908619224911419 -0.30321256624142101 0 -0.16512679258345911 -0.28899640266596011 0 -0.1682011228878135 -0.28257539269247411 0 -0.1773613401945949 -0.28300380337564962 0 -0.1622412594804854 -0.28273310688964581 0 -0.16512679258345911 -0.28899640266596011 0 -0.1682011228878135 -0.28257539269247411 0 -0.1773613401945949 -0.28300380337564962 0 -0.1798976030385912 -0.29461474791537873 0 -0.15908619224911419 -0.30321256624142101 0 -0.19933927811319041 -0.27335702338478318 0 -0.1773613401945949 -0.28300380337564962 0 -0.1798976030385912 -0.29461474791537873 0 -0.1798976030385912 -0.29461474791537873 0 -0.17759103405270391 -0.30762984517719472 0 -0.16045592796399111 -0.3158724724459735 0 -0.18961770926909149 -0.30481471110084102 0 -0.1798976030385912 -0.29461474791537873 0 -0.17759103405270391 -0.30762984517719472 0 -0.18961770926909149 -0.30481471110084102 0 -0.17759103405270391 -0.30762984517719472 0 -0.1803928959391416 -0.31521744924658562 0 -0.1798976030385912 -0.29461474791537873 0 -0.16045592796399111 -0.3158724724459735 0 -0.1798976030385912 -0.29461474791537873 0 -0.15908619224911419 -0.30321256624142101 0 -0.16045592796399111 -0.3158724724459735 0 -0.15908619224911419 -0.30321256624142101 0 -0.16045592796399111 -0.3158724724459735 0 -0.1471380549162328 -0.30532142906175452 0 -0.14032160831301491 -0.30752887986621158 0 -0.14130665940473261 -0.32287327510069419 0 -0.15908619224911419 -0.30321256624142101 0 -0.1471380549162328 -0.30532142906175452 0 -0.14130665940473261 -0.32287327510069419 0 -0.15908619224911419 -0.30321256624142101 0 -0.1471380549162328 -0.30532142906175452 0 -0.1510678287434867 -0.29559461902651829 0 -0.14390798587081549 -0.29739780507392732 0 -0.1471380549162328 -0.30532142906175452 0 -0.1510678287434867 -0.29559461902651829 0 -0.14390798587081549 -0.29739780507392732 0 -0.1471380549162328 -0.30532142906175452 0 -0.14032160831301491 -0.30752887986621158 0 -0.14032160831301491 -0.30752887986621158 0 -0.13439128381467691 -0.29991683468539793 0 -0.13033731665847181 -0.31286393971371201 0 -0.13439128381467691 -0.29991683468539793 0 -0.13033731665847181 -0.31286393971371201 0 -0.12304085188452731 -0.29931348820209958 0 -0.14390798587081549 -0.29739780507392732 0 -0.14032160831301491 -0.30752887986621158 0 -0.13439128381467691 -0.29991683468539793 0 -0.14390798587081549 -0.29739780507392732 0 -0.13439128381467691 -0.29991683468539793 0 -0.14011095662501261 -0.28947786809128212 0 -0.13439128381467691 -0.29991683468539793 0 -0.14011095662501261 -0.28947786809128212 0 -0.12994370463312691 -0.28995419054763111 0 -0.13439128381467691 -0.29991683468539793 0 -0.12994370463312691 -0.28995419054763111 0 -0.12304085188452731 -0.29931348820209958 0 -0.12994370463312691 -0.28995419054763111 0 -0.13687965345326569 -0.27993872332247433 0 -0.1257911728949061 -0.280427018304516 0 -0.12994370463312691 -0.28995419054763111 0 -0.1257911728949061 -0.280427018304516 0 -0.1194571486541455 -0.28746452468861589 0 -0.14011095662501261 -0.28947786809128212 0 -0.12994370463312691 -0.28995419054763111 0 -0.13687965345326569 -0.27993872332247433 0 -0.15908619224911419 -0.30321256624142101 0 -0.15162645984294551 -0.28670064183700439 0 -0.15585924966824549 -0.27338725763800159 0 -0.14011095662501261 -0.28947786809128212 0 -0.1458827091329962 -0.28225219708249882 0 -0.13687965345326569 -0.27993872332247433 0 -0.15908619224911419 -0.30321256624142101 0 -0.1510678287434867 -0.29559461902651829 0 -0.15162645984294551 -0.28670064183700439 0 -0.1458827091329962 -0.28225219708249882 0 -0.1468811506158991 -0.28912565090950809 0 -0.15162645984294551 -0.28670064183700439 0 -0.14011095662501261 -0.28947786809128212 0 -0.1458827091329962 -0.28225219708249882 0 -0.1468811506158991 -0.28912565090950809 0 -0.14390798587081549 -0.29739780507392732 0 -0.1468811506158991 -0.28912565090950809 0 -0.1510678287434867 -0.29559461902651829 0 -0.14390798587081549 -0.29739780507392732 0 -0.14011095662501261 -0.28947786809128212 0 -0.1468811506158991 -0.28912565090950809 0 -0.1468811506158991 -0.28912565090950809 0 -0.1510678287434867 -0.29559461902651829 0 -0.15162645984294551 -0.28670064183700439 0 -0.1458827091329962 -0.28225219708249882 0 -0.15162645984294551 -0.28670064183700439 0 -0.15098162864793119 -0.27663156012407891 0 -0.15162645984294551 -0.28670064183700439 0 -0.15098162864793119 -0.27663156012407891 0 -0.15585924966824549 -0.27338725763800159 0 -0.15098162864793119 -0.27663156012407891 0 -0.1522527558101047 -0.27366235468835692 0 -0.14903370440966179 -0.27344637702894548 0 -0.15098162864793119 -0.27663156012407891 0 -0.1522527558101047 -0.27366235468835692 0 -0.15585924966824549 -0.27338725763800159 0 -0.14903370440966179 -0.27344637702894548 0 -0.1531364405145805 -0.27118422396240138 0 -0.14385763015454139 -0.26954128824380802 0 -0.1522527558101047 -0.27366235468835692 0 -0.15585924966824549 -0.27338725763800159 0 -0.1531364405145805 -0.27118422396240138 0 -0.1522527558101047 -0.27366235468835692 0 -0.14903370440966179 -0.27344637702894548 0 -0.1531364405145805 -0.27118422396240138 0 -0.14903370440966179 -0.27344637702894548 0 -0.14385763015454139 -0.26954128824380802 0 -0.1442805510697899 -0.27562940435382949 0 -0.14385763015454139 -0.26954128824380802 0 -0.1442805510697899 -0.27562940435382949 0 -0.13835653564694769 -0.27242798417408381 0 -0.1458827091329962 -0.28225219708249882 0 -0.1442805510697899 -0.27562940435382949 0 -0.13687965345326569 -0.27993872332247433 0 -0.15098162864793119 -0.27663156012407891 0 -0.14903370440966179 -0.27344637702894548 0 -0.1442805510697899 -0.27562940435382949 0 -0.1458827091329962 -0.28225219708249882 0 -0.15098162864793119 -0.27663156012407891 0 -0.1442805510697899 -0.27562940435382949 0 -0.13687965345326569 -0.27993872332247433 0 -0.12970248462840331 -0.2717774759070859 0 -0.13835653564694769 -0.27242798417408381 0 -0.1442805510697899 -0.27562940435382949 0 -0.13687965345326569 -0.27993872332247433 0 -0.13835653564694769 -0.27242798417408381 0 -0.13687965345326569 -0.27993872332247433 0 -0.1257911728949061 -0.280427018304516 0 -0.12970248462840331 -0.2717774759070859 0 -0.12970248462840331 -0.2717774759070859 0 -0.13570208279224111 -0.26528350045903498 0 -0.12855037573501921 -0.26115248962005239 0 -0.14385763015454139 -0.26954128824380802 0 -0.13835653564694769 -0.27242798417408381 0 -0.13570208279224111 -0.26528350045903498 0 -0.12970248462840331 -0.2717774759070859 0 -0.13835653564694769 -0.27242798417408381 0 -0.13570208279224111 -0.26528350045903498 0 -0.13570208279224111 -0.26528350045903498 0 -0.12855037573501921 -0.26115248962005239 0 -0.1377523016625678 -0.25581657194563601 0 -0.14385763015454139 -0.26954128824380802 0 -0.13570208279224111 -0.26528350045903498 0 -0.1377523016625678 -0.25581657194563601 0 -0.12855037573501921 -0.26115248962005239 0 -0.1377523016625678 -0.25581657194563601 0 -0.1223681628105569 -0.24044891992886891 0 -0.1531364405145805 -0.27118422396240138 0 -0.1377523016625678 -0.25581657194563601 0 -0.15263230708737521 -0.24356194903458239 0 -0.15585924966824549 -0.27338725763800159 0 -0.1531364405145805 -0.27118422396240138 0 -0.15263230708737521 -0.24356194903458239 0 -0.15585924966824549 -0.27338725763800159 0 -0.15263230708737521 -0.24356194903458239 0 -0.1531364405145805 -0.27118422396240138 0 -0.1377523016625678 -0.25581657194563601 0 -0.1531364405145805 -0.27118422396240138 0 -0.14385763015454139 -0.26954128824380802 0 -0.1377523016625678 -0.25581657194563601 0 -0.1661931572416451 -0.36889933283976362 0 -0.1633245426028184 -0.34238590264286861 0 -0.15433175674287769 -0.35458729317269139 0 -0.1661931572416451 -0.36889933283976362 0 -0.1633245426028184 -0.34238590264286861 0 -0.1661931572416451 -0.36889933283976362 0 -0.17388048196752651 -0.3522733272046466 0 -0.1633245426028184 -0.34238590264286861 0 -0.1661931572416451 -0.36889933283976362 0 -0.15433175674287769 -0.35458729317269139 0 -0.148308101659717 -0.36695316985008092 0 -0.15761740849691311 -0.38818340141201402 0 -0.1661931572416451 -0.36889933283976362 0 -0.148308101659717 -0.36695316985008092 0 -0.183603859264966 -0.3766054584014627 0 -0.1661931572416451 -0.36889933283976362 0 -0.1863350517553729 -0.35962674217565882 0 -0.1661931572416451 -0.36889933283976362 0 -0.1863350517553729 -0.35962674217565882 0 -0.17388048196752651 -0.3522733272046466 0 -0.1863350517553729 -0.35962674217565882 0 -0.17388048196752651 -0.3522733272046466 0 -0.1789381536340362 -0.33872308817907848 0 -0.17388048196752651 -0.3522733272046466 0 -0.1789381536340362 -0.33872308817907848 0 -0.1633245426028184 -0.34238590264286861 0 -0.19562896033857519 -0.33020038185646122 0 -0.1789381536340362 -0.33872308817907848 0 -0.18477851095256179 -0.32477614194451959 0 -0.1789381536340362 -0.33872308817907848 0 -0.18477851095256179 -0.32477614194451959 0 -0.1735479853981102 -0.32728394705986258 0 -0.1789381536340362 -0.33872308817907848 0 -0.1735479853981102 -0.32728394705986258 0 -0.1633245426028184 -0.34238590264286861 0 -0.17759103405270391 -0.30762984517719472 0 -0.1803928959391416 -0.31521744924658562 0 -0.16045592796399111 -0.3158724724459735 0 -0.19575919956014079 -0.31702437624003538 0 -0.1803928959391416 -0.31521744924658562 0 -0.18477851095256179 -0.32477614194451959 0 -0.1803928959391416 -0.31521744924658562 0 -0.18477851095256179 -0.32477614194451959 0 -0.1735479853981102 -0.32728394705986258 0 -0.1803928959391416 -0.31521744924658562 0 -0.1735479853981102 -0.32728394705986258 0 -0.16045592796399111 -0.3158724724459735 0 -0.1735479853981102 -0.32728394705986258 0 -0.16045592796399111 -0.3158724724459735 0 -0.1633245426028184 -0.34238590264286861 0 -0.16045592796399111 -0.3158724724459735 0 -0.1633245426028184 -0.34238590264286861 0 -0.1476770575246594 -0.3298450188736391 0 -0.16045592796399111 -0.3158724724459735 0 -0.1633245426028184 -0.34238590264286861 0 -0.1633245426028184 -0.34238590264286861 0 -0.15030263560259111 -0.34285112818916452 0 -0.1476770575246594 -0.3298450188736391 0 -0.1476770575246594 -0.3298450188736391 0 -0.14130665940473261 -0.32287327510069419 0 -0.13989838249203351 -0.33226752099114382 0 -0.1476770575246594 -0.3298450188736391 0 -0.14096893258994439 -0.33934882548262568 0 -0.13989838249203351 -0.33226752099114382 0 -0.15030263560259111 -0.34285112818916452 0 -0.1476770575246594 -0.3298450188736391 0 -0.14096893258994439 -0.33934882548262568 0 -0.15908619224911419 -0.30321256624142101 0 -0.14130665940473261 -0.32287327510069419 0 -0.16045592796399111 -0.3158724724459735 0 -0.1476770575246594 -0.3298450188736391 0 -0.14130665940473261 -0.32287327510069419 0 -0.15908619224911419 -0.30321256624142101 0 -0.16045592796399111 -0.3158724724459735 0 -0.14130665940473261 -0.32287327510069419 0 -0.16045592796399111 -0.3158724724459735 0 -0.1476770575246594 -0.3298450188736391 0 -0.14130665940473261 -0.32287327510069419 0 -0.12766342535057629 -0.32481504462803062 0 -0.13033731665847181 -0.31286393971371201 0 -0.14032160831301491 -0.30752887986621158 0 -0.14130665940473261 -0.32287327510069419 0 -0.13033731665847181 -0.31286393971371201 0 -0.14130665940473261 -0.32287327510069419 0 -0.12766342535057629 -0.32481504462803062 0 -0.12902917457320359 -0.33644978787578289 0 -0.12766342535057629 -0.32481504462803062 0 -0.12902917457320359 -0.33644978787578289 0 -0.123033176677132 -0.34308019655903149 0 -0.14096893258994439 -0.33934882548262568 0 -0.12902917457320359 -0.33644978787578289 0 -0.13366226850604379 -0.34759248760944123 0 -0.14096893258994439 -0.33934882548262568 0 -0.13989838249203351 -0.33226752099114382 0 -0.12902917457320359 -0.33644978787578289 0 -0.14130665940473261 -0.32287327510069419 0 -0.12902917457320359 -0.33644978787578289 0 -0.14130665940473261 -0.32287327510069419 0 -0.13989838249203351 -0.33226752099114382 0 -0.12902917457320359 -0.33644978787578289 0 -0.12902917457320359 -0.33644978787578289 0 -0.123033176677132 -0.34308019655903149 0 -0.12902917457320359 -0.33644978787578289 0 -0.13366226850604379 -0.34759248760944123 0 -0.123033176677132 -0.34308019655903149 0 -0.13366226850604379 -0.34759248760944123 0 -0.1303219987982592 -0.3665496015062627 0 -0.123033176677132 -0.34308019655903149 0 -0.1303219987982592 -0.3665496015062627 0 -0.123033176677132 -0.34308019655903149 0 -0.13366226850604379 -0.34759248760944123 0 -0.1435303466076166 -0.35184693234157938 0 -0.1303219987982592 -0.3665496015062627 0 -0.14096893258994439 -0.33934882548262568 0 -0.13366226850604379 -0.34759248760944123 0 -0.1435303466076166 -0.35184693234157938 0 -0.15030263560259111 -0.34285112818916452 0 -0.14096893258994439 -0.33934882548262568 0 -0.1435303466076166 -0.35184693234157938 0 -0.1435303466076166 -0.35184693234157938 0 -0.15433175674287769 -0.35458729317269139 0 -0.148308101659717 -0.36695316985008092 0 -0.1633245426028184 -0.34238590264286861 0 -0.15030263560259111 -0.34285112818916452 0 -0.15433175674287769 -0.35458729317269139 0 -0.15030263560259111 -0.34285112818916452 0 -0.1435303466076166 -0.35184693234157938 0 -0.15433175674287769 -0.35458729317269139 0 -0.1435303466076166 -0.35184693234157938 0 -0.148308101659717 -0.36695316985008092 0 -0.1303219987982592 -0.3665496015062627 0 -0.1369224961495438 -0.38192389563367207 0 -0.148308101659717 -0.36695316985008092 0 -0.1303219987982592 -0.3665496015062627 0 -0.1303219987982592 -0.3665496015062627 0 -0.1159926709000937 -0.36685414663024191 0 -0.11895596668836859 -0.34683008488337108 0 -0.1303219987982592 -0.3665496015062627 0 -0.1159926709000937 -0.36685414663024191 0 -0.12201267174342199 -0.37938718301114999 0 -0.1024060606807759 -0.36205135125861898 0 -0.1016559479587178 -0.38500202459504551 0 -0.1159926709000937 -0.36685414663024191 0 -0.1024060606807759 -0.36205135125861898 0 -0.1094440337948836 -0.37923577087639421 0 -0.1024060606807759 -0.36205135125861898 0 -0.1016559479587178 -0.38500202459504551 0 -0.095426438310298192 -0.37780241062099151 0 -0.1024060606807759 -0.36205135125861898 0 -0.090139611558562177 -0.37333304007799939 0 -0.095426438310298192 -0.37780241062099151 0 -0.1024060606807759 -0.36205135125861898 0 -0.093943439343664059 -0.36410026383479388 0 -0.090139611558562177 -0.37333304007799939 0 -0.1024060606807759 -0.36205135125861898 0 -0.093943439343664059 -0.36410026383479388 0 -0.095626283443773746 -0.35612124291623848 0 -0.1024060606807759 -0.36205135125861898 0 -0.090139611558562177 -0.37333304007799939 0 -0.1024060606807759 -0.36205135125861898 0 -0.1029439411344124 -0.34559419992324319 0 -0.1024060606807759 -0.36205135125861898 0 -0.1029439411344124 -0.34559419992324319 0 -0.11895596668836859 -0.34683008488337108 0 -0.1024060606807759 -0.36205135125861898 0 -0.095626283443773746 -0.35612124291623848 0 -0.1029439411344124 -0.34559419992324319 0 -0.095626283443773746 -0.35612124291623848 0 -0.1029439411344124 -0.34559419992324319 0 -0.093212578299404075 -0.34130700998995739 0 -0.1159926709000937 -0.36685414663024191 0 -0.1024060606807759 -0.36205135125861898 0 -0.11895596668836859 -0.34683008488337108 0 -0.1024060606807759 -0.36205135125861898 0 -0.11895596668836859 -0.34683008488337108 0 -0.1303219987982592 -0.3665496015062627 0 -0.11895596668836859 -0.34683008488337108 0 -0.123033176677132 -0.34308019655903149 0 -0.1029439411344124 -0.34559419992324319 0 -0.11895596668836859 -0.34683008488337108 0 -0.123033176677132 -0.34308019655903149 0 -0.11895596668836859 -0.34683008488337108 0 -0.123033176677132 -0.34308019655903149 0 -0.1029439411344124 -0.34559419992324319 0 -0.1137910684918501 -0.33520612369310882 0 -0.123033176677132 -0.34308019655903149 0 -0.123033176677132 -0.34308019655903149 0 -0.1159692764993048 -0.31568518943543378 0 -0.1137910684918501 -0.33520612369310882 0 -0.123033176677132 -0.34308019655903149 0 -0.1159692764993048 -0.31568518943543378 0 -0.12766342535057629 -0.32481504462803062 0 -0.123033176677132 -0.34308019655903149 0 -0.1159692764993048 -0.31568518943543378 0 -0.1137910684918501 -0.33520612369310882 0 -0.1159692764993048 -0.31568518943543378 0 -0.1034818215880495 -0.3291370485878673 0 -0.12766342535057629 -0.32481504462803062 0 -0.13033731665847181 -0.31286393971371201 0 -0.1159692764993048 -0.31568518943543378 0 -0.1159692764993048 -0.31568518943543378 0 -0.10079975883819629 -0.31506063040533638 0 -0.1034818215880495 -0.3291370485878673 0 -0.10079975883819629 -0.31506063040533638 0 -0.093212578299404075 -0.34130700998995739 0 -0.10079975883819629 -0.31506063040533638 0 -0.093212578299404075 -0.34130700998995739 0 -0.087373844159168004 -0.3291061545470132 0 -0.10079975883819629 -0.31506063040533638 0 -0.1034818215880495 -0.3291370485878673 0 -0.093212578299404075 -0.34130700998995739 0 -0.1029439411344124 -0.34559419992324319 0 -0.1034818215880495 -0.3291370485878673 0 -0.1029439411344124 -0.34559419992324319 0 -0.1034818215880495 -0.3291370485878673 0 -0.093212578299404075 -0.34130700998995739 0 -0.1029439411344124 -0.34559419992324319 0 -0.1137910684918501 -0.33520612369310882 0 -0.1034818215880495 -0.3291370485878673 0 -0.093212578299404075 -0.34130700998995739 0 -0.087373844159168004 -0.3291061545470132 0 -0.080908772255243899 -0.33898270124258217 0 -0.087373844159168004 -0.3291061545470132 0 -0.080908772255243899 -0.33898270124258217 0 -0.077490532230771417 -0.32991328235931511 0 -0.093212578299404075 -0.34130700998995739 0 -0.080908772255243899 -0.33898270124258217 0 -0.080378844364046895 -0.35001101873094542 0 -0.10079975883819629 -0.31506063040533638 0 -0.085305929108392881 -0.31951846990187233 0 -0.091873739319295072 -0.31122357941036211 0 -0.10079975883819629 -0.31506063040533638 0 -0.087373844159168004 -0.3291061545470132 0 -0.085305929108392881 -0.31951846990187233 0 -0.085305929108392881 -0.31951846990187233 0 -0.076805788315873161 -0.32077910918615782 0 -0.077490532230771417 -0.32991328235931511 0 -0.087373844159168004 -0.3291061545470132 0 -0.085305929108392881 -0.31951846990187233 0 -0.077490532230771417 -0.32991328235931511 0 -0.085305929108392881 -0.31951846990187233 0 -0.076805788315873161 -0.32077910918615782 0 -0.078544889372492196 -0.31002595631180607 0 -0.085305929108392881 -0.31951846990187233 0 -0.091873739319295072 -0.31122357941036211 0 -0.078544889372492196 -0.31002595631180607 0 -0.066882954587322394 -0.32486941793266988 0 -0.078544889372492196 -0.31002595631180607 0 -0.05424539878688571 -0.319762651601179 0 -0.078544889372492196 -0.31002595631180607 0 -0.05424539878688571 -0.319762651601179 0 -0.076805788315873161 -0.32077910918615782 0 -0.066882954587322394 -0.32486941793266988 0 -0.078544889372492196 -0.31002595631180607 0 -0.076805788315873161 -0.32077910918615782 0 -0.066882954587322394 -0.32486941793266988 0 -0.077490532230771417 -0.32991328235931511 0 -0.066882954587322394 -0.32486941793266988 0 -0.070160141916437824 -0.34098238217286791 0 -0.054527031800802053 -0.34042178362413461 0 -0.066882954587322394 -0.32486941793266988 0 -0.077490532230771417 -0.32991328235931511 0 -0.070160141916437824 -0.34098238217286791 0 -0.080908772255243899 -0.33898270124258217 0 -0.077490532230771417 -0.32991328235931511 0 -0.070160141916437824 -0.34098238217286791 0 -0.080908772255243899 -0.33898270124258217 0 -0.070160141916437824 -0.34098238217286791 0 -0.080378844364046895 -0.35001101873094542 0 -0.070160141916437824 -0.34098238217286791 0 -0.066522813126512412 -0.35680227137673098 0 -0.054527031800802053 -0.34042178362413461 0 -0.070160141916437824 -0.34098238217286791 0 -0.066522813126512412 -0.35680227137673098 0 -0.080378844364046895 -0.35001101873094542 0 -0.066522813126512412 -0.35680227137673098 0 -0.076582500297099523 -0.36039923154202719 0 -0.080378844364046895 -0.35001101873094542 0 -0.066522813126512412 -0.35680227137673098 0 -0.073802945937226916 -0.36723024648585417 0 -0.058387822440418388 -0.36975607908058028 0 -0.073802945937226916 -0.36723024648585417 0 -0.058387822440418388 -0.36975607908058028 0 -0.08170780991661282 -0.38109255286014232 0 -0.066522813126512412 -0.35680227137673098 0 -0.073802945937226916 -0.36723024648585417 0 -0.076582500297099523 -0.36039923154202719 0 -0.073802945937226916 -0.36723024648585417 0 -0.076582500297099523 -0.36039923154202719 0 -0.085625397760611066 -0.36755338957457828 0 -0.085625397760611066 -0.36755338957457828 0 -0.087954911787112483 -0.37534235041220648 0 -0.08170780991661282 -0.38109255286014232 0 -0.073802945937226916 -0.36723024648585417 0 -0.085625397760611066 -0.36755338957457828 0 -0.08170780991661282 -0.38109255286014232 0 -0.085625397760611066 -0.36755338957457828 0 -0.08170780991661282 -0.38109255286014232 0 -0.093943439343664059 -0.36410026383479388 0 -0.085625397760611066 -0.36755338957457828 0 -0.090139611558562177 -0.37333304007799939 0 -0.093943439343664059 -0.36410026383479388 0 -0.090139611558562177 -0.37333304007799939 0 -0.085625397760611066 -0.36755338957457828 0 -0.090139611558562177 -0.37333304007799939 0 -0.087954911787112483 -0.37534235041220648 0 -0.085625397760611066 -0.36755338957457828 0 -0.087954911787112483 -0.37534235041220648 0 -0.090139611558562177 -0.37333304007799939 0 -0.087954911787112483 -0.37534235041220648 0 -0.093943439343664059 -0.36410026383479388 0 -0.095626283443773746 -0.35612124291623848 0 -0.085625397760611066 -0.36755338957457828 0 -0.093212578299404075 -0.34130700998995739 0 -0.085625397760611066 -0.36755338957457828 0 -0.076582500297099523 -0.36039923154202719 0 -0.085625397760611066 -0.36755338957457828 0 -0.080378844364046895 -0.35001101873094542 0 -0.093212578299404075 -0.34130700998995739 0 -0.085625397760611066 -0.36755338957457828 0 -0.080378844364046895 -0.35001101873094542 0 -0.085625397760611066 -0.36755338957457828 0 -0.080378844364046895 -0.35001101873094542 0 -0.095626283443773746 -0.35612124291623848 0 -0.093212578299404075 -0.34130700998995739 0 -0.085625397760611066 -0.36755338957457828 0 -0.10474757541744149 -0.26087495970427582 0 -0.090174700483665673 -0.26498018187443112 0 -0.1005321994236209 -0.2431127607729493 0 -0.10474757541744149 -0.26087495970427582 0 -0.11757885349586771 -0.25701660664448461 0 -0.1005321994236209 -0.2431127607729493 0 -0.12855037573501921 -0.26115248962005239 0 -0.11757885349586771 -0.25701660664448461 0 -0.1127895441811773 -0.27358429336009982 0 -0.12855037573501921 -0.26115248962005239 0 -0.11757885349586771 -0.25701660664448461 0 -0.1223681628105569 -0.24044891992886891 0 -0.10474757541744149 -0.26087495970427582 0 -0.11757885349586771 -0.25701660664448461 0 -0.1127895441811773 -0.27358429336009982 0 -0.11757885349586771 -0.25701660664448461 0 -0.1127895441811773 -0.27358429336009982 0 -0.1257911728949061 -0.280427018304516 0 -0.12970248462840331 -0.2717774759070859 0 -0.1127895441811773 -0.27358429336009982 0 -0.12855037573501921 -0.26115248962005239 0 -0.1127895441811773 -0.27358429336009982 0 -0.12970248462840331 -0.2717774759070859 0 -0.12855037573501921 -0.26115248962005239 0 -0.1127895441811773 -0.27358429336009982 0 -0.1257911728949061 -0.280427018304516 0 -0.1127895441811773 -0.27358429336009982 0 -0.1194571486541455 -0.28746452468861589 0 -0.1127895441811773 -0.27358429336009982 0 -0.1083869393769897 -0.28881425082071571 0 -0.1127895441811773 -0.27358429336009982 0 -0.093274829049746905 -0.28897707944045958 0 -0.090174700483665673 -0.26498018187443112 0 -0.10474757541744149 -0.26087495970427582 0 -0.1127895441811773 -0.27358429336009982 0 -0.090174700483665673 -0.26498018187443112 0 -0.1127895441811773 -0.27358429336009982 0 -0.1067008731150054 -0.28283902414649681 0 -0.093274829049746905 -0.28897707944045958 0 -0.1127895441811773 -0.27358429336009982 0 -0.093274829049746905 -0.28897707944045958 0 -0.1083869393769897 -0.28881425082071571 0 -0.102844379958099 -0.30028926102243358 0 -0.093274829049746905 -0.28897707944045958 0 -0.1127895441811773 -0.27358429336009982 0 -0.1083869393769897 -0.28881425082071571 0 -0.1067008731150054 -0.28283902414649681 0 -0.1083869393769897 -0.28881425082071571 0 -0.1067008731150054 -0.28283902414649681 0 -0.1083869393769897 -0.28881425082071571 0 -0.1067008731150054 -0.28283902414649681 0 -0.093274829049746905 -0.28897707944045958 0 -0.1127895441811773 -0.27358429336009982 0 -0.1083869393769897 -0.28881425082071571 0 -0.1194571486541455 -0.28746452468861589 0 -0.12994370463312691 -0.28995419054763111 0 -0.1194571486541455 -0.28746452468861589 0 -0.12304085188452731 -0.29931348820209958 0 -0.1083869393769897 -0.28881425082071571 0 -0.1194571486541455 -0.28746452468861589 0 -0.12304085188452731 -0.29931348820209958 0 -0.1159692764993048 -0.31568518943543378 0 -0.1083869393769897 -0.28881425082071571 0 -0.12304085188452731 -0.29931348820209958 0 -0.1159692764993048 -0.31568518943543378 0 -0.1083869393769897 -0.28881425082071571 0 -0.13033731665847181 -0.31286393971371201 0 -0.1159692764993048 -0.31568518943543378 0 -0.12304085188452731 -0.29931348820209958 0 -0.1159692764993048 -0.31568518943543378 0 -0.10079975883819629 -0.31506063040533638 0 -0.1083869393769897 -0.28881425082071571 0 -0.10079975883819629 -0.31506063040533638 0 -0.1083869393769897 -0.28881425082071571 0 -0.10079975883819629 -0.31506063040533638 0 -0.1083869393769897 -0.28881425082071571 0 -0.102844379958099 -0.30028926102243358 0 -0.10079975883819629 -0.31506063040533638 0 -0.102844379958099 -0.30028926102243358 0 -0.091873739319295072 -0.31122357941036211 0 -0.078544889372492196 -0.31002595631180607 0 -0.073760113918316481 -0.30436986552081963 0 -0.093274829049746905 -0.28897707944045958 0 -0.102844379958099 -0.30028926102243358 0 -0.078544889372492196 -0.31002595631180607 0 -0.093274829049746905 -0.28897707944045958 0 -0.102844379958099 -0.30028926102243358 0 -0.091873739319295072 -0.31122357941036211 0 -0.078544889372492196 -0.31002595631180607 0 -0.102844379958099 -0.30028926102243358 0 -0.078544889372492196 -0.31002595631180607 0 -0.078544889372492196 -0.31002595631180607 0 -0.073760113918316481 -0.30436986552081963 0 -0.05424539878688571 -0.319762651601179 0 -0.073760113918316481 -0.30436986552081963 0 -0.05424539878688571 -0.319762651601179 0 -0.073760113918316481 -0.30436986552081963 0 -0.071188273097670243 -0.28513602236808322 0 -0.055748641784298267 -0.30178875706485681 0 -0.073760113918316481 -0.30436986552081963 0 -0.071188273097670243 -0.28513602236808322 0 -0.093274829049746905 -0.28897707944045958 0 -0.073760113918316481 -0.30436986552081963 0 -0.093274829049746905 -0.28897707944045958 0 -0.071188273097670243 -0.28513602236808322 0 -0.093274829049746905 -0.28897707944045958 0 -0.090174700483665673 -0.26498018187443112 0 -0.071188273097670243 -0.28513602236808322 0 -0.063484538676239377 -0.26413124226689111 0 -0.090174700483665673 -0.26498018187443112 0 -0.063484538676239377 -0.26413124226689111 0 -0.076282262678724011 -0.24169347649274159 0 -0.063484538676239377 -0.26413124226689111 0 -0.090174700483665673 -0.26498018187443112 0 -0.076282262678724011 -0.24169347649274159 0 -0.036942597034766073 -0.27265489088473938 0 -0.050686814673754729 -0.28656900804104057 0 -0.0185119813334658 -0.28327625011988139 0 -0.038581934025118947 -0.25114857380685968 0 -0.038334603868346327 -0.2604973367990705 0 -0.03064478186574425 -0.25326356670072259 0 -0.038334603868346327 -0.2604973367990705 0 -0.029413390480137139 -0.26518294325465769 0 -0.03064478186574425 -0.25326356670072259 0 -0.038334603868346327 -0.2604973367990705 0 -0.046517308340487992 -0.25474718453952289 0 -0.048289188575406587 -0.26955092917192058 0 -0.038581934025118947 -0.25114857380685968 0 -0.038334603868346327 -0.2604973367990705 0 -0.046517308340487992 -0.25474718453952289 0 -0.063484538676239377 -0.26413124226689111 0 -0.046517308340487992 -0.25474718453952289 0 -0.0567919256119837 -0.24387644547435741 0 -0.063484538676239377 -0.26413124226689111 0 -0.046517308340487992 -0.25474718453952289 0 -0.048289188575406587 -0.26955092917192058 0 -0.063484538676239377 -0.26413124226689111 0 -0.050686814673754729 -0.28656900804104057 0 -0.071188273097670243 -0.28513602236808322 0 -0.063484538676239377 -0.26413124226689111 0 -0.050686814673754729 -0.28656900804104057 0 -0.063484538676239377 -0.26413124226689111 0 -0.048289188575406587 -0.26955092917192058 0 -0.050686814673754729 -0.28656900804104057 0 -0.048289188575406587 -0.26955092917192058 0 -0.036942597034766073 -0.27265489088473938 0 -0.050686814673754729 -0.28656900804104057 0 -0.038334603868346327 -0.2604973367990705 0 -0.048289188575406587 -0.26955092917192058 0 -0.036942597034766073 -0.27265489088473938 0 -0.038334603868346327 -0.2604973367990705 0 -0.036942597034766073 -0.27265489088473938 0 -0.029413390480137139 -0.26518294325465769 0 -0.050686814673754729 -0.28656900804104057 0 -0.037889090671270123 -0.30900677381518998 0 -0.0185119813334658 -0.28327625011988139 0 -0.071188273097670243 -0.28513602236808322 0 -0.050686814673754729 -0.28656900804104057 0 -0.055748641784298267 -0.30178875706485681 0 -0.073760113918316481 -0.30436986552081963 0 -0.055748641784298267 -0.30178875706485681 0 -0.05424539878688571 -0.319762651601179 0 -0.055748641784298267 -0.30178875706485681 0 -0.037889090671270123 -0.30900677381518998 0 -0.05424539878688571 -0.319762651601179 0 -0.050686814673754729 -0.28656900804104057 0 -0.055748641784298267 -0.30178875706485681 0 -0.037889090671270123 -0.30900677381518998 0 -0.050686814673754729 -0.28656900804104057 0 -0.037889090671270123 -0.30900677381518998 0 -0.037889090671270123 -0.30900677381518998 0 -0.014390974368570029 -0.31032982847088841 0 -0.0185119813334658 -0.28327625011988139 0 -0.014390974368570029 -0.31032982847088841 0 0.001904989571353899 -0.32214434476741449 0 0.0019518825097332619 -0.30029273945570772 0 -0.014390974368570029 -0.31032982847088841 0 -0.0185119813334658 -0.28327625011988139 0 0.0019518825097332619 -0.30029273945570772 0 -0.0185119813334658 -0.28327625011988139 0 -0.0020851015340006161 -0.28052611142458661 0 0.0019518825097332619 -0.30029273945570772 0 -0.014390974368570029 -0.31032982847088841 0 -0.0185119813334658 -0.28327625011988139 0 -0.036942597034766073 -0.27265489088473938 0 -0.0185119813334658 -0.28327625011988139 0 -0.029413390480137139 -0.26518294325465769 0 -0.0185119813334658 -0.28327625011988139 0 -0.02263298829836323 -0.25622267176887481 0 -0.029413390480137139 -0.26518294325465769 0 -0.0185119813334658 -0.28327625011988139 0 -0.02263298829836323 -0.25622267176887481 0 -0.0185119813334658 -0.28327625011988139 0 -0.0093077836028632385 -0.27105033158696179 0 -0.02263298829836323 -0.25622267176887481 0 -0.0185119813334658 -0.28327625011988139 0 -0.0020851015340006161 -0.28052611142458661 0 -0.0093077836028632385 -0.27105033158696179 0 -0.0020851015340006161 -0.28052611142458661 0 -0.0093077836028632385 -0.27105033158696179 0 0.0055944649301708496 -0.26664830233551728 0 -0.014059514610042069 -0.25416210053859828 0 -0.02263298829836323 -0.25622267176887481 0 0.0055944649301708496 -0.26664830233551728 0 -0.0093077836028632385 -0.27105033158696179 0 -0.02263298829836323 -0.25622267176887481 0 0.0055944649301708496 -0.26664830233551728 0 -0.02263298829836323 -0.25622267176887481 0 0.0055944649301708496 -0.26664830233551728 0 -0.014059514610042069 -0.25416210053859828 0 -0.0080727856436109482 -0.2481099565327444 0 0.0055944649301708496 -0.26664830233551728 0 -0.014059514610042069 -0.25416210053859828 0 -0.01887874476148543 -0.24814250919209771 0 -0.0080727856436109482 -0.2481099565327444 0 -0.014059514610042069 -0.25416210053859828 0 -0.02263298829836323 -0.25622267176887481 0 -0.02285766608625657 -0.25474770747244752 0 -0.014059514610042069 -0.25416210053859828 0 -0.02285766608625657 -0.25474770747244752 0 -0.01887874476148543 -0.24814250919209771 0 -0.02285766608625657 -0.25474770747244752 0 -0.026067501294639708 -0.24850247980592871 0 -0.01887874476148543 -0.24814250919209771 0 -0.02263298829836323 -0.25622267176887481 0 -0.02285766608625657 -0.25474770747244752 0 -0.02263298829836323 -0.25622267176887481 0 -0.029413390480137139 -0.26518294325465769 0 -0.03064478186574425 -0.25326356670072259 0 -0.02263298829836323 -0.25622267176887481 0 -0.03064478186574425 -0.25326356670072259 0 -0.02263298829836323 -0.25622267176887481 0 -0.02285766608625657 -0.25474770747244752 0 -0.03064478186574425 -0.25326356670072259 0 -0.02285766608625657 -0.25474770747244752 0 -0.03064478186574425 -0.25326356670072259 0 -0.026067501294639708 -0.24850247980592871 0 -0.040780788735907937 -0.34809370153295588 0 -0.035070660285960877 -0.35841379707961513 0 -0.051335308585544609 -0.35442186843706669 0 -0.040780788735907937 -0.34809370153295588 0 -0.033802973987086503 -0.33588719504380232 0 -0.029167969020145641 -0.35132386348016093 0 -0.040780788735907937 -0.34809370153295588 0 -0.035070660285960877 -0.35841379707961513 0 -0.029167969020145641 -0.35132386348016093 0 -0.035070660285960877 -0.35841379707961513 0 -0.040000350022935588 -0.37213681664196291 0 -0.021437446366364531 -0.36359117576668931 0 -0.035070660285960877 -0.35841379707961513 0 -0.058387822440418388 -0.36975607908058028 0 -0.035070660285960877 -0.35841379707961513 0 -0.040000350022935588 -0.37213681664196291 0 -0.058387822440418388 -0.36975607908058028 0 -0.040000350022935588 -0.37213681664196291 0 -0.058387822440418388 -0.36975607908058028 0 -0.058563253679506787 -0.38068245751723601 0 -0.035070660285960877 -0.35841379707961513 0 -0.058387822440418388 -0.36975607908058028 0 -0.051335308585544609 -0.35442186843706669 0 -0.066522813126512412 -0.35680227137673098 0 -0.058387822440418388 -0.36975607908058028 0 -0.051335308585544609 -0.35442186843706669 0 -0.066522813126512412 -0.35680227137673098 0 -0.051335308585544609 -0.35442186843706669 0 -0.054527031800802053 -0.34042178362413461 0 -0.040780788735907937 -0.34809370153295588 0 -0.051335308585544609 -0.35442186843706669 0 -0.054527031800802053 -0.34042178362413461 0 -0.066882954587322394 -0.32486941793266988 0 -0.054527031800802053 -0.34042178362413461 0 -0.05424539878688571 -0.319762651601179 0 -0.054527031800802053 -0.34042178362413461 0 -0.05424539878688571 -0.319762651601179 0 -0.033802973987086503 -0.33588719504380232 0 -0.05424539878688571 -0.319762651601179 0 -0.039668382727836717 -0.32560359559526031 0 -0.05424539878688571 -0.319762651601179 0 -0.033802973987086503 -0.33588719504380232 0 -0.037889090671270123 -0.30900677381518998 0 -0.025091366668787349 -0.3314445395893405 0 -0.05424539878688571 -0.319762651601179 0 -0.039668382727836717 -0.32560359559526031 0 -0.033802973987086503 -0.33588719504380232 0 -0.037889090671270123 -0.30900677381518998 0 -0.05424539878688571 -0.319762651601179 0 -0.039668382727836717 -0.32560359559526031 0 -0.037889090671270123 -0.30900677381518998 0 -0.039668382727836717 -0.32560359559526031 0 -0.025091366668787349 -0.3314445395893405 0 -0.040780788735907937 -0.34809370153295588 0 -0.054527031800802053 -0.34042178362413461 0 -0.033802973987086503 -0.33588719504380232 0 -0.039668382727836717 -0.32560359559526031 0 -0.025091366668787349 -0.3314445395893405 0 -0.039668382727836717 -0.32560359559526031 0 -0.033802973987086503 -0.33588719504380232 0 -0.025091366668787349 -0.3314445395893405 0 -0.025091366668787349 -0.3314445395893405 0 -0.01336054918728761 -0.35201173848642592 0 -0.033802973987086503 -0.33588719504380232 0 -0.025091366668787349 -0.3314445395893405 0 -0.01336054918728761 -0.35201173848642592 0 -0.025091366668787349 -0.3314445395893405 0 -0.01532372128421448 -0.33535839064186268 0 -0.01336054918728761 -0.35201173848642592 0 -0.025091366668787349 -0.3314445395893405 0 -0.022734703789933738 -0.32728556430890232 0 -0.01532372128421448 -0.33535839064186268 0 -0.025091366668787349 -0.3314445395893405 0 -0.01532372128421448 -0.33535839064186268 0 -0.022734703789933738 -0.32728556430890232 0 -0.01532372128421448 -0.33535839064186268 0 -0.037889090671270123 -0.30900677381518998 0 -0.014390974368570029 -0.31032982847088841 0 -0.022734703789933738 -0.32728556430890232 0 -0.037889090671270123 -0.30900677381518998 0 -0.025091366668787349 -0.3314445395893405 0 -0.022734703789933738 -0.32728556430890232 0 -0.014390974368570029 -0.31032982847088841 0 -0.022734703789933738 -0.32728556430890232 0 -0.01532372128421448 -0.33535839064186268 0 -0.014390974368570029 -0.31032982847088841 0 -0.010269967403673339 -0.33738340682189533 0 -0.014390974368570029 -0.31032982847088841 0 -0.010269967403673339 -0.33738340682189533 0 -0.01532372128421448 -0.33535839064186268 0 -0.014390974368570029 -0.31032982847088841 0 -0.010269967403673339 -0.33738340682189533 0 0.001904989571353899 -0.32214434476741449 0 -0.010269967403673339 -0.33738340682189533 0 -0.0096343958099064687 -0.34155580596031437 0 0.0075807645751098419 -0.34453611388615663 0 -0.010269967403673339 -0.33738340682189533 0 0.0075807645751098419 -0.34453611388615663 0 -0.0096343958099064687 -0.34155580596031437 0 -0.01532372128421448 -0.33535839064186268 0 -0.01336054918728761 -0.35201173848642592 0 -0.010269967403673339 -0.33738340682189533 0 -0.0096343958099064687 -0.34155580596031437 0 -0.010269967403673339 -0.33738340682189533 0 -0.0096343958099064687 -0.34155580596031437 0 -0.01532372128421448 -0.33535839064186268 0 -0.0096343958099064687 -0.34155580596031437 0 -0.01532372128421448 -0.33535839064186268 0 -0.010269967403673339 -0.33738340682189533 0 -0.01532372128421448 -0.33535839064186268 0 -0.010269967403673339 -0.33738340682189533 0 0.0034794820758208261 -0.33361449123698089 0 0.001904989571353899 -0.32214434476741449 0 -0.0096343958099064687 -0.34155580596031437 0 -0.0070150904897389628 -0.35875101633193152 0 -0.0096343958099064687 -0.34155580596031437 0 -0.0070150904897389628 -0.35875101633193152 0 -0.01336054918728761 -0.35201173848642592 0 -0.0096343958099064687 -0.34155580596031437 0 -0.0070150904897389628 -0.35875101633193152 0 0.0099352179383349771 -0.36287309999936251 0 -0.033802973987086503 -0.33588719504380232 0 -0.01336054918728761 -0.35201173848642592 0 -0.029167969020145641 -0.35132386348016093 0 -0.01336054918728761 -0.35201173848642592 0 -0.029167969020145641 -0.35132386348016093 0 -0.021437446366364531 -0.36359117576668931 0 -0.033802973987086503 -0.33588719504380232 0 -0.01336054918728761 -0.35201173848642592 0 -0.035070660285960877 -0.35841379707961513 0 -0.029167969020145641 -0.35132386348016093 0 -0.021437446366364531 -0.36359117576668931 0 -0.040000350022935588 -0.37213681664196291 0 -0.021437446366364531 -0.36359117576668931 0 -0.02618172091304426 -0.37743656618445498 0 -0.021437446366364531 -0.36359117576668931 0 -0.002178803782163227 -0.37161627006544062 0 -0.02618172091304426 -0.37743656618445498 0 -0.040000350022935588 -0.37213681664196291 0 -0.021437446366364531 -0.36359117576668931 0 -0.01336054918728761 -0.35201173848642592 0 -0.021437446366364531 -0.36359117576668931 0 -0.002178803782163227 -0.37161627006544062 0 -0.01336054918728761 -0.35201173848642592 0 -0.002178803782163227 -0.37161627006544062 0 -0.0070150904897389628 -0.35875101633193152 0 -0.01336054918728761 -0.35201173848642592 0 -0.002178803782163227 -0.37161627006544062 0 -0.002178803782163227 -0.37161627006544062 0 -0.026336278995230201 -0.38905167830789189 0 -0.002178803782163227 -0.37161627006544062 0 -0.0066930742226519926 -0.39143820132839208 0 -0.026336278995230201 -0.38905167830789189 0 -0.0066930742226519926 -0.39143820132839208 0 -0.001728596279610697 -0.40597762003102339 0 -0.017737199096442072 -0.40073047040120602 0 -0.0066930742226519926 -0.39143820132839208 0 -0.017737199096442072 -0.40073047040120602 0 -0.026336278995230201 -0.38905167830789189 0 -0.017737199096442072 -0.40073047040120602 0 -0.026336278995230201 -0.38905167830789189 0 -0.033287388117186109 -0.40399871831440642 0 -0.002178803782163227 -0.37161627006544062 0 -0.026336278995230201 -0.38905167830789189 0 -0.02618172091304426 -0.37743656618445498 0 -0.026336278995230201 -0.38905167830789189 0 -0.02618172091304426 -0.37743656618445498 0 -0.033482850758781962 -0.383939184607547 0 -0.02618172091304426 -0.37743656618445498 0 -0.042372487296275553 -0.37905951185084519 0 -0.033482850758781962 -0.383939184607547 0 -0.02618172091304426 -0.37743656618445498 0 -0.042372487296275553 -0.37905951185084519 0 -0.040000350022935588 -0.37213681664196291 0 -0.02618172091304426 -0.37743656618445498 0 -0.042372487296275553 -0.37905951185084519 0 -0.042372487296275553 -0.37905951185084519 0 -0.039040915830577852 -0.39020898208699611 0 -0.049048127186911553 -0.38756594990863991 0 -0.042372487296275553 -0.37905951185084519 0 -0.039040915830577852 -0.39020898208699611 0 -0.033482850758781962 -0.383939184607547 0 -0.026336278995230201 -0.38905167830789189 0 -0.039040915830577852 -0.39020898208699611 0 -0.033482850758781962 -0.383939184607547 0 -0.026336278995230201 -0.38905167830789189 0 -0.050493754208297943 -0.40648708655034188 0 -0.039040915830577852 -0.39020898208699611 0 -0.048181286987745188 -0.3967611761759377 0 -0.050493754208297943 -0.40648708655034188 0 -0.026336278995230201 -0.38905167830789189 0 -0.039040915830577852 -0.39020898208699611 0 -0.050493754208297943 -0.40648708655034188 0 -0.026336278995230201 -0.38905167830789189 0 -0.033287388117186109 -0.40399871831440642 0 -0.050493754208297943 -0.40648708655034188 0 -0.039040915830577852 -0.39020898208699611 0 -0.048181286987745188 -0.3967611761759377 0 -0.049048127186911553 -0.38756594990863991 0 -0.048181286987745188 -0.3967611761759377 0 -0.055512870853615448 -0.39455951290216967 0 -0.049048127186911553 -0.38756594990863991 0 -0.055512870853615448 -0.39455951290216967 0 -0.052509649903146327 -0.40794203844841681 0 -0.074281153156084773 -0.38791836881244668 0 -0.048181286987745188 -0.3967611761759377 0 -0.055512870853615448 -0.39455951290216967 0 -0.050493754208297943 -0.40648708655034188 0 -0.055512870853615448 -0.39455951290216967 0 -0.052509649903146327 -0.40794203844841681 0 -0.050493754208297943 -0.40648708655034188 0 -0.048181286987745188 -0.3967611761759377 0 -0.050493754208297943 -0.40648708655034188 0 -0.040000350022935588 -0.37213681664196291 0 -0.042372487296275553 -0.37905951185084519 0 -0.058563253679506787 -0.38068245751723601 0 -0.042372487296275553 -0.37905951185084519 0 -0.058563253679506787 -0.38068245751723601 0 -0.040000350022935588 -0.37213681664196291 0 -0.058563253679506787 -0.38068245751723601 0 -0.042372487296275553 -0.37905951185084519 0 -0.058563253679506787 -0.38068245751723601 0 -0.049048127186911553 -0.38756594990863991 0 -0.055512870853615448 -0.39455951290216967 0 -0.058563253679506787 -0.38068245751723601 0 -0.049048127186911553 -0.38756594990863991 0 -0.055571169944573007 -0.4278419796903028 0 -0.060002998013559863 -0.44648162232419802 0 -0.069408814394604765 -0.42365151461769918 0 -0.055571169944573007 -0.4278419796903028 0 -0.060002998013559863 -0.44648162232419802 0 -0.055571169944573007 -0.4278419796903028 0 -0.04142135733128624 -0.43391233418184683 0 -0.048623679129421588 -0.44273110985945369 0 -0.055571169944573007 -0.4278419796903028 0 -0.059775586818595829 -0.41787661413097049 0 -0.069408814394604765 -0.42365151461769918 0 -0.055571169944573007 -0.4278419796903028 0 -0.059775586818595829 -0.41787661413097049 0 -0.052509649903146327 -0.40794203844841681 0 -0.055571169944573007 -0.4278419796903028 0 -0.052509649903146327 -0.40794203844841681 0 -0.038621424185474637 -0.4207153063468223 0 -0.055571169944573007 -0.4278419796903028 0 -0.052509649903146327 -0.40794203844841681 0 -0.052509649903146327 -0.40794203844841681 0 -0.070248957975066639 -0.42074520084202788 0 -0.059775586818595829 -0.41787661413097049 0 -0.052509649903146327 -0.40794203844841681 0 -0.070248957975066639 -0.42074520084202788 0 -0.052509649903146327 -0.40794203844841681 0 -0.050493754208297943 -0.40648708655034188 0 -0.041470954428671609 -0.41006675355118111 0 -0.052509649903146327 -0.40794203844841681 0 -0.050493754208297943 -0.40648708655034188 0 -0.052509649903146327 -0.40794203844841681 0 -0.038621424185474637 -0.4207153063468223 0 -0.033287388117186109 -0.40399871831440642 0 -0.050493754208297943 -0.40648708655034188 0 -0.041470954428671609 -0.41006675355118111 0 -0.052509649903146327 -0.40794203844841681 0 -0.041470954428671609 -0.41006675355118111 0 -0.038621424185474637 -0.4207153063468223 0 -0.033287388117186109 -0.40399871831440642 0 -0.041470954428671609 -0.41006675355118111 0 -0.027792962261932352 -0.41547375898907968 0 -0.041470954428671609 -0.41006675355118111 0 -0.038621424185474637 -0.4207153063468223 0 -0.027792962261932352 -0.41547375898907968 0 -0.055571169944573007 -0.4278419796903028 0 -0.038621424185474637 -0.4207153063468223 0 -0.04142135733128624 -0.43391233418184683 0 -0.038621424185474637 -0.4207153063468223 0 -0.026103506495360269 -0.43222827563723731 0 -0.038621424185474637 -0.4207153063468223 0 -0.04142135733128624 -0.43391233418184683 0 -0.026103506495360269 -0.43222827563723731 0 -0.04142135733128624 -0.43391233418184683 0 -0.026103506495360269 -0.43222827563723731 0 -0.035662081446574762 -0.44437129177822371 0 -0.026103506495360269 -0.43222827563723731 0 -0.027792962261932352 -0.41547375898907968 0 -0.009537301248459449 -0.42510302968362512 0 -0.026103506495360269 -0.43222827563723731 0 -0.009537301248459449 -0.42510302968362512 0 -0.019709463090837601 -0.44530454005801179 0 -0.038621424185474637 -0.4207153063468223 0 -0.026103506495360269 -0.43222827563723731 0 -0.027792962261932352 -0.41547375898907968 0 -0.017737199096442072 -0.40073047040120602 0 -0.027792962261932352 -0.41547375898907968 0 -0.009537301248459449 -0.42510302968362512 0 -0.017737199096442072 -0.40073047040120602 0 -0.033287388117186109 -0.40399871831440642 0 -0.027792962261932352 -0.41547375898907968 0 -0.001728596279610697 -0.40597762003102339 0 -0.017737199096442072 -0.40073047040120602 0 -0.009537301248459449 -0.42510302968362512 0 -0.017737199096442072 -0.40073047040120602 0 -0.009537301248459449 -0.42510302968362512 0 -0.001728596279610697 -0.40597762003102339 0 -0.009537301248459449 -0.42510302968362512 0 0.0082246319185010179 -0.41465428951275207 0 -0.009537301248459449 -0.42510302968362512 0 -0.0013374034004768371 -0.44947558896604423 0 -0.009537301248459449 -0.42510302968362512 0 -0.0013374034004768371 -0.44947558896604423 0 0.01039378864355619 -0.42848339288335913 0 -0.009537301248459449 -0.42510302968362512 0 -0.0013374034004768371 -0.44947558896604423 0 -0.019709463090837601 -0.44530454005801179 0 -0.0013374034004768371 -0.44947558896604423 0 -0.014612752260004851 -0.46155177919014362 0 -0.019709463090837601 -0.44530454005801179 0 -0.0013374034004768371 -0.44947558896604423 0 -0.014612752260004851 -0.46155177919014362 0 0.0068624944475057766 -0.47384814824846327 0 -0.014612752260004851 -0.46155177919014362 0 -0.028521420705905499 -0.4674310816654948 0 -0.030789477839635839 -0.45543267362212791 0 -0.014612752260004851 -0.46155177919014362 0 -0.030789477839635839 -0.45543267362212791 0 -0.019709463090837601 -0.44530454005801179 0 -0.030789477839635839 -0.45543267362212791 0 -0.019709463090837601 -0.44530454005801179 0 -0.035662081446574762 -0.44437129177822371 0 -0.026103506495360269 -0.43222827563723731 0 -0.019709463090837601 -0.44530454005801179 0 -0.035662081446574762 -0.44437129177822371 0 -0.015217900669161011 -0.5 0 -0.01418124297067914 -0.47781864258071971 0 0.0024053695883212941 -0.48891336768777249 0 -0.01418124297067914 -0.47781864258071971 0 0.0068624944475057766 -0.47384814824846327 0 0.0024053695883212941 -0.48891336768777249 0 -0.014612752260004851 -0.46155177919014362 0 -0.01418124297067914 -0.47781864258071971 0 0.0068624944475057766 -0.47384814824846327 0 -0.014612752260004851 -0.46155177919014362 0 -0.028521420705905499 -0.4674310816654948 0 -0.01418124297067914 -0.47781864258071971 0 -0.028521420705905499 -0.4674310816654948 0 -0.01418124297067914 -0.47781864258071971 0 -0.027752274071966478 -0.47742461628286209 0 -0.015217900669161011 -0.5 0 -0.027752274071966478 -0.47742461628286209 0 -0.038171784631523778 -0.48284131767108018 0 -0.015217900669161011 -0.5 0 -0.01418124297067914 -0.47781864258071971 0 -0.027752274071966478 -0.47742461628286209 0 -0.015217900669161011 -0.5 0 -0.043972809743024373 -0.5 0 -0.038171784631523778 -0.48284131767108018 0 -0.043972809743024373 -0.5 0 -0.038171784631523778 -0.48284131767108018 0 -0.049841179956411519 -0.48183723669954598 0 -0.038171784631523778 -0.48284131767108018 0 -0.048675315621036823 -0.47094071089761919 0 -0.038171784631523778 -0.48284131767108018 0 -0.048675315621036823 -0.47094071089761919 0 -0.049841179956411519 -0.48183723669954598 0 -0.027752274071966478 -0.47742461628286209 0 -0.038171784631523778 -0.48284131767108018 0 -0.038764373548703768 -0.47063519779216179 0 -0.028521420705905499 -0.4674310816654948 0 -0.027752274071966478 -0.47742461628286209 0 -0.038764373548703768 -0.47063519779216179 0 -0.038764373548703768 -0.47063519779216179 0 -0.048675315621036823 -0.47094071089761919 0 -0.045335619097383061 -0.46570514195792412 0 -0.038171784631523778 -0.48284131767108018 0 -0.038764373548703768 -0.47063519779216179 0 -0.048675315621036823 -0.47094071089761919 0 -0.048675315621036823 -0.47094071089761919 0 -0.055120034750126161 -0.47128965669693351 0 -0.049841179956411519 -0.48183723669954598 0 -0.048675315621036823 -0.47094071089761919 0 -0.055120034750126161 -0.47128965669693351 0 -0.057384894248553399 -0.46524593439390849 0 -0.055120034750126161 -0.47128965669693351 0 -0.059149819292987238 -0.47777467248794547 0 -0.064422500494955764 -0.4650694252783244 0 -0.059149819292987238 -0.47777467248794547 0 -0.049841179956411519 -0.48183723669954598 0 -0.058853327493046781 -0.48842932436532971 0 -0.055120034750126161 -0.47128965669693351 0 -0.059149819292987238 -0.47777467248794547 0 -0.049841179956411519 -0.48183723669954598 0 -0.059149819292987238 -0.47777467248794547 0 -0.058853327493046781 -0.48842932436532971 0 -0.068575109655922298 -0.48253471263916042 0 -0.043972809743024373 -0.5 0 -0.058853327493046781 -0.48842932436532971 0 -0.072727718816887776 -0.49999999999999672 0 -0.043972809743024373 -0.5 0 -0.049841179956411519 -0.48183723669954598 0 -0.058853327493046781 -0.48842932436532971 0 -0.045123684251444827 -0.45223268167437758 0 -0.035662081446574762 -0.44437129177822371 0 -0.048623679129421588 -0.44273110985945369 0 -0.04142135733128624 -0.43391233418184683 0 -0.035662081446574762 -0.44437129177822371 0 -0.048623679129421588 -0.44273110985945369 0 -0.030789477839635839 -0.45543267362212791 0 -0.045123684251444827 -0.45223268167437758 0 -0.035662081446574762 -0.44437129177822371 0 -0.030789477839635839 -0.45543267362212791 0 -0.045123684251444827 -0.45223268167437758 0 -0.04007978340352341 -0.46172459869688548 0 -0.028521420705905499 -0.4674310816654948 0 -0.030789477839635839 -0.45543267362212791 0 -0.04007978340352341 -0.46172459869688548 0 -0.028521420705905499 -0.4674310816654948 0 -0.038764373548703768 -0.47063519779216179 0 -0.04007978340352341 -0.46172459869688548 0 -0.038764373548703768 -0.47063519779216179 0 -0.04007978340352341 -0.46172459869688548 0 -0.045335619097383061 -0.46570514195792412 0 -0.04007978340352341 -0.46172459869688548 0 -0.045335619097383061 -0.46570514195792412 0 -0.047248161051959649 -0.4591011094540644 0 -0.045123684251444827 -0.45223268167437758 0 -0.04007978340352341 -0.46172459869688548 0 -0.047248161051959649 -0.4591011094540644 0 -0.045123684251444827 -0.45223268167437758 0 -0.050581796861615229 -0.45333412325219669 0 -0.047248161051959649 -0.4591011094540644 0 -0.050581796861615229 -0.45333412325219669 0 -0.047248161051959649 -0.4591011094540644 0 -0.051910461861691633 -0.46612409294888979 0 -0.051910461861691633 -0.46612409294888979 0 -0.05917884661055 -0.4590401041241583 0 -0.060002998013559863 -0.44648162232419802 0 -0.051910461861691633 -0.46612409294888979 0 -0.060002998013559863 -0.44648162232419802 0 -0.050581796861615229 -0.45333412325219669 0 -0.051910461861691633 -0.46612409294888979 0 -0.060002998013559863 -0.44648162232419802 0 -0.048675315621036823 -0.47094071089761919 0 -0.05917884661055 -0.4590401041241583 0 -0.048675315621036823 -0.47094071089761919 0 -0.051910461861691633 -0.46612409294888979 0 -0.05917884661055 -0.4590401041241583 0 -0.048675315621036823 -0.47094071089761919 0 -0.045335619097383061 -0.46570514195792412 0 -0.051910461861691633 -0.46612409294888979 0 -0.045335619097383061 -0.46570514195792412 0 -0.047248161051959649 -0.4591011094540644 0 -0.051910461861691633 -0.46612409294888979 0 -0.055120034750126161 -0.47128965669693351 0 -0.057384894248553399 -0.46524593439390849 0 -0.064422500494955764 -0.4650694252783244 0 -0.048675315621036823 -0.47094071089761919 0 -0.057384894248553399 -0.46524593439390849 0 -0.05917884661055 -0.4590401041241583 0 -0.057384894248553399 -0.46524593439390849 0 -0.05917884661055 -0.4590401041241583 0 -0.059237257045792073 -0.46090013765886428 0 -0.064422500494955764 -0.4650694252783244 0 -0.057384894248553399 -0.46524593439390849 0 -0.059237257045792073 -0.46090013765886428 0 -0.064422500494955764 -0.4650694252783244 0 -0.057384894248553399 -0.46524593439390849 0 -0.059237257045792073 -0.46090013765886428 0 -0.05917884661055 -0.4590401041241583 0 -0.059237257045792073 -0.46090013765886428 0 -0.062180371227510647 -0.45563934639583059 0 -0.064422500494955764 -0.4650694252783244 0 -0.059237257045792073 -0.46090013765886428 0 -0.05917884661055 -0.4590401041241583 0 -0.062180371227510647 -0.45563934639583059 0 -0.05917884661055 -0.4590401041241583 0 -0.062180371227510647 -0.45563934639583059 0 -0.05917884661055 -0.4590401041241583 0 -0.061269440441321127 -0.45180810022505591 0 -0.05917884661055 -0.4590401041241583 0 -0.062180371227510647 -0.45563934639583059 0 -0.061269440441321127 -0.45180810022505591 0 -0.062180371227510647 -0.45563934639583059 0 -0.061269440441321127 -0.45180810022505591 0 -0.055571169944573007 -0.4278419796903028 0 -0.060002998013559863 -0.44648162232419802 0 -0.048623679129421588 -0.44273110985945369 0 -0.05917884661055 -0.4590401041241583 0 -0.061269440441321127 -0.45180810022505591 0 -0.060002998013559863 -0.44648162232419802 0 -0.061269440441321127 -0.45180810022505591 0 -0.060002998013559863 -0.44648162232419802 0 -0.050581796861615229 -0.45333412325219669 0 -0.060002998013559863 -0.44648162232419802 0 -0.048623679129421588 -0.44273110985945369 0 -0.045123684251444827 -0.45223268167437758 0 -0.050581796861615229 -0.45333412325219669 0 -0.048623679129421588 -0.44273110985945369 0 -0.061269440441321127 -0.45180810022505591 0 -0.069408814394604765 -0.42365151461769918 0 -0.062180371227510647 -0.45563934639583059 0 -0.061269440441321127 -0.45180810022505591 0 -0.077098496045509793 -0.43873696019506903 0 -0.062180371227510647 -0.45563934639583059 0 -0.077098496045509793 -0.43873696019506903 0 -0.073769461018799692 -0.45951707792468061 0 -0.061269440441321127 -0.45180810022505591 0 -0.077098496045509793 -0.43873696019506903 0 -0.069408814394604765 -0.42365151461769918 0 -0.061269440441321127 -0.45180810022505591 0 -0.060002998013559863 -0.44648162232419802 0 -0.069408814394604765 -0.42365151461769918 0 -0.062180371227510647 -0.45563934639583059 0 -0.077098496045509793 -0.43873696019506903 0 -0.062180371227510647 -0.45563934639583059 0 -0.064422500494955764 -0.4650694252783244 0 -0.062180371227510647 -0.45563934639583059 0 -0.064422500494955764 -0.4650694252783244 0 -0.073769461018799692 -0.45951707792468061 0 -0.084521355142842869 -0.45759592347480388 0 -0.086143661312174283 -0.48253471263916248 0 -0.099165393688022629 -0.46120376842987459 0 -0.073769461018799692 -0.45951707792468061 0 -0.084521355142842869 -0.45759592347480388 0 -0.086143661312174283 -0.48253471263916248 0 -0.084521355142842869 -0.45759592347480388 0 -0.089624247433654214 -0.44685599598904568 0 -0.099165393688022629 -0.46120376842987459 0 -0.077098496045509793 -0.43873696019506903 0 -0.084521355142842869 -0.45759592347480388 0 -0.089624247433654214 -0.44685599598904568 0 -0.077098496045509793 -0.43873696019506903 0 -0.073769461018799692 -0.45951707792468061 0 -0.084521355142842869 -0.45759592347480388 0 -0.089624247433654214 -0.44685599598904568 0 -0.099878095611554862 -0.4393977270813314 0 -0.089545628933694749 -0.43673796215895883 0 -0.077098496045509793 -0.43873696019506903 0 -0.089624247433654214 -0.44685599598904568 0 -0.089545628933694749 -0.43673796215895883 0 -0.072727718816887776 -0.49999999999999672 0 -0.068575109655922298 -0.48253471263916042 0 -0.058853327493046781 -0.48842932436532971 0 -0.072727718816887776 -0.49999999999999672 0 -0.068575109655922298 -0.48253471263916042 0 -0.072727718816887776 -0.49999999999999672 0 -0.068575109655922298 -0.48253471263916042 0 -0.086143661312174283 -0.48253471263916248 0 -0.064422500494955764 -0.4650694252783244 0 -0.068575109655922298 -0.48253471263916042 0 -0.059149819292987238 -0.47777467248794547 0 -0.064422500494955764 -0.4650694252783244 0 -0.068575109655922298 -0.48253471263916042 0 -0.064422500494955764 -0.4650694252783244 0 -0.073769461018799692 -0.45951707792468061 0 -0.086143661312174283 -0.48253471263916248 0 -0.064422500494955764 -0.4650694252783244 0 -0.068575109655922298 -0.48253471263916042 0 -0.086143661312174283 -0.48253471263916248 0 -0.064422500494955764 -0.4650694252783244 0 -0.086143661312174283 -0.48253471263916248 0 -0.072727718816887776 -0.49999999999999672 0 -0.086143661312174283 -0.48253471263916248 0 -0.090296270473140428 -0.5 0 -0.086143661312174283 -0.48253471263916248 0 -0.090296270473140428 -0.5 0 -0.10786482212939311 -0.50000000000000011 0 -0.086143661312174283 -0.48253471263916248 0 -0.10786482212939311 -0.50000000000000011 0 -0.086143661312174283 -0.48253471263916248 0 -0.10786482212939311 -0.50000000000000011 0 -0.1056577076014347 -0.47999846360012538 0 -0.086143661312174283 -0.48253471263916248 0 -0.1056577076014347 -0.47999846360012538 0 -0.099165393688022629 -0.46120376842987459 0 -0.1056577076014347 -0.47999846360012538 0 -0.12108079434187891 -0.47202921183540031 0 -0.099165393688022629 -0.46120376842987459 0 -0.1056577076014347 -0.47999846360012538 0 -0.12108079434187891 -0.47202921183540031 0 -0.1206292342060253 -0.48641385964910883 0 -0.131118449396015 -0.5 0 -0.10786482212939311 -0.50000000000000011 0 -0.1206292342060253 -0.48641385964910883 0 -0.10786482212939311 -0.50000000000000011 0 -0.1056577076014347 -0.47999846360012538 0 -0.1206292342060253 -0.48641385964910883 0 -0.099878095611554862 -0.4393977270813314 0 -0.099165393688022629 -0.46120376842987459 0 -0.099878095611554862 -0.4393977270813314 0 -0.099165393688022629 -0.46120376842987459 0 -0.11615585050415531 -0.45102464773050138 0 -0.089624247433654214 -0.44685599598904568 0 -0.099878095611554862 -0.4393977270813314 0 -0.099165393688022629 -0.46120376842987459 0 -0.12108079434187891 -0.47202921183540031 0 -0.099165393688022629 -0.46120376842987459 0 -0.11615585050415531 -0.45102464773050138 0 -0.13077987840644981 -0.46069854066347632 0 -0.12108079434187891 -0.47202921183540031 0 -0.11615585050415531 -0.45102464773050138 0 -0.13194602454298601 -0.43962244526902572 0 -0.11615585050415531 -0.45102464773050138 0 -0.1129403580353462 -0.43280081863281078 0 -0.099878095611554862 -0.4393977270813314 0 -0.11615585050415531 -0.45102464773050138 0 -0.1129403580353462 -0.43280081863281078 0 -0.13194602454298601 -0.43962244526902572 0 -0.1165997240041481 -0.41847011486561592 0 -0.13194602454298601 -0.43962244526902572 0 -0.1129403580353462 -0.43280081863281078 0 -0.1165997240041481 -0.41847011486561592 0 -0.1129403580353462 -0.43280081863281078 0 -0.1079125428112538 -0.41892639524425412 0 -0.1165997240041481 -0.41847011486561592 0 -0.099878095611554862 -0.4393977270813314 0 -0.100590797535087 -0.41759168573278821 0 -0.092016620863508841 -0.4218345739943074 0 -0.099878095611554862 -0.4393977270813314 0 -0.089545628933694749 -0.43673796215895883 0 -0.092016620863508841 -0.4218345739943074 0 -0.099878095611554862 -0.4393977270813314 0 -0.1129403580353462 -0.43280081863281078 0 -0.10283731640903 -0.42510314405888588 0 -0.099878095611554862 -0.4393977270813314 0 -0.100590797535087 -0.41759168573278821 0 -0.099878095611554862 -0.4393977270813314 0 -0.10283731640903 -0.42510314405888588 0 -0.100590797535087 -0.41759168573278821 0 -0.1129403580353462 -0.43280081863281078 0 -0.10283731640903 -0.42510314405888588 0 -0.1079125428112538 -0.41892639524425412 0 -0.100590797535087 -0.41759168573278821 0 -0.1012534234653099 -0.39731778446220639 0 -0.1165997240041481 -0.41847011486561592 0 -0.1012534234653099 -0.39731778446220639 0 -0.100590797535087 -0.41759168573278821 0 -0.094499944748829334 -0.39722631626938482 0 -0.088610052547492879 -0.41006814396079783 0 -0.100590797535087 -0.41759168573278821 0 -0.1079125428112538 -0.41892639524425412 0 -0.1012534234653099 -0.39731778446220639 0 -0.100590797535087 -0.41759168573278821 0 -0.094499944748829334 -0.39722631626938482 0 -0.1079125428112538 -0.41892639524425412 0 -0.1165997240041481 -0.41847011486561592 0 -0.1012534234653099 -0.39731778446220639 0 -0.10283731640903 -0.42510314405888588 0 -0.100590797535087 -0.41759168573278821 0 -0.1079125428112538 -0.41892639524425412 0 -0.10283731640903 -0.42510314405888588 0 -0.100590797535087 -0.41759168573278821 0 -0.12592730430259419 -0.40432488328170318 0 -0.1165997240041481 -0.41847011486561592 0 -0.1152538145686829 -0.39895411709426332 0 -0.1165997240041481 -0.41847011486561592 0 -0.1152538145686829 -0.39895411709426332 0 -0.1012534234653099 -0.39731778446220639 0 -0.12526638733901391 -0.39147447277512609 0 -0.12592730430259419 -0.40432488328170318 0 -0.1152538145686829 -0.39895411709426332 0 -0.12526638733901391 -0.39147447277512609 0 -0.1152538145686829 -0.39895411709426332 0 -0.1147112201852714 -0.38836266809632891 0 -0.1152538145686829 -0.39895411709426332 0 -0.1147112201852714 -0.38836266809632891 0 -0.1077648281157602 -0.39377477908459929 0 -0.12526638733901391 -0.39147447277512609 0 -0.12201267174342199 -0.37938718301114999 0 -0.1147112201852714 -0.38836266809632891 0 -0.1147112201852714 -0.38836266809632891 0 -0.1094440337948836 -0.37923577087639421 0 -0.1073228884697877 -0.3875649225559597 0 -0.1147112201852714 -0.38836266809632891 0 -0.1073228884697877 -0.3875649225559597 0 -0.1077648281157602 -0.39377477908459929 0 -0.12201267174342199 -0.37938718301114999 0 -0.1147112201852714 -0.38836266809632891 0 -0.1094440337948836 -0.37923577087639421 0 -0.1159926709000937 -0.36685414663024191 0 -0.12201267174342199 -0.37938718301114999 0 -0.1094440337948836 -0.37923577087639421 0 -0.1024060606807759 -0.36205135125861898 0 -0.1094440337948836 -0.37923577087639421 0 -0.1016559479587178 -0.38500202459504551 0 -0.1094440337948836 -0.37923577087639421 0 -0.1016559479587178 -0.38500202459504551 0 -0.1073228884697877 -0.3875649225559597 0 -0.1016559479587178 -0.38500202459504551 0 -0.1014693111655476 -0.390712419775258 0 -0.1016559479587178 -0.38500202459504551 0 -0.1073228884697877 -0.3875649225559597 0 -0.1014693111655476 -0.390712419775258 0 -0.1016559479587178 -0.38500202459504551 0 -0.091585827134305964 -0.3839926061052007 0 -0.1016559479587178 -0.38500202459504551 0 -0.1014693111655476 -0.390712419775258 0 -0.093729726096669103 -0.3869476153003294 0 -0.1016559479587178 -0.38500202459504551 0 -0.091585827134305964 -0.3839926061052007 0 -0.093729726096669103 -0.3869476153003294 0 -0.1014693111655476 -0.390712419775258 0 -0.093729726096669103 -0.3869476153003294 0 -0.1016559479587178 -0.38500202459504551 0 -0.095426438310298192 -0.37780241062099151 0 -0.091585827134305964 -0.3839926061052007 0 -0.100590797535087 -0.41759168573278821 0 -0.1012534234653099 -0.39731778446220639 0 -0.099487365185966847 -0.39952233119993291 0 -0.100590797535087 -0.41759168573278821 0 -0.094499944748829334 -0.39722631626938482 0 -0.099487365185966847 -0.39952233119993291 0 -0.1152538145686829 -0.39895411709426332 0 -0.1077648281157602 -0.39377477908459929 0 -0.1012534234653099 -0.39731778446220639 0 -0.1073228884697877 -0.3875649225559597 0 -0.1077648281157602 -0.39377477908459929 0 -0.1014693111655476 -0.390712419775258 0 -0.1077648281157602 -0.39377477908459929 0 -0.1012534234653099 -0.39731778446220639 0 -0.1014693111655476 -0.390712419775258 0 -0.1077648281157602 -0.39377477908459929 0 -0.1014693111655476 -0.390712419775258 0 -0.1012534234653099 -0.39731778446220639 0 -0.094499944748829334 -0.39722631626938482 0 -0.099487365185966847 -0.39952233119993291 0 -0.1012534234653099 -0.39731778446220639 0 -0.094499944748829334 -0.39722631626938482 0 -0.093729726096669103 -0.3869476153003294 0 -0.1012534234653099 -0.39731778446220639 0 -0.1014693111655476 -0.390712419775258 0 -0.093729726096669103 -0.3869476153003294 0 -0.1012534234653099 -0.39731778446220639 0 -0.093729726096669103 -0.3869476153003294 0 -0.1012534234653099 -0.39731778446220639 0 -0.1014693111655476 -0.390712419775258 0 -0.094499944748829334 -0.39722631626938482 0 -0.099487365185966847 -0.39952233119993291 0 -0.094499944748829334 -0.39722631626938482 0 -0.085553154766675646 -0.40134027138503481 0 -0.088610052547492879 -0.41006814396079783 0 -0.094499944748829334 -0.39722631626938482 0 -0.082560309743270749 -0.39172977139542609 0 -0.085553154766675646 -0.40134027138503481 0 -0.094499944748829334 -0.39722631626938482 0 -0.082560309743270749 -0.39172977139542609 0 -0.091033556626635648 -0.38563610430902873 0 -0.094499944748829334 -0.39722631626938482 0 -0.082560309743270749 -0.39172977139542609 0 -0.094499944748829334 -0.39722631626938482 0 -0.091033556626635648 -0.38563610430902873 0 -0.082560309743270749 -0.39172977139542609 0 -0.079097438192195432 -0.39013559964190198 0 -0.074673198083630793 -0.40544040024196493 0 -0.082560309743270749 -0.39172977139542609 0 -0.079097438192195432 -0.39013559964190198 0 -0.082560309743270749 -0.39172977139542609 0 -0.076542312027108539 -0.406336853914531 0 -0.082560309743270749 -0.39172977139542609 0 -0.085553154766675646 -0.40134027138503481 0 -0.076542312027108539 -0.406336853914531 0 -0.085553154766675646 -0.40134027138503481 0 -0.076542312027108539 -0.406336853914531 0 -0.088610052547492879 -0.41006814396079783 0 -0.090139611558562177 -0.37333304007799939 0 -0.088525620654428705 -0.37725057202694517 0 -0.088525620654428705 -0.37725057202694517 0 -0.087954911787112483 -0.37534235041220648 0 -0.08170780991661282 -0.38109255286014232 0 -0.090139611558562177 -0.37333304007799939 0 -0.088525620654428705 -0.37725057202694517 0 -0.087954911787112483 -0.37534235041220648 0 -0.088525620654428705 -0.37725057202694517 0 -0.087954911787112483 -0.37534235041220648 0 -0.090139611558562177 -0.37333304007799939 0 -0.095426438310298192 -0.37780241062099151 0 -0.088525620654428705 -0.37725057202694517 0 -0.088525620654428705 -0.37725057202694517 0 -0.091585827134305964 -0.3839926061052007 0 -0.095426438310298192 -0.37780241062099151 0 -0.088525620654428705 -0.37725057202694517 0 -0.091585827134305964 -0.3839926061052007 0 -0.088525620654428705 -0.37725057202694517 0 -0.086634605294488312 -0.38349630075200858 0 -0.088525620654428705 -0.37725057202694517 0 -0.086634605294488312 -0.38349630075200858 0 -0.091585827134305964 -0.3839926061052007 0 -0.082560309743270749 -0.39172977139542609 0 -0.086634605294488312 -0.38349630075200858 0 -0.091033556626635648 -0.38563610430902873 0 -0.094499944748829334 -0.39722631626938482 0 -0.091033556626635648 -0.38563610430902873 0 -0.093729726096669103 -0.3869476153003294 0 -0.086634605294488312 -0.38349630075200858 0 -0.091585827134305964 -0.3839926061052007 0 -0.086634605294488312 -0.38349630075200858 0 -0.091033556626635648 -0.38563610430902873 0 -0.086634605294488312 -0.38349630075200858 0 -0.091585827134305964 -0.3839926061052007 0 -0.091033556626635648 -0.38563610430902873 0 -0.091585827134305964 -0.3839926061052007 0 -0.091033556626635648 -0.38563610430902873 0 -0.093729726096669103 -0.3869476153003294 0 -0.091033556626635648 -0.38563610430902873 0 -0.093729726096669103 -0.3869476153003294 0 -0.091585827134305964 -0.3839926061052007 0 -0.093729726096669103 -0.3869476153003294 0 -0.091585827134305964 -0.3839926061052007 0 -0.091033556626635648 -0.38563610430902873 0 -0.082560309743270749 -0.39172977139542609 0 -0.086634605294488312 -0.38349630075200858 0 -0.082560309743270749 -0.39172977139542609 0 -0.086634605294488312 -0.38349630075200858 0 -0.081174899406055781 -0.38294902548401538 0 -0.082560309743270749 -0.39172977139542609 0 -0.079097438192195432 -0.39013559964190198 0 -0.081174899406055781 -0.38294902548401538 0 -0.079097438192195432 -0.39013559964190198 0 -0.081174899406055781 -0.38294902548401538 0 -0.074281153156084773 -0.38791836881244668 0 -0.079097438192195432 -0.39013559964190198 0 -0.081174899406055781 -0.38294902548401538 0 -0.086634605294488312 -0.38349630075200858 0 -0.081174899406055781 -0.38294902548401538 0 -0.088525620654428705 -0.37725057202694517 0 -0.086634605294488312 -0.38349630075200858 0 -0.08170780991661282 -0.38109255286014232 0 -0.086634605294488312 -0.38349630075200858 0 -0.081174899406055781 -0.38294902548401538 0 -0.08170780991661282 -0.38109255286014232 0 -0.086634605294488312 -0.38349630075200858 0 -0.08170780991661282 -0.38109255286014232 0 -0.081174899406055781 -0.38294902548401538 0 -0.08170780991661282 -0.38109255286014232 0 -0.087954911787112483 -0.37534235041220648 0 -0.08170780991661282 -0.38109255286014232 0 -0.055512870853615448 -0.39455951290216967 0 -0.058563253679506787 -0.38068245751723601 0 -0.074281153156084773 -0.38791836881244668 0 -0.058563253679506787 -0.38068245751723601 0 -0.074281153156084773 -0.38791836881244668 0 -0.058387822440418388 -0.36975607908058028 0 -0.08170780991661282 -0.38109255286014232 0 -0.058387822440418388 -0.36975607908058028 0 -0.081174899406055781 -0.38294902548401538 0 -0.08170780991661282 -0.38109255286014232 0 -0.058563253679506787 -0.38068245751723601 0 -0.081174899406055781 -0.38294902548401538 0 -0.074281153156084773 -0.38791836881244668 0 -0.058563253679506787 -0.38068245751723601 0 -0.081174899406055781 -0.38294902548401538 0 -0.058387822440418388 -0.36975607908058028 0 -0.058563253679506787 -0.38068245751723601 0 -0.081174899406055781 -0.38294902548401538 0 -0.081174899406055781 -0.38294902548401538 0 -0.074281153156084773 -0.38791836881244668 0 -0.079097438192195432 -0.39013559964190198 0 -0.074281153156084773 -0.38791836881244668 0 -0.079097438192195432 -0.39013559964190198 0 -0.074281153156084773 -0.38791836881244668 0 -0.074673198083630793 -0.40544040024196493 0 -0.052509649903146327 -0.40794203844841681 0 -0.074281153156084773 -0.38791836881244668 0 -0.052509649903146327 -0.40794203844841681 0 -0.074281153156084773 -0.38791836881244668 0 -0.074673198083630793 -0.40544040024196493 0 -0.082560309743270749 -0.39172977139542609 0 -0.074673198083630793 -0.40544040024196493 0 -0.076542312027108539 -0.406336853914531 0 -0.079097438192195432 -0.39013559964190198 0 -0.074673198083630793 -0.40544040024196493 0 -0.052509649903146327 -0.40794203844841681 0 -0.074673198083630793 -0.40544040024196493 0 -0.070248957975066639 -0.42074520084202788 0 -0.076542312027108539 -0.406336853914531 0 -0.070248957975066639 -0.42074520084202788 0 -0.074673198083630793 -0.40544040024196493 0 -0.070248957975066639 -0.42074520084202788 0 -0.074673198083630793 -0.40544040024196493 0 -0.076542312027108539 -0.406336853914531 0 -0.070248957975066639 -0.42074520084202788 0 -0.070248957975066639 -0.42074520084202788 0 -0.077246521605040669 -0.42579562012280953 0 -0.078194253298280558 -0.41865647959270891 0 -0.076542312027108539 -0.406336853914531 0 -0.070248957975066639 -0.42074520084202788 0 -0.078194253298280558 -0.41865647959270891 0 -0.059775586818595829 -0.41787661413097049 0 -0.070248957975066639 -0.42074520084202788 0 -0.069408814394604765 -0.42365151461769918 0 -0.060002998013559863 -0.44648162232419802 0 -0.069408814394604765 -0.42365151461769918 0 -0.070248957975066639 -0.42074520084202788 0 -0.069408814394604765 -0.42365151461769918 0 -0.077098496045509793 -0.43873696019506903 0 -0.069408814394604765 -0.42365151461769918 0 -0.077246521605040669 -0.42579562012280953 0 -0.070248957975066639 -0.42074520084202788 0 -0.069408814394604765 -0.42365151461769918 0 -0.077246521605040669 -0.42579562012280953 0 -0.070248957975066639 -0.42074520084202788 0 -0.077246521605040669 -0.42579562012280953 0 -0.077246521605040669 -0.42579562012280953 0 -0.082943237868067593 -0.4239856173255338 0 -0.078194253298280558 -0.41865647959270891 0 -0.077098496045509793 -0.43873696019506903 0 -0.082943237868067593 -0.4239856173255338 0 -0.092016620863508841 -0.4218345739943074 0 -0.077098496045509793 -0.43873696019506903 0 -0.089545628933694749 -0.43673796215895883 0 -0.092016620863508841 -0.4218345739943074 0 -0.077098496045509793 -0.43873696019506903 0 -0.092016620863508841 -0.4218345739943074 0 -0.077098496045509793 -0.43873696019506903 0 -0.077246521605040669 -0.42579562012280953 0 -0.082943237868067593 -0.4239856173255338 0 -0.100590797535087 -0.41759168573278821 0 -0.092016620863508841 -0.4218345739943074 0 -0.088610052547492879 -0.41006814396079783 0 -0.082943237868067593 -0.4239856173255338 0 -0.092016620863508841 -0.4218345739943074 0 -0.083714880680240453 -0.41622037016703428 0 -0.092016620863508841 -0.4218345739943074 0 -0.088610052547492879 -0.41006814396079783 0 -0.083714880680240453 -0.41622037016703428 0 -0.076542312027108539 -0.406336853914531 0 -0.088610052547492879 -0.41006814396079783 0 -0.083714880680240453 -0.41622037016703428 0 -0.076542312027108539 -0.406336853914531 0 -0.078194253298280558 -0.41865647959270891 0 -0.083714880680240453 -0.41622037016703428 0 -0.082943237868067593 -0.4239856173255338 0 -0.078194253298280558 -0.41865647959270891 0 -0.083714880680240453 -0.41622037016703428 0 -0.081808777729522386 -0.083143660930833002 0 -0.073985000225153141 -0.099795971436559522 0 -0.085935801107842547 -0.09579043756499836 0 -0.081808777729522386 -0.083143660930833002 0 -0.085935801107842547 -0.09579043756499836 0 -0.094306078709463503 -0.087148618235937392 0 -0.081808777729522386 -0.083143660930833002 0 -0.094306078709463503 -0.087148618235937392 0 -0.095869533599057435 -0.074719864200214883 0 -0.081808777729522386 -0.083143660930833002 0 -0.087640100333796281 -0.066301869750421821 0 -0.076351800502585221 -0.068318825045574613 0 -0.081808777729522386 -0.083143660930833002 0 -0.087640100333796281 -0.066301869750421821 0 -0.095869533599057435 -0.074719864200214883 0 -0.087640100333796281 -0.066301869750421821 0 -0.095869533599057435 -0.074719864200214883 0 -0.097041901727127691 -0.062312633498474219 0 -0.087640100333796281 -0.066301869750421821 0 -0.076351800502585221 -0.068318825045574613 0 -0.079773765115028039 -0.057914828426178573 0 -0.081808777729522386 -0.083143660930833002 0 -0.076351800502585221 -0.068318825045574613 0 -0.068001603171865072 -0.074911341683796137 0 -0.068001603171865072 -0.074911341683796137 0 -0.065822825648978775 -0.060485584973140792 0 -0.05753372126900759 -0.073422836261521005 0 -0.076351800502585221 -0.068318825045574613 0 -0.068001603171865072 -0.074911341683796137 0 -0.065822825648978775 -0.060485584973140792 0 -0.068001603171865072 -0.074911341683796137 0 -0.066670257350634976 -0.085780572793309681 0 -0.05753372126900759 -0.073422836261521005 0 -0.081808777729522386 -0.083143660930833002 0 -0.066670257350634976 -0.085780572793309681 0 -0.073985000225153141 -0.099795971436559522 0 -0.081808777729522386 -0.083143660930833002 0 -0.068001603171865072 -0.074911341683796137 0 -0.066670257350634976 -0.085780572793309681 0 -0.066670257350634976 -0.085780572793309681 0 -0.073985000225153141 -0.099795971436559522 0 -0.05982498813170789 -0.10249801488187529 0 -0.073985000225153141 -0.099795971436559522 0 -0.065415314349395459 -0.11473522154729129 0 -0.05982498813170789 -0.10249801488187529 0 -0.073985000225153141 -0.099795971436559522 0 -0.065415314349395459 -0.11473522154729129 0 -0.07727601190464152 -0.1134926659633375 0 -0.065415314349395459 -0.11473522154729129 0 -0.060446148579459319 -0.1303024678998376 0 -0.071674103496310607 -0.1250344835198243 0 -0.07727601190464152 -0.1134926659633375 0 -0.082994471061899833 -0.1234246307735777 0 -0.071674103496310607 -0.1250344835198243 0 -0.065415314349395459 -0.11473522154729129 0 -0.07727601190464152 -0.1134926659633375 0 -0.071674103496310607 -0.1250344835198243 0 -0.07727601190464152 -0.1134926659633375 0 -0.082994471061899833 -0.1234246307735777 0 -0.08680817640523622 -0.1078855820033275 0 -0.082994471061899833 -0.1234246307735777 0 -0.08680817640523622 -0.1078855820033275 0 -0.095277368860953449 -0.1178446661751102 0 -0.082994471061899833 -0.1234246307735777 0 -0.095277368860953449 -0.1178446661751102 0 -0.095971306836852913 -0.13086642389395989 0 -0.085935801107842547 -0.09579043756499836 0 -0.08680817640523622 -0.1078855820033275 0 -0.1020424425883536 -0.1015565670732166 0 -0.073985000225153141 -0.099795971436559522 0 -0.085935801107842547 -0.09579043756499836 0 -0.08680817640523622 -0.1078855820033275 0 -0.073985000225153141 -0.099795971436559522 0 -0.07727601190464152 -0.1134926659633375 0 -0.08680817640523622 -0.1078855820033275 0 -0.085935801107842547 -0.09579043756499836 0 -0.1020424425883536 -0.1015565670732166 0 -0.094306078709463503 -0.087148618235937392 0 -0.08680817640523622 -0.1078855820033275 0 -0.1020424425883536 -0.1015565670732166 0 -0.095277368860953449 -0.1178446661751102 0 -0.1020424425883536 -0.1015565670732166 0 -0.095277368860953449 -0.1178446661751102 0 -0.1085913382140784 -0.11903379143832921 0 -0.095277368860953449 -0.1178446661751102 0 -0.1085913382140784 -0.11903379143832921 0 -0.095971306836852913 -0.13086642389395989 0 -0.1085913382140784 -0.11903379143832921 0 -0.11893842975153809 -0.10446969177473921 0 -0.12736410167423581 -0.1213878944680517 0 -0.1020424425883536 -0.1015565670732166 0 -0.11893842975153809 -0.10446969177473921 0 -0.1189291253072135 -0.086669643832799348 0 -0.1020424425883536 -0.1015565670732166 0 -0.1085913382140784 -0.11903379143832921 0 -0.11893842975153809 -0.10446969177473921 0 -0.1189291253072135 -0.086669643832799348 0 -0.1056068239719813 -0.08097964138995771 0 -0.1139735316209595 -0.069866863539540053 0 -0.1020424425883536 -0.1015565670732166 0 -0.1189291253072135 -0.086669643832799348 0 -0.1056068239719813 -0.08097964138995771 0 -0.1020424425883536 -0.1015565670732166 0 -0.1056068239719813 -0.08097964138995771 0 -0.094306078709463503 -0.087148618235937392 0 -0.1056068239719813 -0.08097964138995771 0 -0.094306078709463503 -0.087148618235937392 0 -0.095869533599057435 -0.074719864200214883 0 -0.095869533599057435 -0.074719864200214883 0 -0.1039382096783972 -0.069282752438140638 0 -0.097041901727127691 -0.062312633498474219 0 -0.1056068239719813 -0.08097964138995771 0 -0.1039382096783972 -0.069282752438140638 0 -0.1139735316209595 -0.069866863539540053 0 -0.1056068239719813 -0.08097964138995771 0 -0.095869533599057435 -0.074719864200214883 0 -0.1039382096783972 -0.069282752438140638 0 -0.1039382096783972 -0.069282752438140638 0 -0.097041901727127691 -0.062312633498474219 0 -0.1071992574728602 -0.058534759562516372 0 -0.1039382096783972 -0.069282752438140638 0 -0.1139735316209595 -0.069866863539540053 0 -0.1071992574728602 -0.058534759562516372 0 -0.1189291253072135 -0.086669643832799348 0 -0.1139735316209595 -0.069866863539540053 0 -0.12930964035960699 -0.069761515268982097 0 -0.1139735316209595 -0.069866863539540053 0 -0.1161384697585349 -0.056806249932135858 0 -0.12930964035960699 -0.069761515268982097 0 -0.1161384697585349 -0.056806249932135858 0 -0.1208541397454049 -0.045822468476665427 0 -0.12930964035960699 -0.069761515268982097 0 -0.1248214427799455 -0.0491876577223027 0 -0.1208541397454049 -0.045822468476665427 0 -0.12930964035960699 -0.069761515268982097 0 -0.1161384697585349 -0.056806249932135858 0 -0.10991932193075039 -0.048940588969216672 0 -0.1071992574728602 -0.058534759562516372 0 -0.1139735316209595 -0.069866863539540053 0 -0.1161384697585349 -0.056806249932135858 0 -0.1071992574728602 -0.058534759562516372 0 -0.1161384697585349 -0.056806249932135858 0 -0.10991932193075039 -0.048940588969216672 0 -0.1149357203506014 -0.047989794102068162 0 -0.1161384697585349 -0.056806249932135858 0 -0.1149357203506014 -0.047989794102068162 0 -0.1208541397454049 -0.045822468476665427 0 -0.1248214427799455 -0.0491876577223027 0 -0.1208541397454049 -0.045822468476665427 0 -0.1246368416492639 -0.024787675353444869 0 -0.1128309499677153 -0.040389869030254703 0 -0.10841128816168021 -0.033720593740292633 0 -0.11239863913120279 -0.021883421684348751 0 -0.1208541397454049 -0.045822468476665427 0 -0.11239863913120279 -0.021883421684348751 0 -0.1208541397454049 -0.045822468476665427 0 -0.1128309499677153 -0.040389869030254703 0 -0.11239863913120279 -0.021883421684348751 0 -0.1248214427799455 -0.0491876577223027 0 -0.1246368416492639 -0.024787675353444869 0 -0.1149357203506014 -0.047989794102068162 0 -0.1208541397454049 -0.045822468476665427 0 -0.1128309499677153 -0.040389869030254703 0 -0.10991932193075039 -0.048940588969216672 0 -0.1149357203506014 -0.047989794102068162 0 -0.1128309499677153 -0.040389869030254703 0 -0.10991932193075039 -0.048940588969216672 0 -0.1128309499677153 -0.040389869030254703 0 -0.1049963107845597 -0.040407454994133042 0 -0.10991932193075039 -0.048940588969216672 0 -0.1049963107845597 -0.040407454994133042 0 -0.1002598709818909 -0.049694841596422852 0 -0.1049963107845597 -0.040407454994133042 0 -0.10841128816168021 -0.033720593740292633 0 -0.1012581714839781 -0.029848849592015819 0 -0.1128309499677153 -0.040389869030254703 0 -0.1049963107845597 -0.040407454994133042 0 -0.10841128816168021 -0.033720593740292633 0 -0.097298262181343159 -0.039849987036595598 0 -0.1012581714839781 -0.029848849592015819 0 -0.091929659262116575 -0.033133953101480262 0 -0.1049963107845597 -0.040407454994133042 0 -0.097298262181343159 -0.039849987036595598 0 -0.1012581714839781 -0.029848849592015819 0 -0.1049963107845597 -0.040407454994133042 0 -0.097298262181343159 -0.039849987036595598 0 -0.1002598709818909 -0.049694841596422852 0 -0.097298262181343159 -0.039849987036595598 0 -0.1002598709818909 -0.049694841596422852 0 -0.087030839425688053 -0.044306376809862227 0 -0.1002598709818909 -0.049694841596422852 0 -0.097041901727127691 -0.062312633498474219 0 -0.1071992574728602 -0.058534759562516372 0 -0.1002598709818909 -0.049694841596422852 0 -0.097041901727127691 -0.062312633498474219 0 -0.090164156554830718 -0.055563028782557922 0 -0.10991932193075039 -0.048940588969216672 0 -0.1002598709818909 -0.049694841596422852 0 -0.1071992574728602 -0.058534759562516372 0 -0.1244522405185825 -0.00038769298458709092 0 -0.11239863913120279 -0.021883421684348751 0 -0.10394313851700079 0.0020556251079679459 0 -0.1244522405185825 -0.00038769298458709092 0 -0.1246368416492639 -0.024787675353444869 0 -0.1244522405185825 -0.00038769298458709092 0 -0.11239863913120279 -0.021883421684348751 0 -0.1246368416492639 -0.024787675353444869 0 -0.1208541397454049 -0.045822468476665427 0 -0.11239863913120279 -0.021883421684348751 0 -0.1246368416492639 -0.024787675353444869 0 -0.10841128816168021 -0.033720593740292633 0 -0.11239863913120279 -0.021883421684348751 0 -0.1012581714839781 -0.029848849592015819 0 -0.1012581714839781 -0.029848849592015819 0 -0.090677970328949406 -0.022917020247476879 0 -0.091929659262116575 -0.033133953101480262 0 -0.1012581714839781 -0.029848849592015819 0 -0.1001126671493681 -0.016491083843961009 0 -0.090677970328949406 -0.022917020247476879 0 -0.1001126671493681 -0.016491083843961009 0 -0.092285416285709382 -0.0098617528039315269 0 -0.090677970328949406 -0.022917020247476879 0 -0.11239863913120279 -0.021883421684348751 0 -0.1012581714839781 -0.029848849592015819 0 -0.1001126671493681 -0.016491083843961009 0 -0.1001126671493681 -0.016491083843961009 0 -0.092285416285709382 -0.0098617528039315269 0 -0.10394313851700079 0.0020556251079679459 0 -0.11239863913120279 -0.021883421684348751 0 -0.1001126671493681 -0.016491083843961009 0 -0.10394313851700079 0.0020556251079679459 0 -0.092285416285709382 -0.0098617528039315269 0 -0.10394313851700079 0.0020556251079679459 0 -0.085958893623968774 0.001514634656162053 0 -0.11239863913120279 -0.021883421684348751 0 -0.10394313851700079 0.0020556251079679459 0 -0.092285416285709382 -0.0098617528039315269 0 -0.077949881484559239 -0.01307625006729682 0 -0.085958893623968774 0.001514634656162053 0 -0.092285416285709382 -0.0098617528039315269 0 -0.090677970328949406 -0.022917020247476879 0 -0.077949881484559239 -0.01307625006729682 0 -0.090677970328949406 -0.022917020247476879 0 -0.073841780976804383 -0.025706854857452392 0 -0.077949881484559239 -0.01307625006729682 0 -0.090677970328949406 -0.022917020247476879 0 -0.073841780976804383 -0.025706854857452392 0 -0.082102255714859004 -0.034759692131612618 0 -0.090677970328949406 -0.022917020247476879 0 -0.091929659262116575 -0.033133953101480262 0 -0.082102255714859004 -0.034759692131612618 0 -0.073841780976804383 -0.025706854857452392 0 -0.077949881484559239 -0.01307625006729682 0 -0.060674527584339763 -0.015412449877807689 0 -0.073841780976804383 -0.025706854857452392 0 -0.060674527584339763 -0.015412449877807689 0 -0.060703590497751453 -0.03101491529774986 0 -0.077949881484559239 -0.01307625006729682 0 -0.085958893623968774 0.001514634656162053 0 -0.065648076432031049 0.00090955339710942099 0 -0.077949881484559239 -0.01307625006729682 0 -0.060674527584339763 -0.015412449877807689 0 -0.065648076432031049 0.00090955339710942099 0 -0.079773765115028039 -0.057914828426178573 0 -0.087030839425688053 -0.044306376809862227 0 -0.074827122987446398 -0.047817820925290022 0 -0.079773765115028039 -0.057914828426178573 0 -0.090164156554830718 -0.055563028782557922 0 -0.087030839425688053 -0.044306376809862227 0 -0.087640100333796281 -0.066301869750421821 0 -0.079773765115028039 -0.057914828426178573 0 -0.090164156554830718 -0.055563028782557922 0 -0.087640100333796281 -0.066301869750421821 0 -0.097041901727127691 -0.062312633498474219 0 -0.090164156554830718 -0.055563028782557922 0 -0.1002598709818909 -0.049694841596422852 0 -0.090164156554830718 -0.055563028782557922 0 -0.087030839425688053 -0.044306376809862227 0 -0.097298262181343159 -0.039849987036595598 0 -0.087030839425688053 -0.044306376809862227 0 -0.091929659262116575 -0.033133953101480262 0 -0.087030839425688053 -0.044306376809862227 0 -0.091929659262116575 -0.033133953101480262 0 -0.082102255714859004 -0.034759692131612618 0 -0.087030839425688053 -0.044306376809862227 0 -0.082102255714859004 -0.034759692131612618 0 -0.074827122987446398 -0.047817820925290022 0 -0.082102255714859004 -0.034759692131612618 0 -0.070942460250367517 -0.03706080152277047 0 -0.074827122987446398 -0.047817820925290022 0 -0.073841780976804383 -0.025706854857452392 0 -0.082102255714859004 -0.034759692131612618 0 -0.070942460250367517 -0.03706080152277047 0 -0.073841780976804383 -0.025706854857452392 0 -0.070942460250367517 -0.03706080152277047 0 -0.060703590497751453 -0.03101491529774986 0 -0.070942460250367517 -0.03706080152277047 0 -0.061850736208416378 -0.044087883634974623 0 -0.060703590497751453 -0.03101491529774986 0 -0.070942460250367517 -0.03706080152277047 0 -0.074827122987446398 -0.047817820925290022 0 -0.061850736208416378 -0.044087883634974623 0 -0.074827122987446398 -0.047817820925290022 0 -0.065822825648978775 -0.060485584973140792 0 -0.061850736208416378 -0.044087883634974623 0 -0.079773765115028039 -0.057914828426178573 0 -0.074827122987446398 -0.047817820925290022 0 -0.065822825648978775 -0.060485584973140792 0 -0.076351800502585221 -0.068318825045574613 0 -0.079773765115028039 -0.057914828426178573 0 -0.065822825648978775 -0.060485584973140792 0 -0.065822825648978775 -0.060485584973140792 0 -0.051906109188989122 -0.051634581827710108 0 -0.055146373663134192 -0.063188587977351315 0 -0.065822825648978775 -0.060485584973140792 0 -0.051906109188989122 -0.051634581827710108 0 -0.061850736208416378 -0.044087883634974623 0 -0.051906109188989122 -0.051634581827710108 0 -0.044968642856814678 -0.064628327886466996 0 -0.055146373663134192 -0.063188587977351315 0 -0.061850736208416378 -0.044087883634974623 0 -0.048286593140243993 -0.039377229684959138 0 -0.060703590497751453 -0.03101491529774986 0 -0.051906109188989122 -0.051634581827710108 0 -0.061850736208416378 -0.044087883634974623 0 -0.048286593140243993 -0.039377229684959138 0 -0.048286593140243993 -0.039377229684959138 0 -0.039642814346724391 -0.052475069278980747 0 -0.030584103036016622 -0.035608219704199993 0 -0.039642814346724391 -0.052475069278980747 0 -0.024435088609687641 -0.049746151716912712 0 -0.030584103036016622 -0.035608219704199993 0 -0.048286593140243993 -0.039377229684959138 0 -0.044331283213942488 -0.020119990811347448 0 -0.030584103036016622 -0.035608219704199993 0 -0.039642814346724391 -0.052475069278980747 0 -0.03034189778213453 -0.060014988360291517 0 -0.024435088609687641 -0.049746151716912712 0 -0.039642814346724391 -0.052475069278980747 0 -0.03034189778213453 -0.060014988360291517 0 -0.044968642856814678 -0.064628327886466996 0 -0.051906109188989122 -0.051634581827710108 0 -0.039642814346724391 -0.052475069278980747 0 -0.044968642856814678 -0.064628327886466996 0 -0.051906109188989122 -0.051634581827710108 0 -0.048286593140243993 -0.039377229684959138 0 -0.039642814346724391 -0.052475069278980747 0 -0.060674527584339763 -0.015412449877807689 0 -0.044331283213942488 -0.020119990811347448 0 -0.045118160941850949 -0.00049033847668307538 0 -0.060674527584339763 -0.015412449877807689 0 -0.045118160941850949 -0.00049033847668307538 0 -0.065648076432031049 0.00090955339710942099 0 -0.048286593140243993 -0.039377229684959138 0 -0.060703590497751453 -0.03101491529774986 0 -0.044331283213942488 -0.020119990811347448 0 -0.060674527584339763 -0.015412449877807689 0 -0.060703590497751453 -0.03101491529774986 0 -0.044331283213942488 -0.020119990811347448 0 -0.044331283213942488 -0.020119990811347448 0 -0.027025641752002061 -0.0079319500279313396 0 -0.030584103036016622 -0.035608219704199993 0 -0.044331283213942488 -0.020119990811347448 0 -0.045118160941850949 -0.00049033847668307538 0 -0.027025641752002061 -0.0079319500279313396 0 -0.027025641752002061 -0.0079319500279313396 0 -0.0118242871531395 -0.020545428430059291 0 -0.0091716063734174208 -0.003332990253060792 0 -0.027025641752002061 -0.0079319500279313396 0 -0.0091716063734174208 -0.003332990253060792 0 -0.01566814095190756 0.010235570601176981 0 -0.027025641752002061 -0.0079319500279313396 0 -0.0118242871531395 -0.020545428430059291 0 -0.030584103036016622 -0.035608219704199993 0 -0.0118242871531395 -0.020545428430059291 0 -0.030584103036016622 -0.035608219704199993 0 -0.0118242871531395 -0.020545428430059291 0 0.006935528729737548 -0.0054826371559186567 0 0.0027408304473846411 -0.028176541972939319 0 -0.0118242871531395 -0.020545428430059291 0 -0.01026660782967455 -0.041229232136501717 0 0.0027408304473846411 -0.028176541972939319 0 -0.0118242871531395 -0.020545428430059291 0 -0.0091716063734174208 -0.003332990253060792 0 0.006935528729737548 -0.0054826371559186567 0 -0.0118242871531395 -0.020545428430059291 0 0.006935528729737548 -0.0054826371559186567 0 -0.024435088609687641 -0.049746151716912712 0 -0.01026660782967455 -0.041229232136501717 0 -0.01499476028908407 -0.06055090283160456 0 -0.03034189778213453 -0.060014988360291517 0 -0.01499476028908407 -0.06055090283160456 0 -0.03034189778213453 -0.060014988360291517 0 -0.024435088609687641 -0.049746151716912712 0 -0.01499476028908407 -0.06055090283160456 0 -0.024435088609687641 -0.049746151716912712 0 -0.030584103036016622 -0.035608219704199993 0 -0.01026660782967455 -0.041229232136501717 0 -0.0118242871531395 -0.020545428430059291 0 -0.030584103036016622 -0.035608219704199993 0 -0.01026660782967455 -0.041229232136501717 0 -0.01026660782967455 -0.041229232136501717 0 0.0096258971738255473 -0.043108802377643002 0 0.00035237720396625368 -0.061086817302918282 0 -0.01026660782967455 -0.041229232136501717 0 -0.01499476028908407 -0.06055090283160456 0 0.00035237720396625368 -0.061086817302918282 0 -0.01499476028908407 -0.06055090283160456 0 0.00035237720396625368 -0.061086817302918282 0 -0.011408129540087309 -0.083886203777590068 0 0.0065051428120863272 -0.082127796022149757 0 0.00035237720396625368 -0.061086817302918282 0 -0.011408129540087309 -0.083886203777590068 0 0.00035237720396625368 -0.061086817302918282 0 -0.01499476028908407 -0.06055090283160456 0 -0.011408129540087309 -0.083886203777590068 0 0.00035237720396625368 -0.061086817302918282 0 -0.011408129540087309 -0.083886203777590068 0 0.001856719827670471 -0.098182337095309047 0 0.0065051428120863272 -0.082127796022149757 0 -0.011408129540087309 -0.083886203777590068 0 -0.03053113156520738 -0.089911417014305078 0 -0.02316863628414112 -0.10668559025226169 0 -0.011408129540087309 -0.083886203777590068 0 -0.03053113156520738 -0.089911417014305078 0 -0.026049830403481512 -0.075342802050597457 0 -0.01499476028908407 -0.06055090283160456 0 -0.011408129540087309 -0.083886203777590068 0 -0.026049830403481512 -0.075342802050597457 0 -0.03034189778213453 -0.060014988360291517 0 -0.01499476028908407 -0.06055090283160456 0 -0.026049830403481512 -0.075342802050597457 0 -0.03034189778213453 -0.060014988360291517 0 -0.026049830403481512 -0.075342802050597457 0 -0.041349905228919973 -0.078428718904655664 0 -0.03034189778213453 -0.060014988360291517 0 -0.044968642856814678 -0.064628327886466996 0 -0.041349905228919973 -0.078428718904655664 0 -0.03053113156520738 -0.089911417014305078 0 -0.026049830403481512 -0.075342802050597457 0 -0.041349905228919973 -0.078428718904655664 0 -0.03053113156520738 -0.089911417014305078 0 -0.041349905228919973 -0.078428718904655664 0 -0.047432501145458397 -0.097370211357339573 0 -0.041349905228919973 -0.078428718904655664 0 -0.053879666709155317 -0.08598560359304859 0 -0.05753372126900759 -0.073422836261521005 0 -0.041349905228919973 -0.078428718904655664 0 -0.053879666709155317 -0.08598560359304859 0 -0.047432501145458397 -0.097370211357339573 0 -0.066670257350634976 -0.085780572793309681 0 -0.053879666709155317 -0.08598560359304859 0 -0.05982498813170789 -0.10249801488187529 0 -0.066670257350634976 -0.085780572793309681 0 -0.053879666709155317 -0.08598560359304859 0 -0.05753372126900759 -0.073422836261521005 0 -0.044968642856814678 -0.064628327886466996 0 -0.041349905228919973 -0.078428718904655664 0 -0.05753372126900759 -0.073422836261521005 0 -0.065822825648978775 -0.060485584973140792 0 -0.05753372126900759 -0.073422836261521005 0 -0.055146373663134192 -0.063188587977351315 0 -0.044968642856814678 -0.064628327886466996 0 -0.05753372126900759 -0.073422836261521005 0 -0.055146373663134192 -0.063188587977351315 0 -0.065415314349395459 -0.11473522154729129 0 -0.048239208743362072 -0.1165718691901324 0 -0.05982498813170789 -0.10249801488187529 0 -0.065415314349395459 -0.11473522154729129 0 -0.048239208743362072 -0.1165718691901324 0 -0.060446148579459319 -0.1303024678998376 0 -0.048239208743362072 -0.1165718691901324 0 -0.05982498813170789 -0.10249801488187529 0 -0.047432501145458397 -0.097370211357339573 0 -0.053879666709155317 -0.08598560359304859 0 -0.05982498813170789 -0.10249801488187529 0 -0.047432501145458397 -0.097370211357339573 0 -0.048239208743362072 -0.1165718691901324 0 -0.047432501145458397 -0.097370211357339573 0 -0.02316863628414112 -0.10668559025226169 0 -0.03053113156520738 -0.089911417014305078 0 -0.047432501145458397 -0.097370211357339573 0 -0.02316863628414112 -0.10668559025226169 0 -0.048239208743362072 -0.1165718691901324 0 -0.02316863628414112 -0.10668559025226169 0 -0.029948833034415319 -0.13246817914486481 0 -0.02316863628414112 -0.10668559025226169 0 -0.01250087523651249 -0.12826546419306251 0 -0.029948833034415319 -0.13246817914486481 0 -0.011408129540087309 -0.083886203777590068 0 -0.02316863628414112 -0.10668559025226169 0 -0.02316863628414112 -0.10668559025226169 0 0.0015243557028834459 -0.11711868301268021 0 0.001856719827670471 -0.098182337095309047 0 -0.011408129540087309 -0.083886203777590068 0 -0.02316863628414112 -0.10668559025226169 0 0.001856719827670471 -0.098182337095309047 0 -0.02316863628414112 -0.10668559025226169 0 -0.01250087523651249 -0.12826546419306251 0 0.0015243557028834459 -0.11711868301268021 0 -0.01250087523651249 -0.12826546419306251 0 -0.013317386200938249 -0.14799664519887931 0 0.0088678229424013627 -0.13941235935176011 0 -0.01250087523651249 -0.12826546419306251 0 0.0088678229424013627 -0.13941235935176011 0 0.0015243557028834459 -0.11711868301268021 0 -0.01250087523651249 -0.12826546419306251 0 -0.029948833034415319 -0.13246817914486481 0 -0.013317386200938249 -0.14799664519887931 0 -0.013317386200938249 -0.14799664519887931 0 -0.035502595344277812 -0.15658093104599841 0 -0.029948833034415319 -0.13246817914486481 0 -0.013317386200938249 -0.14799664519887931 0 -0.035502595344277812 -0.15658093104599841 0 -0.013317386200938249 -0.14799664519887931 0 0.0088678229424013627 -0.13941235935176011 0 -0.013317386200938249 -0.14799664519887931 0 0.0027310736070901482 -0.15493719994590471 0 0.0088678229424013627 -0.13941235935176011 0 -0.013317386200938249 -0.14799664519887931 0 -0.0013673002328405961 -0.1767093328090546 0 0.0027310736070901482 -0.15493719994590471 0 -0.013317386200938249 -0.14799664519887931 0 -0.0013673002328405961 -0.1767093328090546 0 -0.029934926785222919 -0.1776443960910804 0 -0.0013673002328405961 -0.1767093328090546 0 -0.0217915143334447 -0.19785215020996011 0 -0.0013673002328405961 -0.1767093328090546 0 -0.029934926785222919 -0.1776443960910804 0 -0.0217915143334447 -0.19785215020996011 0 -0.013317386200938249 -0.14799664519887931 0 -0.029934926785222919 -0.1776443960910804 0 -0.035502595344277812 -0.15658093104599841 0 -0.035502595344277812 -0.15658093104599841 0 -0.057687804487617317 -0.16516521689311761 0 -0.029934926785222919 -0.1776443960910804 0 -0.035502595344277812 -0.15658093104599841 0 -0.057687804487617317 -0.16516521689311761 0 -0.029934926785222919 -0.1776443960910804 0 -0.048583433801033478 -0.18728911877980611 0 -0.034676635542126917 -0.191298641696723 0 -0.029934926785222919 -0.1776443960910804 0 -0.048583433801033478 -0.18728911877980611 0 -0.057687804487617317 -0.16516521689311761 0 -0.048583433801033478 -0.18728911877980611 0 -0.057687804487617317 -0.16516521689311761 0 -0.063770138428779252 -0.18079669395549949 0 -0.035502595344277812 -0.15658093104599841 0 -0.057687804487617317 -0.16516521689311761 0 -0.06059931965736505 -0.14742373122833671 0 -0.035502595344277812 -0.15658093104599841 0 -0.06059931965736505 -0.14742373122833671 0 -0.046947221071775923 -0.13666943570183401 0 -0.048239208743362072 -0.1165718691901324 0 -0.046947221071775923 -0.13666943570183401 0 -0.060446148579459319 -0.1303024678998376 0 -0.06059931965736505 -0.14742373122833671 0 -0.046947221071775923 -0.13666943570183401 0 -0.060446148579459319 -0.1303024678998376 0 -0.048239208743362072 -0.1165718691901324 0 -0.029948833034415319 -0.13246817914486481 0 -0.046947221071775923 -0.13666943570183401 0 -0.029948833034415319 -0.13246817914486481 0 -0.035502595344277812 -0.15658093104599841 0 -0.046947221071775923 -0.13666943570183401 0 -0.03064478186574425 -0.25326356670072259 0 -0.026067501294639708 -0.24850247980592871 0 -0.033387688564450117 -0.24425465961654741 0 -0.026067501294639708 -0.24850247980592871 0 -0.02456862519526215 -0.24210395604782819 0 -0.033387688564450117 -0.24425465961654741 0 -0.02974340118516787 -0.23585106297766359 0 -0.02456862519526215 -0.24210395604782819 0 -0.02062871475200042 -0.2320366992723622 0 -0.02974340118516787 -0.23585106297766359 0 -0.02456862519526215 -0.24210395604782819 0 -0.033387688564450117 -0.24425465961654741 0 -0.02456862519526215 -0.24210395604782819 0 -0.01660477195623393 -0.2403164687020414 0 -0.02062871475200042 -0.2320366992723622 0 -0.02456862519526215 -0.24210395604782819 0 -0.01660477195623393 -0.2403164687020414 0 -0.01887874476148543 -0.24814250919209771 0 -0.026067501294639708 -0.24850247980592871 0 -0.02456862519526215 -0.24210395604782819 0 -0.01887874476148543 -0.24814250919209771 0 -0.01660477195623393 -0.2403164687020414 0 -0.01887874476148543 -0.24814250919209771 0 -0.0080727856436109482 -0.2481099565327444 0 -0.0080727856436109482 -0.2481099565327444 0 -0.0084819670471955304 -0.2367225590632196 0 0.0055632338660241776 -0.24332209518663511 0 -0.01660477195623393 -0.2403164687020414 0 -0.0084819670471955304 -0.2367225590632196 0 -0.02062871475200042 -0.2320366992723622 0 -0.01660477195623393 -0.2403164687020414 0 -0.0080727856436109482 -0.2481099565327444 0 -0.0084819670471955304 -0.2367225590632196 0 -0.0084819670471955304 -0.2367225590632196 0 -0.0075276580997289226 -0.21896018305478171 0 0.0032521440618358652 -0.23009641691855939 0 -0.0084819670471955304 -0.2367225590632196 0 -0.0075276580997289226 -0.21896018305478171 0 -0.02062871475200042 -0.2320366992723622 0 -0.0075276580997289226 -0.21896018305478171 0 -0.02062871475200042 -0.2320366992723622 0 -0.024832472176938718 -0.21885173135413241 0 -0.02974340118516787 -0.23585106297766359 0 -0.02062871475200042 -0.2320366992723622 0 -0.031998745265470661 -0.22641465662269231 0 -0.02062871475200042 -0.2320366992723622 0 -0.024832472176938718 -0.21885173135413241 0 -0.031998745265470661 -0.22641465662269231 0 -0.0075276580997289226 -0.21896018305478171 0 -0.024832472176938718 -0.21885173135413241 0 -0.0217915143334447 -0.19785215020996011 0 -0.024832472176938718 -0.21885173135413241 0 -0.0217915143334447 -0.19785215020996011 0 -0.042215728434048867 -0.21899496761086559 0 -0.0075276580997289226 -0.21896018305478171 0 -0.0217915143334447 -0.19785215020996011 0 0.003555539334036632 -0.19934620758084881 0 -0.0013673002328405961 -0.1767093328090546 0 -0.0217915143334447 -0.19785215020996011 0 0.003555539334036632 -0.19934620758084881 0 -0.029934926785222919 -0.1776443960910804 0 -0.0217915143334447 -0.19785215020996011 0 -0.034676635542126917 -0.191298641696723 0 -0.0217915143334447 -0.19785215020996011 0 -0.034676635542126917 -0.191298641696723 0 -0.04224094911505525 -0.20168175555289891 0 -0.048583433801033478 -0.18728911877980611 0 -0.034676635542126917 -0.191298641696723 0 -0.04224094911505525 -0.20168175555289891 0 -0.048583433801033478 -0.18728911877980611 0 -0.058327232484387218 -0.2013044317948425 0 -0.063770138428779252 -0.18079669395549949 0 -0.048583433801033478 -0.18728911877980611 0 -0.04224094911505525 -0.20168175555289891 0 -0.058327232484387218 -0.2013044317948425 0 -0.058327232484387218 -0.2013044317948425 0 -0.04785115009529034 -0.21335122322519601 0 -0.065984069430329237 -0.21594808513783789 0 -0.04224094911505525 -0.20168175555289891 0 -0.058327232484387218 -0.2013044317948425 0 -0.04785115009529034 -0.21335122322519601 0 -0.04785115009529034 -0.21335122322519601 0 -0.065984069430329237 -0.21594808513783789 0 -0.04785115009529034 -0.21335122322519601 0 -0.050089297127046031 -0.22131182591420251 0 -0.065984069430329237 -0.21594808513783789 0 -0.0217915143334447 -0.19785215020996011 0 -0.042215728434048867 -0.21899496761086559 0 -0.0217915143334447 -0.19785215020996011 0 -0.04224094911505525 -0.20168175555289891 0 -0.042215728434048867 -0.21899496761086559 0 -0.04224094911505525 -0.20168175555289891 0 -0.04785115009529034 -0.21335122322519601 0 -0.042215728434048867 -0.21899496761086559 0 -0.04785115009529034 -0.21335122322519601 0 -0.042215728434048867 -0.21899496761086559 0 -0.050089297127046031 -0.22131182591420251 0 -0.024832472176938718 -0.21885173135413241 0 -0.031998745265470661 -0.22641465662269231 0 -0.042215728434048867 -0.21899496761086559 0 -0.031998745265470661 -0.22641465662269231 0 -0.042215728434048867 -0.21899496761086559 0 -0.041320068815934301 -0.22639292378782619 0 -0.031998745265470661 -0.22641465662269231 0 -0.041320068815934301 -0.22639292378782619 0 -0.038133232148655979 -0.23444534332888789 0 -0.02974340118516787 -0.23585106297766359 0 -0.031998745265470661 -0.22641465662269231 0 -0.038133232148655979 -0.23444534332888789 0 -0.041320068815934301 -0.22639292378782619 0 -0.052151212760384272 -0.22988480121754831 0 -0.038133232148655979 -0.23444534332888789 0 -0.042215728434048867 -0.21899496761086559 0 -0.041320068815934301 -0.22639292378782619 0 -0.050089297127046031 -0.22131182591420251 0 -0.041320068815934301 -0.22639292378782619 0 -0.050089297127046031 -0.22131182591420251 0 -0.052151212760384272 -0.22988480121754831 0 -0.0567919256119837 -0.24387644547435741 0 -0.065984069430329237 -0.21594808513783789 0 -0.050089297127046031 -0.22131182591420251 0 -0.052151212760384272 -0.22988480121754831 0 -0.065984069430329237 -0.21594808513783789 0 -0.052151212760384272 -0.22988480121754831 0 -0.0567919256119837 -0.24387644547435741 0 -0.065984069430329237 -0.21594808513783789 0 -0.052151212760384272 -0.22988480121754831 0 -0.0567919256119837 -0.24387644547435741 0 -0.045207486351244337 -0.24272005325013779 0 -0.046517308340487992 -0.25474718453952289 0 -0.0567919256119837 -0.24387644547435741 0 -0.045207486351244337 -0.24272005325013779 0 -0.038581934025118947 -0.25114857380685968 0 -0.046517308340487992 -0.25474718453952289 0 -0.045207486351244337 -0.24272005325013779 0 -0.052151212760384272 -0.22988480121754831 0 -0.045207486351244337 -0.24272005325013779 0 -0.038133232148655979 -0.23444534332888789 0 -0.02974340118516787 -0.23585106297766359 0 -0.038133232148655979 -0.23444534332888789 0 -0.033387688564450117 -0.24425465961654741 0 -0.045207486351244337 -0.24272005325013779 0 -0.038133232148655979 -0.23444534332888789 0 -0.033387688564450117 -0.24425465961654741 0 -0.038581934025118947 -0.25114857380685968 0 -0.03064478186574425 -0.25326356670072259 0 -0.033387688564450117 -0.24425465961654741 0 -0.038581934025118947 -0.25114857380685968 0 -0.045207486351244337 -0.24272005325013779 0 -0.033387688564450117 -0.24425465961654741 0 -0.076282262678724011 -0.24169347649274159 0 -0.094544528280961701 -0.23130979592197831 0 -0.1005321994236209 -0.2431127607729493 0 -0.090174700483665673 -0.26498018187443112 0 -0.076282262678724011 -0.24169347649274159 0 -0.1005321994236209 -0.2431127607729493 0 -0.063484538676239377 -0.26413124226689111 0 -0.0567919256119837 -0.24387644547435741 0 -0.076282262678724011 -0.24169347649274159 0 -0.0567919256119837 -0.24387644547435741 0 -0.076282262678724011 -0.24169347649274159 0 -0.076216545617433393 -0.2267874217425101 0 -0.0567919256119837 -0.24387644547435741 0 -0.076216545617433393 -0.2267874217425101 0 -0.065984069430329237 -0.21594808513783789 0 -0.076216545617433393 -0.2267874217425101 0 -0.089079986681209755 -0.21925571071859279 0 -0.065984069430329237 -0.21594808513783789 0 -0.076282262678724011 -0.24169347649274159 0 -0.076216545617433393 -0.2267874217425101 0 -0.089079986681209755 -0.21925571071859279 0 -0.076282262678724011 -0.24169347649274159 0 -0.089079986681209755 -0.21925571071859279 0 -0.076282262678724011 -0.24169347649274159 0 -0.089079986681209755 -0.21925571071859279 0 -0.094544528280961701 -0.23130979592197831 0 -0.089079986681209755 -0.21925571071859279 0 -0.087982693832912948 -0.20610030108417279 0 -0.065984069430329237 -0.21594808513783789 0 -0.089079986681209755 -0.21925571071859279 0 -0.091681034097487346 -0.21469539259619891 0 -0.087982693832912948 -0.20610030108417279 0 -0.089079986681209755 -0.21925571071859279 0 -0.091681034097487346 -0.21469539259619891 0 -0.089079986681209755 -0.21925571071859279 0 -0.065984069430329237 -0.21594808513783789 0 -0.058327232484387218 -0.2013044317948425 0 -0.065984069430329237 -0.21594808513783789 0 -0.072928541530643487 -0.1948487939390374 0 -0.065984069430329237 -0.21594808513783789 0 -0.072928541530643487 -0.1948487939390374 0 -0.087982693832912948 -0.20610030108417279 0 -0.065984069430329237 -0.21594808513783789 0 -0.072928541530643487 -0.1948487939390374 0 -0.058327232484387218 -0.2013044317948425 0 -0.072928541530643487 -0.1948487939390374 0 -0.063770138428779252 -0.18079669395549949 0 -0.087982693832912948 -0.20610030108417279 0 -0.072928541530643487 -0.1948487939390374 0 -0.088647710124579282 -0.1895137930351245 0 -0.087982693832912948 -0.20610030108417279 0 -0.088647710124579282 -0.1895137930351245 0 -0.098413722631135098 -0.19641739989264009 0 -0.088647710124579282 -0.1895137930351245 0 -0.098413722631135098 -0.19641739989264009 0 -0.1039428787252024 -0.18306303235069041 0 -0.087982693832912948 -0.20610030108417279 0 -0.098413722631135098 -0.19641739989264009 0 -0.1018219586260966 -0.2062222809526808 0 -0.098413722631135098 -0.19641739989264009 0 -0.10967337184688419 -0.19718759204053191 0 -0.1018219586260966 -0.2062222809526808 0 -0.098413722631135098 -0.19641739989264009 0 -0.10967337184688419 -0.19718759204053191 0 -0.1039428787252024 -0.18306303235069041 0 -0.1039428787252024 -0.18306303235069041 0 -0.1280127438194481 -0.19237656196114411 0 -0.10967337184688419 -0.19718759204053191 0 -0.1178174188303993 -0.20556040013348681 0 -0.1280127438194481 -0.19237656196114411 0 -0.10967337184688419 -0.19718759204053191 0 -0.1039428787252024 -0.18306303235069041 0 -0.1280127438194481 -0.19237656196114411 0 -0.10967337184688419 -0.19718759204053191 0 -0.10961342770230489 -0.21003706569406461 0 -0.1178174188303993 -0.20556040013348681 0 -0.1178174188303993 -0.20556040013348681 0 -0.1109550451866443 -0.21888036136960631 0 -0.13246178853905299 -0.20873151589840269 0 -0.1109550451866443 -0.21888036136960631 0 -0.13246178853905299 -0.20873151589840269 0 -0.1109550451866443 -0.21888036136960631 0 -0.12407830270498089 -0.22426790937284519 0 -0.13246178853905299 -0.20873151589840269 0 -0.10961342770230489 -0.21003706569406461 0 -0.1178174188303993 -0.20556040013348681 0 -0.1109550451866443 -0.21888036136960631 0 -0.10961342770230489 -0.21003706569406461 0 -0.103172625086798 -0.22127395363072039 0 -0.1109550451866443 -0.21888036136960631 0 -0.10961342770230489 -0.21003706569406461 0 -0.1018219586260966 -0.2062222809526808 0 -0.103172625086798 -0.22127395363072039 0 -0.10967337184688419 -0.19718759204053191 0 -0.10961342770230489 -0.21003706569406461 0 -0.1018219586260966 -0.2062222809526808 0 -0.091681034097487346 -0.21469539259619891 0 -0.087982693832912948 -0.20610030108417279 0 -0.103172625086798 -0.22127395363072039 0 -0.089079986681209755 -0.21925571071859279 0 -0.091681034097487346 -0.21469539259619891 0 -0.103172625086798 -0.22127395363072039 0 -0.087982693832912948 -0.20610030108417279 0 -0.103172625086798 -0.22127395363072039 0 -0.087982693832912948 -0.20610030108417279 0 -0.1018219586260966 -0.2062222809526808 0 -0.103172625086798 -0.22127395363072039 0 -0.094544528280961701 -0.23130979592197831 0 -0.103172625086798 -0.22127395363072039 0 -0.1005321994236209 -0.2431127607729493 0 -0.089079986681209755 -0.21925571071859279 0 -0.103172625086798 -0.22127395363072039 0 -0.089079986681209755 -0.21925571071859279 0 -0.094544528280961701 -0.23130979592197831 0 -0.103172625086798 -0.22127395363072039 0 -0.103172625086798 -0.22127395363072039 0 -0.1223681628105569 -0.24044891992886891 0 -0.103172625086798 -0.22127395363072039 0 -0.12407830270498089 -0.22426790937284519 0 -0.1238233973506119 -0.23541481827178831 0 -0.103172625086798 -0.22127395363072039 0 -0.1223681628105569 -0.24044891992886891 0 -0.1238233973506119 -0.23541481827178831 0 -0.103172625086798 -0.22127395363072039 0 -0.12407830270498089 -0.22426790937284519 0 -0.103172625086798 -0.22127395363072039 0 -0.1109550451866443 -0.21888036136960631 0 -0.12407830270498089 -0.22426790937284519 0 -0.11757885349586771 -0.25701660664448461 0 -0.1223681628105569 -0.24044891992886891 0 -0.1005321994236209 -0.2431127607729493 0 -0.11757885349586771 -0.25701660664448461 0 -0.1223681628105569 -0.24044891992886891 0 -0.1223681628105569 -0.24044891992886891 0 -0.1238233973506119 -0.23541481827178831 0 -0.103172625086798 -0.22127395363072039 0 -0.1223681628105569 -0.24044891992886891 0 -0.1005321994236209 -0.2431127607729493 0 -0.088441251280713618 -0.1477167476767523 0 -0.085474651021334253 -0.13655174303235951 0 -0.077236065216807342 -0.1460130695171887 0 -0.088441251280713618 -0.1477167476767523 0 -0.077236065216807342 -0.1460130695171887 0 -0.072985053953480025 -0.15595005707556001 0 -0.088441251280713618 -0.1477167476767523 0 -0.093538562727787294 -0.15940564464812701 0 -0.098894310772838973 -0.14952020789867901 0 -0.088441251280713618 -0.1477167476767523 0 -0.085474651021334253 -0.13655174303235951 0 -0.095252038160572317 -0.1406191133899993 0 -0.085474651021334253 -0.13655174303235951 0 -0.095971306836852913 -0.13086642389395989 0 -0.095252038160572317 -0.1406191133899993 0 -0.082994471061899833 -0.1234246307735777 0 -0.085474651021334253 -0.13655174303235951 0 -0.095971306836852913 -0.13086642389395989 0 -0.082994471061899833 -0.1234246307735777 0 -0.085474651021334253 -0.13655174303235951 0 -0.073596501371478315 -0.1364787996572045 0 -0.085474651021334253 -0.13655174303235951 0 -0.073596501371478315 -0.1364787996572045 0 -0.077236065216807342 -0.1460130695171887 0 -0.06059931965736505 -0.14742373122833671 0 -0.060446148579459319 -0.1303024678998376 0 -0.073596501371478315 -0.1364787996572045 0 -0.082994471061899833 -0.1234246307735777 0 -0.073596501371478315 -0.1364787996572045 0 -0.071674103496310607 -0.1250344835198243 0 -0.060446148579459319 -0.1303024678998376 0 -0.073596501371478315 -0.1364787996572045 0 -0.071674103496310607 -0.1250344835198243 0 -0.06059931965736505 -0.14742373122833671 0 -0.073596501371478315 -0.1364787996572045 0 -0.077236065216807342 -0.1460130695171887 0 -0.057687804487617317 -0.16516521689311761 0 -0.06059931965736505 -0.14742373122833671 0 -0.072985053953480025 -0.15595005707556001 0 -0.06059931965736505 -0.14742373122833671 0 -0.077236065216807342 -0.1460130695171887 0 -0.072985053953480025 -0.15595005707556001 0 -0.057687804487617317 -0.16516521689311761 0 -0.079873013630956835 -0.17374950274023659 0 -0.057687804487617317 -0.16516521689311761 0 -0.072985053953480025 -0.15595005707556001 0 -0.079873013630956835 -0.17374950274023659 0 -0.072928541530643487 -0.1948487939390374 0 -0.079873013630956835 -0.17374950274023659 0 -0.057687804487617317 -0.16516521689311761 0 -0.063770138428779252 -0.18079669395549949 0 -0.079873013630956835 -0.17374950274023659 0 -0.072928541530643487 -0.1948487939390374 0 -0.063770138428779252 -0.18079669395549949 0 -0.079873013630956835 -0.17374950274023659 0 -0.072928541530643487 -0.1948487939390374 0 -0.088647710124579282 -0.1895137930351245 0 -0.079873013630956835 -0.17374950274023659 0 -0.079873013630956835 -0.17374950274023659 0 -0.1039428787252024 -0.18306303235069041 0 -0.088647710124579282 -0.1895137930351245 0 -0.079873013630956835 -0.17374950274023659 0 -0.1039428787252024 -0.18306303235069041 0 -0.088441251280713618 -0.1477167476767523 0 -0.079873013630956835 -0.17374950274023659 0 -0.079873013630956835 -0.17374950274023659 0 -0.093538562727787294 -0.15940564464812701 0 -0.098088850166783578 -0.16700629557107341 0 -0.088441251280713618 -0.1477167476767523 0 -0.079873013630956835 -0.17374950274023659 0 -0.093538562727787294 -0.15940564464812701 0 -0.088441251280713618 -0.1477167476767523 0 -0.072985053953480025 -0.15595005707556001 0 -0.079873013630956835 -0.17374950274023659 0 -0.093538562727787294 -0.15940564464812701 0 -0.098088850166783578 -0.16700629557107341 0 -0.1023953877876435 -0.15903546935389351 0 -0.098088850166783578 -0.16700629557107341 0 -0.1039428787252024 -0.18306303235069041 0 -0.1119878388851908 -0.16231915977259129 0 -0.098088850166783578 -0.16700629557107341 0 -0.1023953877876435 -0.15903546935389351 0 -0.1119878388851908 -0.16231915977259129 0 -0.079873013630956835 -0.17374950274023659 0 -0.098088850166783578 -0.16700629557107341 0 -0.1039428787252024 -0.18306303235069041 0 -0.1039428787252024 -0.18306303235069041 0 -0.11859204859796291 -0.17560578940816099 0 -0.1119878388851908 -0.16231915977259129 0 -0.1039428787252024 -0.18306303235069041 0 -0.11859204859796291 -0.17560578940816099 0 -0.1280127438194481 -0.19237656196114411 0 -0.1023953877876435 -0.15903546935389351 0 -0.1119878388851908 -0.16231915977259129 0 -0.1169630623746598 -0.14907522687480429 0 -0.11859204859796291 -0.17560578940816099 0 -0.1119878388851908 -0.16231915977259129 0 -0.12588679133122799 -0.1624874708491951 0 -0.1119878388851908 -0.16231915977259129 0 -0.1169630623746598 -0.14907522687480429 0 -0.12588679133122799 -0.1624874708491951 0 -0.1119878388851908 -0.16231915977259129 0 -0.1169630623746598 -0.14907522687480429 0 -0.1023953877876435 -0.15903546935389351 0 -0.1169630623746598 -0.14907522687480429 0 -0.098894310772838973 -0.14952020789867901 0 -0.1169630623746598 -0.14907522687480429 0 -0.098894310772838973 -0.14952020789867901 0 -0.1169630623746598 -0.14907522687480429 0 -0.098894310772838973 -0.14952020789867901 0 -0.1074786708911218 -0.1384404444482458 0 -0.088441251280713618 -0.1477167476767523 0 -0.098894310772838973 -0.14952020789867901 0 -0.095252038160572317 -0.1406191133899993 0 -0.098894310772838973 -0.14952020789867901 0 -0.095252038160572317 -0.1406191133899993 0 -0.1074786708911218 -0.1384404444482458 0 -0.093538562727787294 -0.15940564464812701 0 -0.1023953877876435 -0.15903546935389351 0 -0.098894310772838973 -0.14952020789867901 0 -0.1085913382140784 -0.11903379143832921 0 -0.095971306836852913 -0.13086642389395989 0 -0.1074786708911218 -0.1384404444482458 0 -0.095971306836852913 -0.13086642389395989 0 -0.095252038160572317 -0.1406191133899993 0 -0.1074786708911218 -0.1384404444482458 0 -0.1085913382140784 -0.11903379143832921 0 -0.1074786708911218 -0.1384404444482458 0 -0.12736410167423581 -0.1213878944680517 0 -0.1169630623746598 -0.14907522687480429 0 -0.1074786708911218 -0.1384404444482458 0 -0.12736410167423581 -0.1213878944680517 0 -0.1169630623746598 -0.14907522687480429 0 -0.12736410167423581 -0.1213878944680517 0 -0.13746664940214659 -0.13470709103134659 0 -0.12736410167423581 -0.1213878944680517 0 -0.14737054533773081 -0.1208951937003558 0 -0.1169630623746598 -0.14907522687480429 0 -0.13746664940214659 -0.13470709103134659 0 -0.12736410167423581 -0.1213878944680517 0 -0.1569759497016511 -0.14808982533941309 0 -0.14737054533773081 -0.1208951937003558 0 -0.13746664940214659 -0.13470709103134659 0 -0.1569759497016511 -0.14808982533941309 0 -0.14737054533773081 -0.1208951937003558 0 -0.1369695060381555 -0.1485825261071109 0 -0.1526603788815559 -0.1573596194762775 0 -0.1569759497016511 -0.14808982533941309 0 -0.13746664940214659 -0.13470709103134659 0 -0.1369695060381555 -0.1485825261071109 0 -0.1569759497016511 -0.14808982533941309 0 -0.1369695060381555 -0.1485825261071109 0 -0.1569759497016511 -0.14808982533941309 0 -0.1169630623746598 -0.14907522687480429 0 -0.1369695060381555 -0.1485825261071109 0 -0.1169630623746598 -0.14907522687480429 0 -0.1369695060381555 -0.1485825261071109 0 -0.12588679133122799 -0.1624874708491951 0 -0.1169630623746598 -0.14907522687480429 0 -0.13746664940214659 -0.13470709103134659 0 -0.1369695060381555 -0.1485825261071109 0 -0.11859204859796291 -0.17560578940816099 0 -0.12588679133122799 -0.1624874708491951 0 -0.13147554750711021 -0.17522771154146191 0 -0.12588679133122799 -0.1624874708491951 0 -0.13147554750711021 -0.17522771154146191 0 -0.14107140235061469 -0.16358211752318311 0 -0.13147554750711021 -0.17522771154146191 0 -0.14520517551865919 -0.17294749126987599 0 -0.14107140235061469 -0.16358211752318311 0 -0.1369695060381555 -0.1485825261071109 0 -0.12588679133122799 -0.1624874708491951 0 -0.14107140235061469 -0.16358211752318311 0 -0.11859204859796291 -0.17560578940816099 0 -0.13147554750711021 -0.17522771154146191 0 -0.1280127438194481 -0.19237656196114411 0 -0.13147554750711021 -0.17522771154146191 0 -0.1398254013782112 -0.18365029146927231 0 -0.1280127438194481 -0.19237656196114411 0 -0.13147554750711021 -0.17522771154146191 0 -0.1398254013782112 -0.18365029146927231 0 -0.14520517551865919 -0.17294749126987599 0 -0.1398254013782112 -0.18365029146927231 0 -0.14820117369214661 -0.18035874543477601 0 -0.1498687104188495 -0.18767128888863599 0 -0.1398254013782112 -0.18365029146927231 0 -0.14820117369214661 -0.18035874543477601 0 -0.14520517551865919 -0.17294749126987599 0 -0.14820117369214661 -0.18035874543477601 0 -0.14520517551865919 -0.17294749126987599 0 -0.1568216795970071 -0.17538216601134321 0 -0.14820117369214661 -0.18035874543477601 0 -0.15608754076248521 -0.18190001438557629 0 -0.1568216795970071 -0.17538216601134321 0 -0.14520517551865919 -0.17294749126987599 0 -0.15263532751206779 -0.16758471640843459 0 -0.1568216795970071 -0.17538216601134321 0 -0.14820117369214661 -0.18035874543477601 0 -0.15608754076248521 -0.18190001438557629 0 -0.1498687104188495 -0.18767128888863599 0 -0.15608754076248521 -0.18190001438557629 0 -0.1607184616130248 -0.18728683910860641 0 -0.1498687104188495 -0.18767128888863599 0 -0.1369695060381555 -0.1485825261071109 0 -0.14107140235061469 -0.16358211752318311 0 -0.1526603788815559 -0.1573596194762775 0 -0.14520517551865919 -0.17294749126987599 0 -0.14107140235061469 -0.16358211752318311 0 -0.15263532751206779 -0.16758471640843459 0 -0.15263532751206779 -0.16758471640843459 0 -0.1526603788815559 -0.1573596194762775 0 -0.16142564196989831 -0.16655703171874039 0 -0.14107140235061469 -0.16358211752318311 0 -0.15263532751206779 -0.16758471640843459 0 -0.1526603788815559 -0.1573596194762775 0 -0.1526603788815559 -0.1573596194762775 0 -0.16142564196989831 -0.16655703171874039 0 -0.16326087804426159 -0.16588359066980229 0 -0.16326087804426159 -0.16588359066980229 0 -0.1569759497016511 -0.14808982533941309 0 -0.1526603788815559 -0.1573596194762775 0 -0.16326087804426159 -0.16588359066980229 0 -0.1569759497016511 -0.14808982533941309 0 -0.1594122663447772 -0.17133307891758459 0 -0.16142564196989831 -0.16655703171874039 0 -0.16676641630013581 -0.17580840153182001 0 -0.15263532751206779 -0.16758471640843459 0 -0.1594122663447772 -0.17133307891758459 0 -0.16142564196989831 -0.16655703171874039 0 -0.16142564196989831 -0.16655703171874039 0 -0.16326087804426159 -0.16588359066980229 0 -0.16676641630013581 -0.17580840153182001 0 -0.15263532751206779 -0.16758471640843459 0 -0.1594122663447772 -0.17133307891758459 0 -0.1568216795970071 -0.17538216601134321 0 -0.16142564196989831 -0.16655703171874039 0 -0.16326087804426159 -0.16588359066980229 0 -0.16326087804426159 -0.16588359066980229 0 -0.16676641630013581 -0.17580840153182001 0 -0.1783922457352059 -0.17293489930968209 0 -0.16326087804426159 -0.16588359066980229 0 -0.16676641630013581 -0.17580840153182001 0 -0.15608754076248521 -0.18190001438557629 0 -0.1607184616130248 -0.18728683910860641 0 -0.16676641630013581 -0.17580840153182001 0 -0.15608754076248521 -0.18190001438557629 0 -0.1568216795970071 -0.17538216601134321 0 -0.16676641630013581 -0.17580840153182001 0 -0.1594122663447772 -0.17133307891758459 0 -0.1568216795970071 -0.17538216601134321 0 -0.16676641630013581 -0.17580840153182001 0 -0.1607184616130248 -0.18728683910860641 0 -0.16676641630013581 -0.17580840153182001 0 -0.17547527524387041 -0.1884338249559952 0 -0.17547527524387041 -0.1884338249559952 0 -0.1969820185962792 -0.17828497948479149 0 -0.1783922457352059 -0.17293489930968209 0 -0.17547527524387041 -0.1884338249559952 0 -0.1969820185962792 -0.17828497948479149 0 -0.16676641630013581 -0.17580840153182001 0 -0.1783922457352059 -0.17293489930968209 0 -0.17547527524387041 -0.1884338249559952 0 -0.16326087804426159 -0.16588359066980229 0 -0.18947664049148261 -0.1562636999060015 0 -0.16326087804426159 -0.16588359066980229 0 -0.18633417632017751 -0.14736681724080919 0 -0.18947664049148261 -0.1562636999060015 0 -0.16326087804426159 -0.16588359066980229 0 -0.1783922457352059 -0.17293489930968209 0 -0.18947664049148261 -0.1562636999060015 0 -0.18633417632017751 -0.14736681724080919 0 -0.16621773075288121 -0.1295318635244681 0 -0.18400621351090571 -0.1217110611121094 0 -0.16621773075288121 -0.1295318635244681 0 -0.1569759497016511 -0.14808982533941309 0 -0.14737054533773081 -0.1208951937003558 0 -0.18633417632017751 -0.14736681724080919 0 -0.16621773075288121 -0.1295318635244681 0 -0.1569759497016511 -0.14808982533941309 0 -0.18633417632017751 -0.14736681724080919 0 -0.1569759497016511 -0.14808982533941309 0 -0.16326087804426159 -0.16588359066980229 0 -0.18633417632017751 -0.14736681724080919 0 -0.1569759497016511 -0.14808982533941309 0 -0.1377523016625678 -0.25581657194563601 0 -0.15263230708737521 -0.24356194903458239 0 -0.13476861079800859 -0.2391754021203874 0 -0.15263230708737521 -0.24356194903458239 0 -0.13476861079800859 -0.2391754021203874 0 -0.14055595197029169 -0.22979662500526149 0 -0.1377523016625678 -0.25581657194563601 0 -0.1223681628105569 -0.24044891992886891 0 -0.13476861079800859 -0.2391754021203874 0 -0.1377523016625678 -0.25581657194563601 0 -0.1223681628105569 -0.24044891992886891 0 -0.1238233973506119 -0.23541481827178831 0 -0.13476861079800859 -0.2391754021203874 0 -0.13139441447274411 -0.22962184130071481 0 -0.1223681628105569 -0.24044891992886891 0 -0.1238233973506119 -0.23541481827178831 0 -0.13476861079800859 -0.2391754021203874 0 -0.13476861079800859 -0.2391754021203874 0 -0.14055595197029169 -0.22979662500526149 0 -0.13139441447274411 -0.22962184130071481 0 -0.12407830270498089 -0.22426790937284519 0 -0.1238233973506119 -0.23541481827178831 0 -0.13139441447274411 -0.22962184130071481 0 -0.12407830270498089 -0.22426790937284519 0 -0.13139441447274411 -0.22962184130071481 0 -0.13441394179160859 -0.22010184774946731 0 -0.14055595197029169 -0.22979662500526149 0 -0.13139441447274411 -0.22962184130071481 0 -0.13441394179160859 -0.22010184774946731 0 -0.14055595197029169 -0.22979662500526149 0 -0.13441394179160859 -0.22010184774946731 0 -0.14940536450650499 -0.21373664043116339 0 -0.15263230708737521 -0.24356194903458239 0 -0.14940536450650499 -0.21373664043116339 0 -0.15263230708737521 -0.24356194903458239 0 -0.14940536450650499 -0.21373664043116339 0 -0.16621803193972459 -0.22739125443424221 0 -0.15263230708737521 -0.24356194903458239 0 -0.14055595197029169 -0.22979662500526149 0 -0.14940536450650499 -0.21373664043116339 0 -0.14940536450650499 -0.21373664043116339 0 -0.13246178853905299 -0.20873151589840269 0 -0.1539685318914617 -0.1985826704271989 0 -0.13246178853905299 -0.20873151589840269 0 -0.1539685318914617 -0.1985826704271989 0 -0.13441394179160859 -0.22010184774946731 0 -0.14940536450650499 -0.21373664043116339 0 -0.13246178853905299 -0.20873151589840269 0 -0.12407830270498089 -0.22426790937284519 0 -0.13441394179160859 -0.22010184774946731 0 -0.13246178853905299 -0.20873151589840269 0 -0.1178174188303993 -0.20556040013348681 0 -0.13246178853905299 -0.20873151589840269 0 -0.1280127438194481 -0.19237656196114411 0 -0.13246178853905299 -0.20873151589840269 0 -0.1280127438194481 -0.19237656196114411 0 -0.14041115317576749 -0.19424917250638599 0 -0.1398254013782112 -0.18365029146927231 0 -0.1280127438194481 -0.19237656196114411 0 -0.14041115317576749 -0.19424917250638599 0 -0.13246178853905299 -0.20873151589840269 0 -0.14041115317576749 -0.19424917250638599 0 -0.1539685318914617 -0.1985826704271989 0 -0.14041115317576749 -0.19424917250638599 0 -0.1539685318914617 -0.1985826704271989 0 -0.1498687104188495 -0.18767128888863599 0 -0.1398254013782112 -0.18365029146927231 0 -0.14041115317576749 -0.19424917250638599 0 -0.1498687104188495 -0.18767128888863599 0 -0.1607184616130248 -0.18728683910860641 0 -0.1539685318914617 -0.1985826704271989 0 -0.1498687104188495 -0.18767128888863599 0 -0.1607184616130248 -0.18728683910860641 0 -0.1539685318914617 -0.1985826704271989 0 -0.17547527524387041 -0.1884338249559952 0 -0.1539685318914617 -0.1985826704271989 0 -0.17547527524387041 -0.1884338249559952 0 -0.16825702714884239 -0.20885775366498019 0 -0.1539685318914617 -0.1985826704271989 0 -0.17547527524387041 -0.1884338249559952 0 -0.17547527524387041 -0.1884338249559952 0 -0.18277425339256639 -0.2026996383603622 0 -0.16825702714884239 -0.20885775366498019 0 -0.17547527524387041 -0.1884338249559952 0 -0.18277425339256639 -0.2026996383603622 0 -0.1902080517791363 -0.1917922864575213 0 -0.18277425339256639 -0.2026996383603622 0 -0.16825702714884239 -0.20885775366498019 0 -0.18626938338499441 -0.22517712183416291 0 -0.14940536450650499 -0.21373664043116339 0 -0.1539685318914617 -0.1985826704271989 0 -0.16825702714884239 -0.20885775366498019 0 -0.14940536450650499 -0.21373664043116339 0 -0.16825702714884239 -0.20885775366498019 0 -0.16621803193972459 -0.22739125443424221 0 -0.16825702714884239 -0.20885775366498019 0 -0.16621803193972459 -0.22739125443424221 0 -0.18626938338499441 -0.22517712183416291 0 -0.16621803193972459 -0.22739125443424221 0 -0.18626938338499441 -0.22517712183416291 0 -0.1745260775709061 -0.24562280720632229 0 -0.18626938338499441 -0.22517712183416291 0 -0.1745260775709061 -0.24562280720632229 0 -0.19988453840298659 -0.24176205441804 0 -0.18626938338499441 -0.22517712183416291 0 -0.1745260775709061 -0.24562280720632229 0 -0.15263230708737521 -0.24356194903458239 0 -0.16621803193972459 -0.22739125443424221 0 -0.1745260775709061 -0.24562280720632229 0 -0.1689202540561075 -0.25519621835756329 0 -0.15263230708737521 -0.24356194903458239 0 -0.1745260775709061 -0.24562280720632229 0 -0.21854221021918649 -0.25236034283526498 0 -0.19988453840298659 -0.24176205441804 0 -0.21493562756427159 -0.22243862284749449 0 -0.19160736129165659 -0.25262396586623759 0 -0.1745260775709061 -0.24562280720632229 0 -0.19988453840298659 -0.24176205441804 0 -0.18626938338499441 -0.22517712183416291 0 -0.19988453840298659 -0.24176205441804 0 -0.21493562756427159 -0.22243862284749449 0 -0.21493562756427159 -0.22243862284749449 0 -0.19801268919908249 -0.2047314364620034 0 -0.21541309520260529 -0.20113031717637361 0 -0.18626938338499441 -0.22517712183416291 0 -0.19801268919908249 -0.2047314364620034 0 -0.18277425339256639 -0.2026996383603622 0 -0.18626938338499441 -0.22517712183416291 0 -0.19801268919908249 -0.2047314364620034 0 -0.18626938338499441 -0.22517712183416291 0 -0.21493562756427159 -0.22243862284749449 0 -0.19801268919908249 -0.2047314364620034 0 -0.19801268919908249 -0.2047314364620034 0 -0.1902080517791363 -0.1917922864575213 0 -0.20975599501317069 -0.18428575108984399 0 -0.18277425339256639 -0.2026996383603622 0 -0.19801268919908249 -0.2047314364620034 0 -0.1902080517791363 -0.1917922864575213 0 -0.21541309520260529 -0.20113031717637361 0 -0.20975599501317069 -0.18428575108984399 0 -0.229896455205026 -0.18225842567294781 0 -0.19801268919908249 -0.2047314364620034 0 -0.21541309520260529 -0.20113031717637361 0 -0.20975599501317069 -0.18428575108984399 0 -0.19801268919908249 -0.2047314364620034 0 -0.20975599501317069 -0.18428575108984399 0 -0.21541309520260529 -0.20113031717637361 0 -0.23384346774119599 -0.2034651679104556 0 -0.229896455205026 -0.18225842567294781 0 -0.24262172765942899 -0.19089247064050549 0 -0.25644706280453389 -0.1995927939493197 0 -0.25029992488695979 -0.1782534950292988 0 -0.24262172765942899 -0.19089247064050549 0 -0.23384346774119599 -0.2034651679104556 0 -0.25644706280453389 -0.1995927939493197 0 -0.24262172765942899 -0.19089247064050549 0 -0.23384346774119599 -0.2034651679104556 0 -0.229896455205026 -0.18225842567294781 0 -0.23384346774119599 -0.2034651679104556 0 -0.2377451423251814 -0.23136366228574551 0 -0.25674041691710447 -0.22108212323078871 0 -0.23384346774119599 -0.2034651679104556 0 -0.25674041691710447 -0.22108212323078871 0 -0.25644706280453389 -0.1995927939493197 0 -0.21493562756427159 -0.22243862284749449 0 -0.21541309520260529 -0.20113031717637361 0 -0.23384346774119599 -0.2034651679104556 0 -0.21493562756427159 -0.22243862284749449 0 -0.23384346774119599 -0.2034651679104556 0 -0.2377451423251814 -0.23136366228574551 0 -0.24465976002352091 -0.25387891845332877 0 -0.2377451423251814 -0.23136366228574551 0 -0.25992972331208369 -0.2410680052130979 0 -0.24465976002352091 -0.25387891845332877 0 -0.21854221021918649 -0.25236034283526498 0 -0.2377451423251814 -0.23136366228574551 0 -0.21854221021918649 -0.25236034283526498 0 -0.21493562756427159 -0.22243862284749449 0 -0.2377451423251814 -0.23136366228574551 0 -0.21854221021918649 -0.25236034283526498 0 -0.2377451423251814 -0.23136366228574551 0 -0.21569240293870359 -0.1466438091422006 0 -0.18947664049148261 -0.1562636999060015 0 -0.2105647825198341 -0.15627799774793921 0 -0.2105647825198341 -0.15627799774793921 0 -0.22149930082725899 -0.1638400657176845 0 -0.22047208921520459 -0.14652609931143951 0 -0.21569240293870359 -0.1466438091422006 0 -0.2105647825198341 -0.15627799774793921 0 -0.22047208921520459 -0.14652609931143951 0 -0.21569240293870359 -0.1466438091422006 0 -0.22047208921520459 -0.14652609931143951 0 -0.20228853596836749 -0.13187567246267581 0 -0.2244809527826766 -0.1321180186971766 0 -0.2129261089666101 -0.1196792574727195 0 -0.21569240293870359 -0.1466438091422006 0 -0.20228853596836749 -0.13187567246267581 0 -0.2244809527826766 -0.1321180186971766 0 -0.18633417632017751 -0.14736681724080919 0 -0.20228853596836749 -0.13187567246267581 0 -0.18400621351090571 -0.1217110611121094 0 -0.21569240293870359 -0.1466438091422006 0 -0.18947664049148261 -0.1562636999060015 0 -0.18633417632017751 -0.14736681724080919 0 -0.21569240293870359 -0.1466438091422006 0 -0.18947664049148261 -0.1562636999060015 0 -0.18633417632017751 -0.14736681724080919 0 -0.21569240293870359 -0.1466438091422006 0 -0.18633417632017751 -0.14736681724080919 0 -0.21569240293870359 -0.1466438091422006 0 -0.20228853596836749 -0.13187567246267581 0 -0.1783922457352059 -0.17293489930968209 0 -0.18947664049148261 -0.1562636999060015 0 -0.1969820185962792 -0.17828497948479149 0 -0.18947664049148261 -0.1562636999060015 0 -0.1969820185962792 -0.17828497948479149 0 -0.20568347912652049 -0.16811631466237001 0 -0.18947664049148261 -0.1562636999060015 0 -0.20568347912652049 -0.16811631466237001 0 -0.2105647825198341 -0.15627799774793921 0 -0.1902080517791363 -0.1917922864575213 0 -0.1969820185962792 -0.17828497948479149 0 -0.20975599501317069 -0.18428575108984399 0 -0.17547527524387041 -0.1884338249559952 0 -0.1902080517791363 -0.1917922864575213 0 -0.1969820185962792 -0.17828497948479149 0 -0.20975599501317069 -0.18428575108984399 0 -0.22149930082725899 -0.1638400657176845 0 -0.20975599501317069 -0.18428575108984399 0 -0.20568347912652049 -0.16811631466237001 0 -0.22149930082725899 -0.1638400657176845 0 -0.1969820185962792 -0.17828497948479149 0 -0.20975599501317069 -0.18428575108984399 0 -0.20568347912652049 -0.16811631466237001 0 -0.20568347912652049 -0.16811631466237001 0 -0.2105647825198341 -0.15627799774793921 0 -0.22149930082725899 -0.1638400657176845 0 -0.22149930082725899 -0.1638400657176845 0 -0.2402834514435094 -0.1667894474332684 0 -0.2341322288468432 -0.15422277024092529 0 -0.22149930082725899 -0.1638400657176845 0 -0.229896455205026 -0.18225842567294781 0 -0.2402834514435094 -0.1667894474332684 0 -0.20975599501317069 -0.18428575108984399 0 -0.22149930082725899 -0.1638400657176845 0 -0.229896455205026 -0.18225842567294781 0 -0.229896455205026 -0.18225842567294781 0 -0.2402834514435094 -0.1667894474332684 0 -0.25029992488695979 -0.1782534950292988 0 -0.24262172765942899 -0.19089247064050549 0 -0.229896455205026 -0.18225842567294781 0 -0.25029992488695979 -0.1782534950292988 0 -0.2402834514435094 -0.1667894474332684 0 -0.25029992488695979 -0.1782534950292988 0 -0.25761979100978533 -0.16665415002795461 0 -0.2402834514435094 -0.1667894474332684 0 -0.24825300788518309 -0.1555077779107997 0 -0.25761979100978533 -0.16665415002795461 0 -0.2402834514435094 -0.1667894474332684 0 -0.24825300788518309 -0.1555077779107997 0 -0.2341322288468432 -0.15422277024092529 0 -0.24825300788518309 -0.1555077779107997 0 -0.2405789555143194 -0.1375116727892334 0 -0.25601133851015478 -0.1487044986697981 0 -0.24825300788518309 -0.1555077779107997 0 -0.2341322288468432 -0.15422277024092529 0 -0.2405789555143194 -0.1375116727892334 0 -0.21569240293870359 -0.1466438091422006 0 -0.22047208921520459 -0.14652609931143951 0 -0.2405789555143194 -0.1375116727892334 0 -0.22149930082725899 -0.1638400657176845 0 -0.2341322288468432 -0.15422277024092529 0 -0.22047208921520459 -0.14652609931143951 0 -0.21569240293870359 -0.1466438091422006 0 -0.2405789555143194 -0.1375116727892334 0 -0.2341322288468432 -0.15422277024092529 0 -0.22047208921520459 -0.14652609931143951 0 -0.2405789555143194 -0.1375116727892334 0 -0.21569240293870359 -0.1466438091422006 0 -0.2244809527826766 -0.1321180186971766 0 -0.2405789555143194 -0.1375116727892334 0 -0.2244809527826766 -0.1321180186971766 0 -0.2405789555143194 -0.1375116727892334 0 -0.23651179230599079 -0.1199754775459997 0 -0.2405789555143194 -0.1375116727892334 0 -0.23651179230599079 -0.1199754775459997 0 -0.25054446979338107 -0.12912519928877991 0 -0.23651179230599079 -0.1199754775459997 0 -0.24959534238117709 -0.1078054475449232 0 -0.26009747564537128 -0.1202716976192799 0 -0.23651179230599079 -0.1199754775459997 0 -0.26009747564537128 -0.1202716976192799 0 -0.23651179230599079 -0.1199754775459997 0 -0.26009747564537128 -0.1202716976192799 0 -0.25054446979338107 -0.12912519928877991 0 -0.23651179230599079 -0.1199754775459997 0 -0.24959534238117709 -0.1078054475449232 0 -0.23746734258601571 -0.1067534300414448 0 -0.24098124084432149 -0.095291905336151436 0 -0.23746734258601571 -0.1067534300414448 0 -0.22473934926471251 -0.1042306158888877 0 -0.24959534238117709 -0.1078054475449232 0 -0.24098124084432149 -0.095291905336151436 0 -0.25687551172258971 -0.095275519396915032 0 -0.24959534238117709 -0.1078054475449232 0 -0.24098124084432149 -0.095291905336151436 0 -0.23746734258601571 -0.1067534300414448 0 -0.22473934926471251 -0.1042306158888877 0 -0.22774604229393439 -0.087804120453188278 0 -0.20897213189474381 -0.093424031558921927 0 -0.24098124084432149 -0.095291905336151436 0 -0.22473934926471251 -0.1042306158888877 0 -0.22774604229393439 -0.087804120453188278 0 -0.2244809527826766 -0.1321180186971766 0 -0.23651179230599079 -0.1199754775459997 0 -0.2129261089666101 -0.1196792574727195 0 -0.23651179230599079 -0.1199754775459997 0 -0.2129261089666101 -0.1196792574727195 0 -0.23651179230599079 -0.1199754775459997 0 -0.23746734258601571 -0.1067534300414448 0 -0.22473934926471251 -0.1042306158888877 0 -0.23651179230599079 -0.1199754775459997 0 -0.22473934926471251 -0.1042306158888877 0 -0.2129261089666101 -0.1196792574727195 0 -0.2466384096447127 -0.069214282175018252 0 -0.23144064811545881 -0.071679072189906365 0 -0.24006258296416741 -0.059977364163272567 0 -0.2466384096447127 -0.069214282175018252 0 -0.23867713564867771 -0.0818228939715063 0 -0.25106785873748549 -0.083001848322642804 0 -0.2466384096447127 -0.069214282175018252 0 -0.23867713564867771 -0.0818228939715063 0 -0.23144064811545881 -0.071679072189906365 0 -0.24098124084432149 -0.095291905336151436 0 -0.25106785873748549 -0.083001848322642804 0 -0.25687551172258971 -0.095275519396915032 0 -0.24098124084432149 -0.095291905336151436 0 -0.23867713564867771 -0.0818228939715063 0 -0.25106785873748549 -0.083001848322642804 0 -0.24098124084432149 -0.095291905336151436 0 -0.23867713564867771 -0.0818228939715063 0 -0.22774604229393439 -0.087804120453188278 0 -0.22048160989483939 -0.080833284582646742 0 -0.22774604229393439 -0.087804120453188278 0 -0.23144064811545881 -0.071679072189906365 0 -0.23867713564867771 -0.0818228939715063 0 -0.22774604229393439 -0.087804120453188278 0 -0.23144064811545881 -0.071679072189906365 0 -0.22048160989483939 -0.080833284582646742 0 -0.22774604229393439 -0.087804120453188278 0 -0.20897213189474381 -0.093424031558921927 0 -0.23144064811545881 -0.071679072189906365 0 -0.2137676172752207 -0.070425914128570383 0 -0.21856310265569601 -0.047427796698218422 0 -0.22048160989483939 -0.080833284582646742 0 -0.23144064811545881 -0.071679072189906365 0 -0.2137676172752207 -0.070425914128570383 0 -0.23144064811545881 -0.071679072189906365 0 -0.23092663332862359 -0.057189961691847993 0 -0.24006258296416741 -0.059977364163272567 0 -0.20335705558913081 -0.063140738221072371 0 -0.2137676172752207 -0.070425914128570383 0 -0.20224544779007569 -0.076575791796341275 0 -0.2137676172752207 -0.070425914128570383 0 -0.20897213189474381 -0.093424031558921927 0 -0.20224544779007569 -0.076575791796341275 0 -0.2137676172752207 -0.070425914128570383 0 -0.20897213189474381 -0.093424031558921927 0 -0.22048160989483939 -0.080833284582646742 0 -0.2137676172752207 -0.070425914128570383 0 -0.20897213189474381 -0.093424031558921927 0 -0.20897213189474381 -0.093424031558921927 0 -0.18864483179057751 -0.079783658531738119 0 -0.20224544779007569 -0.076575791796341275 0 -0.20897213189474381 -0.093424031558921927 0 -0.18864483179057751 -0.079783658531738119 0 -0.1843208979706715 -0.098582101900239388 0 -0.20335705558913081 -0.063140738221072371 0 -0.18864483179057751 -0.079783658531738119 0 -0.20224544779007569 -0.076575791796341275 0 -0.20335705558913081 -0.063140738221072371 0 -0.18864483179057751 -0.079783658531738119 0 -0.20335705558913081 -0.063140738221072371 0 -0.18864483179057751 -0.079783658531738119 0 -0.18476368522970901 -0.060313507398174523 0 -0.22473934926471251 -0.1042306158888877 0 -0.2129261089666101 -0.1196792574727195 0 -0.1994025973422491 -0.10829052452779669 0 -0.20228853596836749 -0.13187567246267581 0 -0.2129261089666101 -0.1196792574727195 0 -0.1994025973422491 -0.10829052452779669 0 -0.22473934926471251 -0.1042306158888877 0 -0.20897213189474381 -0.093424031558921927 0 -0.1994025973422491 -0.10829052452779669 0 -0.20897213189474381 -0.093424031558921927 0 -0.1994025973422491 -0.10829052452779669 0 -0.1843208979706715 -0.098582101900239388 0 -0.20228853596836749 -0.13187567246267581 0 -0.1994025973422491 -0.10829052452779669 0 -0.18400621351090571 -0.1217110611121094 0 -0.1994025973422491 -0.10829052452779669 0 -0.18400621351090571 -0.1217110611121094 0 -0.1843208979706715 -0.098582101900239388 0 -0.16621773075288121 -0.1295318635244681 0 -0.18400621351090571 -0.1217110611121094 0 -0.16647442841019139 -0.11035058163789351 0 -0.18400621351090571 -0.1217110611121094 0 -0.16647442841019139 -0.11035058163789351 0 -0.1843208979706715 -0.098582101900239388 0 -0.16621773075288121 -0.1295318635244681 0 -0.16647442841019139 -0.11035058163789351 0 -0.14737054533773081 -0.1208951937003558 0 -0.16647442841019139 -0.11035058163789351 0 -0.16521255597131029 -0.094363556792246006 0 -0.15171862691764881 -0.097019712797942706 0 -0.16647442841019139 -0.11035058163789351 0 -0.16521255597131029 -0.094363556792246006 0 -0.1843208979706715 -0.098582101900239388 0 -0.16521255597131029 -0.094363556792246006 0 -0.1843208979706715 -0.098582101900239388 0 -0.1718657805157274 -0.077566403117392158 0 -0.18864483179057751 -0.079783658531738119 0 -0.1843208979706715 -0.098582101900239388 0 -0.1718657805157274 -0.077566403117392158 0 -0.18864483179057751 -0.079783658531738119 0 -0.1718657805157274 -0.077566403117392158 0 -0.18476368522970901 -0.060313507398174523 0 -0.1718657805157274 -0.077566403117392158 0 -0.16766997596840549 -0.055069670457126463 0 -0.18476368522970901 -0.060313507398174523 0 -0.1718657805157274 -0.077566403117392158 0 -0.1555984100513392 -0.067553704814911478 0 -0.16766997596840549 -0.055069670457126463 0 -0.1718657805157274 -0.077566403117392158 0 -0.15451520526235171 -0.083858215916353424 0 -0.1555984100513392 -0.067553704814911478 0 -0.16521255597131029 -0.094363556792246006 0 -0.1718657805157274 -0.077566403117392158 0 -0.15451520526235171 -0.083858215916353424 0 -0.16521255597131029 -0.094363556792246006 0 -0.15451520526235171 -0.083858215916353424 0 -0.15171862691764881 -0.097019712797942706 0 -0.15451520526235171 -0.083858215916353424 0 -0.14334301715898221 -0.074859018030624863 0 -0.13903100861317999 -0.090330850909877913 0 -0.15451520526235171 -0.083858215916353424 0 -0.13903100861317999 -0.090330850909877913 0 -0.15171862691764881 -0.097019712797942706 0 -0.1377651409738101 -0.093700562061298426 0 -0.13903100861317999 -0.090330850909877913 0 -0.15171862691764881 -0.097019712797942706 0 -0.15451520526235171 -0.083858215916353424 0 -0.1555984100513392 -0.067553704814911478 0 -0.14334301715898221 -0.074859018030624863 0 -0.1555984100513392 -0.067553704814911478 0 -0.14334301715898221 -0.074859018030624863 0 -0.13945189113323761 -0.059806177835795588 0 -0.14334301715898221 -0.074859018030624863 0 -0.12930964035960699 -0.069761515268982097 0 -0.13945189113323761 -0.059806177835795588 0 -0.12930964035960699 -0.069761515268982097 0 -0.1377651409738101 -0.093700562061298426 0 -0.12930964035960699 -0.069761515268982097 0 -0.1377651409738101 -0.093700562061298426 0 -0.13903100861317999 -0.090330850909877913 0 -0.1189291253072135 -0.086669643832799348 0 -0.12930964035960699 -0.069761515268982097 0 -0.1377651409738101 -0.093700562061298426 0 -0.14334301715898221 -0.074859018030624863 0 -0.12930964035960699 -0.069761515268982097 0 -0.13903100861317999 -0.090330850909877913 0 -0.1377651409738101 -0.093700562061298426 0 -0.13903100861317999 -0.090330850909877913 0 -0.11893842975153809 -0.10446969177473921 0 -0.1377651409738101 -0.093700562061298426 0 -0.12736410167423581 -0.1213878944680517 0 -0.1377651409738101 -0.093700562061298426 0 -0.12736410167423581 -0.1213878944680517 0 -0.11893842975153809 -0.10446969177473921 0 -0.1189291253072135 -0.086669643832799348 0 -0.1377651409738101 -0.093700562061298426 0 -0.1377651409738101 -0.093700562061298426 0 -0.12736410167423581 -0.1213878944680517 0 -0.14737054533773081 -0.1208951937003558 0 -0.16647442841019139 -0.11035058163789351 0 -0.14737054533773081 -0.1208951937003558 0 -0.15171862691764881 -0.097019712797942706 0 -0.1377651409738101 -0.093700562061298426 0 -0.14737054533773081 -0.1208951937003558 0 -0.15171862691764881 -0.097019712797942706 0 -0.1377651409738101 -0.093700562061298426 0 -0.14737054533773081 -0.1208951937003558 0 -0.14925834278157041 -0.027771983247297551 0 -0.15381676672243971 -0.0048344028756085976 0 -0.16158573310271521 -0.019122381719964599 0 -0.14925834278157041 -0.027771983247297551 0 -0.15381676672243971 -0.0048344028756085976 0 -0.14925834278157041 -0.027771983247297551 0 -0.13622810944285851 -0.025664644749336048 0 -0.13728148428220571 -0.03631729474545041 0 -0.15381676672243971 -0.0048344028756085976 0 -0.13373576905839379 -0.01378162565115138 0 -0.13796817939809339 -7.5853332940862265e-05 0 -0.14925834278157041 -0.027771983247297551 0 -0.15381676672243971 -0.0048344028756085976 0 -0.13373576905839379 -0.01378162565115138 0 -0.1244522405185825 -0.00038769298458709092 0 -0.1246368416492639 -0.024787675353444869 0 -0.13373576905839379 -0.01378162565115138 0 -0.1244522405185825 -0.00038769298458709092 0 -0.13373576905839379 -0.01378162565115138 0 -0.13796817939809339 -7.5853332940862265e-05 0 -0.1244522405185825 -0.00038769298458709092 0 -0.13373576905839379 -0.01378162565115138 0 -0.1246368416492639 -0.024787675353444869 0 -0.13373576905839379 -0.01378162565115138 0 -0.13622810944285851 -0.025664644749336048 0 -0.14925834278157041 -0.027771983247297551 0 -0.13373576905839379 -0.01378162565115138 0 -0.13622810944285851 -0.025664644749336048 0 -0.1246368416492639 -0.024787675353444869 0 -0.13622810944285851 -0.025664644749336048 0 -0.13728148428220571 -0.03631729474545041 0 -0.1248214427799455 -0.0491876577223027 0 -0.1246368416492639 -0.024787675353444869 0 -0.13067566527459321 -0.039597081228004503 0 -0.1246368416492639 -0.024787675353444869 0 -0.13067566527459321 -0.039597081228004503 0 -0.13728148428220571 -0.03631729474545041 0 -0.1248214427799455 -0.0491876577223027 0 -0.13067566527459321 -0.039597081228004503 0 -0.1359628923869578 -0.048095697090820053 0 -0.13067566527459321 -0.039597081228004503 0 -0.13728148428220571 -0.03631729474545041 0 -0.1359628923869578 -0.048095697090820053 0 -0.13728148428220571 -0.03631729474545041 0 -0.1359628923869578 -0.048095697090820053 0 -0.14767594406259391 -0.049379474087132447 0 -0.1248214427799455 -0.0491876577223027 0 -0.12930964035960699 -0.069761515268982097 0 -0.13945189113323761 -0.059806177835795588 0 -0.1208541397454049 -0.045822468476665427 0 -0.12930964035960699 -0.069761515268982097 0 -0.1248214427799455 -0.0491876577223027 0 -0.1359628923869578 -0.048095697090820053 0 -0.13945189113323761 -0.059806177835795588 0 -0.1555984100513392 -0.067553704814911478 0 -0.13945189113323761 -0.059806177835795588 0 -0.14767594406259391 -0.049379474087132447 0 -0.1359628923869578 -0.048095697090820053 0 -0.13945189113323761 -0.059806177835795588 0 -0.14767594406259391 -0.049379474087132447 0 -0.14925834278157041 -0.027771983247297551 0 -0.14767594406259391 -0.049379474087132447 0 -0.16346190388351911 -0.035477368974388322 0 -0.14925834278157041 -0.027771983247297551 0 -0.13728148428220571 -0.03631729474545041 0 -0.14767594406259391 -0.049379474087132447 0 -0.14767594406259391 -0.049379474087132447 0 -0.16346190388351911 -0.035477368974388322 0 -0.16766997596840549 -0.055069670457126463 0 -0.16346190388351911 -0.035477368974388322 0 -0.16766997596840549 -0.055069670457126463 0 -0.1792130821544009 -0.041655239440509813 0 -0.1555984100513392 -0.067553704814911478 0 -0.14767594406259391 -0.049379474087132447 0 -0.16766997596840549 -0.055069670457126463 0 -0.16766997596840549 -0.055069670457126463 0 -0.18476368522970901 -0.060313507398174523 0 -0.1792130821544009 -0.041655239440509813 0 -0.18476368522970901 -0.060313507398174523 0 -0.1792130821544009 -0.041655239440509813 0 -0.19607578221694649 -0.043845816873478577 0 -0.16346190388351911 -0.035477368974388322 0 -0.1792130821544009 -0.041655239440509813 0 -0.1747539590121796 -0.02148713112583673 0 -0.1792130821544009 -0.041655239440509813 0 -0.1747539590121796 -0.02148713112583673 0 -0.18874747204970219 -0.028974905836781941 0 -0.1747539590121796 -0.02148713112583673 0 -0.18814241231787171 -0.014961103822567131 0 -0.18874747204970219 -0.028974905836781941 0 -0.14925834278157041 -0.027771983247297551 0 -0.16346190388351911 -0.035477368974388322 0 -0.16158573310271521 -0.019122381719964599 0 -0.16346190388351911 -0.035477368974388322 0 -0.1747539590121796 -0.02148713112583673 0 -0.16158573310271521 -0.019122381719964599 0 -0.1747539590121796 -0.02148713112583673 0 -0.16158573310271521 -0.019122381719964599 0 -0.1670666400728934 -0.0075955490013497832 0 -0.15381676672243971 -0.0048344028756085976 0 -0.1670666400728934 -0.0075955490013497832 0 -0.16872927738725291 0.0066655648670224509 0 -0.15381676672243971 -0.0048344028756085976 0 -0.16158573310271521 -0.019122381719964599 0 -0.1670666400728934 -0.0075955490013497832 0 -0.1670666400728934 -0.0075955490013497832 0 -0.1785064095432054 -0.0066611219507198768 0 -0.16872927738725291 0.0066655648670224509 0 -0.1747539590121796 -0.02148713112583673 0 -0.1670666400728934 -0.0075955490013497832 0 -0.1785064095432054 -0.0066611219507198768 0 -0.1747539590121796 -0.02148713112583673 0 -0.1785064095432054 -0.0066611219507198768 0 -0.18814241231787171 -0.014961103822567131 0 -0.1785064095432054 -0.0066611219507198768 0 -0.18814241231787171 -0.014961103822567131 0 -0.193034969706537 0.00064734206737222756 0 -0.20555212454711219 -0.022925237921517471 0 -0.20993853639106591 -0.0035380738047605968 0 -0.193034969706537 0.00064734206737222756 0 -0.18814241231787171 -0.014961103822567131 0 -0.20555212454711219 -0.022925237921517471 0 -0.193034969706537 0.00064734206737222756 0 -0.20555212454711219 -0.022925237921517471 0 -0.193034969706537 0.00064734206737222756 0 -0.20993853639106591 -0.0035380738047605968 0 -0.193034969706537 0.00064734206737222756 0 -0.18814241231787171 -0.014961103822567131 0 -0.18874747204970219 -0.028974905836781941 0 -0.20555212454711219 -0.022925237921517471 0 -0.20555212454711219 -0.022925237921517471 0 -0.21630961893328751 -0.01519709454307171 0 -0.22290571171937651 -0.026601576769118469 0 -0.20993853639106591 -0.0035380738047605968 0 -0.22684210307559549 -0.0077234896768903086 0 -0.21568563774484731 0.0082874278720449449 0 -0.20993853639106591 -0.0035380738047605968 0 -0.21630961893328751 -0.01519709454307171 0 -0.22684210307559549 -0.0077234896768903086 0 -0.20555212454711219 -0.022925237921517471 0 -0.20993853639106591 -0.0035380738047605968 0 -0.21630961893328751 -0.01519709454307171 0 -0.20993853639106591 -0.0035380738047605968 0 -0.22684210307559549 -0.0077234896768903086 0 -0.20335705558913081 -0.063140738221072371 0 -0.18476368522970901 -0.060313507398174523 0 -0.19607578221694649 -0.043845816873478577 0 -0.1792130821544009 -0.041655239440509813 0 -0.18874747204970219 -0.028974905836781941 0 -0.19607578221694649 -0.043845816873478577 0 -0.18874747204970219 -0.028974905836781941 0 -0.20555212454711219 -0.022925237921517471 0 -0.19607578221694649 -0.043845816873478577 0 -0.20555212454711219 -0.022925237921517471 0 -0.21856310265569601 -0.047427796698218422 0 -0.20555212454711219 -0.022925237921517471 0 -0.21856310265569601 -0.047427796698218422 0 -0.21896932036315811 -0.045479663861346789 0 -0.20555212454711219 -0.022925237921517471 0 -0.19607578221694649 -0.043845816873478577 0 -0.21856310265569601 -0.047427796698218422 0 -0.20555212454711219 -0.022925237921517471 0 -0.21896932036315811 -0.045479663861346789 0 -0.22290571171937651 -0.026601576769118469 0 -0.2137676172752207 -0.070425914128570383 0 -0.21856310265569601 -0.047427796698218422 0 -0.20335705558913081 -0.063140738221072371 0 -0.2137676172752207 -0.070425914128570383 0 -0.21856310265569601 -0.047427796698218422 0 -0.20335705558913081 -0.063140738221072371 0 -0.19607578221694649 -0.043845816873478577 0 -0.21856310265569601 -0.047427796698218422 0 -0.20335705558913081 -0.063140738221072371 0 -0.21856310265569601 -0.047427796698218422 0 -0.23144064811545881 -0.071679072189906365 0 -0.21856310265569601 -0.047427796698218422 0 -0.23092663332862359 -0.057189961691847993 0 -0.23144064811545881 -0.071679072189906365 0 -0.21856310265569601 -0.047427796698218422 0 -0.21856310265569601 -0.047427796698218422 0 -0.23092663332862359 -0.057189961691847993 0 -0.22458774444026389 -0.046948698447319907 0 -0.23092663332862359 -0.057189961691847993 0 -0.2320274706224234 -0.04981915803055513 0 -0.23892230415514151 -0.050781370399802413 0 -0.23092663332862359 -0.057189961691847993 0 -0.22458774444026389 -0.046948698447319907 0 -0.2320274706224234 -0.04981915803055513 0 -0.21896932036315811 -0.045479663861346789 0 -0.2306307955349908 -0.032287844280089482 0 -0.22290571171937651 -0.026601576769118469 0 -0.21896932036315811 -0.045479663861346789 0 -0.22290571171937651 -0.026601576769118469 0 -0.22458774444026389 -0.046948698447319907 0 -0.2320274706224234 -0.04981915803055513 0 -0.23529860714157019 -0.041169280456794459 0 -0.22458774444026389 -0.046948698447319907 0 -0.2306307955349908 -0.032287844280089482 0 -0.23529860714157019 -0.041169280456794459 0 -0.22458774444026389 -0.046948698447319907 0 -0.21896932036315811 -0.045479663861346789 0 -0.2306307955349908 -0.032287844280089482 0 -0.21856310265569601 -0.047427796698218422 0 -0.22458774444026389 -0.046948698447319907 0 -0.21896932036315811 -0.045479663861346789 0 -0.21856310265569601 -0.047427796698218422 0 -0.21896932036315811 -0.045479663861346789 0 -0.21896932036315811 -0.045479663861346789 0 -0.2306307955349908 -0.032287844280089482 0 -0.2306307955349908 -0.032287844280089482 0 -0.23529860714157019 -0.041169280456794459 0 -0.241537864008738 -0.030171217790278881 0 -0.24798951326795751 -0.035882587373858313 0 -0.23529860714157019 -0.041169280456794459 0 -0.241537864008738 -0.030171217790278881 0 -0.24798951326795751 -0.035882587373858313 0 -0.24357205858261219 -0.044359355700093257 0 -0.23529860714157019 -0.041169280456794459 0 -0.24798951326795751 -0.035882587373858313 0 -0.24357205858261219 -0.044359355700093257 0 -0.25238491957690051 -0.051022134359787842 0 -0.24357205858261219 -0.044359355700093257 0 -0.23529860714157019 -0.041169280456794459 0 -0.23892230415514151 -0.050781370399802413 0 -0.2466384096447127 -0.069214282175018252 0 -0.24006258296416741 -0.059977364163272567 0 -0.25238491957690051 -0.051022134359787842 0 -0.2320274706224234 -0.04981915803055513 0 -0.23529860714157019 -0.041169280456794459 0 -0.23892230415514151 -0.050781370399802413 0 -0.23892230415514151 -0.050781370399802413 0 -0.24006258296416741 -0.059977364163272567 0 -0.25238491957690051 -0.051022134359787842 0 -0.24357205858261219 -0.044359355700093257 0 -0.23892230415514151 -0.050781370399802413 0 -0.25238491957690051 -0.051022134359787842 0 -0.23092663332862359 -0.057189961691847993 0 -0.23892230415514151 -0.050781370399802413 0 -0.24006258296416741 -0.059977364163272567 0 -0.21630961893328751 -0.01519709454307171 0 -0.22684210307559549 -0.0077234896768903086 0 -0.22290571171937651 -0.026601576769118469 0 -0.22684210307559549 -0.0077234896768903086 0 -0.22290571171937651 -0.026601576769118469 0 -0.23226271327452069 -0.02198020745377605 0 -0.22684210307559549 -0.0077234896768903086 0 -0.22290571171937651 -0.026601576769118469 0 -0.2306307955349908 -0.032287844280089482 0 -0.22290571171937651 -0.026601576769118469 0 -0.23226271327452069 -0.02198020745377605 0 -0.22684210307559549 -0.0077234896768903086 0 -0.23226271327452069 -0.02198020745377605 0 -0.24229227070682269 -0.019096024698831499 0 -0.2306307955349908 -0.032287844280089482 0 -0.241537864008738 -0.030171217790278881 0 -0.24229227070682269 -0.019096024698831499 0 -0.2306307955349908 -0.032287844280089482 0 -0.23226271327452069 -0.02198020745377605 0 -0.24229227070682269 -0.019096024698831499 0 -0.2306307955349908 -0.032287844280089482 0 -0.24229227070682269 -0.019096024698831499 0 -0.24798951326795751 -0.035882587373858313 0 -0.241537864008738 -0.030171217790278881 0 -0.25387676547985721 -0.02452441136234379 0 -0.241537864008738 -0.030171217790278881 0 -0.24229227070682269 -0.019096024698831499 0 -0.25387676547985721 -0.02452441136234379 0 -0.24229227070682269 -0.019096024698831499 0 -0.24826461013585729 -0.013027819984466921 0 -0.25387676547985721 -0.02452441136234379 0 -0.22684210307559549 -0.0077234896768903086 0 -0.24826461013585729 -0.013027819984466921 0 -0.24598119983726671 0.0037338506766126851 0 -0.22684210307559549 -0.0077234896768903086 0 -0.24229227070682269 -0.019096024698831499 0 -0.24826461013585729 -0.013027819984466921 0 -0.22684210307559549 -0.0077234896768903086 0 -0.24826461013585729 -0.013027819984466921 0 -0.24826461013585729 -0.013027819984466921 0 -0.26003022337954462 -0.0038093911555793728 0 -0.24598119983726671 0.0037338506766126851 0 -0.24826461013585729 -0.013027819984466921 0 -0.26003022337954462 -0.0038093911555793728 0 -0.26968711719611937 -0.018332150292041979 0 -0.24826461013585729 -0.013027819984466921 0 -0.26968711719611937 -0.018332150292041979 0 -0.25387676547985721 -0.02452441136234379 0 -0.26968711719611937 -0.018332150292041979 0 -0.26155562347943467 -0.037861138146123199 0 -0.24826461013585729 -0.013027819984466921 0 -0.25387676547985721 -0.02452441136234379 0 -0.26968711719611937 -0.018332150292041979 0 -0.26968711719611937 -0.018332150292041979 0 -0.28953187906397732 -0.034281883787379987 0 -0.27524211720584768 -0.038538427260779863 0 -0.26003022337954462 -0.0038093911555793728 0 -0.26968711719611937 -0.018332150292041979 0 -0.27433688946420332 -0.0007833753365484626 0 -0.26968711719611937 -0.018332150292041979 0 -0.27433688946420332 -0.0007833753365484626 0 -0.28631392786639209 -0.0070506759659385472 0 -0.28631392786639209 -0.0070506759659385472 0 -0.29653674479957171 -0.021015146411400301 0 -0.3025805037907468 -0.0027432771802810229 0 -0.28631392786639209 -0.0070506759659385472 0 -0.3025805037907468 -0.0027432771802810229 0 -0.28842838408131971 0.0076205693905790281 0 -0.27433688946420332 -0.0007833753365484626 0 -0.28631392786639209 -0.0070506759659385472 0 -0.28842838408131971 0.0076205693905790281 0 -0.26968711719611937 -0.018332150292041979 0 -0.28631392786639209 -0.0070506759659385472 0 -0.29653674479957171 -0.021015146411400301 0 -0.26968711719611937 -0.018332150292041979 0 -0.29653674479957171 -0.021015146411400301 0 -0.28953187906397732 -0.034281883787379987 0 -0.29653674479957171 -0.021015146411400301 0 -0.28953187906397732 -0.034281883787379987 0 -0.31718310516035308 -0.038172790333745737 0 -0.29653674479957171 -0.021015146411400301 0 -0.31459326366374579 -0.01532774276474733 0 -0.31718310516035308 -0.038172790333745737 0 -0.29653674479957171 -0.021015146411400301 0 -0.3025805037907468 -0.0027432771802810229 0 -0.31459326366374579 -0.01532774276474733 0 -0.30229462048881822 -0.056161209871372138 0 -0.29850594913894141 -0.055440370537233663 0 -0.30849544073550722 -0.074776909133231664 0 -0.30229462048881822 -0.056161209871372138 0 -0.29366820665513949 -0.048519954280836622 0 -0.31370341578724742 -0.051143824177853653 0 -0.30229462048881822 -0.056161209871372138 0 -0.29850594913894141 -0.055440370537233663 0 -0.29366820665513949 -0.048519954280836622 0 -0.30229462048881822 -0.056161209871372138 0 -0.31629816603535338 -0.060261719535131632 0 -0.30229462048881822 -0.056161209871372138 0 -0.31178497446605258 -0.064623658022855565 0 -0.31629816603535338 -0.060261719535131632 0 -0.30229462048881822 -0.056161209871372138 0 -0.31370341578724742 -0.051143824177853653 0 -0.31629816603535338 -0.060261719535131632 0 -0.29366820665513949 -0.048519954280836622 0 -0.31718310516035308 -0.038172790333745737 0 -0.29366820665513949 -0.048519954280836622 0 -0.31718310516035308 -0.038172790333745737 0 -0.31370341578724742 -0.051143824177853653 0 -0.28953187906397732 -0.034281883787379987 0 -0.29366820665513949 -0.048519954280836622 0 -0.31718310516035308 -0.038172790333745737 0 -0.28953187906397732 -0.034281883787379987 0 -0.29366820665513949 -0.048519954280836622 0 -0.27524211720584768 -0.038538427260779863 0 -0.29366820665513949 -0.048519954280836622 0 -0.27015330814992611 -0.058867118227927437 0 -0.29366820665513949 -0.048519954280836622 0 -0.28660483069534037 -0.061918496488246169 0 -0.27015330814992611 -0.058867118227927437 0 -0.29850594913894141 -0.055440370537233663 0 -0.28660483069534037 -0.061918496488246169 0 -0.29557893925590151 -0.069462416794053169 0 -0.29850594913894141 -0.055440370537233663 0 -0.29366820665513949 -0.048519954280836622 0 -0.28660483069534037 -0.061918496488246169 0 -0.29366820665513949 -0.048519954280836622 0 -0.27015330814992611 -0.058867118227927437 0 -0.27524211720584768 -0.038538427260779863 0 -0.26968711719611937 -0.018332150292041979 0 -0.27524211720584768 -0.038538427260779863 0 -0.26155562347943467 -0.037861138146123199 0 -0.27015330814992611 -0.058867118227927437 0 -0.27524211720584768 -0.038538427260779863 0 -0.26155562347943467 -0.037861138146123199 0 -0.24798951326795751 -0.035882587373858313 0 -0.26155562347943467 -0.037861138146123199 0 -0.25238491957690051 -0.051022134359787842 0 -0.24798951326795751 -0.035882587373858313 0 -0.25387676547985721 -0.02452441136234379 0 -0.26155562347943467 -0.037861138146123199 0 -0.27015330814992611 -0.058867118227927437 0 -0.26155562347943467 -0.037861138146123199 0 -0.25238491957690051 -0.051022134359787842 0 -0.2466384096447127 -0.069214282175018252 0 -0.27015330814992611 -0.058867118227927437 0 -0.25238491957690051 -0.051022134359787842 0 -0.2466384096447127 -0.069214282175018252 0 -0.27015330814992611 -0.058867118227927437 0 -0.26102584033089798 -0.073534373921212107 0 -0.2466384096447127 -0.069214282175018252 0 -0.27015330814992611 -0.058867118227927437 0 -0.2466384096447127 -0.069214282175018252 0 -0.26102584033089798 -0.073534373921212107 0 -0.25106785873748549 -0.083001848322642804 0 -0.25106785873748549 -0.083001848322642804 0 -0.26431637422662529 -0.083961298504163229 0 -0.25687551172258971 -0.095275519396915032 0 -0.26431637422662529 -0.083961298504163229 0 -0.25687551172258971 -0.095275519396915032 0 -0.26922948176741379 -0.094556007429682482 0 -0.26102584033089798 -0.073534373921212107 0 -0.25106785873748549 -0.083001848322642804 0 -0.26431637422662529 -0.083961298504163229 0 -0.26431637422662529 -0.083961298504163229 0 -0.27622487875609619 -0.085738752979791055 0 -0.27411142324960069 -0.07331497732508381 0 -0.26431637422662529 -0.083961298504163229 0 -0.27622487875609619 -0.085738752979791055 0 -0.26922948176741379 -0.094556007429682482 0 -0.27622487875609619 -0.085738752979791055 0 -0.26922948176741379 -0.094556007429682482 0 -0.28208733676033698 -0.099544680508420066 0 -0.27622487875609619 -0.085738752979791055 0 -0.27411142324960069 -0.07331497732508381 0 -0.28634330733871821 -0.075869823829162894 0 -0.28660483069534037 -0.061918496488246169 0 -0.27015330814992611 -0.058867118227927437 0 -0.27411142324960069 -0.07331497732508381 0 -0.27015330814992611 -0.058867118227927437 0 -0.26102584033089798 -0.073534373921212107 0 -0.27411142324960069 -0.07331497732508381 0 -0.26102584033089798 -0.073534373921212107 0 -0.26431637422662529 -0.083961298504163229 0 -0.27411142324960069 -0.07331497732508381 0 -0.24959534238117709 -0.1078054475449232 0 -0.26009747564537128 -0.1202716976192799 0 -0.26511094786836592 -0.1069062435210571 0 -0.24959534238117709 -0.1078054475449232 0 -0.26511094786836592 -0.1069062435210571 0 -0.25687551172258971 -0.095275519396915032 0 -0.26511094786836592 -0.1069062435210571 0 -0.25687551172258971 -0.095275519396915032 0 -0.26922948176741379 -0.094556007429682482 0 -0.26511094786836592 -0.1069062435210571 0 -0.27676276389741278 -0.11052104179975 0 -0.28208733676033698 -0.099544680508420066 0 -0.26511094786836592 -0.1069062435210571 0 -0.26922948176741379 -0.094556007429682482 0 -0.28208733676033698 -0.099544680508420066 0 -0.26511094786836592 -0.1069062435210571 0 -0.28208733676033698 -0.099544680508420066 0 -0.26009747564537128 -0.1202716976192799 0 -0.28368315898475188 -0.1205679176925603 0 -0.26697405985724948 -0.1304210152969853 0 -0.26009747564537128 -0.1202716976192799 0 -0.27676276389741278 -0.11052104179975 0 -0.28368315898475188 -0.1205679176925603 0 -0.26009747564537128 -0.1202716976192799 0 -0.28368315898475188 -0.1205679176925603 0 -0.26009747564537128 -0.1202716976192799 0 -0.26511094786836592 -0.1069062435210571 0 -0.27676276389741278 -0.11052104179975 0 -0.28368315898475188 -0.1205679176925603 0 -0.30807566230962469 -0.12087427087378499 0 -0.28368315898475188 -0.1205679176925603 0 -0.29137344231852969 -0.1063755175941712 0 -0.30807566230962469 -0.12087427087378499 0 -0.27676276389741278 -0.11052104179975 0 -0.28368315898475188 -0.1205679176925603 0 -0.29137344231852969 -0.1063755175941712 0 -0.28368315898475188 -0.1205679176925603 0 -0.29137344231852969 -0.1063755175941712 0 -0.29137344231852969 -0.1063755175941712 0 -0.28208733676033698 -0.099544680508420066 0 -0.29906372565230788 -0.092183117495782341 0 -0.28208733676033698 -0.099544680508420066 0 -0.29906372565230788 -0.092183117495782341 0 -0.27676276389741278 -0.11052104179975 0 -0.29137344231852969 -0.1063755175941712 0 -0.28208733676033698 -0.099544680508420066 0 -0.29137344231852969 -0.1063755175941712 0 -0.29906372565230788 -0.092183117495782341 0 -0.30690970986333499 -0.10413412755240679 0 -0.29906372565230788 -0.092183117495782341 0 -0.31411573014289268 -0.085656035662949492 0 -0.29137344231852969 -0.1063755175941712 0 -0.30690970986333499 -0.10413412755240679 0 -0.29906372565230788 -0.092183117495782341 0 -0.28368315898475188 -0.1205679176925603 0 -0.30807566230962469 -0.12087427087378499 0 -0.30140371581860798 -0.1292511186866305 0 -0.29137344231852969 -0.1063755175941712 0 -0.30690970986333499 -0.10413412755240679 0 -0.30807566230962469 -0.12087427087378499 0 -0.29557893925590151 -0.069462416794053169 0 -0.28634330733871821 -0.075869823829162894 0 -0.29528406594296941 -0.079953964946478426 0 -0.28660483069534037 -0.061918496488246169 0 -0.29557893925590151 -0.069462416794053169 0 -0.28634330733871821 -0.075869823829162894 0 -0.28660483069534037 -0.061918496488246169 0 -0.27411142324960069 -0.07331497732508381 0 -0.28634330733871821 -0.075869823829162894 0 -0.27622487875609619 -0.085738752979791055 0 -0.28634330733871821 -0.075869823829162894 0 -0.28693891673241251 -0.08747755748016231 0 -0.28208733676033698 -0.099544680508420066 0 -0.28693891673241251 -0.08747755748016231 0 -0.29906372565230788 -0.092183117495782341 0 -0.27622487875609619 -0.085738752979791055 0 -0.28208733676033698 -0.099544680508420066 0 -0.28693891673241251 -0.08747755748016231 0 -0.28693891673241251 -0.08747755748016231 0 -0.29528406594296941 -0.079953964946478426 0 -0.29906372565230788 -0.092183117495782341 0 -0.28634330733871821 -0.075869823829162894 0 -0.28693891673241251 -0.08747755748016231 0 -0.29528406594296941 -0.079953964946478426 0 -0.29528406594296941 -0.079953964946478426 0 -0.29906372565230788 -0.092183117495782341 0 -0.30849544073550722 -0.074776909133231664 0 -0.29906372565230788 -0.092183117495782341 0 -0.30849544073550722 -0.074776909133231664 0 -0.29906372565230788 -0.092183117495782341 0 -0.30849544073550722 -0.074776909133231664 0 -0.31411573014289268 -0.085656035662949492 0 -0.29906372565230788 -0.092183117495782341 0 -0.31411573014289268 -0.085656035662949492 0 -0.30849544073550722 -0.074776909133231664 0 -0.31411573014289268 -0.085656035662949492 0 -0.30229462048881822 -0.056161209871372138 0 -0.30849544073550722 -0.074776909133231664 0 -0.31178497446605258 -0.064623658022855565 0 -0.29850594913894141 -0.055440370537233663 0 -0.29557893925590151 -0.069462416794053169 0 -0.30849544073550722 -0.074776909133231664 0 -0.30849544073550722 -0.074776909133231664 0 -0.31286059459191501 -0.066721027791507209 0 -0.29850594913894141 -0.055440370537233663 0 -0.30849544073550722 -0.074776909133231664 0 -0.29557893925590151 -0.069462416794053169 0 -0.29528406594296941 -0.079953964946478426 0 -0.30849544073550722 -0.074776909133231664 0 -0.30849544073550722 -0.074776909133231664 0 -0.31178497446605258 -0.064623658022855565 0 -0.31286059459191501 -0.066721027791507209 0 -0.31178497446605258 -0.064623658022855565 0 -0.31286059459191501 -0.066721027791507209 0 -0.31286059459191501 -0.066721027791507209 0 -0.32103296817657878 -0.082656476452658639 0 -0.31286059459191501 -0.066721027791507209 0 -0.32103296817657878 -0.082656476452658639 0 -0.32352590008436471 -0.062378140209921912 0 -0.31178497446605258 -0.064623658022855565 0 -0.31286059459191501 -0.066721027791507209 0 -0.31629816603535338 -0.060261719535131632 0 -0.30849544073550722 -0.074776909133231664 0 -0.31286059459191501 -0.066721027791507209 0 -0.32103296817657878 -0.082656476452658639 0 -0.31286059459191501 -0.066721027791507209 0 -0.31629816603535338 -0.060261719535131632 0 -0.31286059459191501 -0.066721027791507209 0 -0.31629816603535338 -0.060261719535131632 0 -0.32352590008436471 -0.062378140209921912 0 -0.32103296817657878 -0.082656476452658639 0 -0.33093834944883532 -0.101971145942244 0 -0.30849544073550722 -0.074776909133231664 0 -0.31411573014289268 -0.085656035662949492 0 -0.32103296817657878 -0.082656476452658639 0 -0.31411573014289268 -0.085656035662949492 0 -0.32103296817657878 -0.082656476452658639 0 -0.32329194788869442 -0.1034183298589804 0 -0.31411573014289268 -0.085656035662949492 0 -0.32103296817657878 -0.082656476452658639 0 -0.32103296817657878 -0.082656476452658639 0 -0.33692687914299491 -0.089632102483736459 0 -0.33093834944883532 -0.101971145942244 0 -0.32103296817657878 -0.082656476452658639 0 -0.33692687914299491 -0.089632102483736459 0 -0.3453529791357649 -0.07211045902320197 0 -0.32103296817657878 -0.082656476452658639 0 -0.3453529791357649 -0.07211045902320197 0 -0.32352590008436471 -0.062378140209921912 0 -0.34475717967991132 -0.068595070548471249 0 -0.3453529791357649 -0.07211045902320197 0 -0.32352590008436471 -0.062378140209921912 0 -0.34475717967991132 -0.068595070548471249 0 -0.32352590008436471 -0.062378140209921912 0 -0.32103296817657878 -0.082656476452658639 0 -0.3453529791357649 -0.07211045902320197 0 -0.30807566230962469 -0.12087427087378499 0 -0.32329194788869442 -0.1034183298589804 0 -0.33246816563449738 -0.1211806240550105 0 -0.30807566230962469 -0.12087427087378499 0 -0.33246816563449738 -0.1211806240550105 0 -0.30807566230962469 -0.12087427087378499 0 -0.32007374605487132 -0.12494213909402439 0 -0.33246816563449738 -0.1211806240550105 0 -0.30690970986333499 -0.10413412755240679 0 -0.30807566230962469 -0.12087427087378499 0 -0.32329194788869442 -0.1034183298589804 0 -0.32329194788869442 -0.1034183298589804 0 -0.33246816563449738 -0.1211806240550105 0 -0.32007374605487132 -0.12494213909402439 0 -0.33441303965894859 -0.1249452932850653 0 -0.30690970986333499 -0.10413412755240679 0 -0.31411573014289268 -0.085656035662949492 0 -0.32329194788869442 -0.1034183298589804 0 -0.32103296817657878 -0.082656476452658639 0 -0.32329194788869442 -0.1034183298589804 0 -0.33093834944883532 -0.101971145942244 0 -0.31411573014289268 -0.085656035662949492 0 -0.32329194788869442 -0.1034183298589804 0 -0.32329194788869442 -0.1034183298589804 0 -0.33093834944883532 -0.101971145942244 0 -0.33246816563449738 -0.1211806240550105 0 -0.33692687914299491 -0.089632102483736459 0 -0.33093834944883532 -0.101971145942244 0 -0.35038321981080389 -0.10179032851684799 0 -0.33093834944883532 -0.101971145942244 0 -0.34773438721257438 -0.1121772477149196 0 -0.35038321981080389 -0.10179032851684799 0 -0.33093834944883532 -0.101971145942244 0 -0.3408437307210912 -0.1212858154318297 0 -0.33093834944883532 -0.101971145942244 0 -0.3408437307210912 -0.1212858154318297 0 -0.33246816563449738 -0.1211806240550105 0 -0.33093834944883532 -0.101971145942244 0 -0.3408437307210912 -0.1212858154318297 0 -0.34773438721257438 -0.1121772477149196 0 -0.34272140335036932 -0.124947120862287 0 -0.3408437307210912 -0.1212858154318297 0 -0.33441303965894859 -0.1249452932850653 0 -0.3408437307210912 -0.1212858154318297 0 -0.33246816563449738 -0.1211806240550105 0 -0.34272140335036932 -0.124947120862287 0 -0.33441303965894859 -0.1249452932850653 0 -0.34272140335036932 -0.124947120862287 0 -0.3408437307210912 -0.1212858154318297 0 -0.32007374605487132 -0.12494213909402439 0 -0.33441303965894859 -0.1249452932850653 0 -0.33246816563449738 -0.1211806240550105 0 -0.3408437307210912 -0.1212858154318297 0 -0.33441303965894859 -0.1249452932850653 0 -0.33246816563449738 -0.1211806240550105 0 -0.33441303965894859 -0.1249452932850653 0 -0.33246816563449738 -0.1211806240550105 0 -0.34272140335036932 -0.124947120862287 0 -0.35433435295871402 -0.1214552484327875 0 -0.36893450279197471 -0.1249528869149899 0 -0.34272140335036932 -0.124947120862287 0 -0.36893450279197471 -0.1249528869149899 0 -0.3408437307210912 -0.1212858154318297 0 -0.35433435295871402 -0.1214552484327875 0 -0.3408437307210912 -0.1212858154318297 0 -0.35433435295871402 -0.1214552484327875 0 -0.34773438721257438 -0.1121772477149196 0 -0.34272140335036932 -0.124947120862287 0 -0.3408437307210912 -0.1212858154318297 0 -0.35433435295871402 -0.1214552484327875 0 -0.35433435295871402 -0.1214552484327875 0 -0.34773438721257438 -0.1121772477149196 0 -0.3623387343604032 -0.1125517513480446 0 -0.34773438721257438 -0.1121772477149196 0 -0.35038321981080389 -0.10179032851684799 0 -0.3623387343604032 -0.1125517513480446 0 -0.37380044498630338 -0.100392191664622 0 -0.3623387343604032 -0.1125517513480446 0 -0.3789649235099295 -0.11270856972454819 0 -0.35038321981080389 -0.10179032851684799 0 -0.37380044498630338 -0.100392191664622 0 -0.36747037526515469 -0.088210616938563927 0 -0.35038321981080389 -0.10179032851684799 0 -0.37380044498630338 -0.100392191664622 0 -0.3623387343604032 -0.1125517513480446 0 -0.3623387343604032 -0.1125517513480446 0 -0.36893450279197471 -0.1249528869149899 0 -0.3789649235099295 -0.11270856972454819 0 -0.35433435295871402 -0.1214552484327875 0 -0.3623387343604032 -0.1125517513480446 0 -0.36893450279197471 -0.1249528869149899 0 -0.34995192587724822 -0.070116192960804249 0 -0.35645509357982358 -0.081628608772215283 0 -0.36843110820579178 -0.075527255856609146 0 -0.34995192587724822 -0.070116192960804249 0 -0.36608399240098949 -0.063120758007335118 0 -0.35494834161021771 -0.06194377696909157 0 -0.34995192587724822 -0.070116192960804249 0 -0.36843110820579178 -0.075527255856609146 0 -0.34995192587724822 -0.070116192960804249 0 -0.36608399240098949 -0.063120758007335118 0 -0.34995192587724822 -0.070116192960804249 0 -0.34475717967991132 -0.068595070548471249 0 -0.35494834161021771 -0.06194377696909157 0 -0.34995192587724822 -0.070116192960804249 0 -0.34475717967991132 -0.068595070548471249 0 -0.34995192587724822 -0.070116192960804249 0 -0.34475717967991132 -0.068595070548471249 0 -0.3453529791357649 -0.07211045902320197 0 -0.34995192587724822 -0.070116192960804249 0 -0.3453529791357649 -0.07211045902320197 0 -0.34995192587724822 -0.070116192960804249 0 -0.3453529791357649 -0.07211045902320197 0 -0.35645509357982358 -0.081628608772215283 0 -0.34475717967991132 -0.068595070548471249 0 -0.3453529791357649 -0.07211045902320197 0 -0.35038321981080389 -0.10179032851684799 0 -0.35645509357982358 -0.081628608772215283 0 -0.36747037526515469 -0.088210616938563927 0 -0.35038321981080389 -0.10179032851684799 0 -0.3453529791357649 -0.07211045902320197 0 -0.35645509357982358 -0.081628608772215283 0 -0.33692687914299491 -0.089632102483736459 0 -0.35038321981080389 -0.10179032851684799 0 -0.3453529791357649 -0.07211045902320197 0 -0.35038321981080389 -0.10179032851684799 0 -0.3453529791357649 -0.07211045902320197 0 -0.36747037526515469 -0.088210616938563927 0 -0.36843110820579178 -0.075527255856609146 0 -0.38691029053433551 -0.080938318752413793 0 -0.35645509357982358 -0.081628608772215283 0 -0.36747037526515469 -0.088210616938563927 0 -0.36843110820579178 -0.075527255856609146 0 -0.34995192587724822 -0.070116192960804249 0 -0.36843110820579178 -0.075527255856609146 0 -0.36608399240098949 -0.063120758007335118 0 -0.36843110820579178 -0.075527255856609146 0 -0.36608399240098949 -0.063120758007335118 0 -0.37978412082390189 -0.068029865631836883 0 -0.36608399240098949 -0.063120758007335118 0 -0.37085155020467431 -0.050438611479832557 0 -0.38221605892473098 -0.056125323053866277 0 -0.36608399240098949 -0.063120758007335118 0 -0.38221605892473098 -0.056125323053866277 0 -0.37085155020467431 -0.050438611479832557 0 -0.36177701350261748 -0.054750595911384127 0 -0.36329546327126672 -0.041142767418341691 0 -0.36608399240098949 -0.063120758007335118 0 -0.36177701350261748 -0.054750595911384127 0 -0.35494834161021771 -0.06194377696909157 0 -0.36608399240098949 -0.063120758007335118 0 -0.37085155020467431 -0.050438611479832557 0 -0.36177701350261748 -0.054750595911384127 0 -0.36177701350261748 -0.054750595911384127 0 -0.35494834161021771 -0.06194377696909157 0 -0.35217159659032232 -0.05313626741746251 0 -0.34475717967991132 -0.068595070548471249 0 -0.35217159659032232 -0.05313626741746251 0 -0.34008173660725832 -0.04100860914713586 0 -0.36177701350261748 -0.054750595911384127 0 -0.35217159659032232 -0.05313626741746251 0 -0.36329546327126672 -0.041142767418341691 0 -0.34475717967991132 -0.068595070548471249 0 -0.35494834161021771 -0.06194377696909157 0 -0.35217159659032232 -0.05313626741746251 0 -0.35217159659032232 -0.05313626741746251 0 -0.35233090603521772 -0.034345905606361089 0 -0.36329546327126672 -0.041142767418341691 0 -0.35217159659032232 -0.05313626741746251 0 -0.35233090603521772 -0.034345905606361089 0 -0.34008173660725832 -0.04100860914713586 0 -0.35233090603521772 -0.034345905606361089 0 -0.34677261788783459 -0.022263095799622792 0 -0.34008173660725832 -0.04100860914713586 0 -0.35233090603521772 -0.034345905606361089 0 -0.36329546327126672 -0.041142767418341691 0 -0.36125368123050811 -0.029816691131076791 0 -0.36329546327126672 -0.041142767418341691 0 -0.37015544225173291 -0.03012439130571171 0 -0.36125368123050811 -0.029816691131076791 0 -0.37085155020467431 -0.050438611479832557 0 -0.36329546327126672 -0.041142767418341691 0 -0.37439980638912518 -0.038891661293645137 0 -0.36329546327126672 -0.041142767418341691 0 -0.37439980638912518 -0.038891661293645137 0 -0.37015544225173291 -0.03012439130571171 0 -0.37439980638912518 -0.038891661293645137 0 -0.37015544225173291 -0.03012439130571171 0 -0.37866743010551202 -0.02906954498465647 0 -0.37015544225173291 -0.03012439130571171 0 -0.37402384376206249 -0.023759624541515059 0 -0.37866743010551202 -0.02906954498465647 0 -0.37015544225173291 -0.03012439130571171 0 -0.37402384376206249 -0.023759624541515059 0 -0.36652472594663232 -0.022500501643346649 0 -0.37402384376206249 -0.023759624541515059 0 -0.37465439862472261 -0.016787835852634068 0 -0.36652472594663232 -0.022500501643346649 0 -0.37465439862472261 -0.016787835852634068 0 -0.36652472594663232 -0.022500501643346649 0 -0.3596530522362773 -0.017262546391789129 0 -0.36652472594663232 -0.022500501643346649 0 -0.3596530522362773 -0.017262546391789129 0 -0.35649867437881472 -0.022585523222405649 0 -0.36652472594663232 -0.022500501643346649 0 -0.36125368123050811 -0.029816691131076791 0 -0.35649867437881472 -0.022585523222405649 0 -0.37015544225173291 -0.03012439130571171 0 -0.36652472594663232 -0.022500501643346649 0 -0.36125368123050811 -0.029816691131076791 0 -0.37465439862472261 -0.016787835852634068 0 -0.3596530522362773 -0.017262546391789129 0 -0.34857824671955512 -0.007874197240844389 0 -0.37465439862472261 -0.016787835852634068 0 -0.3597652811465577 -0.0058215117475868012 0 -0.34857824671955512 -0.007874197240844389 0 -0.37465439862472261 -0.016787835852634068 0 -0.34857824671955512 -0.007874197240844389 0 -0.37126952376897032 -0.00085078512189483576 0 -0.36867541047690239 -0.006920070417115203 0 -0.36494834593608783 -0.001298186014321303 0 -0.37126952376897032 -0.00085078512189483576 0 -0.37464851222799189 -0.0076089195940836872 0 -0.37774077980655368 -0.001289555558904682 0 -0.37126952376897032 -0.00085078512189483576 0 -0.37464851222799189 -0.0076089195940836872 0 -0.36867541047690239 -0.006920070417115203 0 -0.37465439862472261 -0.016787835852634068 0 -0.36867541047690239 -0.006920070417115203 0 -0.3597652811465577 -0.0058215117475868012 0 -0.37465439862472261 -0.016787835852634068 0 -0.37464851222799189 -0.0076089195940836872 0 -0.36867541047690239 -0.006920070417115203 0 -0.36867541047690239 -0.006920070417115203 0 -0.3597652811465577 -0.0058215117475868012 0 -0.36494834593608783 -0.001298186014321303 0 -0.3597652811465577 -0.0058215117475868012 0 -0.36494834593608783 -0.001298186014321303 0 -0.35900139338342918 0.0020097317905480609 0 -0.3597652811465577 -0.0058215117475868012 0 -0.35221409618436439 -0.0049109655465913588 0 -0.34857824671955512 -0.007874197240844389 0 -0.3597652811465577 -0.0058215117475868012 0 -0.35509488683577939 -0.0004162838960613095 0 -0.35900139338342918 0.0020097317905480609 0 -0.3597652811465577 -0.0058215117475868012 0 -0.35509488683577939 -0.0004162838960613095 0 -0.35221409618436439 -0.0049109655465913588 0 -0.3596530522362773 -0.017262546391789129 0 -0.34857824671955512 -0.007874197240844389 0 -0.35200921551166209 -0.0165646739997149 0 -0.34857824671955512 -0.007874197240844389 0 -0.34618108527798752 -0.01472783018749277 0 -0.35200921551166209 -0.0165646739997149 0 -0.35233090603521772 -0.034345905606361089 0 -0.36125368123050811 -0.029816691131076791 0 -0.35649867437881472 -0.022585523222405649 0 -0.35233090603521772 -0.034345905606361089 0 -0.35649867437881472 -0.022585523222405649 0 -0.34677261788783459 -0.022263095799622792 0 -0.35649867437881472 -0.022585523222405649 0 -0.35200921551166209 -0.0165646739997149 0 -0.34677261788783459 -0.022263095799622792 0 -0.3596530522362773 -0.017262546391789129 0 -0.35649867437881472 -0.022585523222405649 0 -0.35200921551166209 -0.0165646739997149 0 -0.34618108527798752 -0.01472783018749277 0 -0.35200921551166209 -0.0165646739997149 0 -0.34677261788783459 -0.022263095799622792 0 -0.33540629353460438 -0.01342214774580049 0 -0.31718310516035308 -0.038172790333745737 0 -0.34008173660725832 -0.04100860914713586 0 -0.33540629353460438 -0.01342214774580049 0 -0.34008173660725832 -0.04100860914713586 0 -0.34677261788783459 -0.022263095799622792 0 -0.33540629353460438 -0.01342214774580049 0 -0.34008173660725832 -0.04100860914713586 0 -0.34618108527798752 -0.01472783018749277 0 -0.34677261788783459 -0.022263095799622792 0 -0.33540629353460438 -0.01342214774580049 0 -0.33540629353460438 -0.01342214774580049 0 -0.3204068892458079 -0.0014125807301150939 0 -0.33073085046195078 0.01416431365553468 0 -0.34857824671955512 -0.007874197240844389 0 -0.33540629353460438 -0.01342214774580049 0 -0.33073085046195078 0.01416431365553468 0 -0.34857824671955512 -0.007874197240844389 0 -0.34618108527798752 -0.01472783018749277 0 -0.33540629353460438 -0.01342214774580049 0 -0.3025805037907468 -0.0027432771802810229 0 -0.31459326366374579 -0.01532774276474733 0 -0.3204068892458079 -0.0014125807301150939 0 -0.33540629353460438 -0.01342214774580049 0 -0.31459326366374579 -0.01532774276474733 0 -0.3204068892458079 -0.0014125807301150939 0 -0.33540629353460438 -0.01342214774580049 0 -0.31459326366374579 -0.01532774276474733 0 -0.31718310516035308 -0.038172790333745737 0 -0.31718310516035308 -0.038172790333745737 0 -0.3268834079531176 -0.05023453433316457 0 -0.34008173660725832 -0.04100860914713586 0 -0.31718310516035308 -0.038172790333745737 0 -0.31370341578724742 -0.051143824177853653 0 -0.3268834079531176 -0.05023453433316457 0 -0.31370341578724742 -0.051143824177853653 0 -0.31629816603535338 -0.060261719535131632 0 -0.32352590008436471 -0.062378140209921912 0 -0.31629816603535338 -0.060261719535131632 0 -0.32352590008436471 -0.062378140209921912 0 -0.32352590008436471 -0.062378140209921912 0 -0.3268834079531176 -0.05023453433316457 0 -0.33381205608116321 -0.055554088559673351 0 -0.31370341578724742 -0.051143824177853653 0 -0.32352590008436471 -0.062378140209921912 0 -0.3268834079531176 -0.05023453433316457 0 -0.34475717967991132 -0.068595070548471249 0 -0.32352590008436471 -0.062378140209921912 0 -0.33381205608116321 -0.055554088559673351 0 -0.34475717967991132 -0.068595070548471249 0 -0.33381205608116321 -0.055554088559673351 0 -0.34008173660725832 -0.04100860914713586 0 -0.3268834079531176 -0.05023453433316457 0 -0.33381205608116321 -0.055554088559673351 0 -0.34008173660725832 -0.04100860914713586 0 -0.34475717967991132 -0.068595070548471249 0 -0.34008173660725832 -0.04100860914713586 0 -0.29131753467172561 -0.25675805269722002 0 -0.30769212114973271 -0.24578220261295139 0 -0.29241592956139478 -0.23974284613727589 0 -0.30769212114973271 -0.24578220261295139 0 -0.30829656048542242 -0.23127198481015249 0 -0.29241592956139478 -0.23974284613727589 0 -0.30829656048542242 -0.23127198481015249 0 -0.29279532374442052 -0.2217612167757172 0 -0.3129652712195421 -0.2114706657937139 0 -0.30829656048542242 -0.23127198481015249 0 -0.29279532374442052 -0.2217612167757172 0 -0.29241592956139478 -0.23974284613727589 0 -0.29279532374442052 -0.2217612167757172 0 -0.29241592956139478 -0.23974284613727589 0 -0.27798049023744681 -0.23352671123603991 0 -0.29279532374442052 -0.2217612167757172 0 -0.27798049023744681 -0.23352671123603991 0 -0.27449661508218531 -0.21747639879007349 0 -0.29131753467172561 -0.25675805269722002 0 -0.29241592956139478 -0.23974284613727589 0 -0.27722523139620658 -0.24922189107985179 0 -0.29241592956139478 -0.23974284613727589 0 -0.27722523139620658 -0.24922189107985179 0 -0.27798049023744681 -0.23352671123603991 0 -0.27722523139620658 -0.24922189107985179 0 -0.25992972331208369 -0.2410680052130979 0 -0.27798049023744681 -0.23352671123603991 0 -0.26398002587916253 -0.25656090854441049 0 -0.27722523139620658 -0.24922189107985179 0 -0.25992972331208369 -0.2410680052130979 0 -0.25992972331208369 -0.2410680052130979 0 -0.25674041691710447 -0.22108212323078871 0 -0.27798049023744681 -0.23352671123603991 0 -0.2377451423251814 -0.23136366228574551 0 -0.25992972331208369 -0.2410680052130979 0 -0.25674041691710447 -0.22108212323078871 0 -0.25674041691710447 -0.22108212323078871 0 -0.27798049023744681 -0.23352671123603991 0 -0.27449661508218531 -0.21747639879007349 0 -0.27449661508218531 -0.21747639879007349 0 -0.25644706280453389 -0.1995927939493197 0 -0.27817485521465529 -0.19463925610534399 0 -0.27449661508218531 -0.21747639879007349 0 -0.27817485521465529 -0.19463925610534399 0 -0.25674041691710447 -0.22108212323078871 0 -0.27449661508218531 -0.21747639879007349 0 -0.25644706280453389 -0.1995927939493197 0 -0.25644706280453389 -0.1995927939493197 0 -0.27817485521465529 -0.19463925610534399 0 -0.26629571781906192 -0.18034234132084431 0 -0.27817485521465529 -0.19463925610534399 0 -0.29367807880863189 -0.20345752952089671 0 -0.29386082525749962 -0.1848532680646672 0 -0.27449661508218531 -0.21747639879007349 0 -0.27817485521465529 -0.19463925610534399 0 -0.29367807880863189 -0.20345752952089671 0 -0.29279532374442052 -0.2217612167757172 0 -0.27449661508218531 -0.21747639879007349 0 -0.29367807880863189 -0.20345752952089671 0 -0.29279532374442052 -0.2217612167757172 0 -0.29367807880863189 -0.20345752952089671 0 -0.3129652712195421 -0.2114706657937139 0 -0.29367807880863189 -0.20345752952089671 0 -0.30717411826112789 -0.1920401195635244 0 -0.29386082525749962 -0.1848532680646672 0 -0.29367807880863189 -0.20345752952089671 0 -0.30717411826112789 -0.1920401195635244 0 -0.3129652712195421 -0.2114706657937139 0 -0.30551265723832022 -0.17938492804960809 0 -0.29677214667513702 -0.1677956617280158 0 -0.29386082525749962 -0.1848532680646672 0 -0.30717411826112789 -0.1920401195635244 0 -0.30551265723832022 -0.17938492804960809 0 -0.29386082525749962 -0.1848532680646672 0 -0.30717411826112789 -0.1920401195635244 0 -0.30551265723832022 -0.17938492804960809 0 -0.31489114071409963 -0.18333745750317351 0 -0.30551265723832022 -0.17938492804960809 0 -0.31220508881165993 -0.16846949012138551 0 -0.29677214667513702 -0.1677956617280158 0 -0.30551265723832022 -0.17938492804960809 0 -0.31220508881165993 -0.16846949012138551 0 -0.31489114071409963 -0.18333745750317351 0 -0.31220508881165993 -0.16846949012138551 0 -0.2949530938874384 -0.15245549241185349 0 -0.31498630483336881 -0.15987728715749039 0 -0.31220508881165993 -0.16846949012138551 0 -0.2949530938874384 -0.15245549241185349 0 -0.31220508881165993 -0.16846949012138551 0 -0.29677214667513702 -0.1677956617280158 0 -0.2949530938874384 -0.15245549241185349 0 -0.28185309534712533 -0.17180211342061449 0 -0.28553133547959519 -0.14896497073588499 0 -0.29677214667513702 -0.1677956617280158 0 -0.28185309534712533 -0.17180211342061449 0 -0.2949530938874384 -0.15245549241185349 0 -0.28185309534712533 -0.17180211342061449 0 -0.28553133547959519 -0.14896497073588499 0 -0.2949530938874384 -0.15245549241185349 0 -0.27817485521465529 -0.19463925610534399 0 -0.28185309534712533 -0.17180211342061449 0 -0.29386082525749962 -0.1848532680646672 0 -0.29677214667513702 -0.1677956617280158 0 -0.28185309534712533 -0.17180211342061449 0 -0.29386082525749962 -0.1848532680646672 0 -0.27817485521465529 -0.19463925610534399 0 -0.28185309534712533 -0.17180211342061449 0 -0.27817485521465529 -0.19463925610534399 0 -0.28185309534712533 -0.17180211342061449 0 -0.26629571781906192 -0.18034234132084431 0 -0.26629571781906192 -0.18034234132084431 0 -0.25029992488695979 -0.1782534950292988 0 -0.25761979100978533 -0.16665415002795461 0 -0.25644706280453389 -0.1995927939493197 0 -0.26629571781906192 -0.18034234132084431 0 -0.25029992488695979 -0.1782534950292988 0 -0.26629571781906192 -0.18034234132084431 0 -0.25761979100978533 -0.16665415002795461 0 -0.26933386928146391 -0.16300442301689841 0 -0.24825300788518309 -0.1555077779107997 0 -0.25761979100978533 -0.16665415002795461 0 -0.26108146703715113 -0.15708396540124031 0 -0.25761979100978533 -0.16665415002795461 0 -0.26108146703715113 -0.15708396540124031 0 -0.26933386928146391 -0.16300442301689841 0 -0.28185309534712533 -0.17180211342061449 0 -0.27598770130958522 -0.15333886838191951 0 -0.28553133547959519 -0.14896497073588499 0 -0.28185309534712533 -0.17180211342061449 0 -0.26629571781906192 -0.18034234132084431 0 -0.26933386928146391 -0.16300442301689841 0 -0.26108146703715113 -0.15708396540124031 0 -0.26933386928146391 -0.16300442301689841 0 -0.26726071412102442 -0.15087550168963329 0 -0.28185309534712533 -0.17180211342061449 0 -0.26933386928146391 -0.16300442301689841 0 -0.27598770130958522 -0.15333886838191951 0 -0.27598770130958522 -0.15333886838191951 0 -0.271177428866754 -0.14364721368904659 0 -0.28553133547959519 -0.14896497073588499 0 -0.271177428866754 -0.14364721368904659 0 -0.28662611268527088 -0.1421678116724244 0 -0.28553133547959519 -0.14896497073588499 0 -0.271177428866754 -0.14364721368904659 0 -0.28553133547959519 -0.14896497073588499 0 -0.271177428866754 -0.14364721368904659 0 -0.26726071412102442 -0.15087550168963329 0 -0.25891484533836889 -0.13910423861407881 0 -0.271177428866754 -0.14364721368904659 0 -0.26726071412102442 -0.15087550168963329 0 -0.27598770130958522 -0.15333886838191951 0 -0.271177428866754 -0.14364721368904659 0 -0.26726071412102442 -0.15087550168963329 0 -0.26933386928146391 -0.16300442301689841 0 -0.27598770130958522 -0.15333886838191951 0 -0.26726071412102442 -0.15087550168963329 0 -0.2405789555143194 -0.1375116727892334 0 -0.25601133851015478 -0.1487044986697981 0 -0.25891484533836889 -0.13910423861407881 0 -0.26108146703715113 -0.15708396540124031 0 -0.26726071412102442 -0.15087550168963329 0 -0.25601133851015478 -0.1487044986697981 0 -0.271177428866754 -0.14364721368904659 0 -0.25891484533836889 -0.13910423861407881 0 -0.26726071412102442 -0.15087550168963329 0 -0.25601133851015478 -0.1487044986697981 0 -0.25891484533836889 -0.13910423861407881 0 -0.24825300788518309 -0.1555077779107997 0 -0.26108146703715113 -0.15708396540124031 0 -0.25601133851015478 -0.1487044986697981 0 -0.26009747564537128 -0.1202716976192799 0 -0.25054446979338107 -0.12912519928877991 0 -0.26697405985724948 -0.1304210152969853 0 -0.25054446979338107 -0.12912519928877991 0 -0.25891484533836889 -0.13910423861407881 0 -0.26697405985724948 -0.1304210152969853 0 -0.2405789555143194 -0.1375116727892334 0 -0.25054446979338107 -0.12912519928877991 0 -0.25891484533836889 -0.13910423861407881 0 -0.28368315898475188 -0.1205679176925603 0 -0.271177428866754 -0.14364721368904659 0 -0.26697405985724948 -0.1304210152969853 0 -0.28368315898475188 -0.1205679176925603 0 -0.271177428866754 -0.14364721368904659 0 -0.28514813781506088 -0.1345929107172644 0 -0.28368315898475188 -0.1205679176925603 0 -0.271177428866754 -0.14364721368904659 0 -0.271177428866754 -0.14364721368904659 0 -0.25891484533836889 -0.13910423861407881 0 -0.26697405985724948 -0.1304210152969853 0 -0.271177428866754 -0.14364721368904659 0 -0.28514813781506088 -0.1345929107172644 0 -0.28662611268527088 -0.1421678116724244 0 -0.28368315898475188 -0.1205679176925603 0 -0.29492821592448881 -0.13453805291007029 0 -0.28514813781506088 -0.1345929107172644 0 -0.28368315898475188 -0.1205679176925603 0 -0.29492821592448881 -0.13453805291007029 0 -0.30140371581860798 -0.1292511186866305 0 -0.29492821592448881 -0.13453805291007029 0 -0.2912775948780732 -0.1389862943003273 0 -0.28514813781506088 -0.1345929107172644 0 -0.29657756063899582 -0.140013172184488 0 -0.29492821592448881 -0.13453805291007029 0 -0.2912775948780732 -0.1389862943003273 0 -0.2912775948780732 -0.1389862943003273 0 -0.28514813781506088 -0.1345929107172644 0 -0.28662611268527088 -0.1421678116724244 0 -0.28662611268527088 -0.1421678116724244 0 -0.28553133547959519 -0.14896497073588499 0 -0.28662611268527088 -0.1421678116724244 0 -0.28553133547959519 -0.14896497073588499 0 -0.28937009998544028 -0.14621975116982991 0 -0.28553133547959519 -0.14896497073588499 0 -0.2922536480049423 -0.1499497578362777 0 -0.28937009998544028 -0.14621975116982991 0 -0.28553133547959519 -0.14896497073588499 0 -0.2922536480049423 -0.1499497578362777 0 -0.2949530938874384 -0.15245549241185349 0 -0.28553133547959519 -0.14896497073588499 0 -0.2949530938874384 -0.15245549241185349 0 -0.2922536480049423 -0.1499497578362777 0 -0.2949530938874384 -0.15245549241185349 0 -0.29617843115691228 -0.14802272380236281 0 -0.2922536480049423 -0.1499497578362777 0 -0.2949530938874384 -0.15245549241185349 0 -0.2912775948780732 -0.1389862943003273 0 -0.28662611268527088 -0.1421678116724244 0 -0.29310794732654949 -0.1436195240173895 0 -0.28662611268527088 -0.1421678116724244 0 -0.28937009998544028 -0.14621975116982991 0 -0.29310794732654949 -0.1436195240173895 0 -0.2922536480049423 -0.1499497578362777 0 -0.28937009998544028 -0.14621975116982991 0 -0.29310794732654949 -0.1436195240173895 0 -0.29617843115691228 -0.14802272380236281 0 -0.29310794732654949 -0.1436195240173895 0 -0.29956135480037449 -0.14472193576336759 0 -0.2922536480049423 -0.1499497578362777 0 -0.29617843115691228 -0.14802272380236281 0 -0.29310794732654949 -0.1436195240173895 0 -0.29657756063899582 -0.140013172184488 0 -0.2912775948780732 -0.1389862943003273 0 -0.29310794732654949 -0.1436195240173895 0 -0.29657756063899582 -0.140013172184488 0 -0.29310794732654949 -0.1436195240173895 0 -0.29956135480037449 -0.14472193576336759 0 -0.29956135480037449 -0.14472193576336759 0 -0.30554397810907652 -0.146919348525368 0 -0.30456114821214081 -0.13888567554976469 0 -0.2949530938874384 -0.15245549241185349 0 -0.30620642865757891 -0.15285211384445899 0 -0.31498630483336881 -0.15987728715749039 0 -0.2949530938874384 -0.15245549241185349 0 -0.31498630483336881 -0.15987728715749039 0 -0.29657756063899582 -0.140013172184488 0 -0.29956135480037449 -0.14472193576336759 0 -0.30456114821214081 -0.13888567554976469 0 -0.29617843115691228 -0.14802272380236281 0 -0.29956135480037449 -0.14472193576336759 0 -0.30052761464898298 -0.14908162957255741 0 -0.29956135480037449 -0.14472193576336759 0 -0.30052761464898298 -0.14908162957255741 0 -0.30554397810907652 -0.146919348525368 0 -0.2949530938874384 -0.15245549241185349 0 -0.30052761464898298 -0.14908162957255741 0 -0.30620642865757891 -0.15285211384445899 0 -0.2949530938874384 -0.15245549241185349 0 -0.29617843115691228 -0.14802272380236281 0 -0.30052761464898298 -0.14908162957255741 0 -0.30052761464898298 -0.14908162957255741 0 -0.30620642865757891 -0.15285211384445899 0 -0.30554397810907652 -0.146919348525368 0 -0.30620642865757891 -0.15285211384445899 0 -0.31211863317072019 -0.1538765410016501 0 -0.31498630483336881 -0.15987728715749039 0 -0.30620642865757891 -0.15285211384445899 0 -0.31071230574427161 -0.15022116190891349 0 -0.30554397810907652 -0.146919348525368 0 -0.30620642865757891 -0.15285211384445899 0 -0.31071230574427161 -0.15022116190891349 0 -0.31211863317072019 -0.1538765410016501 0 -0.31246836027323899 -0.14497521722301901 0 -0.31246708178415561 -0.13872402753426441 0 -0.30456114821214081 -0.13888567554976469 0 -0.30554397810907652 -0.146919348525368 0 -0.31246836027323899 -0.14497521722301901 0 -0.30456114821214081 -0.13888567554976469 0 -0.31071230574427161 -0.15022116190891349 0 -0.30554397810907652 -0.146919348525368 0 -0.31246836027323899 -0.14497521722301901 0 -0.30140371581860798 -0.1292511186866305 0 -0.30456114821214081 -0.13888567554976469 0 -0.31280589771709483 -0.13181614145056869 0 -0.31246708178415561 -0.13872402753426441 0 -0.30456114821214081 -0.13888567554976469 0 -0.31280589771709483 -0.13181614145056869 0 -0.30807566230962469 -0.12087427087378499 0 -0.30140371581860798 -0.1292511186866305 0 -0.31280589771709483 -0.13181614145056869 0 -0.29657756063899582 -0.140013172184488 0 -0.29492821592448881 -0.13453805291007029 0 -0.30456114821214081 -0.13888567554976469 0 -0.29492821592448881 -0.13453805291007029 0 -0.30140371581860798 -0.1292511186866305 0 -0.30456114821214081 -0.13888567554976469 0 -0.3226930215385343 -0.13395567837890529 0 -0.31855308997834159 -0.13934265221991729 0 -0.32506280578504959 -0.14064102607364051 0 -0.3226930215385343 -0.13395567837890529 0 -0.32506280578504959 -0.14064102607364051 0 -0.33047387389575927 -0.1369340691945744 0 -0.3226930215385343 -0.13395567837890529 0 -0.32807010768985068 -0.12986880773923029 0 -0.33047387389575927 -0.1369340691945744 0 -0.32007374605487132 -0.12494213909402439 0 -0.33441303965894859 -0.1249452932850653 0 -0.32807010768985068 -0.12986880773923029 0 -0.32007374605487132 -0.12494213909402439 0 -0.3226930215385343 -0.13395567837890529 0 -0.32807010768985068 -0.12986880773923029 0 -0.32007374605487132 -0.12494213909402439 0 -0.3226930215385343 -0.13395567837890529 0 -0.31280589771709483 -0.13181614145056869 0 -0.30807566230962469 -0.12087427087378499 0 -0.32007374605487132 -0.12494213909402439 0 -0.31280589771709483 -0.13181614145056869 0 -0.3226930215385343 -0.13395567837890529 0 -0.31280589771709483 -0.13181614145056869 0 -0.31855308997834159 -0.13934265221991729 0 -0.31246708178415561 -0.13872402753426441 0 -0.31280589771709483 -0.13181614145056869 0 -0.31855308997834159 -0.13934265221991729 0 -0.31246836027323899 -0.14497521722301901 0 -0.31246708178415561 -0.13872402753426441 0 -0.31855308997834159 -0.13934265221991729 0 -0.31246836027323899 -0.14497521722301901 0 -0.31855308997834159 -0.13934265221991729 0 -0.32096396999162452 -0.14503749675666289 0 -0.31246836027323899 -0.14497521722301901 0 -0.31722412851074311 -0.15248258895007169 0 -0.32096396999162452 -0.14503749675666289 0 -0.31211863317072019 -0.1538765410016501 0 -0.31722412851074311 -0.15248258895007169 0 -0.31498630483336881 -0.15987728715749039 0 -0.31071230574427161 -0.15022116190891349 0 -0.31246836027323899 -0.14497521722301901 0 -0.31722412851074311 -0.15248258895007169 0 -0.31071230574427161 -0.15022116190891349 0 -0.31211863317072019 -0.1538765410016501 0 -0.31722412851074311 -0.15248258895007169 0 -0.32096396999162452 -0.14503749675666289 0 -0.32506280578504959 -0.14064102607364051 0 -0.33039285730051032 -0.1475567648151897 0 -0.31722412851074311 -0.15248258895007169 0 -0.32096396999162452 -0.14503749675666289 0 -0.33039285730051032 -0.1475567648151897 0 -0.31855308997834159 -0.13934265221991729 0 -0.32096396999162452 -0.14503749675666289 0 -0.32506280578504959 -0.14064102607364051 0 -0.33039285730051032 -0.1475567648151897 0 -0.33813688440009898 -0.15615522653291031 0 -0.34198145815712638 -0.1395953898376964 0 -0.32506280578504959 -0.14064102607364051 0 -0.33039285730051032 -0.1475567648151897 0 -0.33047387389575927 -0.1369340691945744 0 -0.31722412851074311 -0.15248258895007169 0 -0.33039285730051032 -0.1475567648151897 0 -0.33813688440009898 -0.15615522653291031 0 -0.33039285730051032 -0.1475567648151897 0 -0.34198145815712638 -0.1395953898376964 0 -0.33047387389575927 -0.1369340691945744 0 -0.33813688440009898 -0.15615522653291031 0 -0.34198145815712638 -0.1395953898376964 0 -0.34954987665533299 -0.15424548639031271 0 -0.34198145815712638 -0.1395953898376964 0 -0.3337346198504213 -0.1328358900141379 0 -0.33047387389575927 -0.1369340691945744 0 -0.32807010768985068 -0.12986880773923029 0 -0.3337346198504213 -0.1328358900141379 0 -0.33047387389575927 -0.1369340691945744 0 -0.33441303965894859 -0.1249452932850653 0 -0.32807010768985068 -0.12986880773923029 0 -0.3337346198504213 -0.1328358900141379 0 -0.33441303965894859 -0.1249452932850653 0 -0.34198145815712638 -0.1395953898376964 0 -0.34272140335036932 -0.124947120862287 0 -0.33441303965894859 -0.1249452932850653 0 -0.34198145815712638 -0.1395953898376964 0 -0.33441303965894859 -0.1249452932850653 0 -0.34198145815712638 -0.1395953898376964 0 -0.3337346198504213 -0.1328358900141379 0 -0.34272140335036932 -0.124947120862287 0 -0.35413341494744088 -0.14719959415449421 0 -0.34272140335036932 -0.124947120862287 0 -0.35599685079288468 -0.13305792836185981 0 -0.35413341494744088 -0.14719959415449421 0 -0.34272140335036932 -0.124947120862287 0 -0.34198145815712638 -0.1395953898376964 0 -0.35413341494744088 -0.14719959415449421 0 -0.34272140335036932 -0.124947120862287 0 -0.36893450279197471 -0.1249528869149899 0 -0.35599685079288468 -0.13305792836185981 0 -0.35599685079288468 -0.13305792836185981 0 -0.36484224068191412 -0.14157370685753851 0 -0.35413341494744088 -0.14719959415449421 0 -0.36893450279197471 -0.1249528869149899 0 -0.35599685079288468 -0.13305792836185981 0 -0.36484224068191412 -0.14157370685753851 0 -0.36893450279197471 -0.1249528869149899 0 -0.36484224068191412 -0.14157370685753851 0 -0.3777566452334315 -0.14913711856379011 0 -0.3679743334396014 -0.15408772885571331 0 -0.37696591512674532 -0.1609827341034305 0 -0.3777566452334315 -0.14913711856379011 0 -0.3679743334396014 -0.15408772885571331 0 -0.36484224068191412 -0.14157370685753851 0 -0.3777566452334315 -0.14913711856379011 0 -0.3679743334396014 -0.15408772885571331 0 -0.36484224068191412 -0.14157370685753851 0 -0.35413341494744088 -0.14719959415449421 0 -0.35413341494744088 -0.14719959415449421 0 -0.34954987665533299 -0.15424548639031271 0 -0.35445721343992059 -0.1619675590177023 0 -0.34198145815712638 -0.1395953898376964 0 -0.34954987665533299 -0.15424548639031271 0 -0.34198145815712638 -0.1395953898376964 0 -0.35413341494744088 -0.14719959415449421 0 -0.34954987665533299 -0.15424548639031271 0 -0.33813688440009898 -0.15615522653291031 0 -0.34954987665533299 -0.15424548639031271 0 -0.34648545334868369 -0.16311147615285329 0 -0.34648545334868369 -0.16311147615285329 0 -0.35788001493839611 -0.17576831496813999 0 -0.33501951577929873 -0.16729908190312789 0 -0.34954987665533299 -0.15424548639031271 0 -0.34648545334868369 -0.16311147615285329 0 -0.35445721343992059 -0.1619675590177023 0 -0.35413341494744088 -0.14719959415449421 0 -0.35445721343992059 -0.1619675590177023 0 -0.36554542654456429 -0.16945206744667471 0 -0.35788001493839611 -0.17576831496813999 0 -0.33501951577929873 -0.16729908190312789 0 -0.34648545334868369 -0.16311147615285329 0 -0.35445721343992059 -0.1619675590177023 0 -0.35788001493839611 -0.17576831496813999 0 -0.35445721343992059 -0.1619675590177023 0 -0.36554542654456429 -0.16945206744667471 0 -0.35788001493839611 -0.17576831496813999 0 -0.35413341494744088 -0.14719959415449421 0 -0.36554542654456429 -0.16945206744667471 0 -0.3679743334396014 -0.15408772885571331 0 -0.35413341494744088 -0.14719959415449421 0 -0.36554542654456429 -0.16945206744667471 0 -0.3679743334396014 -0.15408772885571331 0 -0.36554542654456429 -0.16945206744667471 0 -0.37696591512674532 -0.1609827341034305 0 -0.37016556171889331 -0.18126023377528719 0 -0.3536864721015115 -0.18284124587119119 0 -0.37235342842372432 -0.19838340983925429 0 -0.36554542654456429 -0.16945206744667471 0 -0.37016556171889331 -0.18126023377528719 0 -0.38426477739238413 -0.17192867897072969 0 -0.37016556171889331 -0.18126023377528719 0 -0.3536864721015115 -0.18284124587119119 0 -0.35788001493839611 -0.17576831496813999 0 -0.36554542654456429 -0.16945206744667471 0 -0.37016556171889331 -0.18126023377528719 0 -0.35788001493839611 -0.17576831496813999 0 -0.3536864721015115 -0.18284124587119119 0 -0.33501951577929873 -0.16729908190312789 0 -0.3536864721015115 -0.18284124587119119 0 -0.35788001493839611 -0.17576831496813999 0 -0.33501951577929873 -0.16729908190312789 0 -0.3536864721015115 -0.18284124587119119 0 -0.32945708373588178 -0.18448348783091689 0 -0.33501951577929873 -0.16729908190312789 0 -0.31722412851074311 -0.15248258895007169 0 -0.33813688440009898 -0.15615522653291031 0 -0.33501951577929873 -0.16729908190312789 0 -0.33813688440009898 -0.15615522653291031 0 -0.34648545334868369 -0.16311147615285329 0 -0.33501951577929873 -0.16729908190312789 0 -0.31722412851074311 -0.15248258895007169 0 -0.33501951577929873 -0.16729908190312789 0 -0.31722412851074311 -0.15248258895007169 0 -0.33501951577929873 -0.16729908190312789 0 -0.31498630483336881 -0.15987728715749039 0 -0.31220508881165993 -0.16846949012138551 0 -0.33501951577929873 -0.16729908190312789 0 -0.31498630483336881 -0.15987728715749039 0 -0.33501951577929873 -0.16729908190312789 0 -0.31498630483336881 -0.15987728715749039 0 -0.31220508881165993 -0.16846949012138551 0 -0.32945708373588178 -0.18448348783091689 0 -0.31489114071409963 -0.18333745750317351 0 -0.31220508881165993 -0.16846949012138551 0 -0.32945708373588178 -0.18448348783091689 0 -0.31220508881165993 -0.16846949012138551 0 -0.32945708373588178 -0.18448348783091689 0 -0.33501951577929873 -0.16729908190312789 0 -0.32945708373588178 -0.18448348783091689 0 -0.31489114071409963 -0.18333745750317351 0 -0.32010675552350842 -0.19230926195043291 0 -0.30717411826112789 -0.1920401195635244 0 -0.32010675552350842 -0.19230926195043291 0 -0.3129652712195421 -0.2114706657937139 0 -0.32945708373588178 -0.18448348783091689 0 -0.32010675552350842 -0.19230926195043291 0 -0.32566449460190838 -0.20326261146105551 0 -0.32010675552350842 -0.19230926195043291 0 -0.3129652712195421 -0.2114706657937139 0 -0.32566449460190838 -0.20326261146105551 0 -0.30717411826112789 -0.1920401195635244 0 -0.31489114071409963 -0.18333745750317351 0 -0.32010675552350842 -0.19230926195043291 0 -0.3129652712195421 -0.2114706657937139 0 -0.32566449460190838 -0.20326261146105551 0 -0.33208474862113468 -0.21873250337862821 0 -0.33208474862113468 -0.21873250337862821 0 -0.34670907866010381 -0.20049748554044841 0 -0.34896881396179619 -0.22434135344573131 0 -0.32566449460190838 -0.20326261146105551 0 -0.33208474862113468 -0.21873250337862821 0 -0.34670907866010381 -0.20049748554044841 0 -0.3536864721015115 -0.18284124587119119 0 -0.32945708373588178 -0.18448348783091689 0 -0.34670907866010381 -0.20049748554044841 0 -0.32945708373588178 -0.18448348783091689 0 -0.32566449460190838 -0.20326261146105551 0 -0.34670907866010381 -0.20049748554044841 0 -0.32945708373588178 -0.18448348783091689 0 -0.34670907866010381 -0.20049748554044841 0 -0.3536864721015115 -0.18284124587119119 0 -0.35917751319241631 -0.19955840612521841 0 -0.34670907866010381 -0.20049748554044841 0 -0.3536864721015115 -0.18284124587119119 0 -0.37235342842372432 -0.19838340983925429 0 -0.3536864721015115 -0.18284124587119119 0 -0.35917751319241631 -0.19955840612521841 0 -0.37235342842372432 -0.19838340983925429 0 -0.37235342842372432 -0.19838340983925429 0 -0.36396107358432572 -0.21651148324997979 0 -0.37772562505684643 -0.22219038377974651 0 -0.35917751319241631 -0.19955840612521841 0 -0.37235342842372432 -0.19838340983925429 0 -0.36396107358432572 -0.21651148324997979 0 -0.34670907866010381 -0.20049748554044841 0 -0.36396107358432572 -0.21651148324997979 0 -0.34896881396179619 -0.22434135344573131 0 -0.34670907866010381 -0.20049748554044841 0 -0.36396107358432572 -0.21651148324997979 0 -0.35917751319241631 -0.19955840612521841 0 -0.34670907866010381 -0.20049748554044841 0 -0.36396107358432572 -0.21651148324997979 0 -0.34896881396179619 -0.22434135344573131 0 -0.36764811873304098 -0.23322730847002751 0 -0.35305879752332059 -0.24486073726717009 0 -0.36396107358432572 -0.21651148324997979 0 -0.36764811873304098 -0.23322730847002751 0 -0.37772562505684643 -0.22219038377974651 0 -0.36396107358432572 -0.21651148324997979 0 -0.34896881396179619 -0.22434135344573131 0 -0.36764811873304098 -0.23322730847002751 0 -0.37533687834285862 -0.25417213976024849 0 -0.36764811873304098 -0.23322730847002751 0 -0.35305879752332059 -0.24486073726717009 0 -0.34896881396179619 -0.22434135344573131 0 -0.35305879752332059 -0.24486073726717009 0 -0.33568364413539042 -0.23615154195274179 0 -0.33623326073948312 -0.25365348176558788 0 -0.33568364413539042 -0.23615154195274179 0 -0.32213598881581812 -0.2442700999577708 0 -0.33623326073948312 -0.25365348176558788 0 -0.35305879752332059 -0.24486073726717009 0 -0.33568364413539042 -0.23615154195274179 0 -0.33208474862113468 -0.21873250337862821 0 -0.33568364413539042 -0.23615154195274179 0 -0.32219037366776621 -0.22897372759534659 0 -0.33208474862113468 -0.21873250337862821 0 -0.34896881396179619 -0.22434135344573131 0 -0.33568364413539042 -0.23615154195274179 0 -0.30829656048542242 -0.23127198481015249 0 -0.3129652712195421 -0.2114706657937139 0 -0.32219037366776621 -0.22897372759534659 0 -0.3129652712195421 -0.2114706657937139 0 -0.33208474862113468 -0.21873250337862821 0 -0.32219037366776621 -0.22897372759534659 0 -0.30769212114973271 -0.24578220261295139 0 -0.30829656048542242 -0.23127198481015249 0 -0.32213598881581812 -0.2442700999577708 0 -0.30829656048542242 -0.23127198481015249 0 -0.32219037366776621 -0.22897372759534659 0 -0.32213598881581812 -0.2442700999577708 0 -0.31968345090478489 -0.25798973640781447 0 -0.30769212114973271 -0.24578220261295139 0 -0.32213598881581812 -0.2442700999577708 0 -0.33568364413539042 -0.23615154195274179 0 -0.32219037366776621 -0.22897372759534659 0 -0.32213598881581812 -0.2442700999577708 0 -0.43598079583492633 -0.24721882136819351 0 -0.42311134176242837 -0.2304528026464861 0 -0.41615383063077721 -0.2466412503256647 0 -0.43598079583492633 -0.24721882136819351 0 -0.42311134176242837 -0.2304528026464861 0 -0.43908324849522451 -0.2287046610080686 0 -0.42311134176242837 -0.2304528026464861 0 -0.41411505562058892 -0.2091502018577929 0 -0.42948217154750851 -0.21815887616964899 0 -0.42311134176242837 -0.2304528026464861 0 -0.42948217154750851 -0.21815887616964899 0 -0.43908324849522451 -0.2287046610080686 0 -0.42948217154750851 -0.21815887616964899 0 -0.43955036875351089 -0.21658504913102711 0 -0.43908324849522451 -0.2287046610080686 0 -0.40619246279161347 -0.2313797712556602 0 -0.41411505562058892 -0.2091502018577929 0 -0.42311134176242837 -0.2304528026464861 0 -0.40619246279161347 -0.2313797712556602 0 -0.41411505562058892 -0.2091502018577929 0 -0.39826986996263802 -0.25360934065352753 0 -0.41615383063077721 -0.2466412503256647 0 -0.40619246279161347 -0.2313797712556602 0 -0.42311134176242837 -0.2304528026464861 0 -0.41615383063077721 -0.2466412503256647 0 -0.40619246279161347 -0.2313797712556602 0 -0.39826986996263802 -0.25360934065352753 0 -0.38632210934187061 -0.2364082567837591 0 -0.40619246279161347 -0.2313797712556602 0 -0.39826986996263802 -0.25360934065352753 0 -0.40619246279161347 -0.2313797712556602 0 -0.37533687834285862 -0.25417213976024849 0 -0.36764811873304098 -0.23322730847002751 0 -0.38632210934187061 -0.2364082567837591 0 -0.37533687834285862 -0.25417213976024849 0 -0.39826986996263802 -0.25360934065352753 0 -0.38632210934187061 -0.2364082567837591 0 -0.36764811873304098 -0.23322730847002751 0 -0.38632210934187061 -0.2364082567837591 0 -0.37772562505684643 -0.22219038377974651 0 -0.38632210934187061 -0.2364082567837591 0 -0.37772562505684643 -0.22219038377974651 0 -0.39102038474593709 -0.2139255738073175 0 -0.38632210934187061 -0.2364082567837591 0 -0.40619246279161347 -0.2313797712556602 0 -0.39102038474593709 -0.2139255738073175 0 -0.39102038474593709 -0.2139255738073175 0 -0.40351751052996843 -0.1957217498792192 0 -0.41411505562058892 -0.2091502018577929 0 -0.40619246279161347 -0.2313797712556602 0 -0.39102038474593709 -0.2139255738073175 0 -0.41411505562058892 -0.2091502018577929 0 -0.37235342842372432 -0.19838340983925429 0 -0.39102038474593709 -0.2139255738073175 0 -0.37235342842372432 -0.19838340983925429 0 -0.37772562505684643 -0.22219038377974651 0 -0.39102038474593709 -0.2139255738073175 0 -0.37016556171889331 -0.18126023377528719 0 -0.37235342842372432 -0.19838340983925429 0 -0.38726325091278008 -0.18918768555573329 0 -0.37235342842372432 -0.19838340983925429 0 -0.39102038474593709 -0.2139255738073175 0 -0.38726325091278008 -0.18918768555573329 0 -0.38726325091278008 -0.18918768555573329 0 -0.40351751052996843 -0.1957217498792192 0 -0.40315121292097328 -0.17942465571532731 0 -0.39102038474593709 -0.2139255738073175 0 -0.38726325091278008 -0.18918768555573329 0 -0.40351751052996843 -0.1957217498792192 0 -0.41411505562058892 -0.2091502018577929 0 -0.42203764844956237 -0.18692063245992491 0 -0.40351751052996843 -0.1957217498792192 0 -0.41411505562058892 -0.2091502018577929 0 -0.42203764844956237 -0.18692063245992491 0 -0.41411505562058892 -0.2091502018577929 0 -0.42948217154750851 -0.21815887616964899 0 -0.43155084310578928 -0.2059016662048701 0 -0.42948217154750851 -0.21815887616964899 0 -0.43155084310578928 -0.2059016662048701 0 -0.43955036875351089 -0.21658504913102711 0 -0.42203764844956237 -0.18692063245992491 0 -0.44484374680150301 -0.19597231310248839 0 -0.41411505562058892 -0.2091502018577929 0 -0.43155084310578928 -0.2059016662048701 0 -0.42203764844956237 -0.18692063245992491 0 -0.43155084310578928 -0.2059016662048701 0 -0.42203764844956237 -0.18692063245992491 0 -0.44484374680150301 -0.19597231310248839 0 -0.42203764844956237 -0.18692063245992491 0 -0.44134853753678083 -0.18159229851429221 0 -0.44484374680150301 -0.19597231310248839 0 -0.42203764844956237 -0.18692063245992491 0 -0.42880774722037651 -0.1679247830322266 0 -0.42203764844956237 -0.18692063245992491 0 -0.42880774722037651 -0.1679247830322266 0 -0.44134853753678083 -0.18159229851429221 0 -0.42880774722037651 -0.1679247830322266 0 -0.43557784599118871 -0.14892893360452769 0 -0.44631139980808621 -0.1631836851414229 0 -0.42880774722037651 -0.1679247830322266 0 -0.43557784599118871 -0.14892893360452769 0 -0.42880774722037651 -0.1679247830322266 0 -0.41236960909879722 -0.16540507401591409 0 -0.42079860369606048 -0.15043713941075901 0 -0.42203764844956237 -0.18692063245992491 0 -0.42880774722037651 -0.1679247830322266 0 -0.41236960909879722 -0.16540507401591409 0 -0.40351751052996843 -0.1957217498792192 0 -0.42203764844956237 -0.18692063245992491 0 -0.40315121292097328 -0.17942465571532731 0 -0.42203764844956237 -0.18692063245992491 0 -0.40315121292097328 -0.17942465571532731 0 -0.42203764844956237 -0.18692063245992491 0 -0.41236960909879722 -0.16540507401591409 0 -0.40315121292097328 -0.17942465571532731 0 -0.38726325091278008 -0.18918768555573329 0 -0.40315121292097328 -0.17942465571532731 0 -0.38426477739238413 -0.17192867897072969 0 -0.40315121292097328 -0.17942465571532731 0 -0.38426477739238413 -0.17192867897072969 0 -0.37016556171889331 -0.18126023377528719 0 -0.38726325091278008 -0.18918768555573329 0 -0.38426477739238413 -0.17192867897072969 0 -0.36554542654456429 -0.16945206744667471 0 -0.38426477739238413 -0.17192867897072969 0 -0.37696591512674532 -0.1609827341034305 0 -0.38426477739238413 -0.17192867897072969 0 -0.37696591512674532 -0.1609827341034305 0 -0.39230106084837368 -0.15838844905994759 0 -0.40315121292097328 -0.17942465571532731 0 -0.38426477739238413 -0.17192867897072969 0 -0.39230106084837368 -0.15838844905994759 0 -0.41236960909879722 -0.16540507401591409 0 -0.39230106084837368 -0.15838844905994759 0 -0.40587711449475489 -0.1449624873806776 0 -0.41236960909879722 -0.16540507401591409 0 -0.40315121292097328 -0.17942465571532731 0 -0.39230106084837368 -0.15838844905994759 0 -0.39230106084837368 -0.15838844905994759 0 -0.39162863389564362 -0.14105630786861159 0 -0.40587711449475489 -0.1449624873806776 0 -0.39230106084837368 -0.15838844905994759 0 -0.39162863389564362 -0.14105630786861159 0 -0.3777566452334315 -0.14913711856379011 0 -0.37696591512674532 -0.1609827341034305 0 -0.39230106084837368 -0.15838844905994759 0 -0.3777566452334315 -0.14913711856379011 0 -0.36893450279197471 -0.1249528869149899 0 -0.39162863389564362 -0.14105630786861159 0 -0.3777566452334315 -0.14913711856379011 0 -0.36893450279197471 -0.1249528869149899 0 -0.39162863389564362 -0.14105630786861159 0 -0.39514760223357998 -0.1249586529677193 0 -0.39162863389564362 -0.14105630786861159 0 -0.40587711449475489 -0.1449624873806776 0 -0.39514760223357998 -0.1249586529677193 0 -0.40587711449475489 -0.1449624873806776 0 -0.39514760223357998 -0.1249586529677193 0 -0.42136070167518519 -0.1249644190204488 0 -0.40587711449475489 -0.1449624873806776 0 -0.42079860369606048 -0.15043713941075901 0 -0.42136070167518519 -0.1249644190204488 0 -0.41236960909879722 -0.16540507401591409 0 -0.40587711449475489 -0.1449624873806776 0 -0.42079860369606048 -0.15043713941075901 0 -0.42079860369606048 -0.15043713941075901 0 -0.43557784599118871 -0.14892893360452769 0 -0.42136070167518519 -0.1249644190204488 0 -0.42880774722037651 -0.1679247830322266 0 -0.42079860369606048 -0.15043713941075901 0 -0.43557784599118871 -0.14892893360452769 0 -0.43557784599118871 -0.14892893360452769 0 -0.42136070167518519 -0.1249644190204488 0 -0.44757380111679052 -0.12497018507317829 0 -0.43557784599118871 -0.14892893360452769 0 -0.45596445488588 -0.14427568033770541 0 -0.44757380111679052 -0.12497018507317829 0 -0.43557784599118871 -0.14892893360452769 0 -0.45596445488588 -0.14427568033770541 0 -0.44631139980808621 -0.1631836851414229 0 -0.45596445488588 -0.14427568033770541 0 -0.46278066629215481 -0.1610158872753634 0 -0.44631139980808621 -0.1631836851414229 0 -0.45596445488588 -0.14427568033770541 0 -0.47930750267908417 -0.1480635854121114 0 -0.46278066629215481 -0.1610158872753634 0 -0.45596445488588 -0.14427568033770541 0 -0.44757380111679052 -0.12497018507317829 0 -0.47378690055839578 -0.1249759511259078 0 -0.48827360080937021 -0.13531742911399189 0 -0.47930750267908417 -0.1480635854121114 0 -0.47378690055839578 -0.1249759511259078 0 -0.45596445488588 -0.14427568033770541 0 -0.47930750267908417 -0.1480635854121114 0 -0.47378690055839578 -0.1249759511259078 0 -0.48827360080937021 -0.13531742911399189 0 -0.5 -0.14324846273931111 0 -0.50000000000000111 -0.12498171717863731 0 -0.48827360080937021 -0.13531742911399189 0 -0.47378690055839578 -0.1249759511259078 0 -0.50000000000000111 -0.12498171717863731 0 -0.5 -0.14324846273931111 0 -0.47930750267908417 -0.1480635854121114 0 -0.49999999999999961 -0.161515208299985 0 -0.48827360080937021 -0.13531742911399189 0 -0.5 -0.14324846273931111 0 -0.47930750267908417 -0.1480635854121114 0 -0.47930750267908417 -0.1480635854121114 0 -0.47738728335761421 -0.1682509267597351 0 -0.46278066629215481 -0.1610158872753634 0 -0.47738728335761421 -0.1682509267597351 0 -0.49999999999999961 -0.161515208299985 0 -0.48839409620634278 -0.18039624849769001 0 -0.49999999999999961 -0.161515208299985 0 -0.48839409620634278 -0.18039624849769001 0 -0.47930750267908417 -0.1480635854121114 0 -0.47738728335761421 -0.1682509267597351 0 -0.49999999999999961 -0.161515208299985 0 -0.49999999999999961 -0.161515208299985 0 -0.5 -0.18618779176616679 0 -0.48839409620634278 -0.18039624849769001 0 -0.5 -0.18618779176616679 0 -0.48839409620634278 -0.18039624849769001 0 -0.48957789370491162 -0.19386933705848941 0 -0.47738728335761421 -0.1682509267597351 0 -0.48839409620634278 -0.18039624849769001 0 -0.47328693949397721 -0.18411760774338479 0 -0.47738728335761421 -0.1682509267597351 0 -0.47328693949397721 -0.18411760774338479 0 -0.45860677246597031 -0.17520894370368309 0 -0.47328693949397721 -0.18411760774338479 0 -0.45860677246597031 -0.17520894370368309 0 -0.45906836497473352 -0.19043479360484361 0 -0.47738728335761421 -0.1682509267597351 0 -0.45860677246597031 -0.17520894370368309 0 -0.46278066629215481 -0.1610158872753634 0 -0.45860677246597031 -0.17520894370368309 0 -0.46278066629215481 -0.1610158872753634 0 -0.44631139980808621 -0.1631836851414229 0 -0.42880774722037651 -0.1679247830322266 0 -0.44631139980808621 -0.1631836851414229 0 -0.44134853753678083 -0.18159229851429221 0 -0.45860677246597031 -0.17520894370368309 0 -0.44631139980808621 -0.1631836851414229 0 -0.44134853753678083 -0.18159229851429221 0 -0.45860677246597031 -0.17520894370368309 0 -0.44134853753678083 -0.18159229851429221 0 -0.45906836497473352 -0.19043479360484361 0 -0.44134853753678083 -0.18159229851429221 0 -0.45906836497473352 -0.19043479360484361 0 -0.44134853753678083 -0.18159229851429221 0 -0.44484374680150301 -0.19597231310248839 0 -0.45906836497473352 -0.19043479360484361 0 -0.43155084310578928 -0.2059016662048701 0 -0.44484374680150301 -0.19597231310248839 0 -0.44343463088850471 -0.20721188330797369 0 -0.43155084310578928 -0.2059016662048701 0 -0.44343463088850471 -0.20721188330797369 0 -0.43955036875351089 -0.21658504913102711 0 -0.44343463088850471 -0.20721188330797369 0 -0.43955036875351089 -0.21658504913102711 0 -0.44966782191270221 -0.21345696714665749 0 -0.44966782191270221 -0.21345696714665749 0 -0.45691127413918359 -0.218140336649912 0 -0.44903912237987481 -0.22310222333220869 0 -0.43955036875351089 -0.21658504913102711 0 -0.44966782191270221 -0.21345696714665749 0 -0.44903912237987481 -0.22310222333220869 0 -0.44484374680150301 -0.19597231310248839 0 -0.44343463088850471 -0.20721188330797369 0 -0.45285363365211462 -0.2065344908709397 0 -0.44343463088850471 -0.20721188330797369 0 -0.44966782191270221 -0.21345696714665749 0 -0.45285363365211462 -0.2065344908709397 0 -0.45285363365211462 -0.2065344908709397 0 -0.4586721235044201 -0.2110072970525271 0 -0.46764984515344349 -0.20502399374505181 0 -0.44966782191270221 -0.21345696714665749 0 -0.45285363365211462 -0.2065344908709397 0 -0.4586721235044201 -0.2110072970525271 0 -0.44966782191270221 -0.21345696714665749 0 -0.4586721235044201 -0.2110072970525271 0 -0.45691127413918359 -0.218140336649912 0 -0.4586721235044201 -0.2110072970525271 0 -0.45691127413918359 -0.218140336649912 0 -0.46757130244775341 -0.21427176676618889 0 -0.4586721235044201 -0.2110072970525271 0 -0.46757130244775341 -0.21427176676618889 0 -0.46764984515344349 -0.20502399374505181 0 -0.44484374680150301 -0.19597231310248839 0 -0.46764984515344349 -0.20502399374505181 0 -0.45906836497473352 -0.19043479360484361 0 -0.44484374680150301 -0.19597231310248839 0 -0.45285363365211462 -0.2065344908709397 0 -0.46764984515344349 -0.20502399374505181 0 -0.45906836497473352 -0.19043479360484361 0 -0.47678819241268611 -0.1992772886953951 0 -0.44484374680150301 -0.19597231310248839 0 -0.46764984515344349 -0.20502399374505181 0 -0.46764984515344349 -0.20502399374505181 0 -0.45906836497473352 -0.19043479360484361 0 -0.47678819241268611 -0.1992772886953951 0 -0.47328693949397721 -0.18411760774338479 0 -0.45906836497473352 -0.19043479360484361 0 -0.47678819241268611 -0.1992772886953951 0 -0.48839409620634278 -0.18039624849769001 0 -0.47328693949397721 -0.18411760774338479 0 -0.47678819241268611 -0.1992772886953951 0 -0.48839409620634278 -0.18039624849769001 0 -0.47678819241268611 -0.1992772886953951 0 -0.47678819241268611 -0.1992772886953951 0 -0.48957789370491162 -0.19386933705848941 0 -0.50000000000000222 -0.21086037523234849 0 -0.48839409620634278 -0.18039624849769001 0 -0.47678819241268611 -0.1992772886953951 0 -0.48957789370491162 -0.19386933705848941 0 -0.5 -0.18618779176616679 0 -0.48957789370491162 -0.19386933705848941 0 -0.50000000000000222 -0.21086037523234849 0 -0.50000000000000222 -0.21086037523234849 0 -0.48101414991814051 -0.21220490785157131 0 -0.4775447229854059 -0.22535576830415929 0 -0.47678819241268611 -0.1992772886953951 0 -0.50000000000000222 -0.21086037523234849 0 -0.47678819241268611 -0.1992772886953951 0 -0.50000000000000222 -0.21086037523234849 0 -0.48101414991814051 -0.21220490785157131 0 -0.46757130244775341 -0.21427176676618889 0 -0.47678819241268611 -0.1992772886953951 0 -0.48101414991814051 -0.21220490785157131 0 -0.46757130244775341 -0.21427176676618889 0 -0.47678819241268611 -0.1992772886953951 0 -0.46757130244775341 -0.21427176676618889 0 -0.46764984515344349 -0.20502399374505181 0 -0.47678819241268611 -0.1992772886953951 0 -0.46757130244775341 -0.21427176676618889 0 -0.48101414991814051 -0.21220490785157131 0 -0.4775447229854059 -0.22535576830415929 0 -0.46757130244775341 -0.21427176676618889 0 -0.4775447229854059 -0.22535576830415929 0 -0.46571952953094348 -0.22577651025912229 0 -0.4775447229854059 -0.22535576830415929 0 -0.4726071657750785 -0.240360200228666 0 -0.45676275941016609 -0.23628729483617639 0 -0.50000000000000222 -0.21086037523234849 0 -0.4775447229854059 -0.22535576830415929 0 -0.48548116721245049 -0.23774912910784329 0 -0.50000000000000222 -0.21086037523234849 0 -0.5 -0.2401545466321974 0 -0.48548116721245049 -0.23774912910784329 0 -0.48050148842732221 -0.25523221810557922 0 -0.5 -0.2401545466321974 0 -0.48548116721245049 -0.23774912910784329 0 -0.48050148842732221 -0.25523221810557922 0 -0.4726071657750785 -0.240360200228666 0 -0.46267023581878858 -0.24817136713935201 0 -0.48050148842732221 -0.25523221810557922 0 -0.48548116721245049 -0.23774912910784329 0 -0.4726071657750785 -0.240360200228666 0 -0.4775447229854059 -0.22535576830415929 0 -0.48548116721245049 -0.23774912910784329 0 -0.4726071657750785 -0.240360200228666 0 -0.4726071657750785 -0.240360200228666 0 -0.46267023581878858 -0.24817136713935201 0 -0.45676275941016609 -0.23628729483617639 0 -0.46267023581878858 -0.24817136713935201 0 -0.45676275941016609 -0.23628729483617639 0 -0.45139902778349827 -0.24711062934306771 0 -0.4775447229854059 -0.22535576830415929 0 -0.45676275941016609 -0.23628729483617639 0 -0.46571952953094348 -0.22577651025912229 0 -0.4775447229854059 -0.22535576830415929 0 -0.45676275941016609 -0.23628729483617639 0 -0.46757130244775341 -0.21427176676618889 0 -0.45835441248282049 -0.22926624483698249 0 -0.45691127413918359 -0.218140336649912 0 -0.46757130244775341 -0.21427176676618889 0 -0.45835441248282049 -0.22926624483698249 0 -0.46757130244775341 -0.21427176676618889 0 -0.46571952953094348 -0.22577651025912229 0 -0.45835441248282049 -0.22926624483698249 0 -0.45691127413918359 -0.218140336649912 0 -0.45835441248282049 -0.22926624483698249 0 -0.44903912237987481 -0.22310222333220869 0 -0.45676275941016609 -0.23628729483617639 0 -0.46571952953094348 -0.22577651025912229 0 -0.45835441248282049 -0.22926624483698249 0 -0.45676275941016609 -0.23628729483617639 0 -0.45835441248282049 -0.22926624483698249 0 -0.44784406772060242 -0.23291584907632601 0 -0.45835441248282049 -0.22926624483698249 0 -0.44784406772060242 -0.23291584907632601 0 -0.44903912237987481 -0.22310222333220869 0 -0.44784406772060242 -0.23291584907632601 0 -0.44903912237987481 -0.22310222333220869 0 -0.43908324849522451 -0.2287046610080686 0 -0.43955036875351089 -0.21658504913102711 0 -0.44903912237987481 -0.22310222333220869 0 -0.43908324849522451 -0.2287046610080686 0 -0.43598079583492633 -0.24721882136819351 0 -0.44784406772060242 -0.23291584907632601 0 -0.43908324849522451 -0.2287046610080686 0 -0.43598079583492633 -0.24721882136819351 0 -0.45676275941016609 -0.23628729483617639 0 -0.45139902778349827 -0.24711062934306771 0 -0.43598079583492633 -0.24721882136819351 0 -0.45676275941016609 -0.23628729483617639 0 -0.44784406772060242 -0.23291584907632601 0 -0.43598079583492633 -0.24721882136819351 0 -0.45676275941016609 -0.23628729483617639 0 -0.41513049604948221 -0.033942569896895612 0 -0.42680670243505803 -0.034615113076212713 0 -0.40073055052989021 -0.025701474464423758 0 -0.41513049604948221 -0.033942569896895612 0 -0.42462943043776058 -0.041038039404546971 0 -0.40237332615973681 -0.030676944162886681 0 -0.42462943043776058 -0.041038039404546971 0 -0.40237332615973681 -0.030676944162886681 0 -0.41105872637709778 -0.041104419315527559 0 -0.42462943043776058 -0.041038039404546971 0 -0.40237332615973681 -0.030676944162886681 0 -0.41795689190558921 -0.046390941043723911 0 -0.41105872637709778 -0.041104419315527559 0 -0.42462943043776058 -0.041038039404546971 0 -0.41513049604948221 -0.033942569896895612 0 -0.42462943043776058 -0.041038039404546971 0 -0.4243569293735685 -0.037306081984415762 0 -0.41105872637709778 -0.041104419315527559 0 -0.4050251302254127 -0.045922345921936697 0 -0.40306291723554027 -0.039039715031688543 0 -0.41795689190558921 -0.046390941043723911 0 -0.41105872637709778 -0.041104419315527559 0 -0.41174405323292163 -0.047949206462353358 0 -0.41105872637709778 -0.041104419315527559 0 -0.41174405323292163 -0.047949206462353358 0 -0.4050251302254127 -0.045922345921936697 0 -0.41174405323292163 -0.047949206462353358 0 -0.4050251302254127 -0.045922345921936697 0 -0.40603099279739802 -0.054788986838451827 0 -0.41174405323292163 -0.047949206462353358 0 -0.4187470457232762 -0.053937065845881961 0 -0.40603099279739802 -0.054788986838451827 0 -0.4187470457232762 -0.053937065845881961 0 -0.40603099279739802 -0.054788986838451827 0 -0.41284572228237681 -0.064006668923108523 0 -0.4187470457232762 -0.053937065845881961 0 -0.41284572228237681 -0.064006668923108523 0 -0.42746868386642678 -0.066478460468227696 0 -0.41795689190558921 -0.046390941043723911 0 -0.41174405323292163 -0.047949206462353358 0 -0.4187470457232762 -0.053937065845881961 0 -0.41795689190558921 -0.046390941043723911 0 -0.4187470457232762 -0.053937065845881961 0 -0.42320145590089769 -0.048540393412862697 0 -0.42320145590089769 -0.048540393412862697 0 -0.43147245553696489 -0.05279552735729795 0 -0.42462943043776058 -0.041038039404546971 0 -0.4187470457232762 -0.053937065845881961 0 -0.42320145590089769 -0.048540393412862697 0 -0.43147245553696489 -0.05279552735729795 0 -0.43147245553696489 -0.05279552735729795 0 -0.42462943043776058 -0.041038039404546971 0 -0.44688553471578463 -0.051399134646207288 0 -0.4187470457232762 -0.053937065845881961 0 -0.43147245553696489 -0.05279552735729795 0 -0.42746868386642678 -0.066478460468227696 0 -0.43147245553696489 -0.05279552735729795 0 -0.42746868386642678 -0.066478460468227696 0 -0.43950717444435422 -0.063784996514660589 0 -0.42818951741271921 -0.038310772776573528 0 -0.43628267576141971 -0.035329403205585218 0 -0.44688553471578463 -0.051399134646207288 0 -0.42462943043776058 -0.041038039404546971 0 -0.42818951741271921 -0.038310772776573528 0 -0.44688553471578463 -0.051399134646207288 0 -0.42462943043776058 -0.041038039404546971 0 -0.44688553471578463 -0.051399134646207288 0 -0.41795689190558921 -0.046390941043723911 0 -0.42320145590089769 -0.048540393412862697 0 -0.42462943043776058 -0.041038039404546971 0 -0.41513049604948221 -0.033942569896895612 0 -0.4243569293735685 -0.037306081984415762 0 -0.42680670243505803 -0.034615113076212713 0 -0.42462943043776058 -0.041038039404546971 0 -0.4243569293735685 -0.037306081984415762 0 -0.42818951741271921 -0.038310772776573528 0 -0.42818951741271921 -0.038310772776573528 0 -0.42680670243505803 -0.034615113076212713 0 -0.4243569293735685 -0.037306081984415762 0 -0.42818951741271921 -0.038310772776573528 0 -0.42680670243505803 -0.034615113076212713 0 -0.42818951741271921 -0.038310772776573528 0 -0.42680670243505803 -0.034615113076212713 0 -0.42995577540377822 -0.032900560567165532 0 -0.42818951741271921 -0.038310772776573528 0 -0.42995577540377822 -0.032900560567165532 0 -0.43628267576141971 -0.035329403205585218 0 -0.42995577540377822 -0.032900560567165532 0 -0.43628267576141971 -0.035329403205585218 0 -0.4327931004709421 -0.029092843067932112 0 -0.42680670243505803 -0.034615113076212713 0 -0.4285090787839364 -0.025262373234060161 0 -0.41794895562780338 -0.01094222954485795 0 -0.42680670243505803 -0.034615113076212713 0 -0.41794895562780338 -0.01094222954485795 0 -0.43628267576141971 -0.035329403205585218 0 -0.4327931004709421 -0.029092843067932112 0 -0.43710875721387199 -0.026668229939385779 0 -0.42995577540377822 -0.032900560567165532 0 -0.4327931004709421 -0.029092843067932112 0 -0.4285090787839364 -0.025262373234060161 0 -0.43210921519170409 -0.025303648393463829 0 -0.43710875721387199 -0.026668229939385779 0 -0.43108579893039811 -0.01948839847471974 0 -0.4327931004709421 -0.029092843067932112 0 -0.43210921519170409 -0.025303648393463829 0 -0.4285090787839364 -0.025262373234060161 0 -0.4327931004709421 -0.029092843067932112 0 -0.43210921519170409 -0.025303648393463829 0 -0.43710875721387199 -0.026668229939385779 0 -0.43108579893039811 -0.01948839847471974 0 -0.43397544616601241 -0.014244232554068349 0 -0.43928417642389239 -0.017661557407765791 0 -0.43710875721387199 -0.026668229939385779 0 -0.43108579893039811 -0.01948839847471974 0 -0.43928417642389239 -0.017661557407765791 0 -0.43210921519170409 -0.025303648393463829 0 -0.43108579893039811 -0.01948839847471974 0 -0.4285090787839364 -0.025262373234060161 0 -0.43108579893039811 -0.01948839847471974 0 -0.4285090787839364 -0.025262373234060161 0 -0.41794895562780338 -0.01094222954485795 0 -0.42680670243505803 -0.034615113076212713 0 -0.42995577540377822 -0.032900560567165532 0 -0.4285090787839364 -0.025262373234060161 0 -0.43591977417237449 -0.008065469867085449 0 -0.42907061680018699 -0.010664914002041091 0 -0.42583279771702431 0.00046528033667210148 0 -0.43108579893039811 -0.01948839847471974 0 -0.43397544616601241 -0.014244232554068349 0 -0.42907061680018699 -0.010664914002041091 0 -0.43591977417237449 -0.008065469867085449 0 -0.43397544616601241 -0.014244232554068349 0 -0.43928417642389239 -0.017661557407765791 0 -0.43591977417237449 -0.008065469867085449 0 -0.43397544616601241 -0.014244232554068349 0 -0.42907061680018699 -0.010664914002041091 0 -0.43108579893039811 -0.01948839847471974 0 -0.42907061680018699 -0.010664914002041091 0 -0.41794895562780338 -0.01094222954485795 0 -0.42907061680018699 -0.010664914002041091 0 -0.41794895562780338 -0.01094222954485795 0 -0.42583279771702431 0.00046528033667210148 0 -0.41794895562780338 -0.01094222954485795 0 -0.4102220184461346 -0.019351118920435541 0 -0.40021295305484711 -0.013852611056198059 0 -0.41794895562780338 -0.01094222954485795 0 -0.40352261506359649 -0.001038070178381474 0 -0.40021295305484711 -0.013852611056198059 0 -0.42680670243505803 -0.034615113076212713 0 -0.41794895562780338 -0.01094222954485795 0 -0.4102220184461346 -0.019351118920435541 0 -0.42680670243505803 -0.034615113076212713 0 -0.4102220184461346 -0.019351118920435541 0 -0.40073055052989021 -0.025701474464423758 0 -0.42680670243505803 -0.034615113076212713 0 -0.40073055052989021 -0.025701474464423758 0 -0.41513049604948221 -0.033942569896895612 0 -0.40073055052989021 -0.025701474464423758 0 -0.40237332615973681 -0.030676944162886681 0 -0.40073055052989021 -0.025701474464423758 0 -0.40237332615973681 -0.030676944162886681 0 -0.38011722188171299 -0.020315848921226409 0 -0.40237332615973681 -0.030676944162886681 0 -0.38011722188171299 -0.020315848921226409 0 -0.4102220184461346 -0.019351118920435541 0 -0.40073055052989021 -0.025701474464423758 0 -0.40021295305484711 -0.013852611056198059 0 -0.40073055052989021 -0.025701474464423758 0 -0.40021295305484711 -0.013852611056198059 0 -0.38745402304870558 -0.01483805838738575 0 -0.40352261506359649 -0.001038070178381474 0 -0.40021295305484711 -0.013852611056198059 0 -0.39408165103759368 -0.0019794594859314238 0 -0.40021295305484711 -0.013852611056198059 0 -0.39408165103759368 -0.0019794594859314238 0 -0.39005949432245718 -0.0085411321607220259 0 -0.40021295305484711 -0.013852611056198059 0 -0.39005949432245718 -0.0085411321607220259 0 -0.38745402304870558 -0.01483805838738575 0 -0.39408165103759368 -0.0019794594859314238 0 -0.3848191179490616 -0.0027051675553946518 0 -0.39005949432245718 -0.0085411321607220259 0 -0.3848191179490616 -0.0027051675553946518 0 -0.38372972652207787 -0.0093303643187002475 0 -0.39005949432245718 -0.0085411321607220259 0 -0.38372972652207787 -0.0093303643187002475 0 -0.38745402304870558 -0.01483805838738575 0 -0.3791207175096093 -0.01135650732177081 0 -0.38372972652207787 -0.0093303643187002475 0 -0.39005949432245718 -0.0085411321607220259 0 -0.38745402304870558 -0.01483805838738575 0 -0.37465439862472261 -0.016787835852634068 0 -0.37464851222799189 -0.0076089195940836872 0 -0.3791207175096093 -0.01135650732177081 0 -0.37465439862472261 -0.016787835852634068 0 -0.38745402304870558 -0.01483805838738575 0 -0.3791207175096093 -0.01135650732177081 0 -0.37464851222799189 -0.0076089195940836872 0 -0.3791207175096093 -0.01135650732177081 0 -0.37960876280762101 -0.0064231604720931881 0 -0.38372972652207787 -0.0093303643187002475 0 -0.3791207175096093 -0.01135650732177081 0 -0.37960876280762101 -0.0064231604720931881 0 -0.3848191179490616 -0.0027051675553946518 0 -0.38372972652207787 -0.0093303643187002475 0 -0.37960876280762101 -0.0064231604720931881 0 -0.37464851222799189 -0.0076089195940836872 0 -0.37960876280762101 -0.0064231604720931881 0 -0.37774077980655368 -0.001289555558904682 0 -0.3848191179490616 -0.0027051675553946518 0 -0.37960876280762101 -0.0064231604720931881 0 -0.37774077980655368 -0.001289555558904682 0 -0.37465439862472261 -0.016787835852634068 0 -0.40073055052989021 -0.025701474464423758 0 -0.38745402304870558 -0.01483805838738575 0 -0.40237332615973681 -0.030676944162886681 0 -0.38781453024876661 -0.02996800237218563 0 -0.38011722188171299 -0.020315848921226409 0 -0.37465439862472261 -0.016787835852634068 0 -0.40073055052989021 -0.025701474464423758 0 -0.38011722188171299 -0.020315848921226409 0 -0.37465439862472261 -0.016787835852634068 0 -0.40073055052989021 -0.025701474464423758 0 -0.37402384376206249 -0.023759624541515059 0 -0.37465439862472261 -0.016787835852634068 0 -0.38011722188171299 -0.020315848921226409 0 -0.37402384376206249 -0.023759624541515059 0 -0.38011722188171299 -0.020315848921226409 0 -0.37866743010551202 -0.02906954498465647 0 -0.38781453024876661 -0.02996800237218563 0 -0.38011722188171299 -0.020315848921226409 0 -0.37866743010551202 -0.02906954498465647 0 -0.37439980638912518 -0.038891661293645137 0 -0.37866743010551202 -0.02906954498465647 0 -0.38394575501216083 -0.036535335565972972 0 -0.37439980638912518 -0.038891661293645137 0 -0.37993408630244868 -0.045501240077299353 0 -0.38394575501216083 -0.036535335565972972 0 -0.37085155020467431 -0.050438611479832557 0 -0.37439980638912518 -0.038891661293645137 0 -0.37993408630244868 -0.045501240077299353 0 -0.37993408630244868 -0.045501240077299353 0 -0.38895054345211377 -0.045335196083553769 0 -0.38394575501216083 -0.036535335565972972 0 -0.38895054345211377 -0.045335196083553769 0 -0.38394575501216083 -0.036535335565972972 0 -0.39396365166307989 -0.03445798481758762 0 -0.38781453024876661 -0.02996800237218563 0 -0.38394575501216083 -0.036535335565972972 0 -0.39396365166307989 -0.03445798481758762 0 -0.38781453024876661 -0.02996800237218563 0 -0.37866743010551202 -0.02906954498465647 0 -0.38394575501216083 -0.036535335565972972 0 -0.40237332615973681 -0.030676944162886681 0 -0.38781453024876661 -0.02996800237218563 0 -0.39396365166307989 -0.03445798481758762 0 -0.39396365166307989 -0.03445798481758762 0 -0.39750411751227832 -0.042292212187568533 0 -0.39928834571923882 -0.035924112998793431 0 -0.38895054345211377 -0.045335196083553769 0 -0.39396365166307989 -0.03445798481758762 0 -0.39750411751227832 -0.042292212187568533 0 -0.39750411751227832 -0.042292212187568533 0 -0.4050251302254127 -0.045922345921936697 0 -0.40306291723554027 -0.039039715031688543 0 -0.39750411751227832 -0.042292212187568533 0 -0.40306291723554027 -0.039039715031688543 0 -0.39928834571923882 -0.035924112998793431 0 -0.40237332615973681 -0.030676944162886681 0 -0.39396365166307989 -0.03445798481758762 0 -0.39928834571923882 -0.035924112998793431 0 -0.41105872637709778 -0.041104419315527559 0 -0.40237332615973681 -0.030676944162886681 0 -0.40306291723554027 -0.039039715031688543 0 -0.40237332615973681 -0.030676944162886681 0 -0.40306291723554027 -0.039039715031688543 0 -0.39928834571923882 -0.035924112998793431 0 -0.40603099279739802 -0.054788986838451827 0 -0.39527915405366182 -0.064437672488960096 0 -0.41284572228237681 -0.064006668923108523 0 -0.40603099279739802 -0.054788986838451827 0 -0.39443592701229091 -0.053019652188425637 0 -0.39527915405366182 -0.064437672488960096 0 -0.4050251302254127 -0.045922345921936697 0 -0.40603099279739802 -0.054788986838451827 0 -0.39443592701229091 -0.053019652188425637 0 -0.39750411751227832 -0.042292212187568533 0 -0.4050251302254127 -0.045922345921936697 0 -0.39443592701229091 -0.053019652188425637 0 -0.38895054345211377 -0.045335196083553769 0 -0.39750411751227832 -0.042292212187568533 0 -0.39443592701229091 -0.053019652188425637 0 -0.39443592701229091 -0.053019652188425637 0 -0.38221605892473098 -0.056125323053866277 0 -0.39527915405366182 -0.064437672488960096 0 -0.36608399240098949 -0.063120758007335118 0 -0.38221605892473098 -0.056125323053866277 0 -0.37978412082390189 -0.068029865631836883 0 -0.38895054345211377 -0.045335196083553769 0 -0.39443592701229091 -0.053019652188425637 0 -0.38221605892473098 -0.056125323053866277 0 -0.37993408630244868 -0.045501240077299353 0 -0.38895054345211377 -0.045335196083553769 0 -0.38221605892473098 -0.056125323053866277 0 -0.37085155020467431 -0.050438611479832557 0 -0.37993408630244868 -0.045501240077299353 0 -0.38221605892473098 -0.056125323053866277 0 -0.36843110820579178 -0.075527255856609146 0 -0.37978412082390189 -0.068029865631836883 0 -0.38691029053433551 -0.080938318752413793 0 -0.37978412082390189 -0.068029865631836883 0 -0.38691029053433551 -0.080938318752413793 0 -0.39527915405366182 -0.064437672488960096 0 -0.38221605892473098 -0.056125323053866277 0 -0.37978412082390189 -0.068029865631836883 0 -0.39527915405366182 -0.064437672488960096 0 -0.37380044498630338 -0.100392191664622 0 -0.36747037526515469 -0.088210616938563927 0 -0.38691029053433551 -0.080938318752413793 0 -0.36843110820579178 -0.075527255856609146 0 -0.38691029053433551 -0.080938318752413793 0 -0.40007542381043809 -0.086939242353532731 0 -0.39460333317738627 -0.1006873657273652 0 -0.41352047356827321 -0.0909948847898496 0 -0.38691029053433551 -0.080938318752413793 0 -0.40007542381043809 -0.086939242353532731 0 -0.40767355229219521 -0.074626636544090755 0 -0.38691029053433551 -0.080938318752413793 0 -0.40007542381043809 -0.086939242353532731 0 -0.39460333317738627 -0.1006873657273652 0 -0.38691029053433551 -0.080938318752413793 0 -0.39527915405366182 -0.064437672488960096 0 -0.40767355229219521 -0.074626636544090755 0 -0.39527915405366182 -0.064437672488960096 0 -0.41284572228237681 -0.064006668923108523 0 -0.40767355229219521 -0.074626636544090755 0 -0.36893450279197471 -0.1249528869149899 0 -0.3789649235099295 -0.11270856972454819 0 -0.39514760223357998 -0.1249586529677193 0 -0.36893450279197471 -0.1249528869149899 0 -0.39514760223357998 -0.1249586529677193 0 -0.3789649235099295 -0.11270856972454819 0 -0.39460333317738627 -0.1006873657273652 0 -0.39514760223357998 -0.1249586529677193 0 -0.37380044498630338 -0.100392191664622 0 -0.38691029053433551 -0.080938318752413793 0 -0.39460333317738627 -0.1006873657273652 0 -0.37380044498630338 -0.100392191664622 0 -0.3789649235099295 -0.11270856972454819 0 -0.39460333317738627 -0.1006873657273652 0 -0.39460333317738627 -0.1006873657273652 0 -0.39514760223357998 -0.1249586529677193 0 -0.4114708495464785 -0.1093321351213095 0 -0.42136070167518519 -0.1249644190204488 0 -0.4114708495464785 -0.1093321351213095 0 -0.43272213707796769 -0.1050553531011644 0 -0.39514760223357998 -0.1249586529677193 0 -0.42136070167518519 -0.1249644190204488 0 -0.39514760223357998 -0.1249586529677193 0 -0.42136070167518519 -0.1249644190204488 0 -0.4114708495464785 -0.1093321351213095 0 -0.39460333317738627 -0.1006873657273652 0 -0.4114708495464785 -0.1093321351213095 0 -0.41352047356827321 -0.0909948847898496 0 -0.4114708495464785 -0.1093321351213095 0 -0.43272213707796769 -0.1050553531011644 0 -0.41352047356827321 -0.0909948847898496 0 -0.42136070167518519 -0.1249644190204488 0 -0.43272213707796769 -0.1050553531011644 0 -0.44757380111679052 -0.12497018507317829 0 -0.42136070167518519 -0.1249644190204488 0 -0.44757380111679052 -0.12497018507317829 0 -0.42023793718526542 -0.076451056482049876 0 -0.41284572228237681 -0.064006668923108523 0 -0.42746868386642678 -0.066478460468227696 0 -0.42023793718526542 -0.076451056482049876 0 -0.41284572228237681 -0.064006668923108523 0 -0.40767355229219521 -0.074626636544090755 0 -0.42023793718526542 -0.076451056482049876 0 -0.40767355229219521 -0.074626636544090755 0 -0.41352047356827321 -0.0909948847898496 0 -0.40007542381043809 -0.086939242353532731 0 -0.40767355229219521 -0.074626636544090755 0 -0.41352047356827321 -0.0909948847898496 0 -0.42023793718526542 -0.076451056482049876 0 -0.41352047356827321 -0.0909948847898496 0 -0.43051036701793649 -0.083964229305721505 0 -0.43272213707796769 -0.1050553531011644 0 -0.41352047356827321 -0.0909948847898496 0 -0.43051036701793649 -0.083964229305721505 0 -0.43272213707796769 -0.1050553531011644 0 -0.43051036701793649 -0.083964229305721505 0 -0.44869793539396702 -0.090613631575090198 0 -0.43051036701793649 -0.083964229305721505 0 -0.42746868386642678 -0.066478460468227696 0 -0.43938561630945938 -0.075374003134316428 0 -0.42023793718526542 -0.076451056482049876 0 -0.43051036701793649 -0.083964229305721505 0 -0.42746868386642678 -0.066478460468227696 0 -0.42746868386642678 -0.066478460468227696 0 -0.43950717444435422 -0.063784996514660589 0 -0.43938561630945938 -0.075374003134316428 0 -0.43950717444435422 -0.063784996514660589 0 -0.45074392082461212 -0.072028697807882153 0 -0.43938561630945938 -0.075374003134316428 0 -0.43051036701793649 -0.083964229305721505 0 -0.43938561630945938 -0.075374003134316428 0 -0.44869793539396702 -0.090613631575090198 0 -0.45074392082461212 -0.072028697807882153 0 -0.43938561630945938 -0.075374003134316428 0 -0.44869793539396702 -0.090613631575090198 0 -0.45074392082461212 -0.072028697807882153 0 -0.44869793539396702 -0.090613631575090198 0 -0.4647336852437608 -0.080388630180202481 0 -0.44869793539396702 -0.090613631575090198 0 -0.4647336852437608 -0.080388630180202481 0 -0.47380622041468068 -0.096022360055862885 0 -0.4647336852437608 -0.080388630180202481 0 -0.46264955769922828 -0.069236149835977229 0 -0.47254815090776853 -0.069469283055039688 0 -0.45074392082461212 -0.072028697807882153 0 -0.46264955769922828 -0.069236149835977229 0 -0.44688553471578463 -0.051399134646207288 0 -0.46264955769922828 -0.069236149835977229 0 -0.47254815090776853 -0.069469283055039688 0 -0.46914163899380801 -0.061760229887868598 0 -0.45074392082461212 -0.072028697807882153 0 -0.4647336852437608 -0.080388630180202481 0 -0.46264955769922828 -0.069236149835977229 0 -0.43272213707796769 -0.1050553531011644 0 -0.44757380111679052 -0.12497018507317829 0 -0.46022938895027038 -0.10869066194517669 0 -0.43272213707796769 -0.1050553531011644 0 -0.44869793539396702 -0.090613631575090198 0 -0.46022938895027038 -0.10869066194517669 0 -0.44869793539396702 -0.090613631575090198 0 -0.46022938895027038 -0.10869066194517669 0 -0.47380622041468068 -0.096022360055862885 0 -0.44757380111679052 -0.12497018507317829 0 -0.47378690055839578 -0.1249759511259078 0 -0.44757380111679052 -0.12497018507317829 0 -0.46022938895027038 -0.10869066194517669 0 -0.47378690055839578 -0.1249759511259078 0 -0.46022938895027038 -0.10869066194517669 0 -0.47378690055839578 -0.1249759511259078 0 -0.48374478807960558 -0.1092121363906397 0 -0.46022938895027038 -0.10869066194517669 0 -0.48374478807960558 -0.1092121363906397 0 -0.47380622041468068 -0.096022360055862885 0 -0.48374478807960558 -0.1092121363906397 0 -0.47380622041468068 -0.096022360055862885 0 -0.48832582805197727 -0.092109142267116931 0 -0.48374478807960558 -0.1092121363906397 0 -0.5 -0.10055386622176241 0 -0.48832582805197727 -0.092109142267116931 0 -0.47378690055839578 -0.1249759511259078 0 -0.48374478807960558 -0.1092121363906397 0 -0.50000000000000111 -0.12498171717863731 0 -0.48374478807960558 -0.1092121363906397 0 -0.5 -0.10055386622176241 0 -0.50000000000000111 -0.12498171717863731 0 -0.47378690055839578 -0.1249759511259078 0 -0.50000000000000111 -0.12498171717863731 0 -0.47254815090776853 -0.069469283055039688 0 -0.47913967023945842 -0.082463322467565006 0 -0.48457081949690362 -0.068943122576377761 0 -0.47913967023945842 -0.082463322467565006 0 -0.48808502354595151 -0.080031310268457945 0 -0.48457081949690362 -0.068943122576377761 0 -0.48457081949690362 -0.068943122576377761 0 -0.46914163899380801 -0.061760229887868598 0 -0.48457081949690362 -0.068943122576377761 0 -0.48230491698392047 -0.057318093012348498 0 -0.46914163899380801 -0.061760229887868598 0 -0.47254815090776853 -0.069469283055039688 0 -0.48457081949690362 -0.068943122576377761 0 -0.46914163899380801 -0.061760229887868598 0 -0.47254815090776853 -0.069469283055039688 0 -0.46914163899380801 -0.061760229887868598 0 -0.4647336852437608 -0.080388630180202481 0 -0.47254815090776853 -0.069469283055039688 0 -0.47913967023945842 -0.082463322467565006 0 -0.4647336852437608 -0.080388630180202481 0 -0.47380622041468068 -0.096022360055862885 0 -0.47913967023945842 -0.082463322467565006 0 -0.47380622041468068 -0.096022360055862885 0 -0.47913967023945842 -0.082463322467565006 0 -0.48832582805197727 -0.092109142267116931 0 -0.5 -0.10055386622176241 0 -0.48832582805197727 -0.092109142267116931 0 -0.499999999999999 -0.07612601526488752 0 -0.48808502354595151 -0.080031310268457945 0 -0.48832582805197727 -0.092109142267116931 0 -0.499999999999999 -0.07612601526488752 0 -0.47913967023945842 -0.082463322467565006 0 -0.48808502354595151 -0.080031310268457945 0 -0.48832582805197727 -0.092109142267116931 0 -0.499999999999999 -0.07612601526488752 0 -0.48457081949690362 -0.068943122576377761 0 -0.499999999999999 -0.07612601526488752 0 -0.48457081949690362 -0.068943122576377761 0 -0.5 -0.055081012739928707 0 -0.48808502354595151 -0.080031310268457945 0 -0.499999999999999 -0.07612601526488752 0 -0.48457081949690362 -0.068943122576377761 0 -0.48457081949690362 -0.068943122576377761 0 -0.5 -0.055081012739928707 0 -0.48230491698392047 -0.057318093012348498 0 -0.5 -0.055081012739928707 0 -0.48157039955536241 -0.044558511477442143 0 -0.48230491698392047 -0.057318093012348498 0 -0.5 -0.055081012739928707 0 -0.500000000000004 -0.034036010214970061 0 -0.48157039955536241 -0.044558511477442143 0 -0.500000000000004 -0.034036010214970061 0 -0.48157039955536241 -0.044558511477442143 0 -0.48148290990478199 -0.029591545163434652 0 -0.48157039955536241 -0.044558511477442143 0 -0.45768975774058179 -0.035844230274481748 0 -0.48148290990478199 -0.029591545163434652 0 -0.48157039955536241 -0.044558511477442143 0 -0.46914163899380801 -0.061760229887868598 0 -0.45768975774058179 -0.035844230274481748 0 -0.48157039955536241 -0.044558511477442143 0 -0.48230491698392047 -0.057318093012348498 0 -0.46914163899380801 -0.061760229887868598 0 -0.46914163899380801 -0.061760229887868598 0 -0.45768975774058179 -0.035844230274481748 0 -0.44688553471578463 -0.051399134646207288 0 -0.46914163899380801 -0.061760229887868598 0 -0.45768975774058179 -0.035844230274481748 0 -0.46264955769922828 -0.069236149835977229 0 -0.46914163899380801 -0.061760229887868598 0 -0.44688553471578463 -0.051399134646207288 0 -0.46914163899380801 -0.061760229887868598 0 -0.44688553471578463 -0.051399134646207288 0 -0.43628267576141971 -0.035329403205585218 0 -0.44354830351403418 -0.034418653902415733 0 -0.44688553471578463 -0.051399134646207288 0 -0.45768975774058179 -0.035844230274481748 0 -0.44354830351403418 -0.034418653902415733 0 -0.44688553471578463 -0.051399134646207288 0 -0.45768975774058179 -0.035844230274481748 0 -0.44354830351403418 -0.034418653902415733 0 -0.44312252706978628 -0.024928407146411868 0 -0.43628267576141971 -0.035329403205585218 0 -0.43710875721387199 -0.026668229939385779 0 -0.44354830351403418 -0.034418653902415733 0 -0.43950717444435422 -0.063784996514660589 0 -0.45074392082461212 -0.072028697807882153 0 -0.44688553471578463 -0.051399134646207288 0 -0.43147245553696489 -0.05279552735729795 0 -0.43950717444435422 -0.063784996514660589 0 -0.44688553471578463 -0.051399134646207288 0 -0.43591977417237449 -0.008065469867085449 0 -0.44623787648735791 -0.0099282306610938807 0 -0.43740981058492812 0.01004998492246997 0 -0.43591977417237449 -0.008065469867085449 0 -0.44623787648735791 -0.0099282306610938807 0 -0.43928417642389239 -0.017661557407765791 0 -0.43591977417237449 -0.008065469867085449 0 -0.44623787648735791 -0.0099282306610938807 0 -0.43710875721387199 -0.026668229939385779 0 -0.43928417642389239 -0.017661557407765791 0 -0.44312252706978628 -0.024928407146411868 0 -0.45768975774058179 -0.035844230274481748 0 -0.44623787648735791 -0.0099282306610938807 0 -0.44312252706978628 -0.024928407146411868 0 -0.45768975774058179 -0.035844230274481748 0 -0.44623787648735791 -0.0099282306610938807 0 -0.44623787648735791 -0.0099282306610938807 0 -0.43928417642389239 -0.017661557407765791 0 -0.44312252706978628 -0.024928407146411868 0 -0.43710875721387199 -0.026668229939385779 0 -0.44354830351403418 -0.034418653902415733 0 -0.44312252706978628 -0.024928407146411868 0 -0.45768975774058179 -0.035844230274481748 0 -0.44623787648735791 -0.0099282306610938807 0 -0.47146408957177099 -0.01448240150379307 0 -0.44623787648735791 -0.0099282306610938807 0 -0.47146408957177099 -0.01448240150379307 0 -0.44623787648735791 -0.0099282306610938807 0 -0.47146408957177099 -0.01448240150379307 0 -0.46048772545436639 0.0043098071123656434 0 -0.47146408957177099 -0.01448240150379307 0 -0.47882554305316488 -0.0018417715126103191 0 -0.46048772545436639 0.0043098071123656434 0 -0.47146408957177099 -0.01448240150379307 0 -0.47882554305316488 -0.0018417715126103191 0 -0.49669030265618502 -0.01903657234648758 0 -0.47146408957177099 -0.01448240150379307 0 -0.49669030265618502 -0.01903657234648758 0 -0.47146408957177099 -0.01448240150379307 0 -0.48148290990478199 -0.029591545163434652 0 -0.49669030265618502 -0.01903657234648758 0 -0.45768975774058179 -0.035844230274481748 0 -0.47146408957177099 -0.01448240150379307 0 -0.48148290990478199 -0.029591545163434652 0 -0.500000000000004 -0.034036010214970061 0 -0.48148290990478199 -0.029591545163434652 0 -0.49669030265618502 -0.01903657234648758 0 -0.49669030265618502 -0.01903657234648758 0 -0.50000000000000056 -0.019634082844440681 0 -0.500000000000004 -0.034036010214970061 0 -0.49669030265618502 -0.01903657234648758 0 -0.500000000000004 -0.034036010214970061 0 -0.49669030265618502 -0.01903657234648758 0 -0.50000000000000056 -0.019634082844440681 0 -0.47882554305316488 -0.0018417715126103191 0 -0.49669030265618502 -0.01903657234648758 0 -0.49160980924365538 0.0039880541876541054 0 -0.49669030265618502 -0.01903657234648758 0 -0.49160980924365538 0.0039880541876541054 0 -0.49669030265618502 -0.01903657234648758 0 -0.50000000000000056 -0.019634082844440681 0 -0.49160980924365538 0.0039880541876541054 0 -0.50000000000000056 -0.019634082844440681 0 -0.49160980924365538 0.0039880541876541054 0 -0.50000000000000033 0.009303662189531537 0 -0.49160980924365538 0.0039880541876541054 0 -0.48652931583112352 0.027012680721795381 0 -0.49160980924365538 0.0039880541876541054 0 -0.50000000000000033 0.009303662189531537 0 -0.48652931583112352 0.027012680721795381 0 -0.50000000000000033 0.009303662189531537 0 -0.5 0.03611151152349279 0 -0.49175907743105379 0.031398254416965428 0 -0.50000000000000033 0.009303662189531537 0 -0.49175907743105379 0.031398254416965428 0 -0.50000000000000033 0.009303662189531537 0 -0.48652931583112352 0.027012680721795381 0 -0.49175907743105379 0.031398254416965428 0 -0.48652931583112352 0.027012680721795381 0 -0.47387578833984401 0.016012254987208822 0 -0.46815351836101687 0.031449839152918539 0 -0.49160980924365538 0.0039880541876541054 0 -0.48652931583112352 0.027012680721795381 0 -0.47387578833984401 0.016012254987208822 0 -0.47882554305316488 -0.0018417715126103191 0 -0.49160980924365538 0.0039880541876541054 0 -0.47387578833984401 0.016012254987208822 0 -0.47882554305316488 -0.0018417715126103191 0 -0.47387578833984401 0.016012254987208822 0 -0.46048772545436639 0.0043098071123656434 0 -0.49282352307895688 0.045257754500502748 0 -0.5 0.03611151152349279 0 -0.5 0.062919360857453976 0 -0.49282352307895688 0.045257754500502748 0 -0.48351815486210709 0.053492846644399093 0 -0.5 0.062919360857453976 0 -0.49175907743105379 0.031398254416965428 0 -0.48144882241859149 0.050037307255936581 0 -0.48351815486210709 0.053492846644399093 0 -0.48652931583112352 0.027012680721795381 0 -0.49175907743105379 0.031398254416965428 0 -0.48144882241859149 0.050037307255936581 0 -0.49175907743105379 0.031398254416965428 0 -0.48351815486210709 0.053492846644399093 0 -0.49282352307895688 0.045257754500502748 0 -0.49175907743105379 0.031398254416965428 0 -0.48351815486210709 0.053492846644399093 0 -0.49282352307895688 0.045257754500502748 0 -0.5 0.03611151152349279 0 -0.49175907743105379 0.031398254416965428 0 -0.48144882241859149 0.050037307255936581 0 -0.4639696453013944 0.043374392403556838 0 -0.46815351836101687 0.031449839152918539 0 -0.48652931583112352 0.027012680721795381 0 -0.48144882241859149 0.050037307255936581 0 -0.48652931583112352 0.027012680721795381 0 -0.48144882241859149 0.050037307255936581 0 -0.46815351836101687 0.031449839152918539 0 -0.48144882241859149 0.050037307255936581 0 -0.45709786057011947 0.055708105081253657 0 -0.47636832900606041 0.073061933790077832 0 -0.48144882241859149 0.050037307255936581 0 -0.48351815486210709 0.053492846644399093 0 -0.47636832900606041 0.073061933790077832 0 -0.48144882241859149 0.050037307255936581 0 -0.47636832900606041 0.073061933790077832 0 -0.48144882241859149 0.050037307255936581 0 -0.45709786057011947 0.055708105081253657 0 -0.4639696453013944 0.043374392403556838 0 -0.45709786057011947 0.055708105081253657 0 -0.4639696453013944 0.043374392403556838 0 -0.45299045524759751 0.034902057762674861 0 -0.4639696453013944 0.043374392403556838 0 -0.46815351836101687 0.031449839152918539 0 -0.45299045524759751 0.034902057762674861 0 -0.46815351836101687 0.031449839152918539 0 -0.45299045524759751 0.034902057762674861 0 -0.45709786057011947 0.055708105081253657 0 -0.45299045524759751 0.034902057762674861 0 -0.43782739213417787 0.038354276372430232 0 -0.45299045524759751 0.034902057762674861 0 -0.43782739213417787 0.038354276372430232 0 -0.45299045524759751 0.034902057762674861 0 -0.43782739213417787 0.038354276372430232 0 -0.44297011017848281 0.02707887027054981 0 -0.45709786057011947 0.055708105081253657 0 -0.43782739213417787 0.038354276372430232 0 -0.43187248081207541 0.055496176207803817 0 -0.45709786057011947 0.055708105081253657 0 -0.43782739213417787 0.038354276372430232 0 -0.45709786057011947 0.055708105081253657 0 -0.43187248081207541 0.055496176207803817 0 -0.43763284036668942 0.072255399145110422 0 -0.47387578833984401 0.016012254987208822 0 -0.46048772545436639 0.0043098071123656434 0 -0.45598123469437257 0.020633802368031268 0 -0.47387578833984401 0.016012254987208822 0 -0.46815351836101687 0.031449839152918539 0 -0.45598123469437257 0.020633802368031268 0 -0.46815351836101687 0.031449839152918539 0 -0.45299045524759751 0.034902057762674861 0 -0.45598123469437257 0.020633802368031268 0 -0.45598123469437257 0.020633802368031268 0 -0.44297011017848281 0.02707887027054981 0 -0.43740981058492812 0.01004998492246997 0 -0.45299045524759751 0.034902057762674861 0 -0.45598123469437257 0.020633802368031268 0 -0.44297011017848281 0.02707887027054981 0 -0.46048772545436639 0.0043098071123656434 0 -0.45598123469437257 0.020633802368031268 0 -0.43740981058492812 0.01004998492246997 0 -0.44623787648735791 -0.0099282306610938807 0 -0.46048772545436639 0.0043098071123656434 0 -0.43740981058492812 0.01004998492246997 0 -0.44623787648735791 -0.0099282306610938807 0 -0.43740981058492812 0.01004998492246997 0 -0.43591977417237449 -0.008065469867085449 0 -0.43740981058492812 0.01004998492246997 0 -0.42583279771702431 0.00046528033667210148 0 -0.43740981058492812 0.01004998492246997 0 -0.42292027786463471 0.01349413118407828 0 -0.42583279771702431 0.00046528033667210148 0 -0.41794895562780338 -0.01094222954485795 0 -0.40909120882054839 0.01273065398649661 0 -0.41794895562780338 -0.01094222954485795 0 -0.40352261506359649 -0.001038070178381474 0 -0.40909120882054839 0.01273065398649661 0 -0.42292027786463471 0.01349413118407828 0 -0.42583279771702431 0.00046528033667210148 0 -0.40909120882054839 0.01273065398649661 0 -0.41794895562780338 -0.01094222954485795 0 -0.42583279771702431 0.00046528033667210148 0 -0.40909120882054839 0.01273065398649661 0 -0.40909120882054839 0.01273065398649661 0 -0.41494363987246979 0.023236645495722939 0 -0.40023346201329341 0.036403537517851137 0 -0.41494363987246979 0.023236645495722939 0 -0.41436175989852531 0.033604495869393458 0 -0.40023346201329341 0.036403537517851137 0 -0.42292027786463471 0.01349413118407828 0 -0.41494363987246979 0.023236645495722939 0 -0.424969395700869 0.026775135554755129 0 -0.42292027786463471 0.01349413118407828 0 -0.40909120882054839 0.01273065398649661 0 -0.41494363987246979 0.023236645495722939 0 -0.41494363987246979 0.023236645495722939 0 -0.41896391809246269 0.029132761591660509 0 -0.41436175989852531 0.033604495869393458 0 -0.41494363987246979 0.023236645495722939 0 -0.41896391809246269 0.029132761591660509 0 -0.424969395700869 0.026775135554755129 0 -0.41896391809246269 0.029132761591660509 0 -0.424969395700869 0.026775135554755129 0 -0.42158087689798668 0.032914769446770492 0 -0.424969395700869 0.026775135554755129 0 -0.42858174468249838 0.030028200506033911 0 -0.42158087689798668 0.032914769446770492 0 -0.44297011017848281 0.02707887027054981 0 -0.43740981058492812 0.01004998492246997 0 -0.42858174468249838 0.030028200506033911 0 -0.43740981058492812 0.01004998492246997 0 -0.42292027786463471 0.01349413118407828 0 -0.424969395700869 0.026775135554755129 0 -0.43740981058492812 0.01004998492246997 0 -0.42858174468249838 0.030028200506033911 0 -0.43740981058492812 0.01004998492246997 0 -0.424969395700869 0.026775135554755129 0 -0.42858174468249838 0.030028200506033911 0 -0.424969395700869 0.026775135554755129 0 -0.42858174468249838 0.030028200506033911 0 -0.43782739213417787 0.038354276372430232 0 -0.44297011017848281 0.02707887027054981 0 -0.42858174468249838 0.030028200506033911 0 -0.43782739213417787 0.038354276372430232 0 -0.42858174468249838 0.030028200506033911 0 -0.42345682706553001 0.041626064651069543 0 -0.43782739213417787 0.038354276372430232 0 -0.42345682706553001 0.041626064651069543 0 -0.43187248081207541 0.055496176207803817 0 -0.43782739213417787 0.038354276372430232 0 -0.42858174468249838 0.030028200506033911 0 -0.43782739213417787 0.038354276372430232 0 -0.42345682706553001 0.041626064651069543 0 -0.42858174468249838 0.030028200506033911 0 -0.42345682706553001 0.041626064651069543 0 -0.42158087689798668 0.032914769446770492 0 -0.42858174468249838 0.030028200506033911 0 -0.42345682706553001 0.041626064651069543 0 -0.42345682706553001 0.041626064651069543 0 -0.43187248081207541 0.055496176207803817 0 -0.4177568865966339 0.054525225210098782 0 -0.43187248081207541 0.055496176207803817 0 -0.4177568865966339 0.054525225210098782 0 -0.41753301535116211 0.067129086497859855 0 -0.42345682706553001 0.041626064651069543 0 -0.4177568865966339 0.054525225210098782 0 -0.40276573021624068 0.046336866753853997 0 -0.4177568865966339 0.054525225210098782 0 -0.40750332447406851 0.057375884956624552 0 -0.41753301535116211 0.067129086497859855 0 -0.42345682706553001 0.041626064651069543 0 -0.4177568865966339 0.054525225210098782 0 -0.4177568865966339 0.054525225210098782 0 -0.40750332447406851 0.057375884956624552 0 -0.40276573021624068 0.046336866753853997 0 -0.42345682706553001 0.041626064651069543 0 -0.40276573021624068 0.046336866753853997 0 -0.42345682706553001 0.041626064651069543 0 -0.41020444479839763 0.039492741198042178 0 -0.40276573021624068 0.046336866753853997 0 -0.42345682706553001 0.041626064651069543 0 -0.41436175989852531 0.033604495869393458 0 -0.42158087689798668 0.032914769446770492 0 -0.42345682706553001 0.041626064651069543 0 -0.41436175989852531 0.033604495869393458 0 -0.41020444479839763 0.039492741198042178 0 -0.41896391809246269 0.029132761591660509 0 -0.41436175989852531 0.033604495869393458 0 -0.42158087689798668 0.032914769446770492 0 -0.41436175989852531 0.033604495869393458 0 -0.41020444479839763 0.039492741198042178 0 -0.40023346201329341 0.036403537517851137 0 -0.40276573021624068 0.046336866753853997 0 -0.38207463336695202 0.051047668856640811 0 -0.38772007791329738 0.03985096685417347 0 -0.41020444479839763 0.039492741198042178 0 -0.40023346201329341 0.036403537517851137 0 -0.40276573021624068 0.046336866753853997 0 -0.40023346201329341 0.036403537517851137 0 -0.40276573021624068 0.046336866753853997 0 -0.38772007791329738 0.03985096685417347 0 -0.40023346201329341 0.036403537517851137 0 -0.38772007791329738 0.03985096685417347 0 -0.38925836826538629 0.030805614435688099 0 -0.40276573021624068 0.046336866753853997 0 -0.38207463336695202 0.051047668856640811 0 -0.40276573021624068 0.046336866753853997 0 -0.39689466156197101 0.057407184083191301 0 -0.38207463336695202 0.051047668856640811 0 -0.40750332447406851 0.057375884956624552 0 -0.39689466156197101 0.057407184083191301 0 -0.40210564328563447 0.066115584712721373 0 -0.40750332447406851 0.057375884956624552 0 -0.40276573021624068 0.046336866753853997 0 -0.39689466156197101 0.057407184083191301 0 -0.38207463336695202 0.051047668856640811 0 -0.38848633305814179 0.065600711414542545 0 -0.36891219827968119 0.060077996683558232 0 -0.39689466156197101 0.057407184083191301 0 -0.38207463336695202 0.051047668856640811 0 -0.38848633305814179 0.065600711414542545 0 -0.38772007791329738 0.03985096685417347 0 -0.37937813184432773 0.031366277704107569 0 -0.38925836826538629 0.030805614435688099 0 -0.38207463336695202 0.051047668856640811 0 -0.38772007791329738 0.03985096685417347 0 -0.37261014177358448 0.043145835856899219 0 -0.38772007791329738 0.03985096685417347 0 -0.37937813184432773 0.031366277704107569 0 -0.37261014177358448 0.043145835856899219 0 -0.37937813184432773 0.031366277704107569 0 -0.38391758338059062 0.022870450659759161 0 -0.37479293228070759 0.022502646493578662 0 -0.37937813184432773 0.031366277704107569 0 -0.38925836826538629 0.030805614435688099 0 -0.38391758338059062 0.022870450659759161 0 -0.38925836826538629 0.030805614435688099 0 -0.38391758338059062 0.022870450659759161 0 -0.3946160130735708 0.021551959563878339 0 -0.38391758338059062 0.022870450659759161 0 -0.38667067902898572 0.013842153393714489 0 -0.3946160130735708 0.021551959563878339 0 -0.38391758338059062 0.022870450659759161 0 -0.3778438638662554 0.014761087644765769 0 -0.38667067902898572 0.013842153393714489 0 -0.38391758338059062 0.022870450659759161 0 -0.3778438638662554 0.014761087644765769 0 -0.37479293228070759 0.022502646493578662 0 -0.3778438638662554 0.014761087644765769 0 -0.38165634421242611 0.0056742618597281089 0 -0.38667067902898572 0.013842153393714489 0 -0.3778438638662554 0.014761087644765769 0 -0.38165634421242611 0.0056742618597281089 0 -0.37464316483836829 0.0066416053135349984 0 -0.37774077980655368 -0.001289555558904682 0 -0.38165634421242611 0.0056742618597281089 0 -0.37464316483836829 0.0066416053135349984 0 -0.3848191179490616 -0.0027051675553946518 0 -0.37774077980655368 -0.001289555558904682 0 -0.38165634421242611 0.0056742618597281089 0 -0.3848191179490616 -0.0027051675553946518 0 -0.38165634421242611 0.0056742618597281089 0 -0.38845980705381639 0.0057813395070211177 0 -0.39408165103759368 -0.0019794594859314238 0 -0.3848191179490616 -0.0027051675553946518 0 -0.38845980705381639 0.0057813395070211177 0 -0.38845980705381639 0.0057813395070211177 0 -0.38667067902898572 0.013842153393714489 0 -0.39627830677719 0.008853295208583448 0 -0.38165634421242611 0.0056742618597281089 0 -0.38845980705381639 0.0057813395070211177 0 -0.38667067902898572 0.013842153393714489 0 -0.38667067902898572 0.013842153393714489 0 -0.39627830677719 0.008853295208583448 0 -0.3946160130735708 0.021551959563878339 0 -0.39408165103759368 -0.0019794594859314238 0 -0.38845980705381639 0.0057813395070211177 0 -0.39627830677719 0.008853295208583448 0 -0.40352261506359649 -0.001038070178381474 0 -0.39408165103759368 -0.0019794594859314238 0 -0.39627830677719 0.008853295208583448 0 -0.40352261506359649 -0.001038070178381474 0 -0.40909120882054839 0.01273065398649661 0 -0.39627830677719 0.008853295208583448 0 -0.40909120882054839 0.01273065398649661 0 -0.39627830677719 0.008853295208583448 0 -0.3946160130735708 0.021551959563878339 0 -0.40909120882054839 0.01273065398649661 0 -0.40023346201329341 0.036403537517851137 0 -0.3946160130735708 0.021551959563878339 0 -0.40909120882054839 0.01273065398649661 0 -0.40023346201329341 0.036403537517851137 0 -0.40023346201329341 0.036403537517851137 0 -0.38925836826538629 0.030805614435688099 0 -0.3946160130735708 0.021551959563878339 0 -0.38696142946532958 0.1003701901717608 0 -0.40164011277457379 0.081352107660276216 0 -0.40864304721671202 0.1107171055473533 0 -0.38750957741872682 0.11885909540365321 0 -0.40864304721671202 0.1107171055473533 0 -0.39401402549175851 0.1361747599337243 0 -0.38750957741872682 0.11885909540365321 0 -0.38696142946532958 0.1003701901717608 0 -0.40864304721671202 0.1107171055473533 0 -0.38750957741872682 0.11885909540365321 0 -0.38696142946532958 0.1003701901717608 0 -0.36904533532088801 0.1177582563576956 0 -0.38696142946532958 0.1003701901717608 0 -0.37090825683648998 0.098456277756480637 0 -0.36904533532088801 0.1177582563576956 0 -0.37929074908003868 0.077603726490867345 0 -0.40164011277457379 0.081352107660276216 0 -0.38696142946532958 0.1003701901717608 0 -0.37929074908003868 0.077603726490867345 0 -0.40164011277457379 0.081352107660276216 0 -0.38696142946532958 0.1003701901717608 0 -0.37929074908003868 0.077603726490867345 0 -0.37090825683648998 0.098456277756480637 0 -0.37929074908003868 0.077603726490867345 0 -0.38848633305814179 0.065600711414542545 0 -0.36891219827968119 0.060077996683558232 0 -0.37929074908003868 0.077603726490867345 0 -0.38848633305814179 0.065600711414542545 0 -0.40164011277457379 0.081352107660276216 0 -0.38848633305814179 0.065600711414542545 0 -0.40210564328563447 0.066115584712721373 0 -0.40164011277457379 0.081352107660276216 0 -0.39689466156197101 0.057407184083191301 0 -0.38848633305814179 0.065600711414542545 0 -0.40210564328563447 0.066115584712721373 0 -0.40164011277457379 0.081352107660276216 0 -0.42398947646910912 0.085100488829685086 0 -0.40164011277457379 0.081352107660276216 0 -0.42398947646910912 0.085100488829685086 0 -0.40864304721671202 0.1107171055473533 0 -0.40210564328563447 0.066115584712721373 0 -0.40164011277457379 0.081352107660276216 0 -0.41753301535116211 0.067129086497859855 0 -0.40164011277457379 0.081352107660276216 0 -0.41753301535116211 0.067129086497859855 0 -0.42398947646910912 0.085100488829685086 0 -0.40750332447406851 0.057375884956624552 0 -0.40210564328563447 0.066115584712721373 0 -0.41753301535116211 0.067129086497859855 0 -0.41753301535116211 0.067129086497859855 0 -0.42398947646910912 0.085100488829685086 0 -0.43763284036668942 0.072255399145110422 0 -0.43187248081207541 0.055496176207803817 0 -0.41753301535116211 0.067129086497859855 0 -0.43763284036668942 0.072255399145110422 0 -0.42398947646910912 0.085100488829685086 0 -0.44633884016364428 0.088848869999093971 0 -0.42398947646910912 0.085100488829685086 0 -0.43763284036668942 0.072255399145110422 0 -0.44633884016364428 0.088848869999093971 0 -0.42398947646910912 0.085100488829685086 0 -0.42906186480059683 0.10519001099972999 0 -0.44633884016364428 0.088848869999093971 0 -0.42398947646910912 0.085100488829685086 0 -0.42906186480059683 0.10519001099972999 0 -0.40864304721671202 0.1107171055473533 0 -0.40864304721671202 0.1107171055473533 0 -0.43267942878230348 0.12559175737704789 0 -0.42906186480059683 0.10519001099972999 0 -0.40864304721671202 0.1107171055473533 0 -0.43267942878230348 0.12559175737704789 0 -0.42906186480059683 0.10519001099972999 0 -0.4489383204882843 0.11104189391905871 0 -0.43267942878230348 0.12559175737704789 0 -0.4489383204882843 0.11104189391905871 0 -0.45289828098281221 0.1241297055338681 0 -0.43267942878230348 0.12559175737704789 0 -0.4489383204882843 0.11104189391905871 0 -0.43267942878230348 0.12559175737704789 0 -0.42906186480059683 0.10519001099972999 0 -0.4489383204882843 0.11104189391905871 0 -0.44633884016364428 0.088848869999093971 0 -0.4489383204882843 0.11104189391905871 0 -0.44633884016364428 0.088848869999093971 0 -0.47121921728662652 0.096397536200283296 0 -0.46607010556719342 0.11973313861048911 0 -0.47121921728662652 0.096397536200283296 0 -0.4489383204882843 0.11104189391905871 0 -0.46607010556719342 0.11973313861048911 0 -0.47121921728662652 0.096397536200283296 0 -0.4489383204882843 0.11104189391905871 0 -0.45289828098281221 0.1241297055338681 0 -0.46607010556719342 0.11973313861048911 0 -0.45709786057011947 0.055708105081253657 0 -0.43763284036668942 0.072255399145110422 0 -0.45544766770060358 0.07348919590478746 0 -0.43763284036668942 0.072255399145110422 0 -0.44633884016364428 0.088848869999093971 0 -0.45544766770060358 0.07348919590478746 0 -0.44633884016364428 0.088848869999093971 0 -0.45544766770060358 0.07348919590478746 0 -0.47121921728662652 0.096397536200283296 0 -0.45544766770060358 0.07348919590478746 0 -0.47636832900606041 0.073061933790077832 0 -0.47121921728662652 0.096397536200283296 0 -0.45709786057011947 0.055708105081253657 0 -0.47636832900606041 0.073061933790077832 0 -0.45709786057011947 0.055708105081253657 0 -0.45544766770060358 0.07348919590478746 0 -0.47636832900606041 0.073061933790077832 0 -0.48351815486210709 0.053492846644399093 0 -0.47636832900606041 0.073061933790077832 0 -0.49140909277123612 0.074197219851226057 0 -0.47636832900606041 0.073061933790077832 0 -0.48274454235378189 0.091705374172880549 0 -0.47121921728662652 0.096397536200283296 0 -0.47636832900606041 0.073061933790077832 0 -0.47121921728662652 0.096397536200283296 0 -0.47636832900606041 0.073061933790077832 0 -0.49715897998801373 0.091784747772784503 0 -0.5 0.089727210191415163 0 -0.49715897998801373 0.091784747772784503 0 -0.49140909277123612 0.074197219851226057 0 -0.47636832900606041 0.073061933790077832 0 -0.48274454235378189 0.091705374172880549 0 -0.49715897998801373 0.091784747772784503 0 -0.47636832900606041 0.073061933790077832 0 -0.49715897998801373 0.091784747772784503 0 -0.49140909277123612 0.074197219851226057 0 -0.5 0.089727210191415163 0 -0.5 0.062919360857453976 0 -0.49140909277123612 0.074197219851226057 0 -0.48351815486210709 0.053492846644399093 0 -0.5 0.062919360857453976 0 -0.49140909277123612 0.074197219851226057 0 -0.46607010556719342 0.11973313861048911 0 -0.48623164313442779 0.1055772789283768 0 -0.48453668432005692 0.123143207324586 0 -0.46607010556719342 0.11973313861048911 0 -0.47121921728662652 0.096397536200283296 0 -0.48623164313442779 0.1055772789283768 0 -0.48274454235378189 0.091705374172880549 0 -0.47121921728662652 0.096397536200283296 0 -0.48623164313442779 0.1055772789283768 0 -0.5 0.089727210191415163 0 -0.49715897998801373 0.091784747772784503 0 -0.5 0.1165350595253765 0 -0.49715897998801373 0.091784747772784503 0 -0.48623164313442779 0.1055772789283768 0 -0.5 0.1165350595253765 0 -0.48274454235378189 0.091705374172880549 0 -0.49715897998801373 0.091784747772784503 0 -0.48623164313442779 0.1055772789283768 0 -0.48623164313442779 0.1055772789283768 0 -0.5 0.1165350595253765 0 -0.48453668432005692 0.123143207324586 0 -0.5 0.1165350595253765 0 -0.48453668432005692 0.123143207324586 0 -0.5 0.1433429088593379 0 -0.48453668432005692 0.123143207324586 0 -0.48049738108946538 0.1379484740379 0 -0.5 0.1433429088593379 0 -0.46607010556719342 0.11973313861048911 0 -0.48453668432005692 0.123143207324586 0 -0.48049738108946538 0.1379484740379 0 -0.46607010556719342 0.11973313861048911 0 -0.48049738108946538 0.1379484740379 0 -0.46092099384776192 0.14306874102069511 0 -0.48464943840857888 0.15775282940309851 0 -0.46990863904630059 0.1670362475492525 0 -0.46092099384776192 0.14306874102069511 0 -0.48464943840857888 0.15775282940309851 0 -0.46092099384776192 0.14306874102069511 0 -0.48049738108946538 0.1379484740379 0 -0.48464943840857888 0.15775282940309851 0 -0.46092099384776192 0.14306874102069511 0 -0.48049738108946538 0.1379484740379 0 -0.5 0.1433429088593379 0 -0.48464943840857888 0.15775282940309851 0 -0.48464943840857888 0.15775282940309851 0 -0.5 0.17015075819329931 0 -0.4898809761324775 0.17912292006808481 0 -0.5 0.1433429088593379 0 -0.48464943840857888 0.15775282940309851 0 -0.5 0.17015075819329931 0 -0.48464943840857888 0.15775282940309851 0 -0.4898809761324775 0.17912292006808481 0 -0.47865635922375932 0.17909963177513319 0 -0.5 0.17015075819329931 0 -0.4898809761324775 0.17912292006808481 0 -0.5 0.19695860752726069 0 -0.4898809761324775 0.17912292006808481 0 -0.47865635922375932 0.17909963177513319 0 -0.48609908303004917 0.1916527734416324 0 -0.47865635922375932 0.17909963177513319 0 -0.47279817792341111 0.1948006201282925 0 -0.47865635922375932 0.17909963177513319 0 -0.46589335310649882 0.18744802338852329 0 -0.47279817792341111 0.1948006201282925 0 -0.47865635922375932 0.17909963177513319 0 -0.46927870962167312 0.17493875400548389 0 -0.46990863904630059 0.1670362475492525 0 -0.47865635922375932 0.17909963177513319 0 -0.46927870962167312 0.17493875400548389 0 -0.46555461593459269 0.18128722400797501 0 -0.47865635922375932 0.17909963177513319 0 -0.46589335310649882 0.18744802338852329 0 -0.46555461593459269 0.18128722400797501 0 -0.48464943840857888 0.15775282940309851 0 -0.47865635922375932 0.17909963177513319 0 -0.46990863904630059 0.1670362475492525 0 -0.45742932361540911 0.15889287394486271 0 -0.45393765338305497 0.17471700686903011 0 -0.46990863904630059 0.1670362475492525 0 -0.45742932361540911 0.15889287394486271 0 -0.46092099384776192 0.14306874102069511 0 -0.45742932361540911 0.15889287394486271 0 -0.46299522428203971 0.17233191268957501 0 -0.45393765338305497 0.17471700686903011 0 -0.46927870962167312 0.17493875400548389 0 -0.46990863904630059 0.1670362475492525 0 -0.46299522428203971 0.17233191268957501 0 -0.46990863904630059 0.1670362475492525 0 -0.45742932361540911 0.15889287394486271 0 -0.46299522428203971 0.17233191268957501 0 -0.46589335310649882 0.18744802338852329 0 -0.46555461593459269 0.18128722400797501 0 -0.45393765338305497 0.17471700686903011 0 -0.46589335310649882 0.18744802338852329 0 -0.46555461593459269 0.18128722400797501 0 -0.46927870962167312 0.17493875400548389 0 -0.46555461593459269 0.18128722400797501 0 -0.46299522428203971 0.17233191268957501 0 -0.46555461593459269 0.18128722400797501 0 -0.46299522428203971 0.17233191268957501 0 -0.45393765338305497 0.17471700686903011 0 -0.46589335310649882 0.18744802338852329 0 -0.45393765338305497 0.17471700686903011 0 -0.45393765338305497 0.17471700686903011 0 -0.44047241453070329 0.18324079402305421 0 -0.44820564853932793 0.20069426145875721 0 -0.45393765338305497 0.17471700686903011 0 -0.44047241453070329 0.18324079402305421 0 -0.44174290600336708 0.16173144065936321 0 -0.45742932361540911 0.15889287394486271 0 -0.44174290600336708 0.16173144065936321 0 -0.44616928685712581 0.1494742970518641 0 -0.45742932361540911 0.15889287394486271 0 -0.45393765338305497 0.17471700686903011 0 -0.44174290600336708 0.16173144065936321 0 -0.45393765338305497 0.17471700686903011 0 -0.44174290600336708 0.16173144065936321 0 -0.44174290600336708 0.16173144065936321 0 -0.44616928685712581 0.1494742970518641 0 -0.43187713239064979 0.1573343508491826 0 -0.44616928685712581 0.1494742970518641 0 -0.43700896048386301 0.14249666109927989 0 -0.43187713239064979 0.1573343508491826 0 -0.44616928685712581 0.1494742970518641 0 -0.44680021131503311 0.13433024919887079 0 -0.46092099384776192 0.14306874102069511 0 -0.44616928685712581 0.1494742970518641 0 -0.44680021131503311 0.13433024919887079 0 -0.43700896048386301 0.14249666109927989 0 -0.45289828098281221 0.1241297055338681 0 -0.44680021131503311 0.13433024919887079 0 -0.43267942878230348 0.12559175737704789 0 -0.44680021131503311 0.13433024919887079 0 -0.43267942878230348 0.12559175737704789 0 -0.43700896048386301 0.14249666109927989 0 -0.44680021131503311 0.13433024919887079 0 -0.43267942878230348 0.12559175737704789 0 -0.45289828098281221 0.1241297055338681 0 -0.44680021131503311 0.13433024919887079 0 -0.46092099384776192 0.14306874102069511 0 -0.46607010556719342 0.11973313861048911 0 -0.46092099384776192 0.14306874102069511 0 -0.45289828098281221 0.1241297055338681 0 -0.46607010556719342 0.11973313861048911 0 -0.46092099384776192 0.14306874102069511 0 -0.44680021131503311 0.13433024919887079 0 -0.46092099384776192 0.14306874102069511 0 -0.45742932361540911 0.15889287394486271 0 -0.46092099384776192 0.14306874102069511 0 -0.45742932361540911 0.15889287394486271 0 -0.44616928685712581 0.1494742970518641 0 -0.46092099384776192 0.14306874102069511 0 -0.46853242371352971 0.23544625301742969 0 -0.46993231893463527 0.26090691788180947 0 -0.48177750529808522 0.24619974485466931 0 -0.46853242371352971 0.23544625301742969 0 -0.46993231893463527 0.26090691788180947 0 -0.48177750529808522 0.24619974485466931 0 -0.48375626182904402 0.22755154475287301 0 -0.46853242371352971 0.23544625301742969 0 -0.48177750529808522 0.24619974485466931 0 -0.5 0.2461359573144368 0 -0.48375626182904402 0.22755154475287301 0 -0.5 0.2461359573144368 0 -0.48375626182904402 0.22755154475287301 0 -0.49999999999999978 0.22376645686122221 0 -0.48375626182904402 0.22755154475287301 0 -0.48639908896170481 0.20928353849475789 0 -0.5 0.2461359573144368 0 -0.49999999999999978 0.22376645686122221 0 -0.48375626182904402 0.22755154475287301 0 -0.47173343442327142 0.22048762952866541 0 -0.46713252849242448 0.20998558815304991 0 -0.46853242371352971 0.23544625301742969 0 -0.48375626182904402 0.22755154475287301 0 -0.47173343442327142 0.22048762952866541 0 -0.4670472636537164 0.20843482960316059 0 -0.48375626182904402 0.22755154475287301 0 -0.47173343442327142 0.22048762952866541 0 -0.46853242371352971 0.23544625301742969 0 -0.48375626182904402 0.22755154475287301 0 -0.4670472636537164 0.20843482960316059 0 -0.48639908896170481 0.20928353849475789 0 -0.47279817792341111 0.1948006201282925 0 -0.4670472636537164 0.20843482960316059 0 -0.48375626182904402 0.22755154475287301 0 -0.48639908896170481 0.20928353849475789 0 -0.4670472636537164 0.20843482960316059 0 -0.49999999999999978 0.22376645686122221 0 -0.48639908896170481 0.20928353849475789 0 -0.5 0.19695860752726069 0 -0.49999999999999978 0.22376645686122221 0 -0.48639908896170481 0.20928353849475789 0 -0.48639908896170481 0.20928353849475789 0 -0.5 0.19695860752726069 0 -0.48609908303004917 0.1916527734416324 0 -0.4898809761324775 0.17912292006808481 0 -0.5 0.19695860752726069 0 -0.48609908303004917 0.1916527734416324 0 -0.48639908896170481 0.20928353849475789 0 -0.48609908303004917 0.1916527734416324 0 -0.47279817792341111 0.1948006201282925 0 -0.47865635922375932 0.17909963177513319 0 -0.48609908303004917 0.1916527734416324 0 -0.47279817792341111 0.1948006201282925 0 -0.48639908896170481 0.20928353849475789 0 -0.47279817792341111 0.1948006201282925 0 -0.47279817792341111 0.1948006201282925 0 -0.4670472636537164 0.20843482960316059 0 -0.46589335310649882 0.18744802338852329 0 -0.47279817792341111 0.1948006201282925 0 -0.46589335310649882 0.18744802338852329 0 -0.4603250720810298 0.20074399020462361 0 -0.4670472636537164 0.20843482960316059 0 -0.46589335310649882 0.18744802338852329 0 -0.45393765338305497 0.17471700686903011 0 -0.44820564853932793 0.20069426145875721 0 -0.46589335310649882 0.18744802338852329 0 -0.4603250720810298 0.20074399020462361 0 -0.44820564853932793 0.20069426145875721 0 -0.46589335310649882 0.18744802338852329 0 -0.47279817792341111 0.1948006201282925 0 -0.4670472636537164 0.20843482960316059 0 -0.46589335310649882 0.18744802338852329 0 -0.4670472636537164 0.20843482960316059 0 -0.45393765338305497 0.17471700686903011 0 -0.44820564853932793 0.20069426145875721 0 -0.44820564853932793 0.20069426145875721 0 -0.45427794118362658 0.21265328965042851 0 -0.44247364369559788 0.22667151604848371 0 -0.44820564853932793 0.20069426145875721 0 -0.44247364369559788 0.22667151604848371 0 -0.44820564853932793 0.20069426145875721 0 -0.44247364369559788 0.22667151604848371 0 -0.42336320141575168 0.21609666274764849 0 -0.45880341375183131 0.2186303689721085 0 -0.45427794118362658 0.21265328965042851 0 -0.46188137931700068 0.21002659871962689 0 -0.45880341375183131 0.2186303689721085 0 -0.45427794118362658 0.21265328965042851 0 -0.4536201791639074 0.2236252940046442 0 -0.4603250720810298 0.20074399020462361 0 -0.45427794118362658 0.21265328965042851 0 -0.46188137931700068 0.21002659871962689 0 -0.4603250720810298 0.20074399020462361 0 -0.44820564853932793 0.20069426145875721 0 -0.45427794118362658 0.21265328965042851 0 -0.4603250720810298 0.20074399020462361 0 -0.46188137931700068 0.21002659871962689 0 -0.4670472636537164 0.20843482960316059 0 -0.4603250720810298 0.20074399020462361 0 -0.4670472636537164 0.20843482960316059 0 -0.46188137931700068 0.21002659871962689 0 -0.4670472636537164 0.20843482960316059 0 -0.46713252849242448 0.20998558815304991 0 -0.4670472636537164 0.20843482960316059 0 -0.46713252849242448 0.20998558815304991 0 -0.47173343442327142 0.22048762952866541 0 -0.4670472636537164 0.20843482960316059 0 -0.46713252849242448 0.20998558815304991 0 -0.45880341375183131 0.2186303689721085 0 -0.46188137931700068 0.21002659871962689 0 -0.46713252849242448 0.20998558815304991 0 -0.46713252849242448 0.20998558815304991 0 -0.45710504060219709 0.23686107433279269 0 -0.46713252849242448 0.20998558815304991 0 -0.45710504060219709 0.23686107433279269 0 -0.46853242371352971 0.23544625301742969 0 -0.45880341375183131 0.2186303689721085 0 -0.46713252849242448 0.20998558815304991 0 -0.45710504060219709 0.23686107433279269 0 -0.45880341375183131 0.2186303689721085 0 -0.4536201791639074 0.2236252940046442 0 -0.45710504060219709 0.23686107433279269 0 -0.46713252849242448 0.20998558815304991 0 -0.46853242371352971 0.23544625301742969 0 -0.45427794118362658 0.21265328965042851 0 -0.4536201791639074 0.2236252940046442 0 -0.44247364369559788 0.22667151604848371 0 -0.4536201791639074 0.2236252940046442 0 -0.44247364369559788 0.22667151604848371 0 -0.45710504060219709 0.23686107433279269 0 -0.44247364369559788 0.22667151604848371 0 -0.4367416388518679 0.25264877063821017 0 -0.44247364369559788 0.22667151604848371 0 -0.45710504060219709 0.23686107433279269 0 -0.4367416388518679 0.25264877063821017 0 -0.45710504060219709 0.23686107433279269 0 -0.46853242371352971 0.23544625301742969 0 -0.46993231893463527 0.26090691788180947 0 -0.41931835140954682 0.23739665832436521 0 -0.40367044579520373 0.24132688110038639 0 -0.41175872593851298 0.2549478601346914 0 -0.41931835140954682 0.23739665832436521 0 -0.40790513800462019 0.22799805468035339 0 -0.40367044579520373 0.24132688110038639 0 -0.41931835140954682 0.23739665832436521 0 -0.4367416388518679 0.25264877063821017 0 -0.41175872593851298 0.2549478601346914 0 -0.44247364369559788 0.22667151604848371 0 -0.41931835140954682 0.23739665832436521 0 -0.4367416388518679 0.25264877063821017 0 -0.44247364369559788 0.22667151604848371 0 -0.41931835140954682 0.23739665832436521 0 -0.42336320141575168 0.21609666274764849 0 -0.41931835140954682 0.23739665832436521 0 -0.40790513800462019 0.22799805468035339 0 -0.42336320141575168 0.21609666274764849 0 -0.40790513800462019 0.22799805468035339 0 -0.42336320141575168 0.21609666274764849 0 -0.40538393777915788 0.2123952851453417 0 -0.42336320141575168 0.21609666274764849 0 -0.42071240458675369 0.1920614743917832 0 -0.40538393777915788 0.2123952851453417 0 -0.44820564853932793 0.20069426145875721 0 -0.42336320141575168 0.21609666274764849 0 -0.42071240458675369 0.1920614743917832 0 -0.44047241453070329 0.18324079402305421 0 -0.44820564853932793 0.20069426145875721 0 -0.42071240458675369 0.1920614743917832 0 -0.42071240458675369 0.1920614743917832 0 -0.40538393777915788 0.2123952851453417 0 -0.42071240458675369 0.1920614743917832 0 -0.4022878927449296 0.1970928012265635 0 -0.40298680868332198 0.18508216307238631 0 -0.42071240458675369 0.1920614743917832 0 -0.4022878927449296 0.1970928012265635 0 -0.40538393777915788 0.2123952851453417 0 -0.4022878927449296 0.1970928012265635 0 -0.39286614404695941 0.1920732104686422 0 -0.40298680868332198 0.18508216307238631 0 -0.4022878927449296 0.1970928012265635 0 -0.39286614404695941 0.1920732104686422 0 -0.39380007669083689 0.206464460861051 0 -0.38422654444444693 0.2008322729754812 0 -0.38088029112643113 0.1825210369279657 0 -0.38422654444444693 0.2008322729754812 0 -0.38088029112643113 0.1825210369279657 0 -0.36802074197771562 0.19700904511440151 0 -0.38422654444444693 0.2008322729754812 0 -0.37368745339656201 0.20924711939208951 0 -0.36802074197771562 0.19700904511440151 0 -0.39286614404695941 0.1920732104686422 0 -0.38422654444444693 0.2008322729754812 0 -0.38088029112643113 0.1825210369279657 0 -0.39286614404695941 0.1920732104686422 0 -0.38422654444444693 0.2008322729754812 0 -0.39380007669083689 0.206464460861051 0 -0.38422654444444693 0.2008322729754812 0 -0.38757279776246373 0.21914350902299659 0 -0.38757279776246373 0.21914350902299659 0 -0.36800338097472479 0.22147713987588341 0 -0.37368745339656201 0.20924711939208951 0 -0.38422654444444693 0.2008322729754812 0 -0.39380007669083689 0.206464460861051 0 -0.38757279776246373 0.21914350902299659 0 -0.38422654444444693 0.2008322729754812 0 -0.38757279776246373 0.21914350902299659 0 -0.37368745339656201 0.20924711939208951 0 -0.39141353052387118 0.2186855059784025 0 -0.39380007669083689 0.206464460861051 0 -0.38757279776246373 0.21914350902299659 0 -0.39141353052387118 0.2186855059784025 0 -0.39380007669083689 0.206464460861051 0 -0.40538393777915788 0.2123952851453417 0 -0.4022878927449296 0.1970928012265635 0 -0.39380007669083689 0.206464460861051 0 -0.40538393777915788 0.2123952851453417 0 -0.40790513800462019 0.22799805468035339 0 -0.39005547097156312 0.23272909589890109 0 -0.40367044579520373 0.24132688110038639 0 -0.39141353052387118 0.2186855059784025 0 -0.40538393777915788 0.2123952851453417 0 -0.39005547097156312 0.23272909589890109 0 -0.40790513800462019 0.22799805468035339 0 -0.40538393777915788 0.2123952851453417 0 -0.39005547097156312 0.23272909589890109 0 -0.40538393777915788 0.2123952851453417 0 -0.39005547097156312 0.23272909589890109 0 -0.38757279776246373 0.21914350902299659 0 -0.39005547097156312 0.23272909589890109 0 -0.38757279776246373 0.21914350902299659 0 -0.36800338097472479 0.22147713987588341 0 -0.39141353052387118 0.2186855059784025 0 -0.38757279776246373 0.21914350902299659 0 -0.39005547097156312 0.23272909589890109 0 -0.38757279776246373 0.21914350902299659 0 -0.37939186114838758 0.22424627805714001 0 -0.36800338097472479 0.22147713987588341 0 -0.38757279776246373 0.21914350902299659 0 -0.37939186114838758 0.22424627805714001 0 -0.39005547097156312 0.23272909589890109 0 -0.39141353052387118 0.2186855059784025 0 -0.38757279776246373 0.21914350902299659 0 -0.37939186114838758 0.22424627805714001 0 -0.37477717689163992 0.25299635056682518 0 -0.39005547097156312 0.23272909589890109 0 -0.39384597734802013 0.25347135609337229 0 -0.37477717689163992 0.25299635056682518 0 -0.37939186114838758 0.22424627805714001 0 -0.39005547097156312 0.23272909589890109 0 -0.37477717689163992 0.25299635056682518 0 -0.39005547097156312 0.23272909589890109 0 -0.37477717689163992 0.25299635056682518 0 -0.40367044579520373 0.24132688110038639 0 -0.41175872593851298 0.2549478601346914 0 -0.39384597734802013 0.25347135609337229 0 -0.39005547097156312 0.23272909589890109 0 -0.39384597734802013 0.25347135609337229 0 -0.39005547097156312 0.23272909589890109 0 -0.40367044579520373 0.24132688110038639 0 -0.39384597734802013 0.25347135609337229 0 -0.41485942150404181 0.14153864215909739 0 -0.41553858058260518 0.15317901213210369 0 -0.42574561826610652 0.14613969243370301 0 -0.41553858058260518 0.15317901213210369 0 -0.42574561826610652 0.14613969243370301 0 -0.42127399236650492 0.15770626544657529 0 -0.41485942150404181 0.14153864215909739 0 -0.41553858058260518 0.15317901213210369 0 -0.4044664398419977 0.15594807455379561 0 -0.40864304721671202 0.1107171055473533 0 -0.41485942150404181 0.14153864215909739 0 -0.43267942878230348 0.12559175737704789 0 -0.41485942150404181 0.14153864215909739 0 -0.43267942878230348 0.12559175737704789 0 -0.42574561826610652 0.14613969243370301 0 -0.43267942878230348 0.12559175737704789 0 -0.43700896048386301 0.14249666109927989 0 -0.42574561826610652 0.14613969243370301 0 -0.41485942150404181 0.14153864215909739 0 -0.43267942878230348 0.12559175737704789 0 -0.42574561826610652 0.14613969243370301 0 -0.43187713239064979 0.1573343508491826 0 -0.42127399236650492 0.15770626544657529 0 -0.43700896048386301 0.14249666109927989 0 -0.42574561826610652 0.14613969243370301 0 -0.43187713239064979 0.1573343508491826 0 -0.43187713239064979 0.1573343508491826 0 -0.42946357341586749 0.17496324995209989 0 -0.4216380035134229 0.16659483191912641 0 -0.44174290600336708 0.16173144065936321 0 -0.43187713239064979 0.1573343508491826 0 -0.42946357341586749 0.17496324995209989 0 -0.43187713239064979 0.1573343508491826 0 -0.42127399236650492 0.15770626544657529 0 -0.4216380035134229 0.16659483191912641 0 -0.44047241453070329 0.18324079402305421 0 -0.44174290600336708 0.16173144065936321 0 -0.42946357341586749 0.17496324995209989 0 -0.44047241453070329 0.18324079402305421 0 -0.42071240458675369 0.1920614743917832 0 -0.42946357341586749 0.17496324995209989 0 -0.42071240458675369 0.1920614743917832 0 -0.42946357341586749 0.17496324995209989 0 -0.41235879422937732 0.17543682721938669 0 -0.42071240458675369 0.1920614743917832 0 -0.41235879422937732 0.17543682721938669 0 -0.40298680868332198 0.18508216307238631 0 -0.42946357341586749 0.17496324995209989 0 -0.41235879422937732 0.17543682721938669 0 -0.4216380035134229 0.16659483191912641 0 -0.41553858058260518 0.15317901213210369 0 -0.42127399236650492 0.15770626544657529 0 -0.41302135350813218 0.1630654313638546 0 -0.42127399236650492 0.15770626544657529 0 -0.4216380035134229 0.16659483191912641 0 -0.41302135350813218 0.1630654313638546 0 -0.41235879422937732 0.17543682721938669 0 -0.4216380035134229 0.16659483191912641 0 -0.41302135350813218 0.1630654313638546 0 -0.41235879422937732 0.17543682721938669 0 -0.41302135350813218 0.1630654313638546 0 -0.40449990094882532 0.16792382984329149 0 -0.41302135350813218 0.1630654313638546 0 -0.40449990094882532 0.16792382984329149 0 -0.4044664398419977 0.15594807455379561 0 -0.41553858058260518 0.15317901213210369 0 -0.41302135350813218 0.1630654313638546 0 -0.4044664398419977 0.15594807455379561 0 -0.3926733654842145 0.1692345557408807 0 -0.4044664398419977 0.15594807455379561 0 -0.40449990094882532 0.16792382984329149 0 -0.3926733654842145 0.1692345557408807 0 -0.40078474618547688 0.17571320347163299 0 -0.40449990094882532 0.16792382984329149 0 -0.3926733654842145 0.1692345557408807 0 -0.4044664398419977 0.15594807455379561 0 -0.3926733654842145 0.1692345557408807 0 -0.39703941422577987 0.15748552694114659 0 -0.4044664398419977 0.15594807455379561 0 -0.40298680868332198 0.18508216307238631 0 -0.40078474618547688 0.17571320347163299 0 -0.39301525059178999 0.18044652774840561 0 -0.41235879422937732 0.17543682721938669 0 -0.40298680868332198 0.18508216307238631 0 -0.40078474618547688 0.17571320347163299 0 -0.41235879422937732 0.17543682721938669 0 -0.40449990094882532 0.16792382984329149 0 -0.40078474618547688 0.17571320347163299 0 -0.3926733654842145 0.1692345557408807 0 -0.40078474618547688 0.17571320347163299 0 -0.39301525059178999 0.18044652774840561 0 -0.39286614404695941 0.1920732104686422 0 -0.40298680868332198 0.18508216307238631 0 -0.39301525059178999 0.18044652774840561 0 -0.39286614404695941 0.1920732104686422 0 -0.39301525059178999 0.18044652774840561 0 -0.38088029112643113 0.1825210369279657 0 -0.3926733654842145 0.1692345557408807 0 -0.38088029112643113 0.1825210369279657 0 -0.3926733654842145 0.1692345557408807 0 -0.39301525059178999 0.18044652774840561 0 -0.38088029112643113 0.1825210369279657 0 -0.3926733654842145 0.1692345557408807 0 -0.37921940694751782 0.17343241172319571 0 -0.38088029112643113 0.1825210369279657 0 -0.37921940694751782 0.17343241172319571 0 -0.38088029112643113 0.1825210369279657 0 -0.37921940694751782 0.17343241172319571 0 -0.38088029112643113 0.1825210369279657 0 -0.37283571032282492 0.1791450959532255 0 -0.3784015845151173 0.16895715591276281 0 -0.37283571032282492 0.1791450959532255 0 -0.37921940694751782 0.17343241172319571 0 -0.3784015845151173 0.16895715591276281 0 -0.37283571032282492 0.1791450959532255 0 -0.37921940694751782 0.17343241172319571 0 -0.37283571032282492 0.1791450959532255 0 -0.39703941422577987 0.15748552694114659 0 -0.37921940694751782 0.17343241172319571 0 -0.38193020105096481 0.16249827228531991 0 -0.3784015845151173 0.16895715591276281 0 -0.38193020105096481 0.16249827228531991 0 -0.37372345991800282 0.14335770613522919 0 -0.39703941422577987 0.15748552694114659 0 -0.37921940694751782 0.17343241172319571 0 -0.3926733654842145 0.1692345557408807 0 -0.39703941422577987 0.15748552694114659 0 -0.37921940694751782 0.17343241172319571 0 -0.39703941422577987 0.15748552694114659 0 -0.38193020105096481 0.16249827228531991 0 -0.38598126975628672 0.1494316781992327 0 -0.37921940694751782 0.17343241172319571 0 -0.3784015845151173 0.16895715591276281 0 -0.38193020105096481 0.16249827228531991 0 -0.3784015845151173 0.16895715591276281 0 -0.38193020105096481 0.16249827228531991 0 -0.37921940694751782 0.17343241172319571 0 -0.3784015845151173 0.16895715591276281 0 -0.38598126975628672 0.1494316781992327 0 -0.39401402549175851 0.1361747599337243 0 -0.37372345991800282 0.14335770613522919 0 -0.38193020105096481 0.16249827228531991 0 -0.38598126975628672 0.1494316781992327 0 -0.37372345991800282 0.14335770613522919 0 -0.3784015845151173 0.16895715591276281 0 -0.37372345991800282 0.14335770613522919 0 -0.39703941422577987 0.15748552694114659 0 -0.38598126975628672 0.1494316781992327 0 -0.39401402549175851 0.1361747599337243 0 -0.41485942150404181 0.14153864215909739 0 -0.39703941422577987 0.15748552694114659 0 -0.39401402549175851 0.1361747599337243 0 -0.41485942150404181 0.14153864215909739 0 -0.39703941422577987 0.15748552694114659 0 -0.4044664398419977 0.15594807455379561 0 -0.41485942150404181 0.14153864215909739 0 -0.39703941422577987 0.15748552694114659 0 -0.40864304721671202 0.1107171055473533 0 -0.41485942150404181 0.14153864215909739 0 -0.39401402549175851 0.1361747599337243 0 -0.38750957741872682 0.11885909540365321 0 -0.37372345991800282 0.14335770613522919 0 -0.36904533532088801 0.1177582563576956 0 -0.38750957741872682 0.11885909540365321 0 -0.39401402549175851 0.1361747599337243 0 -0.37372345991800282 0.14335770613522919 0 -0.35823941519022368 0.13573745574644491 0 -0.37372345991800282 0.14335770613522919 0 -0.36904533532088801 0.1177582563576956 0 -0.37372345991800282 0.14335770613522919 0 -0.36904533532088801 0.1177582563576956 0 -0.35823941519022368 0.13573745574644491 0 -0.34455851703438989 0.13305210298766909 0 -0.35158166360451942 0.11704707172714621 0 -0.35823941519022368 0.13573745574644491 0 -0.34455851703438989 0.13305210298766909 0 -0.34873147585397152 0.15030858297792049 0 -0.35823941519022368 0.13573745574644491 0 -0.34873147585397152 0.15030858297792049 0 -0.36179603940957061 0.15290101429300901 0 -0.34873147585397152 0.15030858297792049 0 -0.34720568730415252 0.1616956217090188 0 -0.33647431770126862 0.14798842126345041 0 -0.34873147585397152 0.15030858297792049 0 -0.36179603940957061 0.15290101429300901 0 -0.35552330674067661 0.16014073544654131 0 -0.35823941519022368 0.13573745574644491 0 -0.36179603940957061 0.15290101429300901 0 -0.37372345991800282 0.14335770613522919 0 -0.3784015845151173 0.16895715591276281 0 -0.36179603940957061 0.15290101429300901 0 -0.37372345991800282 0.14335770613522919 0 -0.3784015845151173 0.16895715591276281 0 -0.36179603940957061 0.15290101429300901 0 -0.3628088848288224 0.16705289795690309 0 -0.3784015845151173 0.16895715591276281 0 -0.3628088848288224 0.16705289795690309 0 -0.36959790597703868 0.17377317275203899 0 -0.36179603940957061 0.15290101429300901 0 -0.3628088848288224 0.16705289795690309 0 -0.35552330674067661 0.16014073544654131 0 -0.38088029112643113 0.1825210369279657 0 -0.37283571032282492 0.1791450959532255 0 -0.36802074197771562 0.19700904511440151 0 -0.37283571032282492 0.1791450959532255 0 -0.36399845157591232 0.19532107462703119 0 -0.37283571032282492 0.1791450959532255 0 -0.36261880381503758 0.18828806813974089 0 -0.3784015845151173 0.16895715591276281 0 -0.36959790597703868 0.17377317275203899 0 -0.37283571032282492 0.1791450959532255 0 -0.36959790597703868 0.17377317275203899 0 -0.37283571032282492 0.1791450959532255 0 -0.36409588864576692 0.17933358541092431 0 -0.3628088848288224 0.16705289795690309 0 -0.36959790597703868 0.17377317275203899 0 -0.36409588864576692 0.17933358541092431 0 -0.3628088848288224 0.16705289795690309 0 -0.36409588864576692 0.17933358541092431 0 -0.35614161380151321 0.17761165346375071 0 -0.36409588864576692 0.17933358541092431 0 -0.35797279878738592 0.18411861580098379 0 -0.35614161380151321 0.17761165346375071 0 -0.36409588864576692 0.17933358541092431 0 -0.35797279878738592 0.18411861580098379 0 -0.36261880381503758 0.18828806813974089 0 -0.37283571032282492 0.1791450959532255 0 -0.36409588864576692 0.17933358541092431 0 -0.36261880381503758 0.18828806813974089 0 -0.35797279878738592 0.18411861580098379 0 -0.35614161380151321 0.17761165346375071 0 -0.35065229879255438 0.18593262723135329 0 -0.35797279878738592 0.18411861580098379 0 -0.35065229879255438 0.18593262723135329 0 -0.35645772166264922 0.19211102842263869 0 -0.35614161380151321 0.17761165346375071 0 -0.34811061985946878 0.17434540014992381 0 -0.35436851446084039 0.1683048517912053 0 -0.35614161380151321 0.17761165346375071 0 -0.34811061985946878 0.17434540014992381 0 -0.35065229879255438 0.18593262723135329 0 -0.35065229879255438 0.18593262723135329 0 -0.34227569468909552 0.1811403169530669 0 -0.33993633525554889 0.19055096072852831 0 -0.34811061985946878 0.17434540014992381 0 -0.35065229879255438 0.18593262723135329 0 -0.34227569468909552 0.1811403169530669 0 -0.35552330674067661 0.16014073544654131 0 -0.35436851446084039 0.1683048517912053 0 -0.34720568730415252 0.1616956217090188 0 -0.3628088848288224 0.16705289795690309 0 -0.35614161380151321 0.17761165346375071 0 -0.35436851446084039 0.1683048517912053 0 -0.3628088848288224 0.16705289795690309 0 -0.35552330674067661 0.16014073544654131 0 -0.35436851446084039 0.1683048517912053 0 -0.34811061985946878 0.17434540014992381 0 -0.34720568730415252 0.1616956217090188 0 -0.33801991010865667 0.17138732975114751 0 -0.34811061985946878 0.17434540014992381 0 -0.35436851446084039 0.1683048517912053 0 -0.34720568730415252 0.1616956217090188 0 -0.34873147585397152 0.15030858297792049 0 -0.35552330674067661 0.16014073544654131 0 -0.34720568730415252 0.1616956217090188 0 -0.34720568730415252 0.1616956217090188 0 -0.33801991010865667 0.17138732975114751 0 -0.33092539158612982 0.1609515407851054 0 -0.34720568730415252 0.1616956217090188 0 -0.33092539158612982 0.1609515407851054 0 -0.33647431770126862 0.14798842126345041 0 -0.33801991010865667 0.17138732975114751 0 -0.33092539158612982 0.1609515407851054 0 -0.3265778886375873 0.17202186172735501 0 -0.34227569468909552 0.1811403169530669 0 -0.33183788287013261 0.1831818366374682 0 -0.33993633525554889 0.19055096072852831 0 -0.34811061985946878 0.17434540014992381 0 -0.33801991010865667 0.17138732975114751 0 -0.34227569468909552 0.1811403169530669 0 -0.33801991010865667 0.17138732975114751 0 -0.34227569468909552 0.1811403169530669 0 -0.33183788287013261 0.1831818366374682 0 -0.33801991010865667 0.17138732975114751 0 -0.33183788287013261 0.1831818366374682 0 -0.3265778886375873 0.17202186172735501 0 -0.3265778886375873 0.17202186172735501 0 -0.31632076704925127 0.18575639557221951 0 -0.3167678101826048 0.16359462978275929 0 -0.33183788287013261 0.1831818366374682 0 -0.3265778886375873 0.17202186172735501 0 -0.31632076704925127 0.18575639557221951 0 -0.33092539158612982 0.1609515407851054 0 -0.3167678101826048 0.16359462978275929 0 -0.32050673558250908 0.1490213804769015 0 -0.33092539158612982 0.1609515407851054 0 -0.3265778886375873 0.17202186172735501 0 -0.3167678101826048 0.16359462978275929 0 -0.32050673558250908 0.1490213804769015 0 -0.30739524272803709 0.15185112365938391 0 -0.31211500736378339 0.1240031522641292 0 -0.3167678101826048 0.16359462978275929 0 -0.32050673558250908 0.1490213804769015 0 -0.30739524272803709 0.15185112365938391 0 -0.32050673558250908 0.1490213804769015 0 -0.30739524272803709 0.15185112365938391 0 -0.32919359534549508 0.13424827028365749 0 -0.31211500736378339 0.1240031522641292 0 -0.33231339904552459 0.1171762944261375 0 -0.32050673558250908 0.1490213804769015 0 -0.32919359534549508 0.13424827028365749 0 -0.31211500736378339 0.1240031522641292 0 -0.34455851703438989 0.13305210298766909 0 -0.32919359534549508 0.13424827028365749 0 -0.33231339904552459 0.1171762944261375 0 -0.34455851703438989 0.13305210298766909 0 -0.32919359534549508 0.13424827028365749 0 -0.33647431770126862 0.14798842126345041 0 -0.32050673558250908 0.1490213804769015 0 -0.32919359534549508 0.13424827028365749 0 -0.33647431770126862 0.14798842126345041 0 -0.33092539158612982 0.1609515407851054 0 -0.32050673558250908 0.1490213804769015 0 -0.33647431770126862 0.14798842126345041 0 -0.34455851703438989 0.13305210298766909 0 -0.34873147585397152 0.15030858297792049 0 -0.33647431770126862 0.14798842126345041 0 -0.35416421148584648 0.23888623464626721 0 -0.34843396418698602 0.22381077072877051 0 -0.33845336435013867 0.242079554605789 0 -0.35416421148584648 0.23888623464626721 0 -0.33845336435013867 0.242079554605789 0 -0.35464358931248319 0.25491115920099722 0 -0.37939186114838758 0.22424627805714001 0 -0.37013679196984273 0.23750613219799629 0 -0.37477717689163992 0.25299635056682518 0 -0.37013679196984273 0.23750613219799629 0 -0.35464358931248319 0.25491115920099722 0 -0.37477717689163992 0.25299635056682518 0 -0.35416421148584648 0.23888623464626721 0 -0.37013679196984273 0.23750613219799629 0 -0.35464358931248319 0.25491115920099722 0 -0.35416421148584648 0.23888623464626721 0 -0.37013679196984273 0.23750613219799629 0 -0.36148561266771267 0.2305011068434443 0 -0.36148561266771267 0.2305011068434443 0 -0.36975441169016687 0.228432664243616 0 -0.36800338097472479 0.22147713987588341 0 -0.37013679196984273 0.23750613219799629 0 -0.36148561266771267 0.2305011068434443 0 -0.36975441169016687 0.228432664243616 0 -0.37939186114838758 0.22424627805714001 0 -0.37013679196984273 0.23750613219799629 0 -0.36975441169016687 0.228432664243616 0 -0.37939186114838758 0.22424627805714001 0 -0.36975441169016687 0.228432664243616 0 -0.36800338097472479 0.22147713987588341 0 -0.36800338097472479 0.22147713987588341 0 -0.34843396418698602 0.22381077072877051 0 -0.35516119282899983 0.21149705330083701 0 -0.36148561266771267 0.2305011068434443 0 -0.36800338097472479 0.22147713987588341 0 -0.34843396418698602 0.22381077072877051 0 -0.36800338097472479 0.22147713987588341 0 -0.34843396418698602 0.22381077072877051 0 -0.35416421148584648 0.23888623464626721 0 -0.36148561266771267 0.2305011068434443 0 -0.34843396418698602 0.22381077072877051 0 -0.34843396418698602 0.22381077072877051 0 -0.34802604401402371 0.21953575615482759 0 -0.33982416592956399 0.21665757569738961 0 -0.34802604401402371 0.21953575615482759 0 -0.34581283434165899 0.20861347152532789 0 -0.33982416592956399 0.21665757569738961 0 -0.34802604401402371 0.21953575615482759 0 -0.34581283434165899 0.20861347152532789 0 -0.35516119282899983 0.21149705330083701 0 -0.34843396418698602 0.22381077072877051 0 -0.34802604401402371 0.21953575615482759 0 -0.35516119282899983 0.21149705330083701 0 -0.34581283434165899 0.20861347152532789 0 -0.35516119282899983 0.21149705330083701 0 -0.35389383475621161 0.20092716755479181 0 -0.34802604401402371 0.21953575615482759 0 -0.35516119282899983 0.21149705330083701 0 -0.34843396418698602 0.22381077072877051 0 -0.35516119282899983 0.21149705330083701 0 -0.36800338097472479 0.22147713987588341 0 -0.35516119282899983 0.21149705330083701 0 -0.37368745339656201 0.20924711939208951 0 -0.35516119282899983 0.21149705330083701 0 -0.37368745339656201 0.20924711939208951 0 -0.36802074197771562 0.19700904511440151 0 -0.35516119282899983 0.21149705330083701 0 -0.36399845157591232 0.19532107462703119 0 -0.35516119282899983 0.21149705330083701 0 -0.36802074197771562 0.19700904511440151 0 -0.37283571032282492 0.1791450959532255 0 -0.36399845157591232 0.19532107462703119 0 -0.36261880381503758 0.18828806813974089 0 -0.37283571032282492 0.1791450959532255 0 -0.36399845157591232 0.19532107462703119 0 -0.36802074197771562 0.19700904511440151 0 -0.35516119282899983 0.21149705330083701 0 -0.36399845157591232 0.19532107462703119 0 -0.36802074197771562 0.19700904511440151 0 -0.38088029112643113 0.1825210369279657 0 -0.36802074197771562 0.19700904511440151 0 -0.36399845157591232 0.19532107462703119 0 -0.36261880381503758 0.18828806813974089 0 -0.35645772166264922 0.19211102842263869 0 -0.35797279878738592 0.18411861580098379 0 -0.36261880381503758 0.18828806813974089 0 -0.35645772166264922 0.19211102842263869 0 -0.35065229879255438 0.18593262723135329 0 -0.35645772166264922 0.19211102842263869 0 -0.34803897337183792 0.19709320989812409 0 -0.35516119282899983 0.21149705330083701 0 -0.36399845157591232 0.19532107462703119 0 -0.35389383475621161 0.20092716755479181 0 -0.35645772166264922 0.19211102842263869 0 -0.35389383475621161 0.20092716755479181 0 -0.34803897337183792 0.19709320989812409 0 -0.36399845157591232 0.19532107462703119 0 -0.35645772166264922 0.19211102842263869 0 -0.35389383475621161 0.20092716755479181 0 -0.34581283434165899 0.20861347152532789 0 -0.35389383475621161 0.20092716755479181 0 -0.34803897337183792 0.19709320989812409 0 -0.34581283434165899 0.20861347152532789 0 -0.34803897337183792 0.19709320989812409 0 -0.33933674095816863 0.19971543786353729 0 -0.35065229879255438 0.18593262723135329 0 -0.34803897337183792 0.19709320989812409 0 -0.33993633525554889 0.19055096072852831 0 -0.33993633525554889 0.19055096072852831 0 -0.33933674095816863 0.19971543786353729 0 -0.33069942903629101 0.19625725860753851 0 -0.34803897337183792 0.19709320989812409 0 -0.33993633525554889 0.19055096072852831 0 -0.33933674095816863 0.19971543786353729 0 -0.33933674095816863 0.19971543786353729 0 -0.33069942903629101 0.19625725860753851 0 -0.33422481296465362 0.2080963853910347 0 -0.33183788287013261 0.1831818366374682 0 -0.33993633525554889 0.19055096072852831 0 -0.33069942903629101 0.19625725860753851 0 -0.31632076704925127 0.18575639557221951 0 -0.33069942903629101 0.19625725860753851 0 -0.32036655352850157 0.2095523693350691 0 -0.33183788287013261 0.1831818366374682 0 -0.31632076704925127 0.18575639557221951 0 -0.33069942903629101 0.19625725860753851 0 -0.32036655352850157 0.2095523693350691 0 -0.32458589997660492 0.2266546254550818 0 -0.30779163400160159 0.21927945841494459 0 -0.32036655352850157 0.2095523693350691 0 -0.32934906837639222 0.21536895119528529 0 -0.32458589997660492 0.2266546254550818 0 -0.32036655352850157 0.2095523693350691 0 -0.32934906837639222 0.21536895119528529 0 -0.33422481296465362 0.2080963853910347 0 -0.32934906837639222 0.21536895119528529 0 -0.33422481296465362 0.2080963853910347 0 -0.33982416592956399 0.21665757569738961 0 -0.33069942903629101 0.19625725860753851 0 -0.32036655352850157 0.2095523693350691 0 -0.33422481296465362 0.2080963853910347 0 -0.34581283434165899 0.20861347152532789 0 -0.33933674095816863 0.19971543786353729 0 -0.33422481296465362 0.2080963853910347 0 -0.34581283434165899 0.20861347152532789 0 -0.33422481296465362 0.2080963853910347 0 -0.33982416592956399 0.21665757569738961 0 -0.34843396418698602 0.22381077072877051 0 -0.33982416592956399 0.21665757569738961 0 -0.32458589997660492 0.2266546254550818 0 -0.34843396418698602 0.22381077072877051 0 -0.32458589997660492 0.2266546254550818 0 -0.34843396418698602 0.22381077072877051 0 -0.32458589997660492 0.2266546254550818 0 -0.33845336435013867 0.242079554605789 0 -0.34843396418698602 0.22381077072877051 0 -0.33845336435013867 0.242079554605789 0 -0.32934906837639222 0.21536895119528529 0 -0.33982416592956399 0.21665757569738961 0 -0.32458589997660492 0.2266546254550818 0 -0.32458589997660492 0.2266546254550818 0 -0.30073783576622393 0.22949848018139329 0 -0.32458589997660492 0.2266546254550818 0 -0.32455092720978362 0.24357057421839101 0 -0.31122576982003303 0.23714335435801151 0 -0.32455092720978362 0.24357057421839101 0 -0.311575650220281 0.24878047680599949 0 -0.31122576982003303 0.23714335435801151 0 -0.32458589997660492 0.2266546254550818 0 -0.32455092720978362 0.24357057421839101 0 -0.33845336435013867 0.242079554605789 0 -0.32455092720978362 0.24357057421839101 0 -0.33845336435013867 0.242079554605789 0 -0.32847276451329022 0.26034833848280681 0 -0.29310990672191722 0.23613872254877591 0 -0.29467853592727078 0.23721261512919359 0 -0.28985028671148488 0.25537141990030859 0 -0.29310990672191722 0.23613872254877591 0 -0.27131573767068418 0.22826101281380451 0 -0.28058301219108422 0.24181621635705669 0 -0.29310990672191722 0.23613872254877591 0 -0.28985028671148488 0.25537141990030859 0 -0.29310990672191722 0.23613872254877591 0 -0.28058301219108422 0.24181621635705669 0 -0.28985028671148488 0.25537141990030859 0 -0.28058301219108422 0.24181621635705669 0 -0.28985028671148488 0.25537141990030859 0 -0.29310990672191722 0.23613872254877591 0 -0.29467853592727078 0.23721261512919359 0 -0.29467853592727078 0.23721261512919359 0 -0.31122576982003303 0.23714335435801151 0 -0.30073783576622393 0.22949848018139329 0 -0.29467853592727078 0.23721261512919359 0 -0.311575650220281 0.24878047680599949 0 -0.31122576982003303 0.23714335435801151 0 -0.29467853592727078 0.23721261512919359 0 -0.311575650220281 0.24878047680599949 0 -0.29467853592727078 0.23721261512919359 0 -0.311575650220281 0.24878047680599949 0 -0.29523766041035199 0.26325150879709891 0 -0.32458589997660492 0.2266546254550818 0 -0.30073783576622393 0.22949848018139329 0 -0.30779163400160159 0.21927945841494459 0 -0.32458589997660492 0.2266546254550818 0 -0.31122576982003303 0.23714335435801151 0 -0.30073783576622393 0.22949848018139329 0 -0.30073783576622393 0.22949848018139329 0 -0.30779163400160159 0.21927945841494459 0 -0.29448167989639912 0.22804486553003031 0 -0.29310990672191722 0.23613872254877591 0 -0.29448167989639912 0.22804486553003031 0 -0.27369133376421262 0.22284465576077489 0 -0.29448167989639912 0.22804486553003031 0 -0.2838712618875629 0.21479465795795599 0 -0.27369133376421262 0.22284465576077489 0 -0.29448167989639912 0.22804486553003031 0 -0.29413635243235581 0.21196267741475219 0 -0.29310990672191722 0.23613872254877591 0 -0.27369133376421262 0.22284465576077489 0 -0.29467853592727078 0.23721261512919359 0 -0.30073783576622393 0.22949848018139329 0 -0.29448167989639912 0.22804486553003031 0 -0.29310990672191722 0.23613872254877591 0 -0.29467853592727078 0.23721261512919359 0 -0.29448167989639912 0.22804486553003031 0 -0.29467853592727078 0.23721261512919359 0 -0.29448167989639912 0.22804486553003031 0 -0.29310990672191722 0.23613872254877591 0 -0.29448167989639912 0.22804486553003031 0 -0.29413635243235581 0.21196267741475219 0 -0.29878620084027852 0.20264695157314819 0 -0.29379102496831272 0.19588048929947419 0 -0.29448167989639912 0.22804486553003031 0 -0.29413635243235581 0.21196267741475219 0 -0.29878620084027852 0.20264695157314819 0 -0.29448167989639912 0.22804486553003031 0 -0.29878620084027852 0.20264695157314819 0 -0.29413635243235581 0.21196267741475219 0 -0.29379102496831272 0.19588048929947419 0 -0.28522308967114912 0.20452327137286261 0 -0.29413635243235581 0.21196267741475219 0 -0.29379102496831272 0.19588048929947419 0 -0.29448167989639912 0.22804486553003031 0 -0.2838712618875629 0.21479465795795599 0 -0.29413635243235581 0.21196267741475219 0 -0.2838712618875629 0.21479465795795599 0 -0.28522308967114912 0.20452327137286261 0 -0.29413635243235581 0.21196267741475219 0 -0.32036655352850157 0.2095523693350691 0 -0.30779163400160159 0.21927945841494459 0 -0.29878620084027852 0.20264695157314819 0 -0.30779163400160159 0.21927945841494459 0 -0.29448167989639912 0.22804486553003031 0 -0.29878620084027852 0.20264695157314819 0 -0.29878620084027852 0.20264695157314819 0 -0.29379102496831272 0.19588048929947419 0 -0.30309072178415769 0.17724903761626601 0 -0.31632076704925127 0.18575639557221951 0 -0.29878620084027852 0.20264695157314819 0 -0.30309072178415769 0.17724903761626601 0 -0.31632076704925127 0.18575639557221951 0 -0.32036655352850157 0.2095523693350691 0 -0.29878620084027852 0.20264695157314819 0 -0.29878620084027852 0.20264695157314819 0 -0.30309072178415769 0.17724903761626601 0 -0.28522308967114912 0.20452327137286261 0 -0.29379102496831272 0.19588048929947419 0 -0.28124953787461371 0.1935735916895788 0 -0.29379102496831272 0.19588048929947419 0 -0.28124953787461371 0.1935735916895788 0 -0.28752446549241689 0.1832489647230989 0 -0.28124953787461371 0.1935735916895788 0 -0.2659766044530758 0.19238405035351089 0 -0.27494974420821611 0.1793112011395637 0 -0.28522308967114912 0.20452327137286261 0 -0.28124953787461371 0.1935735916895788 0 -0.27431068871210279 0.20621206129374381 0 -0.28124953787461371 0.1935735916895788 0 -0.2659766044530758 0.19238405035351089 0 -0.27431068871210279 0.20621206129374381 0 -0.25427276080650663 0.20955058897277601 0 -0.24947341468037071 0.1874691479585941 0 -0.2659766044530758 0.19238405035351089 0 -0.25427276080650663 0.20955058897277601 0 -0.24947341468037071 0.1874691479585941 0 -0.2659766044530758 0.19238405035351089 0 -0.25427276080650663 0.20955058897277601 0 -0.27431068871210279 0.20621206129374381 0 -0.25427276080650663 0.20955058897277601 0 -0.27369133376421262 0.22284465576077489 0 -0.25427276080650663 0.20955058897277601 0 -0.25977281016601761 0.2185578892770178 0 -0.27369133376421262 0.22284465576077489 0 -0.25427276080650663 0.20955058897277601 0 -0.25561524088587501 0.21572724177218369 0 -0.25977281016601761 0.2185578892770178 0 -0.25427276080650663 0.20955058897277601 0 -0.25561524088587501 0.21572724177218369 0 -0.24333230173327219 0.21221501244476959 0 -0.25427276080650663 0.20955058897277601 0 -0.25561524088587501 0.21572724177218369 0 -0.25427276080650663 0.20955058897277601 0 -0.27431068871210279 0.20621206129374381 0 -0.27369133376421262 0.22284465576077489 0 -0.2838712618875629 0.21479465795795599 0 -0.27431068871210279 0.20621206129374381 0 -0.27369133376421262 0.22284465576077489 0 -0.2838712618875629 0.21479465795795599 0 -0.28522308967114912 0.20452327137286261 0 -0.27431068871210279 0.20621206129374381 0 -0.29310990672191722 0.23613872254877591 0 -0.27369133376421262 0.22284465576077489 0 -0.27131573767068418 0.22826101281380451 0 -0.27131573767068418 0.22826101281380451 0 -0.26439065681250729 0.2289784260688752 0 -0.26819560602517328 0.23507842756581021 0 -0.27131573767068418 0.22826101281380451 0 -0.26675876456119929 0.22568570462696191 0 -0.26439065681250729 0.2289784260688752 0 -0.27369133376421262 0.22284465576077489 0 -0.26675876456119929 0.22568570462696191 0 -0.26371349664181459 0.22286429712754721 0 -0.25977281016601761 0.2185578892770178 0 -0.27369133376421262 0.22284465576077489 0 -0.26371349664181459 0.22286429712754721 0 -0.27369133376421262 0.22284465576077489 0 -0.27131573767068418 0.22826101281380451 0 -0.26675876456119929 0.22568570462696191 0 -0.26675876456119929 0.22568570462696191 0 -0.26371349664181459 0.22286429712754721 0 -0.26068259791677789 0.22548013136380779 0 -0.26068259791677789 0.22548013136380779 0 -0.25678634991227811 0.22260498734460241 0 -0.2574101570832959 0.22971939663687391 0 -0.26371349664181459 0.22286429712754721 0 -0.26068259791677789 0.22548013136380779 0 -0.25678634991227811 0.22260498734460241 0 -0.25977281016601761 0.2185578892770178 0 -0.26371349664181459 0.22286429712754721 0 -0.25678634991227811 0.22260498734460241 0 -0.25561524088587501 0.21572724177218369 0 -0.25977281016601761 0.2185578892770178 0 -0.25678634991227811 0.22260498734460241 0 -0.25678634991227811 0.22260498734460241 0 -0.249817319625419 0.2274340479663062 0 -0.24904636230289101 0.22050689045355901 0 -0.25561524088587501 0.21572724177218369 0 -0.25678634991227811 0.22260498734460241 0 -0.24904636230289101 0.22050689045355901 0 -0.25109603964961891 0.234366577265785 0 -0.2574101570832959 0.22971939663687391 0 -0.249817319625419 0.2274340479663062 0 -0.25678634991227811 0.22260498734460241 0 -0.2574101570832959 0.22971939663687391 0 -0.249817319625419 0.2274340479663062 0 -0.2574101570832959 0.22971939663687391 0 -0.26439065681250729 0.2289784260688752 0 -0.26193406046231932 0.2344272911270443 0 -0.26068259791677789 0.22548013136380779 0 -0.2574101570832959 0.22971939663687391 0 -0.26439065681250729 0.2289784260688752 0 -0.26675876456119929 0.22568570462696191 0 -0.26068259791677789 0.22548013136380779 0 -0.26439065681250729 0.2289784260688752 0 -0.26439065681250729 0.2289784260688752 0 -0.26193406046231932 0.2344272911270443 0 -0.26819560602517328 0.23507842756581021 0 -0.26193406046231932 0.2344272911270443 0 -0.26614348890836192 0.24293385421211869 0 -0.26819560602517328 0.23507842756581021 0 -0.2574101570832959 0.22971939663687391 0 -0.26193406046231932 0.2344272911270443 0 -0.25699538715464082 0.23905233796863981 0 -0.26193406046231932 0.2344272911270443 0 -0.25699538715464082 0.23905233796863981 0 -0.26614348890836192 0.24293385421211869 0 -0.25109603964961891 0.234366577265785 0 -0.25699538715464082 0.23905233796863981 0 -0.2470081454867771 0.2422065880623451 0 -0.25109603964961891 0.234366577265785 0 -0.2574101570832959 0.22971939663687391 0 -0.25699538715464082 0.23905233796863981 0 -0.25699538715464082 0.23905233796863981 0 -0.25693865295534157 0.25278860643768353 0 -0.2470081454867771 0.2422065880623451 0 -0.25699538715464082 0.23905233796863981 0 -0.26614348890836192 0.24293385421211869 0 -0.25693865295534157 0.25278860643768353 0 -0.26614348890836192 0.24293385421211869 0 -0.2724296921133022 0.25217156250687062 0 -0.25693865295534157 0.25278860643768353 0 -0.26614348890836192 0.24293385421211869 0 -0.28058301219108422 0.24181621635705669 0 -0.2724296921133022 0.25217156250687062 0 -0.28058301219108422 0.24181621635705669 0 -0.28985028671148488 0.25537141990030859 0 -0.2724296921133022 0.25217156250687062 0 -0.26614348890836192 0.24293385421211869 0 -0.26819560602517328 0.23507842756581021 0 -0.28058301219108422 0.24181621635705669 0 -0.27131573767068418 0.22826101281380451 0 -0.26819560602517328 0.23507842756581021 0 -0.28058301219108422 0.24181621635705669 0 -0.27131573767068418 0.22826101281380451 0 -0.28058301219108422 0.24181621635705669 0 -0.29326612220823411 0.13512644163735801 0 -0.28648818467010168 0.15636331808772699 0 -0.27141175194646833 0.1445184244171912 0 -0.29326612220823411 0.13512644163735801 0 -0.30739524272803709 0.15185112365938391 0 -0.28648818467010168 0.15636331808772699 0 -0.30739524272803709 0.15185112365938391 0 -0.31211500736378339 0.1240031522641292 0 -0.29326612220823411 0.13512644163735801 0 -0.30739524272803709 0.15185112365938391 0 -0.31211500736378339 0.1240031522641292 0 -0.30739524272803709 0.15185112365938391 0 -0.28648818467010168 0.15636331808772699 0 -0.30739524272803709 0.15185112365938391 0 -0.30309072178415769 0.17724903761626601 0 -0.3167678101826048 0.16359462978275929 0 -0.30739524272803709 0.15185112365938391 0 -0.30309072178415769 0.17724903761626601 0 -0.30739524272803709 0.15185112365938391 0 -0.30309072178415769 0.17724903761626601 0 -0.28648818467010168 0.15636331808772699 0 -0.31632076704925127 0.18575639557221951 0 -0.3167678101826048 0.16359462978275929 0 -0.30309072178415769 0.17724903761626601 0 -0.30309072178415769 0.17724903761626601 0 -0.28752446549241689 0.1832489647230989 0 -0.28381669143151822 0.17107272026056419 0 -0.29379102496831272 0.19588048929947419 0 -0.30309072178415769 0.17724903761626601 0 -0.28752446549241689 0.1832489647230989 0 -0.28752446549241689 0.1832489647230989 0 -0.28381669143151822 0.17107272026056419 0 -0.27494974420821611 0.1793112011395637 0 -0.30309072178415769 0.17724903761626601 0 -0.28648818467010168 0.15636331808772699 0 -0.28381669143151822 0.17107272026056419 0 -0.28648818467010168 0.15636331808772699 0 -0.28381669143151822 0.17107272026056419 0 -0.26558112661216632 0.16087551251606999 0 -0.28381669143151822 0.17107272026056419 0 -0.27494974420821611 0.1793112011395637 0 -0.26558112661216632 0.16087551251606999 0 -0.28648818467010168 0.15636331808772699 0 -0.26558112661216632 0.16087551251606999 0 -0.27494974420821611 0.1793112011395637 0 -0.26084394980388648 0.17618123618614701 0 -0.26558112661216632 0.16087551251606999 0 -0.2659766044530758 0.19238405035351089 0 -0.27494974420821611 0.1793112011395637 0 -0.26084394980388648 0.17618123618614701 0 -0.28124953787461371 0.1935735916895788 0 -0.28752446549241689 0.1832489647230989 0 -0.27494974420821611 0.1793112011395637 0 -0.2659766044530758 0.19238405035351089 0 -0.26084394980388648 0.17618123618614701 0 -0.24947341468037071 0.1874691479585941 0 -0.26084394980388648 0.17618123618614701 0 -0.24467406855423091 0.1653877069444131 0 -0.24947341468037071 0.1874691479585941 0 -0.26558112661216632 0.16087551251606999 0 -0.24467406855423091 0.1653877069444131 0 -0.26558112661216632 0.16087551251606999 0 -0.2543915534089356 0.15018751405662761 0 -0.24467406855423091 0.1653877069444131 0 -0.26084394980388648 0.17618123618614701 0 -0.26558112661216632 0.16087551251606999 0 -0.24467406855423091 0.1653877069444131 0 -0.26558112661216632 0.16087551251606999 0 -0.2543915534089356 0.15018751405662761 0 -0.27141175194646833 0.1445184244171912 0 -0.2543915534089356 0.15018751405662761 0 -0.27141175194646833 0.1445184244171912 0 -0.25477231595188199 0.13792181725732239 0 -0.28648818467010168 0.15636331808772699 0 -0.26558112661216632 0.16087551251606999 0 -0.27141175194646833 0.1445184244171912 0 -0.29326612220823411 0.13512644163735801 0 -0.27141175194646833 0.1445184244171912 0 -0.27545980130109921 0.1239996051278405 0 -0.27141175194646833 0.1445184244171912 0 -0.25477231595188199 0.13792181725732239 0 -0.27545980130109921 0.1239996051278405 0 -0.25477231595188199 0.13792181725732239 0 -0.27545980130109921 0.1239996051278405 0 -0.25477231595188199 0.13792181725732239 0 -0.27545980130109921 0.1239996051278405 0 -0.2495823492922267 0.12121763785839371 0 -0.25610310449345419 0.1041046972302731 0 -0.27545980130109921 0.1239996051278405 0 -0.2495823492922267 0.12121763785839371 0 -0.25610310449345419 0.1041046972302731 0 -0.25413031243694739 0.089521027236778197 0 -0.2427234934652894 0.090762762990284518 0 -0.25610310449345419 0.1041046972302731 0 -0.26471001572300679 0.091779207982481292 0 -0.25413031243694739 0.089521027236778197 0 -0.25610310449345419 0.1041046972302731 0 -0.27632390472144541 0.10600366135062909 0 -0.26471001572300679 0.091779207982481292 0 -0.27632390472144541 0.10600366135062909 0 -0.27815219556391091 0.091433986845849968 0 -0.26471001572300679 0.091779207982481292 0 -0.27632390472144541 0.10600366135062909 0 -0.28783094919658059 0.096999283795453681 0 -0.27815219556391091 0.091433986845849968 0 -0.25610310449345419 0.1041046972302731 0 -0.27632390472144541 0.10600366135062909 0 -0.27545980130109921 0.1239996051278405 0 -0.27545980130109921 0.1239996051278405 0 -0.29614728665031642 0.1100773929983587 0 -0.29326612220823411 0.13512644163735801 0 -0.27545980130109921 0.1239996051278405 0 -0.29614728665031642 0.1100773929983587 0 -0.27632390472144541 0.10600366135062909 0 -0.27545980130109921 0.1239996051278405 0 -0.29614728665031642 0.1100773929983587 0 -0.27632390472144541 0.10600366135062909 0 -0.29614728665031642 0.1100773929983587 0 -0.28783094919658059 0.096999283795453681 0 -0.29614728665031642 0.1100773929983587 0 -0.28783094919658059 0.096999283795453681 0 -0.29903425758953422 0.090155638130954882 0 -0.29614728665031642 0.1100773929983587 0 -0.29903425758953422 0.090155638130954882 0 -0.31683477199953253 0.096155180868875256 0 -0.29614728665031642 0.1100773929983587 0 -0.31683477199953253 0.096155180868875256 0 -0.29614728665031642 0.1100773929983587 0 -0.31211500736378339 0.1240031522641292 0 -0.31683477199953253 0.096155180868875256 0 -0.29326612220823411 0.13512644163735801 0 -0.29614728665031642 0.1100773929983587 0 -0.31211500736378339 0.1240031522641292 0 -0.30635830999651792 0.07761242167179265 0 -0.30189037325813839 0.060543452134012458 0 -0.32146679815367007 0.068824891797761426 0 -0.30635830999651792 0.07761242167179265 0 -0.29256534898171721 0.072382945427359638 0 -0.30189037325813839 0.060543452134012458 0 -0.30635830999651792 0.07761242167179265 0 -0.29903425758953422 0.090155638130954882 0 -0.29256534898171721 0.072382945427359638 0 -0.30635830999651792 0.07761242167179265 0 -0.29903425758953422 0.090155638130954882 0 -0.31683477199953253 0.096155180868875256 0 -0.29903425758953422 0.090155638130954882 0 -0.28572263353681682 0.08337299634339973 0 -0.29256534898171721 0.072382945427359638 0 -0.28783094919658059 0.096999283795453681 0 -0.29903425758953422 0.090155638130954882 0 -0.28572263353681682 0.08337299634339973 0 -0.28783094919658059 0.096999283795453681 0 -0.28572263353681682 0.08337299634339973 0 -0.27815219556391091 0.091433986845849968 0 -0.28572263353681682 0.08337299634339973 0 -0.29256534898171721 0.072382945427359638 0 -0.28059357561043269 0.073644623599786935 0 -0.29256534898171721 0.072382945427359638 0 -0.29088471103165969 0.062671374321780771 0 -0.30189037325813839 0.060543452134012458 0 -0.29256534898171721 0.072382945427359638 0 -0.29088471103165969 0.062671374321780771 0 -0.28261649390190829 0.064291953838756216 0 -0.29256534898171721 0.072382945427359638 0 -0.28261649390190829 0.064291953838756216 0 -0.28059357561043269 0.073644623599786935 0 -0.28261649390190829 0.064291953838756216 0 -0.27678196032587499 0.069585006034529676 0 -0.27195195811963518 0.06635492754641531 0 -0.26855373331756138 0.063547936276670339 0 -0.27195195811963518 0.06635492754641531 0 -0.25743728825439521 0.07924270920583569 0 -0.28261649390190829 0.064291953838756216 0 -0.27678196032587499 0.069585006034529676 0 -0.28059357561043269 0.073644623599786935 0 -0.27678196032587499 0.069585006034529676 0 -0.27196581367152378 0.074048519153160283 0 -0.27195195811963518 0.06635492754641531 0 -0.27678196032587499 0.069585006034529676 0 -0.28059357561043269 0.073644623599786935 0 -0.27196581367152378 0.074048519153160283 0 -0.28059357561043269 0.073644623599786935 0 -0.27196581367152378 0.074048519153160283 0 -0.27303575277029413 0.081855029780232597 0 -0.27196581367152378 0.074048519153160283 0 -0.27195195811963518 0.06635492754641531 0 -0.25743728825439521 0.07924270920583569 0 -0.28572263353681682 0.08337299634339973 0 -0.27815219556391091 0.091433986845849968 0 -0.27303575277029413 0.081855029780232597 0 -0.28572263353681682 0.08337299634339973 0 -0.28059357561043269 0.073644623599786935 0 -0.27303575277029413 0.081855029780232597 0 -0.27196581367152378 0.074048519153160283 0 -0.27303575277029413 0.081855029780232597 0 -0.25743728825439521 0.07924270920583569 0 -0.27815219556391091 0.091433986845849968 0 -0.27303575277029413 0.081855029780232597 0 -0.26471001572300679 0.091779207982481292 0 -0.26471001572300679 0.091779207982481292 0 -0.25743728825439521 0.07924270920583569 0 -0.25413031243694739 0.089521027236778197 0 -0.27303575277029413 0.081855029780232597 0 -0.26471001572300679 0.091779207982481292 0 -0.25743728825439521 0.07924270920583569 0 -0.25743728825439521 0.07924270920583569 0 -0.25064083865024739 0.073628726666345984 0 -0.24857020570659841 0.081659589420377987 0 -0.25743728825439521 0.07924270920583569 0 -0.25413031243694739 0.089521027236778197 0 -0.24857020570659841 0.081659589420377987 0 -0.26855373331756138 0.063547936276670339 0 -0.25743728825439521 0.07924270920583569 0 -0.25064083865024739 0.073628726666345984 0 -0.26855373331756138 0.063547936276670339 0 -0.25064083865024739 0.073628726666345984 0 -0.2562734301216873 0.062061687155910393 0 -0.26855373331756138 0.063547936276670339 0 -0.25064083865024739 0.073628726666345984 0 -0.27195195811963518 0.06635492754641531 0 -0.25743728825439521 0.07924270920583569 0 -0.25064083865024739 0.073628726666345984 0 -0.2562734301216873 0.062061687155910393 0 -0.24829977196364941 0.065213336215906109 0 -0.2623477931936597 0.053657636987073307 0 -0.25116276906762952 0.054241108780248931 0 -0.26153642505613889 0.036367366133998442 0 -0.2562734301216873 0.062061687155910393 0 -0.2623477931936597 0.053657636987073307 0 -0.25116276906762952 0.054241108780248931 0 -0.2562734301216873 0.062061687155910393 0 -0.25116276906762952 0.054241108780248931 0 -0.24829977196364941 0.065213336215906109 0 -0.26855373331756138 0.063547936276670339 0 -0.2562734301216873 0.062061687155910393 0 -0.2623477931936597 0.053657636987073307 0 -0.25116276906762952 0.054241108780248931 0 -0.26153642505613889 0.036367366133998442 0 -0.239388393447095 0.04766651035075449 0 -0.2623477931936597 0.053657636987073307 0 -0.26153642505613889 0.036367366133998442 0 -0.27323710809808138 0.049716314049096537 0 -0.26153642505613889 0.036367366133998442 0 -0.28732673365434691 0.040933413293477772 0 -0.26153642505613889 0.036367366133998442 0 -0.2825074511423824 0.030310297232740709 0 -0.28732673365434691 0.040933413293477772 0 -0.26153642505613889 0.036367366133998442 0 -0.27323710809808138 0.049716314049096537 0 -0.28732673365434691 0.040933413293477772 0 -0.26855373331756138 0.063547936276670339 0 -0.27195195811963518 0.06635492754641531 0 -0.28646662798487532 0.053467145886994819 0 -0.26855373331756138 0.063547936276670339 0 -0.28646662798487532 0.053467145886994819 0 -0.26855373331756138 0.063547936276670339 0 -0.27323710809808138 0.049716314049096537 0 -0.28646662798487532 0.053467145886994819 0 -0.27195195811963518 0.06635492754641531 0 -0.28646662798487532 0.053467145886994819 0 -0.28261649390190829 0.064291953838756216 0 -0.27195195811963518 0.06635492754641531 0 -0.28646662798487532 0.053467145886994819 0 -0.26855373331756138 0.063547936276670339 0 -0.2623477931936597 0.053657636987073307 0 -0.27323710809808138 0.049716314049096537 0 -0.26176261374782622 0.0098260211376069873 0 -0.24854849079604721 0.020569936005881421 0 -0.24598119983726671 0.0037338506766126851 0 -0.26003022337954462 -0.0038093911555793728 0 -0.26176261374782622 0.0098260211376069873 0 -0.24598119983726671 0.0037338506766126851 0 -0.26003022337954462 -0.0038093911555793728 0 -0.27433688946420332 -0.0007833753365484626 0 -0.26176261374782622 0.0098260211376069873 0 -0.26153642505613889 0.036367366133998442 0 -0.26176261374782622 0.0098260211376069873 0 -0.24854849079604721 0.020569936005881421 0 -0.26153642505613889 0.036367366133998442 0 -0.26176261374782622 0.0098260211376069873 0 -0.27684491432135683 0.017453585025194441 0 -0.26153642505613889 0.036367366133998442 0 -0.27684491432135683 0.017453585025194441 0 -0.2825074511423824 0.030310297232740709 0 -0.27433688946420332 -0.0007833753365484626 0 -0.26176261374782622 0.0098260211376069873 0 -0.27684491432135683 0.017453585025194441 0 -0.27433688946420332 -0.0007833753365484626 0 -0.27684491432135683 0.017453585025194441 0 -0.28842838408131971 0.0076205693905790281 0 -0.28842838408131971 0.0076205693905790281 0 -0.29131927560690712 0.022062190579302341 0 -0.29989828236451899 0.011495108916467369 0 -0.27684491432135683 0.017453585025194441 0 -0.29131927560690712 0.022062190579302341 0 -0.2825074511423824 0.030310297232740709 0 -0.27684491432135683 0.017453585025194441 0 -0.28842838408131971 0.0076205693905790281 0 -0.29131927560690712 0.022062190579302341 0 -0.29131927560690712 0.022062190579302341 0 -0.2825074511423824 0.030310297232740709 0 -0.29550990707316249 0.034734931131730561 0 -0.29131927560690712 0.022062190579302341 0 -0.30587597075389272 0.02137954460474218 0 -0.29550990707316249 0.034734931131730561 0 -0.30587597075389272 0.02137954460474218 0 -0.29550990707316249 0.034734931131730561 0 -0.30859873922341308 0.03381572977126493 0 -0.29131927560690712 0.022062190579302341 0 -0.30587597075389272 0.02137954460474218 0 -0.29989828236451899 0.011495108916467369 0 -0.3025805037907468 -0.0027432771802810229 0 -0.3204068892458079 -0.0014125807301150939 0 -0.31128727758972891 0.0091565171879943417 0 -0.30587597075389272 0.02137954460474218 0 -0.29989828236451899 0.011495108916467369 0 -0.31128727758972891 0.0091565171879943417 0 -0.3025805037907468 -0.0027432771802810229 0 -0.29989828236451899 0.011495108916467369 0 -0.31128727758972891 0.0091565171879943417 0 -0.3025805037907468 -0.0027432771802810229 0 -0.28842838408131971 0.0076205693905790281 0 -0.29989828236451899 0.011495108916467369 0 -0.28646662798487532 0.053467145886994819 0 -0.304010183261538 0.043594207608826187 0 -0.29088471103165969 0.062671374321780771 0 -0.28646662798487532 0.053467145886994819 0 -0.30189037325813839 0.060543452134012458 0 -0.29088471103165969 0.062671374321780771 0 -0.28261649390190829 0.064291953838756216 0 -0.28646662798487532 0.053467145886994819 0 -0.27323710809808138 0.049716314049096537 0 -0.28646662798487532 0.053467145886994819 0 -0.28732673365434691 0.040933413293477772 0 -0.28646662798487532 0.053467145886994819 0 -0.29550990707316249 0.034734931131730561 0 -0.30859873922341308 0.03381572977126493 0 -0.28646662798487532 0.053467145886994819 0 -0.28732673365434691 0.040933413293477772 0 -0.29550990707316249 0.034734931131730561 0 -0.2825074511423824 0.030310297232740709 0 -0.28732673365434691 0.040933413293477772 0 -0.29550990707316249 0.034734931131730561 0 -0.28646662798487532 0.053467145886994819 0 -0.30859873922341308 0.03381572977126493 0 -0.28646662798487532 0.053467145886994819 0 -0.304010183261538 0.043594207608826187 0 -0.30859873922341308 0.03381572977126493 0 -0.304010183261538 0.043594207608826187 0 -0.30859873922341308 0.03381572977126493 0 -0.32155373853820057 0.033721269330657687 0 -0.304010183261538 0.043594207608826187 0 -0.3137915997446068 0.051476736654279882 0 -0.31549181974187701 0.042926529004151233 0 -0.28646662798487532 0.053467145886994819 0 -0.304010183261538 0.043594207608826187 0 -0.30189037325813839 0.060543452134012458 0 -0.30189037325813839 0.060543452134012458 0 -0.3137915997446068 0.051476736654279882 0 -0.32146679815367007 0.068824891797761426 0 -0.304010183261538 0.043594207608826187 0 -0.30189037325813839 0.060543452134012458 0 -0.3137915997446068 0.051476736654279882 0 -0.3137915997446068 0.051476736654279882 0 -0.32609882430781029 0.041494602726648067 0 -0.32146679815367007 0.068824891797761426 0 -0.32609882430781029 0.041494602726648067 0 -0.32146679815367007 0.068824891797761426 0 -0.3137915997446068 0.051476736654279882 0 -0.31549181974187701 0.042926529004151233 0 -0.32609882430781029 0.041494602726648067 0 -0.304010183261538 0.043594207608826187 0 -0.31549181974187701 0.042926529004151233 0 -0.32155373853820057 0.033721269330657687 0 -0.304010183261538 0.043594207608826187 0 -0.32155373853820057 0.033721269330657687 0 -0.31549181974187701 0.042926529004151233 0 -0.32155373853820057 0.033721269330657687 0 -0.32609882430781029 0.041494602726648067 0 -0.32609882430781029 0.041494602726648067 0 -0.34385517732675519 0.031131612817745031 0 -0.35163198926140088 0.046228739452983239 0 -0.32609882430781029 0.041494602726648067 0 -0.338272543408071 0.060603673933957783 0 -0.32146679815367007 0.068824891797761426 0 -0.32609882430781029 0.041494602726648067 0 -0.338272543408071 0.060603673933957783 0 -0.35163198926140088 0.046228739452983239 0 -0.3204068892458079 -0.0014125807301150939 0 -0.31128727758972891 0.0091565171879943417 0 -0.33073085046195078 0.01416431365553468 0 -0.30587597075389272 0.02137954460474218 0 -0.31128727758972891 0.0091565171879943417 0 -0.33073085046195078 0.01416431365553468 0 -0.30859873922341308 0.03381572977126493 0 -0.33073085046195078 0.01416431365553468 0 -0.30587597075389272 0.02137954460474218 0 -0.30859873922341308 0.03381572977126493 0 -0.33073085046195078 0.01416431365553468 0 -0.32155373853820057 0.033721269330657687 0 -0.32609882430781029 0.041494602726648067 0 -0.33073085046195078 0.01416431365553468 0 -0.30859873922341308 0.03381572977126493 0 -0.32155373853820057 0.033721269330657687 0 -0.33073085046195078 0.01416431365553468 0 -0.32609882430781029 0.041494602726648067 0 -0.33073085046195078 0.01416431365553468 0 -0.33073085046195078 0.01416431365553468 0 -0.34385517732675519 0.031131612817745031 0 -0.35381837275022032 0.01853105722209741 0 -0.32609882430781029 0.041494602726648067 0 -0.33073085046195078 0.01416431365553468 0 -0.34385517732675519 0.031131612817745031 0 -0.33540629353460438 -0.01342214774580049 0 -0.33073085046195078 0.01416431365553468 0 -0.35221409618436439 -0.0049109655465913588 0 -0.33073085046195078 0.01416431365553468 0 -0.35221409618436439 -0.0049109655465913588 0 -0.34857824671955512 -0.007874197240844389 0 -0.33073085046195078 0.01416431365553468 0 -0.35221409618436439 -0.0049109655465913588 0 -0.33073085046195078 0.01416431365553468 0 -0.34939877662876639 0.0070576099193848619 0 -0.33073085046195078 0.01416431365553468 0 -0.34939877662876639 0.0070576099193848619 0 -0.35381837275022032 0.01853105722209741 0 -0.35900139338342918 0.0020097317905480609 0 -0.34939877662876639 0.0070576099193848619 0 -0.35834074471334648 0.0096788928264882005 0 -0.35509488683577939 -0.0004162838960613095 0 -0.35900139338342918 0.0020097317905480609 0 -0.34939877662876639 0.0070576099193848619 0 -0.35509488683577939 -0.0004162838960613095 0 -0.35221409618436439 -0.0049109655465913588 0 -0.34939877662876639 0.0070576099193848619 0 -0.34939877662876639 0.0070576099193848619 0 -0.35834074471334648 0.0096788928264882005 0 -0.35381837275022032 0.01853105722209741 0 -0.34385517732675519 0.031131612817745031 0 -0.35381837275022032 0.01853105722209741 0 -0.36551724687399623 0.028318485711261141 0 -0.37937813184432773 0.031366277704107569 0 -0.36551724687399623 0.028318485711261141 0 -0.37479293228070759 0.022502646493578662 0 -0.36551724687399623 0.028318485711261141 0 -0.37479293228070759 0.022502646493578662 0 -0.36730783543836809 0.01519693074799966 0 -0.3778438638662554 0.014761087644765769 0 -0.37479293228070759 0.022502646493578662 0 -0.36730783543836809 0.01519693074799966 0 -0.35381837275022032 0.01853105722209741 0 -0.36551724687399623 0.028318485711261141 0 -0.36730783543836809 0.01519693074799966 0 -0.35834074471334648 0.0096788928264882005 0 -0.36730783543836809 0.01519693074799966 0 -0.36603012090457948 0.0050917054244422654 0 -0.35834074471334648 0.0096788928264882005 0 -0.35381837275022032 0.01853105722209741 0 -0.36730783543836809 0.01519693074799966 0 -0.36730783543836809 0.01519693074799966 0 -0.37464316483836829 0.0066416053135349984 0 -0.36603012090457948 0.0050917054244422654 0 -0.3778438638662554 0.014761087644765769 0 -0.36730783543836809 0.01519693074799966 0 -0.37464316483836829 0.0066416053135349984 0 -0.37126952376897032 -0.00085078512189483576 0 -0.37774077980655368 -0.001289555558904682 0 -0.37464316483836829 0.0066416053135349984 0 -0.37126952376897032 -0.00085078512189483576 0 -0.37464316483836829 0.0066416053135349984 0 -0.36603012090457948 0.0050917054244422654 0 -0.37126952376897032 -0.00085078512189483576 0 -0.36494834593608783 -0.001298186014321303 0 -0.36603012090457948 0.0050917054244422654 0 -0.36494834593608783 -0.001298186014321303 0 -0.35900139338342918 0.0020097317905480609 0 -0.36603012090457948 0.0050917054244422654 0 -0.35900139338342918 0.0020097317905480609 0 -0.35834074471334648 0.0096788928264882005 0 -0.36603012090457948 0.0050917054244422654 0 -0.35163198926140088 0.046228739452983239 0 -0.36891219827968119 0.060077996683558232 0 -0.35298131256760962 0.063034912088641357 0 -0.338272543408071 0.060603673933957783 0 -0.35163198926140088 0.046228739452983239 0 -0.35298131256760962 0.063034912088641357 0 -0.34385517732675519 0.031131612817745031 0 -0.36551724687399623 0.028318485711261141 0 -0.35163198926140088 0.046228739452983239 0 -0.36551724687399623 0.028318485711261141 0 -0.35163198926140088 0.046228739452983239 0 -0.37261014177358448 0.043145835856899219 0 -0.37937813184432773 0.031366277704107569 0 -0.36551724687399623 0.028318485711261141 0 -0.37261014177358448 0.043145835856899219 0 -0.35163198926140088 0.046228739452983239 0 -0.37261014177358448 0.043145835856899219 0 -0.36891219827968119 0.060077996683558232 0 -0.38207463336695202 0.051047668856640811 0 -0.37261014177358448 0.043145835856899219 0 -0.36891219827968119 0.060077996683558232 0 -0.37929074908003868 0.077603726490867345 0 -0.35694138538550352 0.073855345321458488 0 -0.37929074908003868 0.077603726490867345 0 -0.36891219827968119 0.060077996683558232 0 -0.35694138538550352 0.073855345321458488 0 -0.36891219827968119 0.060077996683558232 0 -0.35298131256760962 0.063034912088641357 0 -0.35694138538550352 0.073855345321458488 0 -0.35298131256760962 0.063034912088641357 0 -0.35694138538550352 0.073855345321458488 0 -0.34914844650339177 0.074408805051249083 0 -0.35694138538550352 0.073855345321458488 0 -0.34914844650339177 0.074408805051249083 0 -0.35387282561504041 0.085789381247760657 0 -0.338272543408071 0.060603673933957783 0 -0.35298131256760962 0.063034912088641357 0 -0.34914844650339177 0.074408805051249083 0 -0.34914844650339177 0.074408805051249083 0 -0.35387282561504041 0.085789381247760657 0 -0.33299160925146271 0.085281992960062933 0 -0.35694138538550352 0.073855345321458488 0 -0.35387282561504041 0.085789381247760657 0 -0.36438159895332511 0.085691586513687634 0 -0.35387282561504041 0.085789381247760657 0 -0.36438159895332511 0.085691586513687634 0 -0.35579278546844412 0.098564625017930646 0 -0.37929074908003868 0.077603726490867345 0 -0.35694138538550352 0.073855345321458488 0 -0.36438159895332511 0.085691586513687634 0 -0.37929074908003868 0.077603726490867345 0 -0.36438159895332511 0.085691586513687634 0 -0.37090825683648998 0.098456277756480637 0 -0.37090825683648998 0.098456277756480637 0 -0.36904533532088801 0.1177582563576956 0 -0.35579278546844412 0.098564625017930646 0 -0.36438159895332511 0.085691586513687634 0 -0.37090825683648998 0.098456277756480637 0 -0.35579278546844412 0.098564625017930646 0 -0.35823941519022368 0.13573745574644491 0 -0.36904533532088801 0.1177582563576956 0 -0.35158166360451942 0.11704707172714621 0 -0.36904533532088801 0.1177582563576956 0 -0.35158166360451942 0.11704707172714621 0 -0.35579278546844412 0.098564625017930646 0 -0.35158166360451942 0.11704707172714621 0 -0.35579278546844412 0.098564625017930646 0 -0.34047962299512569 0.099373871294989508 0 -0.35387282561504041 0.085789381247760657 0 -0.35579278546844412 0.098564625017930646 0 -0.34047962299512569 0.099373871294989508 0 -0.34047962299512569 0.099373871294989508 0 -0.33231339904552459 0.1171762944261375 0 -0.31683477199953253 0.096155180868875256 0 -0.34455851703438989 0.13305210298766909 0 -0.35158166360451942 0.11704707172714621 0 -0.33231339904552459 0.1171762944261375 0 -0.35158166360451942 0.11704707172714621 0 -0.34047962299512569 0.099373871294989508 0 -0.33231339904552459 0.1171762944261375 0 -0.31211500736378339 0.1240031522641292 0 -0.31683477199953253 0.096155180868875256 0 -0.31211500736378339 0.1240031522641292 0 -0.33231339904552459 0.1171762944261375 0 -0.31683477199953253 0.096155180868875256 0 -0.30635830999651792 0.07761242167179265 0 -0.31683477199953253 0.096155180868875256 0 -0.32146679815367007 0.068824891797761426 0 -0.31683477199953253 0.096155180868875256 0 -0.32146679815367007 0.068824891797761426 0 -0.33299160925146271 0.085281992960062933 0 -0.31683477199953253 0.096155180868875256 0 -0.32146679815367007 0.068824891797761426 0 -0.31683477199953253 0.096155180868875256 0 -0.33299160925146271 0.085281992960062933 0 -0.338272543408071 0.060603673933957783 0 -0.32146679815367007 0.068824891797761426 0 -0.33576809196089219 0.072507027900731907 0 -0.32146679815367007 0.068824891797761426 0 -0.33576809196089219 0.072507027900731907 0 -0.33299160925146271 0.085281992960062933 0 -0.34914844650339177 0.074408805051249083 0 -0.33576809196089219 0.072507027900731907 0 -0.33299160925146271 0.085281992960062933 0 -0.338272543408071 0.060603673933957783 0 -0.34914844650339177 0.074408805051249083 0 -0.33576809196089219 0.072507027900731907 0 -0.35387282561504041 0.085789381247760657 0 -0.34047962299512569 0.099373871294989508 0 -0.33299160925146271 0.085281992960062933 0 -0.34914844650339177 0.074408805051249083 0 -0.33299160925146271 0.085281992960062933 0 -0.34047962299512569 0.099373871294989508 0 -0.31683477199953253 0.096155180868875256 0 -0.33299160925146271 0.085281992960062933 0 -0.3938434845513461 0.48000301234504228 0 -0.4154786193197833 0.47000451851756458 0 -0.40908183102320411 0.4845696213484928 0 -0.3938434845513461 0.48000301234504228 0 -0.40110135887996978 0.47332954189399812 0 -0.4154786193197833 0.47000451851756458 0 -0.3938434845513461 0.48000301234504228 0 -0.4154786193197833 0.47000451851756458 0 -0.3938434845513461 0.48000301234504228 0 -0.40110135887996978 0.47332954189399812 0 -0.38930270813857232 0.46778113184491188 0 -0.3938434845513461 0.48000301234504228 0 -0.39546946259238258 0.49128185561313598 0 -0.40908183102320411 0.4845696213484928 0 -0.40521342881326272 0.5 0 -0.39546946259238258 0.49128185561313598 0 -0.37789332191386737 0.5 0 -0.40521342881326272 0.5 0 -0.39546946259238258 0.49128185561313598 0 -0.40908183102320411 0.4845696213484928 0 -0.3938434845513461 0.48000301234504228 0 -0.39546946259238258 0.49128185561313598 0 -0.38517353549973538 0.49039659604947999 0 -0.3938434845513461 0.48000301234504228 0 -0.37220834978290879 0.49000150617251997 0 -0.39546946259238258 0.49128185561313598 0 -0.38517353549973538 0.49039659604947999 0 -0.37789332191386737 0.5 0 -0.3938434845513461 0.48000301234504228 0 -0.38517353549973538 0.49039659604947999 0 -0.37220834978290879 0.49000150617251997 0 -0.38517353549973538 0.49039659604947999 0 -0.37789332191386737 0.5 0 -0.37220834978290879 0.49000150617251997 0 -0.3938434845513461 0.48000301234504228 0 -0.37805640255927542 0.47903421333972468 0 -0.3842367001720054 0.47454362448235632 0 -0.3938434845513461 0.48000301234504228 0 -0.37805640255927542 0.47903421333972468 0 -0.37220834978290879 0.49000150617251997 0 -0.3842367001720054 0.47454362448235632 0 -0.37701653082709469 0.46900635458093531 0 -0.38930270813857232 0.46778113184491188 0 -0.3938434845513461 0.48000301234504228 0 -0.3842367001720054 0.47454362448235632 0 -0.38930270813857232 0.46778113184491188 0 -0.37805640255927542 0.47903421333972468 0 -0.3842367001720054 0.47454362448235632 0 -0.37701653082709469 0.46900635458093531 0 -0.37701653082709469 0.46900635458093531 0 -0.38677844954541418 0.45747132953460651 0 -0.37376195539900242 0.45249759326054367 0 -0.37701653082709469 0.46900635458093531 0 -0.38677844954541418 0.45747132953460651 0 -0.38930270813857232 0.46778113184491188 0 -0.38473584783684761 0.44354080077547992 0 -0.36778315087773072 0.43214877602771662 0 -0.37376195539900242 0.45249759326054367 0 -0.38677844954541418 0.45747132953460651 0 -0.38473584783684761 0.44354080077547992 0 -0.37376195539900242 0.45249759326054367 0 -0.38677844954541418 0.45747132953460651 0 -0.38473584783684761 0.44354080077547992 0 -0.39843898125590987 0.45231631840454728 0 -0.39843898125590987 0.45231631840454728 0 -0.4072920944712265 0.44499890251068641 0 -0.39856520721893041 0.43647578570475237 0 -0.38473584783684761 0.44354080077547992 0 -0.39843898125590987 0.45231631840454728 0 -0.39856520721893041 0.43647578570475237 0 -0.39843898125590987 0.45231631840454728 0 -0.39841490533913748 0.46178879282826651 0 -0.41709791082295028 0.45456801136960878 0 -0.40110135887996978 0.47332954189399812 0 -0.39841490533913748 0.46178879282826651 0 -0.41709791082295028 0.45456801136960878 0 -0.38677844954541418 0.45747132953460651 0 -0.38930270813857232 0.46778113184491188 0 -0.39841490533913748 0.46178879282826651 0 -0.40110135887996978 0.47332954189399812 0 -0.38930270813857232 0.46778113184491188 0 -0.39841490533913748 0.46178879282826651 0 -0.38677844954541418 0.45747132953460651 0 -0.39843898125590987 0.45231631840454728 0 -0.39841490533913748 0.46178879282826651 0 -0.40110135887996978 0.47332954189399812 0 -0.41709791082295028 0.45456801136960878 0 -0.4154786193197833 0.47000451851756458 0 -0.40110135887996978 0.47332954189399812 0 -0.41709791082295028 0.45456801136960878 0 -0.41709791082295028 0.45456801136960878 0 -0.42692569345801529 0.46340213249295897 0 -0.4154786193197833 0.47000451851756458 0 -0.41709791082295028 0.45456801136960878 0 -0.43309446276593089 0.43580648084521972 0 -0.41506627858711548 0.4366354945638371 0 -0.39843898125590987 0.45231631840454728 0 -0.41709791082295028 0.45456801136960878 0 -0.4072920944712265 0.44499890251068641 0 -0.4072920944712265 0.44499890251068641 0 -0.41506627858711548 0.4366354945638371 0 -0.39856520721893041 0.43647578570475237 0 -0.41709791082295028 0.45456801136960878 0 -0.4072920944712265 0.44499890251068641 0 -0.41506627858711548 0.4366354945638371 0 -0.41709791082295028 0.45456801136960878 0 -0.43251943231727258 0.45189802077753072 0 -0.43309446276593089 0.43580648084521972 0 -0.41709791082295028 0.45456801136960878 0 -0.43309446276593089 0.43580648084521972 0 -0.43251943231727258 0.45189802077753072 0 -0.44285055445462801 0.44408738363144917 0 -0.43309446276593089 0.43580648084521972 0 -0.43251943231727258 0.45189802077753072 0 -0.42692569345801529 0.46340213249295897 0 -0.44262854008483871 0.46162609554841733 0 -0.42692569345801529 0.46340213249295897 0 -0.43014133963940671 0.47900644757454591 0 -0.44262854008483871 0.46162609554841733 0 -0.41709791082295028 0.45456801136960878 0 -0.43251943231727258 0.45189802077753072 0 -0.42692569345801529 0.46340213249295897 0 -0.42692569345801529 0.46340213249295897 0 -0.43014133963940671 0.47900644757454591 0 -0.4154786193197833 0.47000451851756458 0 -0.43014133963940671 0.47900644757454591 0 -0.4154786193197833 0.47000451851756458 0 -0.40908183102320411 0.4845696213484928 0 -0.40521342881326272 0.5 0 -0.40908183102320411 0.4845696213484928 0 -0.43253353571265801 0.5 0 -0.43014133963940671 0.47900644757454591 0 -0.40908183102320411 0.4845696213484928 0 -0.43253353571265801 0.5 0 -0.43014133963940671 0.47900644757454591 0 -0.43253353571265801 0.5 0 -0.44984012809851409 0.48033494727474779 0 -0.43253353571265801 0.5 0 -0.44984012809851409 0.48033494727474779 0 -0.45985364261205308 0.50000000000000111 0 -0.43014133963940671 0.47900644757454591 0 -0.44984012809851409 0.48033494727474779 0 -0.44262854008483871 0.46162609554841733 0 -0.44984012809851409 0.48033494727474779 0 -0.47312811744354261 0.47395110078869013 0 -0.45820768181792781 0.46325373185340701 0 -0.45985364261205308 0.50000000000000111 0 -0.47312811744354261 0.47395110078869013 0 -0.44984012809851409 0.48033494727474779 0 -0.45985364261205308 0.50000000000000111 0 -0.47312811744354261 0.47395110078869013 0 -0.5 0.5 0 -0.47312811744354261 0.47395110078869013 0 -0.49999999999999972 0.44664233614409321 0 -0.45985364261205308 0.50000000000000111 0 -0.5 0.5 0 -0.47312811744354261 0.47395110078869013 0 -0.48640259227503152 0.44790220157737892 0 -0.49999999999999972 0.44664233614409321 0 -0.47883616718389621 0.43347798499105172 0 -0.49999999999999972 0.44664233614409321 0 -0.47883616718389621 0.43347798499105172 0 -0.47312811744354261 0.47395110078869013 0 -0.48640259227503152 0.44790220157737892 0 -0.49999999999999972 0.44664233614409321 0 -0.47312811744354261 0.47395110078869013 0 -0.48640259227503152 0.44790220157737892 0 -0.47312811744354261 0.47395110078869013 0 -0.48640259227503152 0.44790220157737892 0 -0.46932328621444303 0.45009797021529852 0 -0.46932328621444303 0.45009797021529852 0 -0.46288197751253979 0.435741310408158 0 -0.47883616718389621 0.43347798499105172 0 -0.48640259227503152 0.44790220157737892 0 -0.46932328621444303 0.45009797021529852 0 -0.47883616718389621 0.43347798499105172 0 -0.46932328621444303 0.45009797021529852 0 -0.45653044061400749 0.44574373859450739 0 -0.46288197751253979 0.435741310408158 0 -0.46932328621444303 0.45009797021529852 0 -0.45653044061400749 0.44574373859450739 0 -0.45820768181792781 0.46325373185340701 0 -0.45653044061400749 0.44574373859450739 0 -0.44988321330808601 0.43264183945635343 0 -0.46288197751253979 0.435741310408158 0 -0.47312811744354261 0.47395110078869013 0 -0.46932328621444303 0.45009797021529852 0 -0.45820768181792781 0.46325373185340701 0 -0.45653044061400749 0.44574373859450739 0 -0.45820768181792781 0.46325373185340701 0 -0.44262854008483871 0.46162609554841733 0 -0.44984012809851409 0.48033494727474779 0 -0.45820768181792781 0.46325373185340701 0 -0.44262854008483871 0.46162609554841733 0 -0.43251943231727258 0.45189802077753072 0 -0.44262854008483871 0.46162609554841733 0 -0.44285055445462801 0.44408738363144917 0 -0.45653044061400749 0.44574373859450739 0 -0.44262854008483871 0.46162609554841733 0 -0.44285055445462801 0.44408738363144917 0 -0.44285055445462801 0.44408738363144917 0 -0.44988321330808601 0.43264183945635343 0 -0.43309446276593089 0.43580648084521972 0 -0.45653044061400749 0.44574373859450739 0 -0.44285055445462801 0.44408738363144917 0 -0.44988321330808601 0.43264183945635343 0 -0.44909101470891138 0.41704495032083061 0 -0.43309446276593089 0.43580648084521972 0 -0.44988321330808601 0.43264183945635343 0 -0.44909101470891138 0.41704495032083061 0 -0.43309446276593089 0.43580648084521972 0 -0.44988321330808601 0.43264183945635343 0 -0.44909101470891138 0.41704495032083061 0 -0.45767233436779298 0.42031363383801013 0 -0.44909101470891138 0.41704495032083061 0 -0.43642708593841462 0.41129790334070748 0 -0.43309446276593089 0.43580648084521972 0 -0.44909101470891138 0.41704495032083061 0 -0.44923652684218601 0.40651161443480333 0 -0.43642708593841462 0.41129790334070748 0 -0.44909101470891138 0.41704495032083061 0 -0.46310762304278369 0.4136785712167641 0 -0.46508756665189233 0.39828341979644161 0 -0.44909101470891138 0.41704495032083061 0 -0.46508756665189233 0.39828341979644161 0 -0.44909101470891138 0.41704495032083061 0 -0.44923652684218601 0.40651161443480333 0 -0.46508756665189233 0.39828341979644161 0 -0.44909101470891138 0.41704495032083061 0 -0.45767233436779298 0.42031363383801013 0 -0.46310762304278369 0.4136785712167641 0 -0.45767233436779298 0.42031363383801013 0 -0.46310762304278369 0.4136785712167641 0 -0.4689935185142321 0.42014913325858988 0 -0.46310762304278369 0.4136785712167641 0 -0.47635794946245552 0.41312634298853379 0 -0.46508756665189233 0.39828341979644161 0 -0.45767233436779298 0.42031363383801013 0 -0.47883616718389621 0.43347798499105172 0 -0.4689935185142321 0.42014913325858988 0 -0.45767233436779298 0.42031363383801013 0 -0.46288197751253979 0.435741310408158 0 -0.47883616718389621 0.43347798499105172 0 -0.45767233436779298 0.42031363383801013 0 -0.47883616718389621 0.43347798499105172 0 -0.44988321330808601 0.43264183945635343 0 -0.45767233436779298 0.42031363383801013 0 -0.46288197751253979 0.435741310408158 0 -0.47883616718389621 0.43347798499105172 0 -0.47635794946245552 0.41312634298853379 0 -0.48714440641974271 0.42351608680749347 0 -0.47883616718389621 0.43347798499105172 0 -0.4689935185142321 0.42014913325858988 0 -0.47635794946245552 0.41312634298853379 0 -0.46310762304278369 0.4136785712167641 0 -0.4689935185142321 0.42014913325858988 0 -0.47635794946245552 0.41312634298853379 0 -0.47635794946245552 0.41312634298853379 0 -0.48901457958177968 0.41012265573874179 0 -0.48254378332594611 0.39722493186941499 0 -0.47635794946245552 0.41312634298853379 0 -0.48901457958177968 0.41012265573874179 0 -0.48714440641974271 0.42351608680749347 0 -0.48901457958177968 0.41012265573874179 0 -0.5 0.42140439004324071 0 -0.49999999999999978 0.39616644394238798 0 -0.48901457958177968 0.41012265573874179 0 -0.5 0.42140439004324071 0 -0.48714440641974271 0.42351608680749347 0 -0.49999999999999972 0.44664233614409321 0 -0.47883616718389621 0.43347798499105172 0 -0.48714440641974271 0.42351608680749347 0 -0.49999999999999972 0.44664233614409321 0 -0.5 0.42140439004324071 0 -0.48714440641974271 0.42351608680749347 0 -0.49007778645481631 0.38142997617552599 0 -0.49999999999999978 0.39616644394238798 0 -0.50000000000000311 0.3685517992903854 0 -0.49007778645481631 0.38142997617552599 0 -0.47611467569506138 0.38535029247959018 0 -0.48714178473823078 0.37241716516273898 0 -0.49999999999999978 0.39616644394238798 0 -0.48254378332594611 0.39722493186941499 0 -0.48901457958177968 0.41012265573874179 0 -0.49999999999999978 0.39616644394238798 0 -0.48254378332594611 0.39722493186941499 0 -0.49007778645481631 0.38142997617552599 0 -0.49999999999999978 0.39616644394238798 0 -0.48254378332594611 0.39722493186941499 0 -0.48254378332594611 0.39722493186941499 0 -0.46508756665189233 0.39828341979644161 0 -0.47635794946245552 0.41312634298853379 0 -0.48254378332594611 0.39722493186941499 0 -0.46508756665189233 0.39828341979644161 0 -0.48254378332594611 0.39722493186941499 0 -0.47611467569506138 0.38535029247959018 0 -0.46508756665189233 0.39828341979644161 0 -0.47611467569506138 0.38535029247959018 0 -0.46508756665189233 0.39828341979644161 0 -0.49007778645481631 0.38142997617552599 0 -0.48254378332594611 0.39722493186941499 0 -0.47611467569506138 0.38535029247959018 0 -0.47611467569506138 0.38535029247959018 0 -0.47397397291215421 0.37493689296344251 0 -0.48714178473823078 0.37241716516273898 0 -0.47611467569506138 0.38535029247959018 0 -0.48714178473823078 0.37241716516273898 0 -0.46871814716203669 0.37906981455344119 0 -0.46360543106569913 0.37231654924431878 0 -0.47397397291215421 0.37493689296344251 0 -0.47611467569506138 0.38535029247959018 0 -0.46871814716203669 0.37906981455344119 0 -0.47397397291215421 0.37493689296344251 0 -0.46871814716203669 0.37906981455344119 0 -0.46117850897523233 0.38367552352641338 0 -0.46360543106569913 0.37231654924431878 0 -0.47611467569506138 0.38535029247959018 0 -0.46871814716203669 0.37906981455344119 0 -0.46117850897523233 0.38367552352641338 0 -0.47611467569506138 0.38535029247959018 0 -0.46117850897523233 0.38367552352641338 0 -0.46508756665189233 0.39828341979644161 0 -0.46117850897523233 0.38367552352641338 0 -0.45400385251667602 0.39093091030285698 0 -0.45110956684876158 0.38402681738971201 0 -0.46117850897523233 0.38367552352641338 0 -0.45110956684876158 0.38402681738971201 0 -0.44813402172652672 0.37354371539476261 0 -0.46117850897523233 0.38367552352641338 0 -0.44813402172652672 0.37354371539476261 0 -0.46360543106569913 0.37231654924431878 0 -0.44923652684218601 0.40651161443480333 0 -0.46508756665189233 0.39828341979644161 0 -0.44634044006952572 0.39942018428123321 0 -0.46508756665189233 0.39828341979644161 0 -0.45400385251667602 0.39093091030285698 0 -0.44634044006952572 0.39942018428123321 0 -0.46508756665189233 0.39828341979644161 0 -0.44634044006952572 0.39942018428123321 0 -0.46117850897523233 0.38367552352641338 0 -0.46508756665189233 0.39828341979644161 0 -0.45400385251667602 0.39093091030285698 0 -0.45400385251667602 0.39093091030285698 0 -0.44634044006952572 0.39942018428123321 0 -0.44518347515021223 0.38837251913440451 0 -0.44634044006952572 0.39942018428123321 0 -0.44518347515021223 0.38837251913440451 0 -0.43728617553129168 0.39370672697544878 0 -0.44923652684218601 0.40651161443480333 0 -0.44634044006952572 0.39942018428123321 0 -0.43642708593841462 0.41129790334070748 0 -0.45110956684876158 0.38402681738971201 0 -0.44480856609964842 0.38185924381796288 0 -0.44813402172652672 0.37354371539476261 0 -0.45400385251667602 0.39093091030285698 0 -0.45110956684876158 0.38402681738971201 0 -0.44518347515021223 0.38837251913440451 0 -0.45110956684876158 0.38402681738971201 0 -0.44518347515021223 0.38837251913440451 0 -0.44480856609964842 0.38185924381796288 0 -0.44518347515021223 0.38837251913440451 0 -0.43913693036841173 0.38484964203092692 0 -0.43002747341826991 0.3864772557201327 0 -0.44518347515021223 0.38837251913440451 0 -0.43002747341826991 0.3864772557201327 0 -0.44518347515021223 0.38837251913440451 0 -0.43913693036841173 0.38484964203092692 0 -0.44480856609964842 0.38185924381796288 0 -0.44480856609964842 0.38185924381796288 0 -0.4393591315165738 0.37762743775392832 0 -0.44813402172652672 0.37354371539476261 0 -0.43913693036841173 0.38484964203092692 0 -0.44480856609964842 0.38185924381796288 0 -0.4393591315165738 0.37762743775392832 0 -0.43913693036841173 0.38484964203092692 0 -0.43173797726570751 0.37658334167695551 0 -0.43913693036841173 0.38484964203092692 0 -0.43173797726570751 0.37658334167695551 0 -0.43002747341826991 0.3864772557201327 0 -0.43913693036841173 0.38484964203092692 0 -0.4393591315165738 0.37762743775392832 0 -0.43173797726570751 0.37658334167695551 0 -0.4393591315165738 0.37762743775392832 0 -0.43173797726570751 0.37658334167695551 0 -0.4325639091043616 0.37180597819459837 0 -0.43173797726570751 0.37658334167695551 0 -0.43002747341826991 0.3864772557201327 0 -0.44518347515021223 0.38837251913440451 0 -0.43002747341826991 0.3864772557201327 0 -0.43728617553129168 0.39370672697544878 0 -0.43002747341826991 0.3864772557201327 0 -0.41472776448615789 0.38456402166930481 0 -0.42117367656598032 0.39254991666010941 0 -0.43002747341826991 0.3864772557201327 0 -0.41472776448615789 0.38456402166930481 0 -0.43002747341826991 0.3864772557201327 0 -0.42328890360694349 0.38021744503538613 0 -0.41472776448615789 0.38456402166930481 0 -0.43173797726570751 0.37658334167695551 0 -0.43002747341826991 0.3864772557201327 0 -0.42328890360694349 0.38021744503538613 0 -0.43173797726570751 0.37658334167695551 0 -0.42328890360694349 0.38021744503538613 0 -0.42689564018809201 0.37117335838025439 0 -0.40881671944059661 0.37920357314115732 0 -0.42689564018809201 0.37117335838025439 0 -0.42328890360694349 0.38021744503538613 0 -0.40881671944059661 0.37920357314115732 0 -0.42689564018809201 0.37117335838025439 0 -0.42328890360694349 0.38021744503538613 0 -0.41472776448615789 0.38456402166930481 0 -0.40881671944059661 0.37920357314115732 0 -0.41472776448615789 0.38456402166930481 0 -0.40724106840129259 0.39428871981441299 0 -0.42117367656598032 0.39254991666010941 0 -0.41472776448615789 0.38456402166930481 0 -0.40826438028753348 0.3817067557430866 0 -0.39942805555404642 0.38265078761847338 0 -0.41472776448615789 0.38456402166930481 0 -0.40724106840129259 0.39428871981441299 0 -0.39942805555404642 0.38265078761847338 0 -0.41472776448615789 0.38456402166930481 0 -0.39942805555404642 0.38265078761847338 0 -0.40881671944059661 0.37920357314115732 0 -0.39942805555404642 0.38265078761847338 0 -0.41098055992701871 0.3693971202961519 0 -0.40826438028753348 0.3817067557430866 0 -0.40881671944059661 0.37920357314115732 0 -0.41472776448615789 0.38456402166930481 0 -0.40826438028753348 0.3817067557430866 0 -0.40881671944059661 0.37920357314115732 0 -0.40724106840129259 0.39428871981441299 0 -0.4157685575788832 0.40127396331749671 0 -0.40157856791931718 0.40704460823596672 0 -0.42117367656598032 0.39254991666010941 0 -0.4157685575788832 0.40127396331749671 0 -0.42759331348715912 0.40055694876602499 0 -0.40724106840129259 0.39428871981441299 0 -0.42117367656598032 0.39254991666010941 0 -0.4157685575788832 0.40127396331749671 0 -0.4157685575788832 0.40127396331749671 0 -0.42759331348715912 0.40055694876602499 0 -0.44634044006952572 0.39942018428123321 0 -0.42759331348715912 0.40055694876602499 0 -0.44634044006952572 0.39942018428123321 0 -0.42759331348715912 0.40055694876602499 0 -0.43728617553129168 0.39370672697544878 0 -0.44634044006952572 0.39942018428123321 0 -0.42759331348715912 0.40055694876602499 0 -0.43642708593841462 0.41129790334070748 0 -0.43002747341826991 0.3864772557201327 0 -0.42117367656598032 0.39254991666010941 0 -0.42759331348715912 0.40055694876602499 0 -0.43002747341826991 0.3864772557201327 0 -0.42759331348715912 0.40055694876602499 0 -0.43002747341826991 0.3864772557201327 0 -0.42759331348715912 0.40055694876602499 0 -0.43728617553129168 0.39370672697544878 0 -0.43642708593841462 0.41129790334070748 0 -0.42449994900394461 0.41844961959922572 0 -0.43309446276593089 0.43580648084521972 0 -0.42759331348715912 0.40055694876602499 0 -0.43642708593841462 0.41129790334070748 0 -0.42449994900394461 0.41844961959922572 0 -0.4157685575788832 0.40127396331749671 0 -0.42759331348715912 0.40055694876602499 0 -0.42449994900394461 0.41844961959922572 0 -0.42759331348715912 0.40055694876602499 0 -0.42449994900394461 0.41844961959922572 0 -0.42449994900394461 0.41844961959922572 0 -0.43309446276593089 0.43580648084521972 0 -0.41506627858711548 0.4366354945638371 0 -0.42449994900394461 0.41844961959922572 0 -0.41506627858711548 0.4366354945638371 0 -0.40746949035714619 0.42222882353716701 0 -0.41506627858711548 0.4366354945638371 0 -0.40746949035714619 0.42222882353716701 0 -0.39856520721893041 0.43647578570475237 0 -0.42449994900394461 0.41844961959922572 0 -0.40746949035714619 0.42222882353716701 0 -0.41232914121482278 0.41224925367246401 0 -0.4157685575788832 0.40127396331749671 0 -0.42449994900394461 0.41844961959922572 0 -0.41232914121482278 0.41224925367246401 0 -0.4157685575788832 0.40127396331749671 0 -0.41232914121482278 0.41224925367246401 0 -0.40157856791931718 0.40704460823596672 0 -0.40746949035714619 0.42222882353716701 0 -0.41232914121482278 0.41224925367246401 0 -0.40157856791931718 0.40704460823596672 0 -0.40746949035714619 0.42222882353716701 0 -0.40157856791931718 0.40704460823596672 0 -0.39298749241221759 0.42119507937603923 0 -0.40746949035714619 0.42222882353716701 0 -0.39298749241221759 0.42119507937603923 0 -0.39856520721893041 0.43647578570475237 0 -0.39298749241221759 0.42119507937603923 0 -0.39856520721893041 0.43647578570475237 0 -0.38373994498284608 0.43043669407259588 0 -0.38373994498284608 0.43043669407259588 0 -0.37668454372729859 0.41206883315114529 0 -0.36778315087773072 0.43214877602771662 0 -0.38473584783684761 0.44354080077547992 0 -0.38373994498284608 0.43043669407259588 0 -0.36778315087773072 0.43214877602771662 0 -0.38473584783684761 0.44354080077547992 0 -0.39856520721893041 0.43647578570475237 0 -0.38373994498284608 0.43043669407259588 0 -0.40157856791931718 0.40704460823596672 0 -0.39298749241221759 0.42119507937603923 0 -0.37668454372729859 0.41206883315114529 0 -0.39298749241221759 0.42119507937603923 0 -0.38373994498284608 0.43043669407259588 0 -0.37668454372729859 0.41206883315114529 0 -0.40157856791931718 0.40704460823596672 0 -0.37668454372729859 0.41206883315114529 0 -0.37668454372729859 0.41206883315114529 0 -0.37844474563582792 0.390355182046278 0 -0.39076978830337122 0.39764902138512792 0 -0.40157856791931718 0.40704460823596672 0 -0.37668454372729859 0.41206883315114529 0 -0.39076978830337122 0.39764902138512792 0 -0.38141148745950948 0.38039780936179463 0 -0.39942805555404642 0.38265078761847338 0 -0.37844474563582792 0.390355182046278 0 -0.39942805555404642 0.38265078761847338 0 -0.38141148745950948 0.38039780936179463 0 -0.37844474563582792 0.390355182046278 0 -0.39942805555404642 0.38265078761847338 0 -0.37844474563582792 0.390355182046278 0 -0.39942805555404642 0.38265078761847338 0 -0.39076978830337122 0.39764902138512792 0 -0.38141148745950948 0.38039780936179463 0 -0.39942805555404642 0.38265078761847338 0 -0.39128338495032239 0.36719877308275878 0 -0.40826438028753348 0.3817067557430866 0 -0.40881671944059661 0.37920357314115732 0 -0.39942805555404642 0.38265078761847338 0 -0.40881671944059661 0.37920357314115732 0 -0.39942805555404642 0.38265078761847338 0 -0.40724106840129259 0.39428871981441299 0 -0.40157856791931718 0.40704460823596672 0 -0.39076978830337122 0.39764902138512792 0 -0.40724106840129259 0.39428871981441299 0 -0.39942805555404642 0.38265078761847338 0 -0.39076978830337122 0.39764902138512792 0 -0.39259889148010241 0.34864188780489069 0 -0.39999637464883392 0.35559476271013252 0 -0.38966798311544332 0.35610238881872369 0 -0.39259889148010241 0.34864188780489069 0 -0.39999637464883392 0.35559476271013252 0 -0.40046159691170069 0.34164056661102238 0 -0.39999637464883392 0.35559476271013252 0 -0.40046159691170069 0.34164056661102238 0 -0.41381361947694889 0.35655778899711688 0 -0.39999637464883392 0.35559476271013252 0 -0.40397412088998857 0.3623881668075713 0 -0.41381361947694889 0.35655778899711688 0 -0.39128338495032239 0.36719877308275878 0 -0.41098055992701871 0.3693971202961519 0 -0.40397412088998857 0.3623881668075713 0 -0.39128338495032239 0.36719877308275878 0 -0.41098055992701871 0.3693971202961519 0 -0.39942805555404642 0.38265078761847338 0 -0.39128338495032239 0.36719877308275878 0 -0.41098055992701871 0.3693971202961519 0 -0.39999637464883392 0.35559476271013252 0 -0.39128338495032239 0.36719877308275878 0 -0.38966798311544332 0.35610238881872369 0 -0.39999637464883392 0.35559476271013252 0 -0.40397412088998857 0.3623881668075713 0 -0.39128338495032239 0.36719877308275878 0 -0.39128338495032239 0.36719877308275878 0 -0.38070440212728118 0.35956436367519867 0 -0.38966798311544332 0.35610238881872369 0 -0.39128338495032239 0.36719877308275878 0 -0.38070440212728118 0.35956436367519867 0 -0.37158620997362618 0.36500042586936587 0 -0.39128338495032239 0.36719877308275878 0 -0.37158620997362618 0.36500042586936587 0 -0.38141148745950948 0.38039780936179463 0 -0.39128338495032239 0.36719877308275878 0 -0.37158620997362618 0.36500042586936587 0 -0.38070440212728118 0.35956436367519867 0 -0.38259242285128608 0.34975193996759602 0 -0.36960199921418602 0.35731180584905542 0 -0.38259242285128608 0.34975193996759602 0 -0.37580907906339922 0.33647878059299557 0 -0.36960199921418602 0.35731180584905542 0 -0.38070440212728118 0.35956436367519867 0 -0.38966798311544332 0.35610238881872369 0 -0.38259242285128608 0.34975193996759602 0 -0.39259889148010241 0.34864188780489069 0 -0.38966798311544332 0.35610238881872369 0 -0.38259242285128608 0.34975193996759602 0 -0.39259889148010241 0.34864188780489069 0 -0.38259242285128608 0.34975193996759602 0 -0.38794720083446621 0.34059934721089508 0 -0.38259242285128608 0.34975193996759602 0 -0.37580907906339922 0.33647878059299557 0 -0.38794720083446621 0.34059934721089508 0 -0.37580907906339922 0.33647878059299557 0 -0.38794720083446621 0.34059934721089508 0 -0.38710957434645199 0.32672334422492838 0 -0.37580907906339922 0.33647878059299557 0 -0.38201615891261242 0.31564575533693578 0 -0.38201615891261242 0.31564575533693578 0 -0.38336946241093189 0.30974931290420182 0 -0.36531193472093021 0.32454274932608829 0 -0.37580907906339922 0.33647878059299557 0 -0.38201615891261242 0.31564575533693578 0 -0.38710957434645199 0.32672334422492838 0 -0.38201615891261242 0.31564575533693578 0 -0.39350880394476312 0.31593875705230262 0 -0.38336946241093189 0.30974931290420182 0 -0.38201615891261242 0.31564575533693578 0 -0.38710957434645199 0.32672334422492838 0 -0.39350880394476312 0.31593875705230262 0 -0.38710957434645199 0.32672334422492838 0 -0.39350880394476312 0.31593875705230262 0 -0.39921774374196328 0.327754485124091 0 -0.39350880394476312 0.31593875705230262 0 -0.39921774374196328 0.327754485124091 0 -0.40602554896887638 0.32011992980008452 0 -0.39921774374196328 0.327754485124091 0 -0.40602554896887638 0.32011992980008452 0 -0.40814721749945931 0.33505042297199122 0 -0.38794720083446621 0.34059934721089508 0 -0.38710957434645199 0.32672334422492838 0 -0.40046159691170069 0.34164056661102238 0 -0.39259889148010241 0.34864188780489069 0 -0.38794720083446621 0.34059934721089508 0 -0.40046159691170069 0.34164056661102238 0 -0.38710957434645199 0.32672334422492838 0 -0.39921774374196328 0.327754485124091 0 -0.40046159691170069 0.34164056661102238 0 -0.38710957434645199 0.32672334422492838 0 -0.40046159691170069 0.34164056661102238 0 -0.39921774374196328 0.327754485124091 0 -0.40046159691170069 0.34164056661102238 0 -0.40814721749945931 0.33505042297199122 0 -0.40814721749945931 0.33505042297199122 0 -0.41954562432067788 0.33058053440738988 0 -0.41381361947694889 0.35655778899711688 0 -0.41954562432067788 0.33058053440738988 0 -0.41381361947694889 0.35655778899711688 0 -0.40602554896887638 0.32011992980008452 0 -0.40814721749945931 0.33505042297199122 0 -0.41954562432067788 0.33058053440738988 0 -0.40602554896887638 0.32011992980008452 0 -0.41954562432067788 0.33058053440738988 0 -0.42527762916440792 0.30460327981766322 0 -0.41954562432067788 0.33058053440738988 0 -0.42527762916440792 0.30460327981766322 0 -0.41954562432067788 0.33058053440738988 0 -0.44001701522470671 0.31606260091672289 0 -0.42527762916440792 0.30460327981766322 0 -0.41954562432067788 0.33058053440738988 0 -0.42420657124029282 0.3485159257420361 0 -0.43843079740841773 0.33787066219507811 0 -0.41954562432067788 0.33058053440738988 0 -0.43843079740841773 0.33787066219507811 0 -0.44001701522470671 0.31606260091672289 0 -0.42420657124029282 0.3485159257420361 0 -0.43459164588172849 0.36007712215754689 0 -0.43843079740841773 0.33787066219507811 0 -0.42420657124029282 0.3485159257420361 0 -0.41381361947694889 0.35655778899711688 0 -0.43459164588172849 0.36007712215754689 0 -0.41381361947694889 0.35655778899711688 0 -0.43459164588172849 0.36007712215754689 0 -0.43459164588172849 0.36007712215754689 0 -0.43843079740841773 0.33787066219507811 0 -0.40046159691170069 0.34164056661102238 0 -0.40814721749945931 0.33505042297199122 0 -0.41381361947694889 0.35655778899711688 0 -0.41954562432067788 0.33058053440738988 0 -0.42420657124029282 0.3485159257420361 0 -0.41381361947694889 0.35655778899711688 0 -0.39999637464883392 0.35559476271013252 0 -0.41381361947694889 0.35655778899711688 0 -0.40046159691170069 0.34164056661102238 0 -0.41381361947694889 0.35655778899711688 0 -0.41381361947694889 0.35655778899711688 0 -0.41098055992701871 0.3693971202961519 0 -0.42689564018809201 0.37117335838025439 0 -0.41098055992701871 0.3693971202961519 0 -0.42689564018809201 0.37117335838025439 0 -0.40881671944059661 0.37920357314115732 0 -0.41098055992701871 0.3693971202961519 0 -0.42689564018809201 0.37117335838025439 0 -0.40881671944059661 0.37920357314115732 0 -0.41098055992701871 0.3693971202961519 0 -0.40397412088998857 0.3623881668075713 0 -0.41381361947694889 0.35655778899711688 0 -0.41098055992701871 0.3693971202961519 0 -0.41381361947694889 0.35655778899711688 0 -0.41098055992701871 0.3693971202961519 0 -0.41381361947694889 0.35655778899711688 0 -0.42689564018809201 0.37117335838025439 0 -0.41381361947694889 0.35655778899711688 0 -0.42907199843085347 0.36486274908666949 0 -0.43459164588172849 0.36007712215754689 0 -0.42689564018809201 0.37117335838025439 0 -0.42907199843085347 0.36486274908666949 0 -0.42980351636605002 0.37149789839679431 0 -0.43173797726570751 0.37658334167695551 0 -0.42689564018809201 0.37117335838025439 0 -0.43173797726570751 0.37658334167695551 0 -0.42689564018809201 0.37117335838025439 0 -0.42980351636605002 0.37149789839679431 0 -0.42689564018809201 0.37117335838025439 0 -0.42980351636605002 0.37149789839679431 0 -0.41381361947694889 0.35655778899711688 0 -0.42689564018809201 0.37117335838025439 0 -0.42907199843085347 0.36486274908666949 0 -0.43459164588172849 0.36007712215754689 0 -0.4325639091043616 0.37180597819459837 0 -0.42907199843085347 0.36486274908666949 0 -0.43459164588172849 0.36007712215754689 0 -0.4325639091043616 0.37180597819459837 0 -0.43173797726570751 0.37658334167695551 0 -0.4325639091043616 0.37180597819459837 0 -0.43173797726570751 0.37658334167695551 0 -0.4325639091043616 0.37180597819459837 0 -0.42980351636605002 0.37149789839679431 0 -0.4325639091043616 0.37180597819459837 0 -0.42980351636605002 0.37149789839679431 0 -0.42907199843085347 0.36486274908666949 0 -0.4325639091043616 0.37180597819459837 0 -0.42980351636605002 0.37149789839679431 0 -0.4393591315165738 0.37762743775392832 0 -0.4325639091043616 0.37180597819459837 0 -0.44813402172652672 0.37354371539476261 0 -0.4325639091043616 0.37180597819459837 0 -0.44813402172652672 0.37354371539476261 0 -0.4325639091043616 0.37180597819459837 0 -0.44813402172652672 0.37354371539476261 0 -0.45404419213644692 0.3625975043188554 0 -0.43459164588172849 0.36007712215754689 0 -0.45404419213644692 0.3625975043188554 0 -0.43459164588172849 0.36007712215754689 0 -0.4325639091043616 0.37180597819459837 0 -0.45404419213644692 0.3625975043188554 0 -0.4325639091043616 0.37180597819459837 0 -0.45404419213644692 0.3625975043188554 0 -0.43459164588172849 0.36007712215754689 0 -0.44549025602952702 0.35300777224981977 0 -0.45404419213644692 0.3625975043188554 0 -0.44549025602952702 0.35300777224981977 0 -0.45575207180717081 0.34762579988211101 0 -0.43843079740841773 0.33787066219507811 0 -0.43459164588172849 0.36007712215754689 0 -0.44549025602952702 0.35300777224981977 0 -0.43843079740841773 0.33787066219507811 0 -0.44549025602952702 0.35300777224981977 0 -0.45575207180717081 0.34762579988211101 0 -0.45404419213644692 0.3625975043188554 0 -0.45575207180717081 0.34762579988211101 0 -0.46674234051517471 0.35793515390827568 0 -0.45404419213644692 0.3625975043188554 0 -0.45575207180717081 0.34762579988211101 0 -0.46674234051517471 0.35793515390827568 0 -0.46933267881425472 0.34565439271282838 0 -0.45404419213644692 0.3625975043188554 0 -0.47441064506165659 0.36523629740895902 0 -0.46674234051517471 0.35793515390827568 0 -0.45404419213644692 0.3625975043188554 0 -0.47441064506165659 0.36523629740895902 0 -0.45404419213644692 0.3625975043188554 0 -0.46360543106569913 0.37231654924431878 0 -0.47441064506165659 0.36523629740895902 0 -0.44813402172652672 0.37354371539476261 0 -0.45404419213644692 0.3625975043188554 0 -0.46360543106569913 0.37231654924431878 0 -0.46674234051517471 0.35793515390827568 0 -0.45404419213644692 0.3625975043188554 0 -0.46360543106569913 0.37231654924431878 0 -0.47397397291215421 0.37493689296344251 0 -0.47441064506165659 0.36523629740895902 0 -0.47441064506165659 0.36523629740895902 0 -0.48058358620238051 0.35168401037216412 0 -0.49477709798686631 0.36787509049906381 0 -0.47397397291215421 0.37493689296344251 0 -0.47441064506165659 0.36523629740895902 0 -0.48714178473823078 0.37241716516273898 0 -0.46674234051517471 0.35793515390827568 0 -0.47441064506165659 0.36523629740895902 0 -0.48058358620238051 0.35168401037216412 0 -0.46674234051517471 0.35793515390827568 0 -0.46933267881425472 0.34565439271282838 0 -0.48058358620238051 0.35168401037216412 0 -0.46933267881425472 0.34565439271282838 0 -0.48058358620238051 0.35168401037216412 0 -0.48121002056386808 0.3369363626790518 0 -0.48058358620238051 0.35168401037216412 0 -0.49703354506598713 0.34759711953555122 0 -0.48121002056386808 0.3369363626790518 0 -0.49703354506598713 0.34759711953555122 0 -0.5 0.34812631329607491 0 -0.49477709798686631 0.36787509049906381 0 -0.48058358620238051 0.35168401037216412 0 -0.49703354506598713 0.34759711953555122 0 -0.49477709798686631 0.36787509049906381 0 -0.49703354506598713 0.34759711953555122 0 -0.49477709798686631 0.36787509049906381 0 -0.5 0.34812631329607491 0 -0.50000000000000311 0.3685517992903854 0 -0.49477709798686631 0.36787509049906381 0 -0.47441064506165659 0.36523629740895902 0 -0.49477709798686631 0.36787509049906381 0 -0.48714178473823078 0.37241716516273898 0 -0.47441064506165659 0.36523629740895902 0 -0.49477709798686631 0.36787509049906381 0 -0.49007778645481631 0.38142997617552599 0 -0.50000000000000311 0.3685517992903854 0 -0.49477709798686631 0.36787509049906381 0 -0.50000000000000311 0.3685517992903854 0 -0.49477709798686631 0.36787509049906381 0 -0.49007778645481631 0.38142997617552599 0 -0.49477709798686631 0.36787509049906381 0 -0.48714178473823078 0.37241716516273898 0 -0.4992899921451075 0.32731914857203848 0 -0.47890896772952718 0.31636292681222472 0 -0.4992899921451075 0.32731914857203848 0 -0.48121002056386808 0.3369363626790518 0 -0.47890896772952718 0.31636292681222472 0 -0.49999999999999989 0.32093853419885771 0 -0.47890896772952718 0.31636292681222472 0 -0.48920120729889771 0.30786362236022019 0 -0.49999999999999989 0.32093853419885771 0 -0.4992899921451075 0.32731914857203848 0 -0.47890896772952718 0.31636292681222472 0 -0.49999999999999989 0.32093853419885771 0 -0.4992899921451075 0.32731914857203848 0 -0.49703354506598713 0.34759711953555122 0 -0.4992899921451075 0.32731914857203848 0 -0.49703354506598713 0.34759711953555122 0 -0.4992899921451075 0.32731914857203848 0 -0.48121002056386808 0.3369363626790518 0 -0.49703354506598713 0.34759711953555122 0 -0.5 0.34812631329607491 0 -0.4992899921451075 0.32731914857203848 0 -0.46933267881425472 0.34565439271282838 0 -0.48121002056386808 0.3369363626790518 0 -0.46237537498267961 0.3340906367225393 0 -0.48121002056386808 0.3369363626790518 0 -0.47890896772952718 0.31636292681222472 0 -0.46237537498267961 0.3340906367225393 0 -0.47890896772952718 0.31636292681222472 0 -0.45636509730576869 0.32029680939338251 0 -0.45852794331394758 0.30540670505240958 0 -0.47890896772952718 0.31636292681222472 0 -0.45636509730576869 0.32029680939338251 0 -0.46237537498267961 0.3340906367225393 0 -0.45575207180717081 0.34762579988211101 0 -0.46933267881425472 0.34565439271282838 0 -0.46237537498267961 0.3340906367225393 0 -0.45575207180717081 0.34762579988211101 0 -0.46237537498267961 0.3340906367225393 0 -0.43843079740841773 0.33787066219507811 0 -0.45636509730576869 0.32029680939338251 0 -0.46237537498267961 0.3340906367225393 0 -0.43843079740841773 0.33787066219507811 0 -0.45636509730576869 0.32029680939338251 0 -0.43843079740841773 0.33787066219507811 0 -0.44001701522470671 0.31606260091672289 0 -0.45636509730576869 0.32029680939338251 0 -0.44001701522470671 0.31606260091672289 0 -0.45852794331394758 0.30540670505240958 0 -0.4381469188983681 0.2944504832925946 0 -0.45852794331394758 0.30540670505240958 0 -0.44001701522470671 0.31606260091672289 0 -0.4381469188983681 0.2944504832925946 0 -0.45852794331394758 0.30540670505240958 0 -0.4381469188983681 0.2944504832925946 0 -0.4447805513699985 0.27737231294201392 0 -0.43100963400813791 0.27862602522793672 0 -0.4381469188983681 0.2944504832925946 0 -0.45724976864254441 0.28334965182257721 0 -0.4447805513699985 0.27737231294201392 0 -0.4381469188983681 0.2944504832925946 0 -0.45724976864254441 0.28334965182257721 0 -0.45852794331394758 0.30540670505240958 0 -0.45724976864254441 0.28334965182257721 0 -0.45852794331394758 0.30540670505240958 0 -0.47789586146606378 0.29814868652574811 0 -0.47890896772952718 0.31636292681222472 0 -0.45852794331394758 0.30540670505240958 0 -0.47890896772952718 0.31636292681222472 0 -0.47789586146606378 0.29814868652574811 0 -0.48920120729889771 0.30786362236022019 0 -0.47890896772952718 0.31636292681222472 0 -0.45852794331394758 0.30540670505240958 0 -0.47789586146606378 0.29814868652574811 0 -0.45724976864254441 0.28334965182257721 0 -0.47789586146606378 0.29814868652574811 0 -0.48102565218130672 0.27929705551177292 0 -0.5 0.29600434190405073 0 -0.5 0.27107014960924369 0 -0.48102565218130672 0.27929705551177292 0 -0.47789586146606378 0.29814868652574811 0 -0.5 0.29600434190405073 0 -0.48102565218130672 0.27929705551177292 0 -0.47789586146606378 0.29814868652574811 0 -0.5 0.29600434190405073 0 -0.48920120729889771 0.30786362236022019 0 -0.49999999999999989 0.32093853419885771 0 -0.5 0.29600434190405073 0 -0.48920120729889771 0.30786362236022019 0 -0.48177750529808522 0.24619974485466931 0 -0.5 0.2461359573144368 0 -0.48654709528280549 0.26072196503438649 0 -0.5 0.2461359573144368 0 -0.48654709528280549 0.26072196503438649 0 -0.5 0.27107014960924369 0 -0.48654709528280549 0.26072196503438649 0 -0.5 0.27107014960924369 0 -0.48102565218130672 0.27929705551177292 0 -0.48654709528280549 0.26072196503438649 0 -0.48102565218130672 0.27929705551177292 0 -0.46993231893463527 0.26090691788180947 0 -0.45724976864254441 0.28334965182257721 0 -0.48102565218130672 0.27929705551177292 0 -0.46993231893463527 0.26090691788180947 0 -0.48177750529808522 0.24619974485466931 0 -0.48654709528280549 0.26072196503438649 0 -0.46993231893463527 0.26090691788180947 0 -0.45710504060219709 0.23686107433279269 0 -0.46993231893463527 0.26090691788180947 0 -0.44707755271196942 0.2637365605125353 0 -0.45724976864254441 0.28334965182257721 0 -0.46993231893463527 0.26090691788180947 0 -0.44707755271196942 0.2637365605125353 0 -0.45724976864254441 0.28334965182257721 0 -0.4447805513699985 0.27737231294201392 0 -0.44707755271196942 0.2637365605125353 0 -0.4447805513699985 0.27737231294201392 0 -0.44707755271196942 0.2637365605125353 0 -0.43100963400813791 0.27862602522793672 0 -0.45710504060219709 0.23686107433279269 0 -0.44707755271196942 0.2637365605125353 0 -0.44707755271196942 0.2637365605125353 0 -0.4367416388518679 0.25264877063821017 0 -0.43100963400813791 0.27862602522793672 0 -0.45710504060219709 0.23686107433279269 0 -0.44707755271196942 0.2637365605125353 0 -0.4367416388518679 0.25264877063821017 0 -0.4367416388518679 0.25264877063821017 0 -0.41175872593851298 0.2549478601346914 0 -0.41885046316002428 0.26850948483906401 0 -0.41175872593851298 0.2549478601346914 0 -0.41885046316002428 0.26850948483906401 0 -0.3976364837244763 0.27421361628784369 0 -0.41885046316002428 0.26850948483906401 0 -0.41710583327712653 0.28211115190663788 0 -0.3976364837244763 0.27421361628784369 0 -0.41885046316002428 0.26850948483906401 0 -0.43100963400813791 0.27862602522793672 0 -0.41710583327712653 0.28211115190663788 0 -0.4367416388518679 0.25264877063821017 0 -0.43100963400813791 0.27862602522793672 0 -0.4367416388518679 0.25264877063821017 0 -0.41885046316002428 0.26850948483906401 0 -0.43100963400813791 0.27862602522793672 0 -0.4381469188983681 0.2944504832925946 0 -0.43100963400813791 0.27862602522793672 0 -0.42527762916440792 0.30460327981766322 0 -0.43100963400813791 0.27862602522793672 0 -0.42527762916440792 0.30460327981766322 0 -0.41710583327712653 0.28211115190663788 0 -0.43100963400813791 0.27862602522793672 0 -0.42527762916440792 0.30460327981766322 0 -0.44001701522470671 0.31606260091672289 0 -0.4381469188983681 0.2944504832925946 0 -0.42527762916440792 0.30460327981766322 0 -0.40602554896887638 0.32011992980008452 0 -0.42527762916440792 0.30460327981766322 0 -0.4014269901009333 0.29495587648231503 0 -0.41710583327712653 0.28211115190663788 0 -0.4014269901009333 0.29495587648231503 0 -0.42527762916440792 0.30460327981766322 0 -0.41710583327712653 0.28211115190663788 0 -0.4014269901009333 0.29495587648231503 0 -0.41710583327712653 0.28211115190663788 0 -0.4014269901009333 0.29495587648231503 0 -0.3976364837244763 0.27421361628784369 0 -0.4014269901009333 0.29495587648231503 0 -0.38389766901197209 0.2919764357376447 0 -0.3976364837244763 0.27421361628784369 0 -0.4014269901009333 0.29495587648231503 0 -0.3976364837244763 0.27421361628784369 0 -0.39350880394476312 0.31593875705230262 0 -0.40602554896887638 0.32011992980008452 0 -0.4014269901009333 0.29495587648231503 0 -0.4014269901009333 0.29495587648231503 0 -0.38336946241093189 0.30974931290420182 0 -0.40602554896887638 0.32011992980008452 0 -0.4014269901009333 0.29495587648231503 0 -0.39350880394476312 0.31593875705230262 0 -0.4014269901009333 0.29495587648231503 0 -0.38336946241093189 0.30974931290420182 0 -0.38336946241093189 0.30974931290420182 0 -0.38389766901197209 0.2919764357376447 0 -0.36596935852520629 0.30787018431111951 0 -0.4014269901009333 0.29495587648231503 0 -0.38336946241093189 0.30974931290420182 0 -0.38389766901197209 0.2919764357376447 0 -0.38389766901197209 0.2919764357376447 0 -0.3839238193794226 0.27871888045260418 0 -0.3976364837244763 0.27421361628784369 0 -0.38389766901197209 0.2919764357376447 0 -0.3839238193794226 0.27871888045260418 0 -0.3703732677084236 0.2804332674389724 0 -0.3839238193794226 0.27871888045260418 0 -0.38378785707281859 0.2682522023459562 0 -0.3703732677084236 0.2804332674389724 0 -0.38378785707281859 0.2682522023459562 0 -0.37477717689163992 0.25299635056682518 0 -0.3703732677084236 0.2804332674389724 0 -0.3839238193794226 0.27871888045260418 0 -0.38378785707281859 0.2682522023459562 0 -0.3976364837244763 0.27421361628784369 0 -0.38378785707281859 0.2682522023459562 0 -0.39384597734802013 0.25347135609337229 0 -0.37477717689163992 0.25299635056682518 0 -0.39384597734802013 0.25347135609337229 0 -0.3976364837244763 0.27421361628784369 0 -0.41175872593851298 0.2549478601346914 0 -0.39384597734802013 0.25347135609337229 0 -0.3976364837244763 0.27421361628784369 0 -0.38378785707281859 0.2682522023459562 0 -0.39384597734802013 0.25347135609337229 0 -0.3976364837244763 0.27421361628784369 0 -0.35834524103505527 0.27479395617319979 0 -0.34490227433735798 0.27909378963084902 0 -0.35045174428906722 0.28677843618767362 0 -0.35834524103505527 0.27479395617319979 0 -0.34490227433735798 0.27909378963084902 0 -0.34728570068091402 0.2661688508290645 0 -0.34728570068091402 0.2661688508290645 0 -0.35464358931248319 0.25491115920099722 0 -0.34150965816976359 0.25817059719828012 0 -0.33845336435013867 0.242079554605789 0 -0.35464358931248319 0.25491115920099722 0 -0.34150965816976359 0.25817059719828012 0 -0.35834524103505527 0.27479395617319979 0 -0.34728570068091402 0.2661688508290645 0 -0.35464358931248319 0.25491115920099722 0 -0.35834524103505527 0.27479395617319979 0 -0.37477717689163992 0.25299635056682518 0 -0.35834524103505527 0.27479395617319979 0 -0.35464358931248319 0.25491115920099722 0 -0.37477717689163992 0.25299635056682518 0 -0.37477717689163992 0.25299635056682518 0 -0.3703732677084236 0.2804332674389724 0 -0.35834524103505527 0.27479395617319979 0 -0.37477717689163992 0.25299635056682518 0 -0.3703732677084236 0.2804332674389724 0 -0.3703732677084236 0.2804332674389724 0 -0.36596935852520629 0.30787018431111951 0 -0.38389766901197209 0.2919764357376447 0 -0.3703732677084236 0.2804332674389724 0 -0.36596935852520629 0.30787018431111951 0 -0.35834524103505527 0.27479395617319979 0 -0.3703732677084236 0.2804332674389724 0 -0.35925388220638338 0.290827281626163 0 -0.3703732677084236 0.2804332674389724 0 -0.36596935852520629 0.30787018431111951 0 -0.35925388220638338 0.290827281626163 0 -0.36596935852520629 0.30787018431111951 0 -0.35645499353340299 0.30154574554434233 0 -0.35925388220638338 0.290827281626163 0 -0.36596935852520629 0.30787018431111951 0 -0.35645499353340299 0.30154574554434233 0 -0.35774913989266272 0.31391262040183171 0 -0.35645499353340299 0.30154574554434233 0 -0.35013945535461871 0.3105838988596446 0 -0.35774913989266272 0.31391262040183171 0 -0.35645499353340299 0.30154574554434233 0 -0.34780240298166087 0.30288468022079579 0 -0.35285886900803182 0.29452238055293539 0 -0.34780240298166087 0.30288468022079579 0 -0.34622635383862083 0.29383585221412489 0 -0.33932813284697128 0.29730713825443927 0 -0.34780240298166087 0.30288468022079579 0 -0.35285886900803182 0.29452238055293539 0 -0.34622635383862083 0.29383585221412489 0 -0.34780240298166087 0.30288468022079579 0 -0.34514961405368982 0.30758965292055213 0 -0.33997231501418312 0.30473657218964828 0 -0.35645499353340299 0.30154574554434233 0 -0.34780240298166087 0.30288468022079579 0 -0.35013945535461871 0.3105838988596446 0 -0.34780240298166087 0.30288468022079579 0 -0.34514961405368982 0.30758965292055213 0 -0.35013945535461871 0.3105838988596446 0 -0.34514961405368982 0.30758965292055213 0 -0.35013945535461871 0.3105838988596446 0 -0.34268428286429659 0.31215346041211978 0 -0.35834524103505527 0.27479395617319979 0 -0.35925388220638338 0.290827281626163 0 -0.35045174428906722 0.28677843618767362 0 -0.35645499353340299 0.30154574554434233 0 -0.35925388220638338 0.290827281626163 0 -0.35285886900803182 0.29452238055293539 0 -0.35925388220638338 0.290827281626163 0 -0.35285886900803182 0.29452238055293539 0 -0.35045174428906722 0.28677843618767362 0 -0.35285886900803182 0.29452238055293539 0 -0.34622635383862083 0.29383585221412489 0 -0.35045174428906722 0.28677843618767362 0 -0.34622635383862083 0.29383585221412489 0 -0.35045174428906722 0.28677843618767362 0 -0.34088660642111013 0.2879281286912172 0 -0.34490227433735798 0.27909378963084902 0 -0.35045174428906722 0.28677843618767362 0 -0.34088660642111013 0.2879281286912172 0 -0.34490227433735798 0.27909378963084902 0 -0.34088660642111013 0.2879281286912172 0 -0.33262910378125132 0.278293493462413 0 -0.34088660642111013 0.2879281286912172 0 -0.33227483086849752 0.29261385498347509 0 -0.33932813284697128 0.29730713825443927 0 -0.34622635383862083 0.29383585221412489 0 -0.34088660642111013 0.2879281286912172 0 -0.33932813284697128 0.29730713825443927 0 -0.33227483086849752 0.29261385498347509 0 -0.32398535199451511 0.28524421774589648 0 -0.33262910378125132 0.278293493462413 0 -0.34088660642111013 0.2879281286912172 0 -0.33227483086849752 0.29261385498347509 0 -0.33262910378125132 0.278293493462413 0 -0.33718535734333338 0.30882123026638569 0 -0.34268428286429659 0.31215346041211978 0 -0.33477104767585758 0.31524888829805342 0 -0.33718535734333338 0.30882123026638569 0 -0.34268428286429659 0.31215346041211978 0 -0.33997231501418312 0.30473657218964828 0 -0.34514961405368982 0.30758965292055213 0 -0.34268428286429659 0.31215346041211978 0 -0.33997231501418312 0.30473657218964828 0 -0.33718535734333338 0.30882123026638569 0 -0.33997231501418312 0.30473657218964828 0 -0.33396296217470239 0.30554582684384218 0 -0.33997231501418312 0.30473657218964828 0 -0.33932813284697128 0.29730713825443927 0 -0.33396296217470239 0.30554582684384218 0 -0.34780240298166087 0.30288468022079579 0 -0.33997231501418312 0.30473657218964828 0 -0.33932813284697128 0.29730713825443927 0 -0.33227483086849752 0.29261385498347509 0 -0.33396296217470239 0.30554582684384218 0 -0.32251037119006698 0.3031431883822347 0 -0.33227483086849752 0.29261385498347509 0 -0.33932813284697128 0.29730713825443927 0 -0.33396296217470239 0.30554582684384218 0 -0.33718535734333338 0.30882123026638569 0 -0.33396296217470239 0.30554582684384218 0 -0.33477104767585758 0.31524888829805342 0 -0.33396296217470239 0.30554582684384218 0 -0.32251037119006698 0.3031431883822347 0 -0.33219148171911272 0.31730370811833031 0 -0.32251037119006698 0.3031431883822347 0 -0.31456388983813333 0.31636814557902659 0 -0.33219148171911272 0.31730370811833031 0 -0.32251037119006698 0.3031431883822347 0 -0.31282926066102218 0.28898266864613842 0 -0.30402337591517081 0.3051012194244167 0 -0.32251037119006698 0.3031431883822347 0 -0.30402337591517081 0.3051012194244167 0 -0.31456388983813333 0.31636814557902659 0 -0.32251037119006698 0.3031431883822347 0 -0.33219148171911272 0.31730370811833031 0 -0.33227483086849752 0.29261385498347509 0 -0.32251037119006698 0.3031431883822347 0 -0.32398535199451511 0.28524421774589648 0 -0.32251037119006698 0.3031431883822347 0 -0.32398535199451511 0.28524421774589648 0 -0.31282926066102218 0.28898266864613842 0 -0.32251037119006698 0.3031431883822347 0 -0.31282926066102218 0.28898266864613842 0 -0.31282926066102218 0.28898266864613842 0 -0.32065101258715689 0.274665503564473 0 -0.32398535199451511 0.28524421774589648 0 -0.31282926066102218 0.28898266864613842 0 -0.32065101258715689 0.274665503564473 0 -0.32065101258715689 0.274665503564473 0 -0.32847276451329022 0.26034833848280681 0 -0.31199410965335322 0.26463258327439948 0 -0.32065101258715689 0.274665503564473 0 -0.33262910378125132 0.278293493462413 0 -0.32847276451329022 0.26034833848280681 0 -0.31282926066102218 0.28898266864613842 0 -0.32065101258715689 0.274665503564473 0 -0.30403346053568642 0.27611708872161922 0 -0.32065101258715689 0.274665503564473 0 -0.32847276451329022 0.26034833848280681 0 -0.32398535199451511 0.28524421774589648 0 -0.32065101258715689 0.274665503564473 0 -0.33262910378125132 0.278293493462413 0 -0.33262910378125132 0.278293493462413 0 -0.33869287199199061 0.26734508287274228 0 -0.32847276451329022 0.26034833848280681 0 -0.34490227433735798 0.27909378963084902 0 -0.34728570068091402 0.2661688508290645 0 -0.33869287199199061 0.26734508287274228 0 -0.34490227433735798 0.27909378963084902 0 -0.33262910378125132 0.278293493462413 0 -0.33869287199199061 0.26734508287274228 0 -0.33845336435013867 0.242079554605789 0 -0.34150965816976359 0.25817059719828012 0 -0.32847276451329022 0.26034833848280681 0 -0.33845336435013867 0.242079554605789 0 -0.32847276451329022 0.26034833848280681 0 -0.34728570068091402 0.2661688508290645 0 -0.33869287199199061 0.26734508287274228 0 -0.34150965816976359 0.25817059719828012 0 -0.33869287199199061 0.26734508287274228 0 -0.34150965816976359 0.25817059719828012 0 -0.32847276451329022 0.26034833848280681 0 -0.33869287199199061 0.26734508287274228 0 -0.32847276451329022 0.26034833848280681 0 -0.311575650220281 0.24878047680599949 0 -0.32847276451329022 0.26034833848280681 0 -0.311575650220281 0.24878047680599949 0 -0.32847276451329022 0.26034833848280681 0 -0.31199410965335322 0.26463258327439948 0 -0.32455092720978362 0.24357057421839101 0 -0.311575650220281 0.24878047680599949 0 -0.32847276451329022 0.26034833848280681 0 -0.311575650220281 0.24878047680599949 0 -0.31199410965335322 0.26463258327439948 0 -0.29523766041035199 0.26325150879709891 0 -0.30403346053568642 0.27611708872161922 0 -0.29523766041035199 0.26325150879709891 0 -0.29574151564778611 0.28671646758259889 0 -0.31199410965335322 0.26463258327439948 0 -0.30403346053568642 0.27611708872161922 0 -0.29523766041035199 0.26325150879709891 0 -0.32065101258715689 0.274665503564473 0 -0.31199410965335322 0.26463258327439948 0 -0.30403346053568642 0.27611708872161922 0 -0.30403346053568642 0.27611708872161922 0 -0.29523766041035199 0.26325150879709891 0 -0.28985028671148488 0.25537141990030859 0 -0.26863301980023729 0.26794771562718522 0 -0.28534189936007232 0.28197220440765719 0 -0.29523766041035199 0.26325150879709891 0 -0.29574151564778611 0.28671646758259889 0 -0.29523766041035199 0.26325150879709891 0 -0.29574151564778611 0.28671646758259889 0 -0.28534189936007232 0.28197220440765719 0 -0.28985028671148488 0.25537141990030859 0 -0.29523766041035199 0.26325150879709891 0 -0.28534189936007232 0.28197220440765719 0 -0.28985028671148488 0.25537141990030859 0 -0.28534189936007232 0.28197220440765719 0 -0.29467853592727078 0.23721261512919359 0 -0.29523766041035199 0.26325150879709891 0 -0.29467853592727078 0.23721261512919359 0 -0.28985028671148488 0.25537141990030859 0 -0.29523766041035199 0.26325150879709891 0 -0.28985028671148488 0.25537141990030859 0 -0.29523766041035199 0.26325150879709891 0 -0.28985028671148488 0.25537141990030859 0 -0.2724296921133022 0.25217156250687062 0 -0.26863301980023729 0.26794771562718522 0 -0.2724296921133022 0.25217156250687062 0 -0.26863301980023729 0.26794771562718522 0 -0.25693865295534157 0.25278860643768353 0 -0.26863301980023729 0.26794771562718522 0 -0.26277913973510902 0.29023342414179659 0 -0.28534189936007232 0.28197220440765719 0 -0.26277913973510902 0.29023342414179659 0 -0.2447247674615598 0.2718938593685879 0 -0.26863301980023729 0.26794771562718522 0 -0.26277913973510902 0.29023342414179659 0 -0.2447247674615598 0.2718938593685879 0 -0.26863301980023729 0.26794771562718522 0 -0.25693865295534157 0.25278860643768353 0 -0.2447247674615598 0.2718938593685879 0 -0.26277913973510902 0.29023342414179659 0 -0.25757488899104952 0.31786411623381933 0 -0.2366570207200871 0.30010935915934539 0 -0.26277913973510902 0.29023342414179659 0 -0.28083351200865853 0.30857298891500562 0 -0.28534189936007232 0.28197220440765719 0 -0.26277913973510902 0.29023342414179659 0 -0.28083351200865853 0.30857298891500562 0 -0.26277913973510902 0.29023342414179659 0 -0.28083351200865853 0.30857298891500562 0 -0.25757488899104952 0.31786411623381933 0 -0.28083351200865853 0.30857298891500562 0 -0.29574151564778611 0.28671646758259889 0 -0.30402337591517081 0.3051012194244167 0 -0.28083351200865853 0.30857298891500562 0 -0.29574151564778611 0.28671646758259889 0 -0.28534189936007232 0.28197220440765719 0 -0.28083351200865853 0.30857298891500562 0 -0.28534189936007232 0.28197220440765719 0 -0.31282926066102218 0.28898266864613842 0 -0.29574151564778611 0.28671646758259889 0 -0.30402337591517081 0.3051012194244167 0 -0.31282926066102218 0.28898266864613842 0 -0.30403346053568642 0.27611708872161922 0 -0.29574151564778611 0.28671646758259889 0 -0.31282926066102218 0.28898266864613842 0 -0.30403346053568642 0.27611708872161922 0 -0.31282926066102218 0.28898266864613842 0 -0.30402337591517081 0.3051012194244167 0 -0.30402337591517081 0.3051012194244167 0 -0.29932851783868691 0.32736014762988469 0 -0.31456388983813333 0.31636814557902659 0 -0.29932851783868691 0.32736014762988469 0 -0.31400963374603508 0.33178692824556621 0 -0.31456388983813333 0.31636814557902659 0 -0.29582778577295937 0.3462701483728044 0 -0.31354931950312093 0.34747342072874071 0 -0.31400963374603508 0.33178692824556621 0 -0.29582778577295937 0.3462701483728044 0 -0.31400963374603508 0.33178692824556621 0 -0.29932851783868691 0.32736014762988469 0 -0.29582778577295937 0.3462701483728044 0 -0.31400963374603508 0.33178692824556621 0 -0.29932851783868691 0.32736014762988469 0 -0.27670802547122531 0.33291454828341721 0 -0.29582778577295937 0.3462701483728044 0 -0.27670802547122531 0.33291454828341721 0 -0.29582778577295937 0.3462701483728044 0 -0.28186865011063378 0.34863084123191301 0 -0.28083351200865853 0.30857298891500562 0 -0.30402337591517081 0.3051012194244167 0 -0.29932851783868691 0.32736014762988469 0 -0.28083351200865853 0.30857298891500562 0 -0.29932851783868691 0.32736014762988469 0 -0.28083351200865853 0.30857298891500562 0 -0.29932851783868691 0.32736014762988469 0 -0.27670802547122531 0.33291454828341721 0 -0.28083351200865853 0.30857298891500562 0 -0.27670802547122531 0.33291454828341721 0 -0.25757488899104952 0.31786411623381933 0 -0.28083351200865853 0.30857298891500562 0 -0.27670802547122531 0.33291454828341721 0 -0.27670802547122531 0.33291454828341721 0 -0.25757488899104952 0.31786411623381933 0 -0.25368472498167011 0.34420349485172652 0 -0.2613799420943046 0.36179346951182628 0 -0.25453646971320443 0.37462232419521813 0 -0.26689531734350652 0.36931705260985792 0 -0.2613799420943046 0.36179346951182628 0 -0.25453646971320443 0.37462232419521813 0 -0.24822911175635759 0.36217347122335058 0 -0.25368472498167011 0.34420349485172652 0 -0.27258253893379292 0.35725610765182902 0 -0.2613799420943046 0.36179346951182628 0 -0.25368472498167011 0.34420349485172652 0 -0.24822911175635759 0.36217347122335058 0 -0.2613799420943046 0.36179346951182628 0 -0.25368472498167011 0.34420349485172652 0 -0.27258253893379292 0.35725610765182902 0 -0.27670802547122531 0.33291454828341721 0 -0.27258253893379292 0.35725610765182902 0 -0.27670802547122531 0.33291454828341721 0 -0.27258253893379292 0.35725610765182902 0 -0.28186865011063378 0.34863084123191301 0 -0.27670802547122531 0.33291454828341721 0 -0.25368472498167011 0.34420349485172652 0 -0.27258253893379292 0.35725610765182902 0 -0.27258253893379292 0.35725610765182902 0 -0.27764593779988228 0.36075336850004069 0 -0.28186865011063378 0.34863084123191301 0 -0.27258253893379292 0.35725610765182902 0 -0.27764593779988228 0.36075336850004069 0 -0.27764593779988228 0.36075336850004069 0 -0.27110701654299552 0.36596211494311248 0 -0.28943519450698252 0.3688961411714532 0 -0.27110701654299552 0.36596211494311248 0 -0.28943519450698252 0.3688961411714532 0 -0.27110701654299552 0.36596211494311248 0 -0.28943519450698252 0.3688961411714532 0 -0.28084635904778937 0.37544065550995409 0 -0.27258253893379292 0.35725610765182902 0 -0.27764593779988228 0.36075336850004069 0 -0.27110701654299552 0.36596211494311248 0 -0.27764593779988228 0.36075336850004069 0 -0.27110701654299552 0.36596211494311248 0 -0.2613799420943046 0.36179346951182628 0 -0.27258253893379292 0.35725610765182902 0 -0.27110701654299552 0.36596211494311248 0 -0.2613799420943046 0.36179346951182628 0 -0.27110701654299552 0.36596211494311248 0 -0.26689531734350652 0.36931705260985792 0 -0.27258253893379292 0.35725610765182902 0 -0.27110701654299552 0.36596211494311248 0 -0.27110701654299552 0.36596211494311248 0 -0.26689531734350652 0.36931705260985792 0 -0.27110701654299552 0.36596211494311248 0 -0.28084635904778937 0.37544065550995409 0 -0.27663284499009211 0.37939207802828528 0 -0.28943519450698252 0.3688961411714532 0 -0.28685204816290072 0.37621819500323123 0 -0.28084635904778937 0.37544065550995409 0 -0.27764593779988228 0.36075336850004069 0 -0.28943519450698252 0.3688961411714532 0 -0.29551252006441958 0.37309371542857861 0 -0.28943519450698252 0.3688961411714532 0 -0.28685204816290072 0.37621819500323123 0 -0.29551252006441958 0.37309371542857861 0 -0.28943519450698252 0.3688961411714532 0 -0.27764593779988228 0.36075336850004069 0 -0.29582778577295937 0.3462701483728044 0 -0.27764593779988228 0.36075336850004069 0 -0.29582778577295937 0.3462701483728044 0 -0.28186865011063378 0.34863084123191301 0 -0.28943519450698252 0.3688961411714532 0 -0.29582778577295937 0.3462701483728044 0 -0.30300283950081008 0.36051339397403093 0 -0.27764593779988228 0.36075336850004069 0 -0.28943519450698252 0.3688961411714532 0 -0.29582778577295937 0.3462701483728044 0 -0.29582778577295937 0.3462701483728044 0 -0.30300283950081008 0.36051339397403093 0 -0.31354931950312093 0.34747342072874071 0 -0.28943519450698252 0.3688961411714532 0 -0.31408843612631249 0.37197903781600761 0 -0.28943519450698252 0.3688961411714532 0 -0.30300283950081008 0.36051339397403093 0 -0.31408843612631249 0.37197903781600761 0 -0.29551252006441958 0.37309371542857861 0 -0.28943519450698252 0.3688961411714532 0 -0.31408843612631249 0.37197903781600761 0 -0.30300283950081008 0.36051339397403093 0 -0.31408843612631249 0.37197903781600761 0 -0.32472866683278162 0.35786931268145811 0 -0.31408843612631249 0.37197903781600761 0 -0.32472866683278162 0.35786931268145811 0 -0.33874167774564268 0.3750619344605613 0 -0.31408843612631249 0.37197903781600761 0 -0.33874167774564268 0.3750619344605613 0 -0.33942470910854639 0.36092010030626542 0 -0.32472866683278162 0.35786931268145811 0 -0.33874167774564268 0.3750619344605613 0 -0.33942470910854639 0.36092010030626542 0 -0.3497530714632448 0.36534695126967459 0 -0.33874167774564268 0.3750619344605613 0 -0.33815763529499693 0.35089104021064632 0 -0.32472866683278162 0.35786931268145811 0 -0.33017767166301859 0.34092732036984391 0 -0.33815763529499693 0.35089104021064632 0 -0.33017767166301859 0.34092732036984391 0 -0.34251680356524339 0.34321741671518669 0 -0.33815763529499693 0.35089104021064632 0 -0.3460879504978186 0.35511096805544279 0 -0.34556584107983002 0.34849125976349993 0 -0.33815763529499693 0.35089104021064632 0 -0.34251680356524339 0.34321741671518669 0 -0.34556584107983002 0.34849125976349993 0 -0.33942470910854639 0.36092010030626542 0 -0.33815763529499693 0.35089104021064632 0 -0.3460879504978186 0.35511096805544279 0 -0.33942470910854639 0.36092010030626542 0 -0.33815763529499693 0.35089104021064632 0 -0.32472866683278162 0.35786931268145811 0 -0.31354931950312093 0.34747342072874071 0 -0.32472866683278162 0.35786931268145811 0 -0.33017767166301859 0.34092732036984391 0 -0.30300283950081008 0.36051339397403093 0 -0.31354931950312093 0.34747342072874071 0 -0.32472866683278162 0.35786931268145811 0 -0.31400963374603508 0.33178692824556621 0 -0.33219148171911272 0.31730370811833031 0 -0.33017767166301859 0.34092732036984391 0 -0.31354931950312093 0.34747342072874071 0 -0.31400963374603508 0.33178692824556621 0 -0.33017767166301859 0.34092732036984391 0 -0.31400963374603508 0.33178692824556621 0 -0.33219148171911272 0.31730370811833031 0 -0.31400963374603508 0.33178692824556621 0 -0.31456388983813333 0.31636814557902659 0 -0.33219148171911272 0.31730370811833031 0 -0.33477104767585758 0.31524888829805342 0 -0.33219148171911272 0.31730370811833031 0 -0.34795343649956839 0.3209401758966518 0 -0.33219148171911272 0.31730370811833031 0 -0.34725440703092858 0.33933618574797492 0 -0.34795343649956839 0.3209401758966518 0 -0.33396296217470239 0.30554582684384218 0 -0.33477104767585758 0.31524888829805342 0 -0.33219148171911272 0.31730370811833031 0 -0.33477104767585758 0.31524888829805342 0 -0.33219148171911272 0.31730370811833031 0 -0.34268428286429659 0.31215346041211978 0 -0.33477104767585758 0.31524888829805342 0 -0.34795343649956839 0.3209401758966518 0 -0.33219148171911272 0.31730370811833031 0 -0.34725440703092858 0.33933618574797492 0 -0.33219148171911272 0.31730370811833031 0 -0.33017767166301859 0.34092732036984391 0 -0.34725440703092858 0.33933618574797492 0 -0.33017767166301859 0.34092732036984391 0 -0.34251680356524339 0.34321741671518669 0 -0.34725440703092858 0.33933618574797492 0 -0.34725440703092858 0.33933618574797492 0 -0.34795343649956839 0.3209401758966518 0 -0.36531193472093021 0.32454274932608829 0 -0.34251680356524339 0.34321741671518669 0 -0.35002774160894051 0.34339273059465159 0 -0.34725440703092858 0.33933618574797492 0 -0.34725440703092858 0.33933618574797492 0 -0.35848812135385522 0.33902175933596412 0 -0.36531193472093021 0.32454274932608829 0 -0.34725440703092858 0.33933618574797492 0 -0.36531193472093021 0.32454274932608829 0 -0.34251680356524339 0.34321741671518669 0 -0.34725440703092858 0.33933618574797492 0 -0.35002774160894051 0.34339273059465159 0 -0.34725440703092858 0.33933618574797492 0 -0.35002774160894051 0.34339273059465159 0 -0.35848812135385522 0.33902175933596412 0 -0.35712059876301439 0.34740413424876382 0 -0.35002774160894051 0.34339273059465159 0 -0.34725440703092858 0.33933618574797492 0 -0.35848812135385522 0.33902175933596412 0 -0.34795343649956839 0.3209401758966518 0 -0.35774913989266272 0.31391262040183171 0 -0.36531193472093021 0.32454274932608829 0 -0.35013945535461871 0.3105838988596446 0 -0.34268428286429659 0.31215346041211978 0 -0.34795343649956839 0.3209401758966518 0 -0.35013945535461871 0.3105838988596446 0 -0.34795343649956839 0.3209401758966518 0 -0.35774913989266272 0.31391262040183171 0 -0.38336946241093189 0.30974931290420182 0 -0.36596935852520629 0.30787018431111951 0 -0.36531193472093021 0.32454274932608829 0 -0.36596935852520629 0.30787018431111951 0 -0.35774913989266272 0.31391262040183171 0 -0.36531193472093021 0.32454274932608829 0 -0.37580907906339922 0.33647878059299557 0 -0.38201615891261242 0.31564575533693578 0 -0.36531193472093021 0.32454274932608829 0 -0.38336946241093189 0.30974931290420182 0 -0.36531193472093021 0.32454274932608829 0 -0.35848812135385522 0.33902175933596412 0 -0.36629538785756799 0.33494858662202331 0 -0.36491865814174967 0.34450616947628299 0 -0.35848812135385522 0.33902175933596412 0 -0.36491865814174967 0.34450616947628299 0 -0.35712059876301439 0.34740413424876382 0 -0.35848812135385522 0.33902175933596412 0 -0.36531193472093021 0.32454274932608829 0 -0.36629538785756799 0.33494858662202331 0 -0.37580907906339922 0.33647878059299557 0 -0.36531193472093021 0.32454274932608829 0 -0.36629538785756799 0.33494858662202331 0 -0.37580907906339922 0.33647878059299557 0 -0.36629538785756799 0.33494858662202331 0 -0.36491865814174967 0.34450616947628299 0 -0.37580907906339922 0.33647878059299557 0 -0.36491865814174967 0.34450616947628299 0 -0.36960199921418602 0.35731180584905542 0 -0.37580907906339922 0.33647878059299557 0 -0.36960199921418602 0.35731180584905542 0 -0.36491865814174967 0.34450616947628299 0 -0.36204010283369881 0.35293053614415609 0 -0.35712059876301439 0.34740413424876382 0 -0.36491865814174967 0.34450616947628299 0 -0.36204010283369881 0.35293053614415609 0 -0.36960199921418602 0.35731180584905542 0 -0.36231373349064938 0.3583368008115923 0 -0.36204010283369881 0.35293053614415609 0 -0.35577634304253192 0.35617190760009498 0 -0.36231373349064938 0.3583368008115923 0 -0.36204010283369881 0.35293053614415609 0 -0.36960199921418602 0.35731180584905542 0 -0.36960199921418602 0.35731180584905542 0 -0.36339491936497281 0.37814483110511521 0 -0.36960199921418602 0.35731180584905542 0 -0.37158620997362618 0.36500042586936587 0 -0.36339491936497281 0.37814483110511521 0 -0.36960199921418602 0.35731180584905542 0 -0.36108579844600058 0.36545797327707619 0 -0.36339491936497281 0.37814483110511521 0 -0.38141148745950948 0.38039780936179463 0 -0.37158620997362618 0.36500042586936587 0 -0.36339491936497281 0.37814483110511521 0 -0.38070440212728118 0.35956436367519867 0 -0.36960199921418602 0.35731180584905542 0 -0.37158620997362618 0.36500042586936587 0 -0.36231373349064938 0.3583368008115923 0 -0.36108579844600058 0.36545797327707619 0 -0.35577634304253192 0.35617190760009498 0 -0.36231373349064938 0.3583368008115923 0 -0.36960199921418602 0.35731180584905542 0 -0.36108579844600058 0.36545797327707619 0 -0.36108579844600058 0.36545797327707619 0 -0.3497530714632448 0.36534695126967459 0 -0.35577634304253192 0.35617190760009498 0 -0.3497530714632448 0.36534695126967459 0 -0.36339491936497281 0.37814483110511521 0 -0.33874167774564268 0.3750619344605613 0 -0.36108579844600058 0.36545797327707619 0 -0.3497530714632448 0.36534695126967459 0 -0.36339491936497281 0.37814483110511521 0 -0.33942470910854639 0.36092010030626542 0 -0.3497530714632448 0.36534695126967459 0 -0.3460879504978186 0.35511096805544279 0 -0.3497530714632448 0.36534695126967459 0 -0.3460879504978186 0.35511096805544279 0 -0.35577634304253192 0.35617190760009498 0 -0.3460879504978186 0.35511096805544279 0 -0.35103907443215082 0.34984414324157243 0 -0.35577634304253192 0.35617190760009498 0 -0.3460879504978186 0.35511096805544279 0 -0.34556584107983002 0.34849125976349993 0 -0.35103907443215082 0.34984414324157243 0 -0.34251680356524339 0.34321741671518669 0 -0.35002774160894051 0.34339273059465159 0 -0.34556584107983002 0.34849125976349993 0 -0.35002774160894051 0.34339273059465159 0 -0.34556584107983002 0.34849125976349993 0 -0.35103907443215082 0.34984414324157243 0 -0.35103907443215082 0.34984414324157243 0 -0.35712059876301439 0.34740413424876382 0 -0.35577634304253192 0.35617190760009498 0 -0.35002774160894051 0.34339273059465159 0 -0.35103907443215082 0.34984414324157243 0 -0.35712059876301439 0.34740413424876382 0 -0.36204010283369881 0.35293053614415609 0 -0.35712059876301439 0.34740413424876382 0 -0.35577634304253192 0.35617190760009498 0 -0.35746143571760969 0.39805957647408341 0 -0.33700984602307921 0.4055687403903776 0 -0.35746143571760969 0.39805957647408341 0 -0.36339491936497281 0.37814483110511521 0 -0.33874167774564268 0.3750619344605613 0 -0.36339491936497281 0.37814483110511521 0 -0.33874167774564268 0.3750619344605613 0 -0.38141148745950948 0.38039780936179463 0 -0.37844474563582792 0.390355182046278 0 -0.36339491936497281 0.37814483110511521 0 -0.37844474563582792 0.390355182046278 0 -0.35746143571760969 0.39805957647408341 0 -0.36339491936497281 0.37814483110511521 0 -0.35746143571760969 0.39805957647408341 0 -0.36339491936497281 0.37814483110511521 0 -0.38141148745950948 0.38039780936179463 0 -0.36339491936497281 0.37814483110511521 0 -0.37668454372729859 0.41206883315114529 0 -0.37844474563582792 0.390355182046278 0 -0.35746143571760969 0.39805957647408341 0 -0.37844474563582792 0.390355182046278 0 -0.35746143571760969 0.39805957647408341 0 -0.37668454372729859 0.41206883315114529 0 -0.36778315087773072 0.43214877602771662 0 -0.35179051953527918 0.41709305806631919 0 -0.37668454372729859 0.41206883315114529 0 -0.35746143571760969 0.39805957647408341 0 -0.35179051953527918 0.41709305806631919 0 -0.37668454372729859 0.41206883315114529 0 -0.35179051953527918 0.41709305806631919 0 -0.36778315087773072 0.43214877602771662 0 -0.35179051953527918 0.41709305806631919 0 -0.34355933144160938 0.44471966407244162 0 -0.35179051953527918 0.41709305806631919 0 -0.34355933144160938 0.44471966407244162 0 -0.35746143571760969 0.39805957647408341 0 -0.35179051953527918 0.41709305806631919 0 -0.33700984602307921 0.4055687403903776 0 -0.35746143571760969 0.39805957647408341 0 -0.35179051953527918 0.41709305806631919 0 -0.35179051953527918 0.41709305806631919 0 -0.33092261172728182 0.42130471390500562 0 -0.33700984602307921 0.4055687403903776 0 -0.35179051953527918 0.41709305806631919 0 -0.33092261172728182 0.42130471390500562 0 -0.33092261172728182 0.42130471390500562 0 -0.31655825632854873 0.41307790430667191 0 -0.33700984602307921 0.4055687403903776 0 -0.35179051953527918 0.41709305806631919 0 -0.33092261172728182 0.42130471390500562 0 -0.34355933144160938 0.44471966407244162 0 -0.33092261172728182 0.42130471390500562 0 -0.32304151796324199 0.43794530689545591 0 -0.34355933144160938 0.44471966407244162 0 -0.33092261172728182 0.42130471390500562 0 -0.31005470391928353 0.42551636974368717 0 -0.32304151796324199 0.43794530689545591 0 -0.33092261172728182 0.42130471390500562 0 -0.31005470391928353 0.42551636974368717 0 -0.31005470391928353 0.42551636974368717 0 -0.30636015846579262 0.44081646755455739 0 -0.32304151796324199 0.43794530689545591 0 -0.31655825632854873 0.41307790430667191 0 -0.32178824989383492 0.40044082628072353 0 -0.33700984602307921 0.4055687403903776 0 -0.33092261172728182 0.42130471390500562 0 -0.31655825632854873 0.41307790430667191 0 -0.31005470391928353 0.42551636974368717 0 -0.31655825632854873 0.41307790430667191 0 -0.33700984602307921 0.4055687403903776 0 -0.31655825632854873 0.41307790430667191 0 -0.32178824989383492 0.40044082628072353 0 -0.30820761894760612 0.40180007281058999 0 -0.31589124725359768 0.39098578459502642 0 -0.32178824989383492 0.40044082628072353 0 -0.30820761894760612 0.40180007281058999 0 -0.31589124725359768 0.39098578459502642 0 -0.32178824989383492 0.40044082628072353 0 -0.33127428091634248 0.39077162930095188 0 -0.35746143571760969 0.39805957647408341 0 -0.33127428091634248 0.39077162930095188 0 -0.33700984602307921 0.4055687403903776 0 -0.32178824989383492 0.40044082628072353 0 -0.33127428091634248 0.39077162930095188 0 -0.33700984602307921 0.4055687403903776 0 -0.35746143571760969 0.39805957647408341 0 -0.33127428091634248 0.39077162930095188 0 -0.33874167774564268 0.3750619344605613 0 -0.31408843612631249 0.37197903781600761 0 -0.33127428091634248 0.39077162930095188 0 -0.33874167774564268 0.3750619344605613 0 -0.31408843612631249 0.37197903781600761 0 -0.31589124725359768 0.39098578459502642 0 -0.33127428091634248 0.39077162930095188 0 -0.29551252006441958 0.37309371542857861 0 -0.31408843612631249 0.37197903781600761 0 -0.30568017353146049 0.38157918508743732 0 -0.31408843612631249 0.37197903781600761 0 -0.31589124725359768 0.39098578459502642 0 -0.30568017353146049 0.38157918508743732 0 -0.31589124725359768 0.39098578459502642 0 -0.30568017353146049 0.38157918508743732 0 -0.30603649680964828 0.39194203915736708 0 -0.30568017353146049 0.38157918508743732 0 -0.29743858983336929 0.38628170497916159 0 -0.30603649680964828 0.39194203915736708 0 -0.29551252006441958 0.37309371542857861 0 -0.30568017353146049 0.38157918508743732 0 -0.29743858983336929 0.38628170497916159 0 -0.31589124725359768 0.39098578459502642 0 -0.30820761894760612 0.40180007281058999 0 -0.30603649680964828 0.39194203915736708 0 -0.30820761894760612 0.40180007281058999 0 -0.30603649680964828 0.39194203915736708 0 -0.29604813782321171 0.40003827384795049 0 -0.29743858983336929 0.38628170497916159 0 -0.30603649680964828 0.39194203915736708 0 -0.29604813782321171 0.40003827384795049 0 -0.30820761894760612 0.40180007281058999 0 -0.29604813782321171 0.40003827384795049 0 -0.2987408814332651 0.40933989620534528 0 -0.29604813782321171 0.40003827384795049 0 -0.28905057763704689 0.40562835892549581 0 -0.28392778011776681 0.39892722844600809 0 -0.29604813782321171 0.40003827384795049 0 -0.28905057763704689 0.40562835892549581 0 -0.2987408814332651 0.40933989620534528 0 -0.29604813782321171 0.40003827384795049 0 -0.28980128107673031 0.39400368344191522 0 -0.28392778011776681 0.39892722844600809 0 -0.29743858983336929 0.38628170497916159 0 -0.29604813782321171 0.40003827384795049 0 -0.28980128107673031 0.39400368344191522 0 -0.28980128107673031 0.39400368344191522 0 -0.28179061653257348 0.3907675264945405 0 -0.28392778011776681 0.39892722844600809 0 -0.28905057763704689 0.40562835892549581 0 -0.28392778011776681 0.39892722844600809 0 -0.27817781655911977 0.40726136879628272 0 -0.29743858983336929 0.38628170497916159 0 -0.28980128107673031 0.39400368344191522 0 -0.28179061653257348 0.3907675264945405 0 -0.29743858983336929 0.38628170497916159 0 -0.28179061653257348 0.3907675264945405 0 -0.28819376848868639 0.38228739672622841 0 -0.29743858983336929 0.38628170497916159 0 -0.28179061653257348 0.3907675264945405 0 -0.29551252006441958 0.37309371542857861 0 -0.29743858983336929 0.38628170497916159 0 -0.28819376848868639 0.38228739672622841 0 -0.29551252006441958 0.37309371542857861 0 -0.28819376848868639 0.38228739672622841 0 -0.28685204816290072 0.37621819500323123 0 -0.28179061653257348 0.3907675264945405 0 -0.28158428542699082 0.38279668863870758 0 -0.28819376848868639 0.38228739672622841 0 -0.28158428542699082 0.38279668863870758 0 -0.28819376848868639 0.38228739672622841 0 -0.28685204816290072 0.37621819500323123 0 -0.28158428542699082 0.38279668863870758 0 -0.28685204816290072 0.37621819500323123 0 -0.28084635904778937 0.37544065550995409 0 -0.27110701654299552 0.36596211494311248 0 -0.26614264323177789 0.39525334800991979 0 -0.27110701654299552 0.36596211494311248 0 -0.27663284499009211 0.37939207802828528 0 -0.27229768174870289 0.38438446135480281 0 -0.27110701654299552 0.36596211494311248 0 -0.27229768174870289 0.38438446135480281 0 -0.26614264323177789 0.39525334800991979 0 -0.27110701654299552 0.36596211494311248 0 -0.26689531734350652 0.36931705260985792 0 -0.26614264323177789 0.39525334800991979 0 -0.28158428542699082 0.38279668863870758 0 -0.28084635904778937 0.37544065550995409 0 -0.27663284499009211 0.37939207802828528 0 -0.27229768174870289 0.38438446135480281 0 -0.27641046434025379 0.38710393959788297 0 -0.26614264323177789 0.39525334800991979 0 -0.28179061653257348 0.3907675264945405 0 -0.28158428542699082 0.38279668863870758 0 -0.27641046434025379 0.38710393959788297 0 -0.27663284499009211 0.37939207802828528 0 -0.27229768174870289 0.38438446135480281 0 -0.27641046434025379 0.38710393959788297 0 -0.28158428542699082 0.38279668863870758 0 -0.27663284499009211 0.37939207802828528 0 -0.27641046434025379 0.38710393959788297 0 -0.28179061653257348 0.3907675264945405 0 -0.27641046434025379 0.38710393959788297 0 -0.26614264323177789 0.39525334800991979 0 -0.28179061653257348 0.3907675264945405 0 -0.27661435207820328 0.39472461325581981 0 -0.26614264323177789 0.39525334800991979 0 -0.28179061653257348 0.3907675264945405 0 -0.28392778011776681 0.39892722844600809 0 -0.27661435207820328 0.39472461325581981 0 -0.28179061653257348 0.3907675264945405 0 -0.26614264323177789 0.39525334800991979 0 -0.28392778011776681 0.39892722844600809 0 -0.27661435207820328 0.39472461325581981 0 -0.27572094251528112 0.40196054452149499 0 -0.28392778011776681 0.39892722844600809 0 -0.27572094251528112 0.40196054452149499 0 -0.27817781655911977 0.40726136879628272 0 -0.27572094251528112 0.40196054452149499 0 -0.26416382130603389 0.40692896758786917 0 -0.27817781655911977 0.40726136879628272 0 -0.27661435207820328 0.39472461325581981 0 -0.27572094251528112 0.40196054452149499 0 -0.26416382130603389 0.40692896758786917 0 -0.27661435207820328 0.39472461325581981 0 -0.26614264323177789 0.39525334800991979 0 -0.26416382130603389 0.40692896758786917 0 -0.27661435207820328 0.39472461325581981 0 -0.26416382130603389 0.40692896758786917 0 -0.26614264323177789 0.39525334800991979 0 -0.24781733580734391 0.38604582424895789 0 -0.24388213391773941 0.40163479241199579 0 -0.26614264323177789 0.39525334800991979 0 -0.25157066981256843 0.40894445920752592 0 -0.24388213391773941 0.40163479241199579 0 -0.26614264323177789 0.39525334800991979 0 -0.24388213391773941 0.40163479241199579 0 -0.26614264323177789 0.39525334800991979 0 -0.26416382130603389 0.40692896758786917 0 -0.26614264323177789 0.39525334800991979 0 -0.25157066981256843 0.40894445920752592 0 -0.26416382130603389 0.40692896758786917 0 -0.25453646971320443 0.37462232419521813 0 -0.26614264323177789 0.39525334800991979 0 -0.24781733580734391 0.38604582424895789 0 -0.25453646971320443 0.37462232419521813 0 -0.26689531734350652 0.36931705260985792 0 -0.26614264323177789 0.39525334800991979 0 -0.26107936510946472 0.42512814796255138 0 -0.25799490891289278 0.4433273283372331 0 -0.26107936510946472 0.42512814796255138 0 -0.27138668263498972 0.43431468825499642 0 -0.25799490891289278 0.4433273283372331 0 -0.26107936510946472 0.42512814796255138 0 -0.25799490891289278 0.4433273283372331 0 -0.24263019791012411 0.42803682032005991 0 -0.25799490891289278 0.4433273283372331 0 -0.24263019791012411 0.42803682032005991 0 -0.26107936510946472 0.42512814796255138 0 -0.26416382130603389 0.40692896758786917 0 -0.26107936510946472 0.42512814796255138 0 -0.26416382130603389 0.40692896758786917 0 -0.24263019791012411 0.42803682032005991 0 -0.26416382130603389 0.40692896758786917 0 -0.24263019791012411 0.42803682032005991 0 -0.25157066981256843 0.40894445920752592 0 -0.26416382130603389 0.40692896758786917 0 -0.24263019791012411 0.42803682032005991 0 -0.26107936510946472 0.42512814796255138 0 -0.26416382130603389 0.40692896758786917 0 -0.27370875903762831 0.41905129137381081 0 -0.26416382130603389 0.40692896758786917 0 -0.27817781655911977 0.40726136879628272 0 -0.27370875903762831 0.41905129137381081 0 -0.27817781655911977 0.40726136879628272 0 -0.27370875903762831 0.41905129137381081 0 -0.28647403122915938 0.41490769911839809 0 -0.27370875903762831 0.41905129137381081 0 -0.27138668263498972 0.43431468825499642 0 -0.28359142860916292 0.42646623900898489 0 -0.26107936510946472 0.42512814796255138 0 -0.27370875903762831 0.41905129137381081 0 -0.27138668263498972 0.43431468825499642 0 -0.27138668263498972 0.43431468825499642 0 -0.28359142860916292 0.42646623900898489 0 -0.28426041238301858 0.43930471826406531 0 -0.28359142860916292 0.42646623900898489 0 -0.29576073289665422 0.43347565529899762 0 -0.28426041238301858 0.43930471826406531 0 -0.28359142860916292 0.42646623900898489 0 -0.29576073289665422 0.43347565529899762 0 -0.29610666663401819 0.4205870682229661 0 -0.28905057763704689 0.40562835892549581 0 -0.27817781655911977 0.40726136879628272 0 -0.28647403122915938 0.41490769911839809 0 -0.27370875903762831 0.41905129137381081 0 -0.28359142860916292 0.42646623900898489 0 -0.28647403122915938 0.41490769911839809 0 -0.28359142860916292 0.42646623900898489 0 -0.28647403122915938 0.41490769911839809 0 -0.29610666663401819 0.4205870682229661 0 -0.28647403122915938 0.41490769911839809 0 -0.29610666663401819 0.4205870682229661 0 -0.2987408814332651 0.40933989620534528 0 -0.28905057763704689 0.40562835892549581 0 -0.28647403122915938 0.41490769911839809 0 -0.2987408814332651 0.40933989620534528 0 -0.31655825632854873 0.41307790430667191 0 -0.29610666663401819 0.4205870682229661 0 -0.2987408814332651 0.40933989620534528 0 -0.31655825632854873 0.41307790430667191 0 -0.29610666663401819 0.4205870682229661 0 -0.31005470391928353 0.42551636974368717 0 -0.31655825632854873 0.41307790430667191 0 -0.29610666663401819 0.4205870682229661 0 -0.31655825632854873 0.41307790430667191 0 -0.30820761894760612 0.40180007281058999 0 -0.2987408814332651 0.40933989620534528 0 -0.29576073289665422 0.43347565529899762 0 -0.31005470391928353 0.42551636974368717 0 -0.30636015846579262 0.44081646755455739 0 -0.29576073289665422 0.43347565529899762 0 -0.29610666663401819 0.4205870682229661 0 -0.31005470391928353 0.42551636974368717 0 -0.29576073289665422 0.43347565529899762 0 -0.30636015846579262 0.44081646755455739 0 -0.2944743431310044 0.45228094752776682 0 -0.30636015846579262 0.44081646755455739 0 -0.30512100021830008 0.46490456032657962 0 -0.30636015846579262 0.44081646755455739 0 -0.30512100021830008 0.46490456032657962 0 -0.2944743431310044 0.45228094752776682 0 -0.30636015846579262 0.44081646755455739 0 -0.30512100021830008 0.46490456032657962 0 -0.32381548421637429 0.45642326981327008 0 -0.30512100021830008 0.46490456032657962 0 -0.2944743431310044 0.45228094752776682 0 -0.28858619761816889 0.47377087817814589 0 -0.2944743431310044 0.45228094752776682 0 -0.27329055326553048 0.45854910325768988 0 -0.28858619761816889 0.47377087817814589 0 -0.2944743431310044 0.45228094752776682 0 -0.28426041238301858 0.43930471826406531 0 -0.27329055326553048 0.45854910325768988 0 -0.29576073289665422 0.43347565529899762 0 -0.2944743431310044 0.45228094752776682 0 -0.28426041238301858 0.43930471826406531 0 -0.27138668263498972 0.43431468825499642 0 -0.28426041238301858 0.43930471826406531 0 -0.27329055326553048 0.45854910325768988 0 -0.27138668263498972 0.43431468825499642 0 -0.27329055326553048 0.45854910325768988 0 -0.25799490891289278 0.4433273283372331 0 -0.27329055326553048 0.45854910325768988 0 -0.25799490891289278 0.4433273283372331 0 -0.27329055326553048 0.45854910325768988 0 -0.28858619761816889 0.47377087817814589 0 -0.27329055326553048 0.45854910325768988 0 -0.25438198006151169 0.46464464965965441 0 -0.25799490891289278 0.4433273283372331 0 -0.27329055326553048 0.45854910325768988 0 -0.25438198006151169 0.46464464965965441 0 -0.26859377699614329 0.4811575177290362 0 -0.25438198006151169 0.46464464965965441 0 -0.25799490891289278 0.4433273283372331 0 -0.25438198006151169 0.46464464965965441 0 -0.25799490891289278 0.4433273283372331 0 -0.24356894722331929 0.44821508210096461 0 -0.25080144613104921 0.5 0 -0.26859377699614329 0.4811575177290362 0 -0.2467553297522557 0.48147402383551691 0 -0.25080144613104921 0.5 0 -0.26859377699614329 0.4811575177290362 0 -0.27705851983630159 0.5 0 -0.25438198006151169 0.46464464965965441 0 -0.26859377699614329 0.4811575177290362 0 -0.2467553297522557 0.48147402383551691 0 -0.27329055326553048 0.45854910325768988 0 -0.26859377699614329 0.4811575177290362 0 -0.28858619761816889 0.47377087817814589 0 -0.26859377699614329 0.4811575177290362 0 -0.27705851983630159 0.5 0 -0.28830299895955541 0.48893487857068268 0 -0.27705851983630159 0.5 0 -0.28830299895955541 0.48893487857068268 0 -0.30331559354155391 0.49999999999999939 0 -0.26859377699614329 0.4811575177290362 0 -0.28830299895955541 0.48893487857068268 0 -0.28858619761816889 0.47377087817814589 0 -0.28830299895955541 0.48893487857068268 0 -0.28858619761816889 0.47377087817814589 0 -0.30388184197080759 0.48899265309860168 0 -0.28858619761816889 0.47377087817814589 0 -0.30388184197080759 0.48899265309860168 0 -0.30512100021830008 0.46490456032657962 0 -0.30388184197080759 0.48899265309860168 0 -0.30512100021830008 0.46490456032657962 0 -0.30388184197080759 0.48899265309860168 0 -0.31654611508668351 0.48621885406126381 0 -0.30512100021830008 0.46490456032657962 0 -0.28858619761816889 0.47377087817814589 0 -0.30388184197080759 0.48899265309860168 0 -0.30331559354155391 0.49999999999999939 0 -0.30388184197080759 0.48899265309860168 0 -0.28830299895955541 0.48893487857068268 0 -0.30331559354155391 0.49999999999999939 0 -0.30388184197080759 0.48899265309860168 0 -0.30388184197080759 0.48899265309860168 0 -0.31494260619507058 0.500000000000002 0 -0.31654611508668351 0.48621885406126381 0 -0.30331559354155391 0.49999999999999939 0 -0.30388184197080759 0.48899265309860168 0 -0.31494260619507058 0.500000000000002 0 -0.30388184197080759 0.48899265309860168 0 -0.31494260619507058 0.500000000000002 0 -0.31654611508668351 0.48621885406126381 0 -0.33275791060477139 0.5 0 -0.32602721644446891 0.47719705688113462 0 -0.31494260619507058 0.500000000000002 0 -0.31654611508668351 0.48621885406126381 0 -0.33275791060477139 0.5 0 -0.33275791060477139 0.5 0 -0.34200011506365208 0.48331572161184322 0 -0.32602721644446891 0.47719705688113462 0 -0.33275791060477139 0.5 0 -0.34200011506365208 0.48331572161184322 0 -0.35057321501447208 0.49999999999999872 0 -0.34200011506365208 0.48331572161184322 0 -0.32602721644446891 0.47719705688113462 0 -0.33593075250063148 0.46750731867274542 0 -0.34200011506365208 0.48331572161184322 0 -0.33593075250063148 0.46750731867274542 0 -0.35201810675435108 0.4676562019538536 0 -0.30512100021830008 0.46490456032657962 0 -0.31654611508668351 0.48621885406126381 0 -0.32602721644446891 0.47719705688113462 0 -0.30512100021830008 0.46490456032657962 0 -0.32602721644446891 0.47719705688113462 0 -0.32381548421637429 0.45642326981327008 0 -0.30636015846579262 0.44081646755455739 0 -0.32381548421637429 0.45642326981327008 0 -0.32304151796324199 0.43794530689545591 0 -0.32381548421637429 0.45642326981327008 0 -0.32304151796324199 0.43794530689545591 0 -0.34355933144160938 0.44471966407244162 0 -0.32381548421637429 0.45642326981327008 0 -0.34355933144160938 0.44471966407244162 0 -0.33593075250063148 0.46750731867274542 0 -0.32602721644446891 0.47719705688113462 0 -0.32381548421637429 0.45642326981327008 0 -0.33593075250063148 0.46750731867274542 0 -0.35201810675435108 0.4676562019538536 0 -0.36028404822733179 0.44939908513577981 0 -0.36566353784044697 0.46257036423753561 0 -0.34355933144160938 0.44471966407244162 0 -0.35201810675435108 0.4676562019538536 0 -0.36028404822733179 0.44939908513577981 0 -0.34355933144160938 0.44471966407244162 0 -0.33593075250063148 0.46750731867274542 0 -0.35201810675435108 0.4676562019538536 0 -0.36778315087773072 0.43214877602771662 0 -0.34355933144160938 0.44471966407244162 0 -0.36028404822733179 0.44939908513577981 0 -0.36778315087773072 0.43214877602771662 0 -0.36028404822733179 0.44939908513577981 0 -0.37376195539900242 0.45249759326054367 0 -0.37701653082709469 0.46900635458093531 0 -0.37376195539900242 0.45249759326054367 0 -0.36566353784044697 0.46257036423753561 0 -0.36028404822733179 0.44939908513577981 0 -0.37376195539900242 0.45249759326054367 0 -0.36566353784044697 0.46257036423753561 0 -0.36552159823955549 0.47691699748014749 0 -0.37220834978290879 0.49000150617251997 0 -0.35595833756876799 0.48470827593500232 0 -0.37701653082709469 0.46900635458093531 0 -0.36566353784044697 0.46257036423753561 0 -0.36552159823955549 0.47691699748014749 0 -0.37805640255927542 0.47903421333972468 0 -0.37701653082709469 0.46900635458093531 0 -0.36552159823955549 0.47691699748014749 0 -0.35201810675435108 0.4676562019538536 0 -0.36566353784044697 0.46257036423753561 0 -0.36552159823955549 0.47691699748014749 0 -0.37805640255927542 0.47903421333972468 0 -0.36552159823955549 0.47691699748014749 0 -0.37220834978290879 0.49000150617251997 0 -0.37220834978290879 0.49000150617251997 0 -0.35057321501447208 0.49999999999999872 0 -0.35595833756876799 0.48470827593500232 0 -0.37789332191386737 0.5 0 -0.37220834978290879 0.49000150617251997 0 -0.35057321501447208 0.49999999999999872 0 -0.37220834978290879 0.49000150617251997 0 -0.35057321501447208 0.49999999999999872 0 -0.34200011506365208 0.48331572161184322 0 -0.35057321501447208 0.49999999999999872 0 -0.35595833756876799 0.48470827593500232 0 -0.34200011506365208 0.48331572161184322 0 -0.35201810675435108 0.4676562019538536 0 -0.35595833756876799 0.48470827593500232 0 -0.35201810675435108 0.4676562019538536 0 -0.36552159823955549 0.47691699748014749 0 -0.35595833756876799 0.48470827593500232 0 -0.142080771754234 0.48212662116497451 0 -0.14744519938683801 0.47523243684594829 0 -0.1380962150490555 0.47248515407185221 0 -0.142080771754234 0.48212662116497451 0 -0.14744519938683801 0.47523243684594829 0 -0.15313912830386001 0.48632871978955722 0 -0.14744519938683801 0.47523243684594829 0 -0.1380962150490555 0.47248515407185221 0 -0.1446941887002707 0.46454185114692792 0 -0.14744519938683801 0.47523243684594829 0 -0.1446941887002707 0.46454185114692792 0 -0.15815775643206659 0.473198332503178 0 -0.14744519938683801 0.47523243684594829 0 -0.15313912830386001 0.48632871978955722 0 -0.15815775643206659 0.473198332503178 0 -0.142080771754234 0.48212662116497451 0 -0.15313912830386001 0.48632871978955722 0 -0.13803845513632401 0.5 0 -0.15313912830386001 0.48632871978955722 0 -0.13803845513632401 0.5 0 -0.1663114266205577 0.50000000000000011 0 -0.142080771754234 0.48212662116497451 0 -0.13803845513632401 0.5 0 -0.12908554574303099 0.47755934496718438 0 -0.13803845513632401 0.5 0 -0.12908554574303099 0.47755934496718438 0 -0.1160402402672886 0.48503019582547341 0 -0.142080771754234 0.48212662116497451 0 -0.12908554574303099 0.47755934496718438 0 -0.1380962150490555 0.47248515407185221 0 -0.12908554574303099 0.47755934496718438 0 -0.1380962150490555 0.47248515407185221 0 -0.13097929143795109 0.46459511115351071 0 -0.12908554574303099 0.47755934496718438 0 -0.13097929143795109 0.46459511115351071 0 -0.1176294132596279 0.46872710166108278 0 -0.13097929143795109 0.46459511115351071 0 -0.1351896940807357 0.45304119368279389 0 -0.1204057133641486 0.45504160574272429 0 -0.13097929143795109 0.46459511115351071 0 -0.1351896940807357 0.45304119368279389 0 -0.1446941887002707 0.46454185114692792 0 -0.1380962150490555 0.47248515407185221 0 -0.13097929143795109 0.46459511115351071 0 -0.1446941887002707 0.46454185114692792 0 -0.1351896940807357 0.45304119368279389 0 -0.13889501351409689 0.43598263237980822 0 -0.1242648033483075 0.43981492828754482 0 -0.1351896940807357 0.45304119368279389 0 -0.1242648033483075 0.43981492828754482 0 -0.1204057133641486 0.45504160574272429 0 -0.15017718620881049 0.45777983735391498 0 -0.13889501351409689 0.43598263237980822 0 -0.1351896940807357 0.45304119368279389 0 -0.15017718620881049 0.45777983735391498 0 -0.13889501351409689 0.43598263237980822 0 -0.15995177900170021 0.44572512983606088 0 -0.15376963845050121 0.4328235067909087 0 -0.13889501351409689 0.43598263237980822 0 -0.15017718620881049 0.45777983735391498 0 -0.15995177900170021 0.44572512983606088 0 -0.13889501351409689 0.43598263237980822 0 -0.15017718620881049 0.45777983735391498 0 -0.15995177900170021 0.44572512983606088 0 -0.1446941887002707 0.46454185114692792 0 -0.15017718620881049 0.45777983735391498 0 -0.1351896940807357 0.45304119368279389 0 -0.1446941887002707 0.46454185114692792 0 -0.15017718620881049 0.45777983735391498 0 -0.1446941887002707 0.46454185114692792 0 -0.15017718620881049 0.45777983735391498 0 -0.15815775643206659 0.473198332503178 0 -0.15017718620881049 0.45777983735391498 0 -0.15868634814382429 0.46531473325554851 0 -0.15815775643206659 0.473198332503178 0 -0.15017718620881049 0.45777983735391498 0 -0.15815775643206659 0.473198332503178 0 -0.160558198289461 0.46047642425523388 0 -0.1655661766345953 0.45099185016729298 0 -0.16585225164495951 0.46980433890986678 0 -0.1655661766345953 0.45099185016729298 0 -0.17867327812258871 0.46114583139567922 0 -0.16585225164495951 0.46980433890986678 0 -0.1655661766345953 0.45099185016729298 0 -0.16585225164495951 0.46980433890986678 0 -0.15868634814382429 0.46531473325554851 0 -0.160558198289461 0.46047642425523388 0 -0.16585225164495951 0.46980433890986678 0 -0.15017718620881049 0.45777983735391498 0 -0.15868634814382429 0.46531473325554851 0 -0.160558198289461 0.46047642425523388 0 -0.15017718620881049 0.45777983735391498 0 -0.160558198289461 0.46047642425523388 0 -0.15995177900170021 0.44572512983606088 0 -0.15995177900170021 0.44572512983606088 0 -0.1655661766345953 0.45099185016729298 0 -0.1697263717945888 0.43367042231820602 0 -0.160558198289461 0.46047642425523388 0 -0.15995177900170021 0.44572512983606088 0 -0.1655661766345953 0.45099185016729298 0 -0.15995177900170021 0.44572512983606088 0 -0.1697263717945888 0.43367042231820602 0 -0.1655661766345953 0.45099185016729298 0 -0.1926513277646352 0.45119866261047992 0 -0.1697263717945888 0.43367042231820602 0 -0.1926513277646352 0.45119866261047992 0 -0.1697263717945888 0.43367042231820602 0 -0.1926513277646352 0.45119866261047992 0 -0.18693863061853061 0.43491447939059907 0 -0.1697263717945888 0.43367042231820602 0 -0.1655661766345953 0.45099185016729298 0 -0.17867327812258871 0.46114583139567922 0 -0.1926513277646352 0.45119866261047992 0 -0.17867327812258871 0.46114583139567922 0 -0.17876854714149509 0.47093865696285842 0 -0.16585225164495951 0.46980433890986678 0 -0.17867327812258871 0.46114583139567922 0 -0.1899884502156329 0.46461586120334353 0 -0.1926513277646352 0.45119866261047992 0 -0.17867327812258871 0.46114583139567922 0 -0.17876854714149509 0.47093865696285842 0 -0.1899884502156329 0.46461586120334353 0 -0.17876854714149509 0.47093865696285842 0 -0.19138341924764241 0.47827032896460842 0 -0.1899884502156329 0.46461586120334353 0 -0.1757986315986971 0.48088398659212228 0 -0.17876854714149509 0.47093865696285842 0 -0.19138341924764241 0.47827032896460842 0 -0.1757986315986971 0.48088398659212228 0 -0.17876854714149509 0.47093865696285842 0 -0.16585225164495951 0.46980433890986678 0 -0.16585225164495951 0.46980433890986678 0 -0.16613832665532341 0.48861682765244069 0 -0.16585225164495951 0.46980433890986678 0 -0.15815775643206659 0.473198332503178 0 -0.16613832665532341 0.48861682765244069 0 -0.1757986315986971 0.48088398659212228 0 -0.16585225164495951 0.46980433890986678 0 -0.16613832665532341 0.48861682765244069 0 -0.15313912830386001 0.48632871978955722 0 -0.15815775643206659 0.473198332503178 0 -0.16613832665532341 0.48861682765244069 0 -0.15815775643206659 0.473198332503178 0 -0.16613832665532341 0.48861682765244069 0 -0.15868634814382429 0.46531473325554851 0 -0.16585225164495951 0.46980433890986678 0 -0.15815775643206659 0.473198332503178 0 -0.15313912830386001 0.48632871978955722 0 -0.16613832665532341 0.48861682765244069 0 -0.1663114266205577 0.50000000000000011 0 -0.16613832665532341 0.48861682765244069 0 -0.1720302250152923 0.50000000000000022 0 -0.16613832665532341 0.48861682765244069 0 -0.1663114266205577 0.50000000000000011 0 -0.1720302250152923 0.50000000000000022 0 -0.16613832665532341 0.48861682765244069 0 -0.1663114266205577 0.50000000000000011 0 -0.16613832665532341 0.48861682765244069 0 -0.17430115969348189 0.49501483184612438 0 -0.1720302250152923 0.50000000000000022 0 -0.17430115969348189 0.49501483184612438 0 -0.1720302250152923 0.50000000000000022 0 -0.1982872987205446 0.5 0 -0.1757986315986971 0.48088398659212228 0 -0.17430115969348189 0.49501483184612438 0 -0.19138341924764241 0.47827032896460842 0 -0.17430115969348189 0.49501483184612438 0 -0.19138341924764241 0.47827032896460842 0 -0.1757986315986971 0.48088398659212228 0 -0.16613832665532341 0.48861682765244069 0 -0.17430115969348189 0.49501483184612438 0 -0.17430115969348189 0.49501483184612438 0 -0.1982872987205446 0.5 0 -0.19138341924764241 0.47827032896460842 0 -0.1982872987205446 0.5 0 -0.19138341924764241 0.47827032896460842 0 -0.21217809917650449 0.48030286392854288 0 -0.19138341924764241 0.47827032896460842 0 -0.208465678801803 0.46152582608309223 0 -0.19138341924764241 0.47827032896460842 0 -0.21217809917650449 0.48030286392854288 0 -0.208465678801803 0.46152582608309223 0 -0.1982872987205446 0.5 0 -0.21217809917650449 0.48030286392854288 0 -0.22454437242579681 0.5 0 -0.22454437242579681 0.5 0 -0.2288960980978284 0.47674808914996208 0 -0.2467553297522557 0.48147402383551691 0 -0.21217809917650449 0.48030286392854288 0 -0.22454437242579681 0.5 0 -0.2288960980978284 0.47674808914996208 0 -0.21217809917650449 0.48030286392854288 0 -0.2288960980978284 0.47674808914996208 0 -0.22325063631842021 0.46203708915627778 0 -0.25438198006151169 0.46464464965965441 0 -0.2467553297522557 0.48147402383551691 0 -0.2372897108761052 0.46028528898629889 0 -0.2288960980978284 0.47674808914996208 0 -0.2467553297522557 0.48147402383551691 0 -0.2372897108761052 0.46028528898629889 0 -0.25080144613104921 0.5 0 -0.22454437242579681 0.5 0 -0.2467553297522557 0.48147402383551691 0 -0.24356894722331929 0.44821508210096461 0 -0.22554793835596351 0.44478132320157598 0 -0.24263019791012411 0.42803682032005991 0 -0.24356894722331929 0.44821508210096461 0 -0.2372897108761052 0.46028528898629889 0 -0.22554793835596351 0.44478132320157598 0 -0.25799490891289278 0.4433273283372331 0 -0.24356894722331929 0.44821508210096461 0 -0.24263019791012411 0.42803682032005991 0 -0.25438198006151169 0.46464464965965441 0 -0.24356894722331929 0.44821508210096461 0 -0.2372897108761052 0.46028528898629889 0 -0.2288960980978284 0.47674808914996208 0 -0.2372897108761052 0.46028528898629889 0 -0.22325063631842021 0.46203708915627778 0 -0.2372897108761052 0.46028528898629889 0 -0.22325063631842021 0.46203708915627778 0 -0.22554793835596351 0.44478132320157598 0 -0.22325063631842021 0.46203708915627778 0 -0.22554793835596351 0.44478132320157598 0 -0.208465678801803 0.46152582608309223 0 -0.22554793835596351 0.44478132320157598 0 -0.20785557032720109 0.44518798724498809 0 -0.21437917226951189 0.43588067273166847 0 -0.22554793835596351 0.44478132320157598 0 -0.20785557032720109 0.44518798724498809 0 -0.208465678801803 0.46152582608309223 0 -0.22554793835596351 0.44478132320157598 0 -0.208465678801803 0.46152582608309223 0 -0.21217809917650449 0.48030286392854288 0 -0.22325063631842021 0.46203708915627778 0 -0.208465678801803 0.46152582608309223 0 -0.19138341924764241 0.47827032896460842 0 -0.208465678801803 0.46152582608309223 0 -0.1899884502156329 0.46461586120334353 0 -0.208465678801803 0.46152582608309223 0 -0.1899884502156329 0.46461586120334353 0 -0.1926513277646352 0.45119866261047992 0 -0.20785557032720109 0.44518798724498809 0 -0.1926513277646352 0.45119866261047992 0 -0.18693863061853061 0.43491447939059907 0 -0.20785557032720109 0.44518798724498809 0 -0.208465678801803 0.46152582608309223 0 -0.1926513277646352 0.45119866261047992 0 -0.19176926968858449 0.42488004754311998 0 -0.20430089696141959 0.42856004989685992 0 -0.18693863061853061 0.43491447939059907 0 -0.20785557032720109 0.44518798724498809 0 -0.20430089696141959 0.42856004989685992 0 -0.18693863061853061 0.43491447939059907 0 -0.19176926968858449 0.42488004754311998 0 -0.19667758679306771 0.41738623802377928 0 -0.20430089696141959 0.42856004989685992 0 -0.19667758679306771 0.41738623802377928 0 -0.19460267291041519 0.40299123798476227 0 -0.182164522352502 0.41833083015148409 0 -0.19460267291041519 0.40299123798476227 0 -0.182164522352502 0.41833083015148409 0 -0.19176926968858449 0.42488004754311998 0 -0.19667758679306771 0.41738623802377928 0 -0.182164522352502 0.41833083015148409 0 -0.19667758679306771 0.41738623802377928 0 -0.2074030129404133 0.4163894186605448 0 -0.20430089696141959 0.42856004989685992 0 -0.19667758679306771 0.41738623802377928 0 -0.2074030129404133 0.4163894186605448 0 -0.19460267291041519 0.40299123798476227 0 -0.2074030129404133 0.4163894186605448 0 -0.21981228343346321 0.42499333058324978 0 -0.22162162460370111 0.40801623681407218 0 -0.2074030129404133 0.4163894186605448 0 -0.22162162460370111 0.40801623681407218 0 -0.19460267291041519 0.40299123798476227 0 -0.20785557032720109 0.44518798724498809 0 -0.20430089696141959 0.42856004989685992 0 -0.21437917226951189 0.43588067273166847 0 -0.2074030129404133 0.4163894186605448 0 -0.20430089696141959 0.42856004989685992 0 -0.21981228343346321 0.42499333058324978 0 -0.20430089696141959 0.42856004989685992 0 -0.21437917226951189 0.43588067273166847 0 -0.21981228343346321 0.42499333058324978 0 -0.22554793835596351 0.44478132320157598 0 -0.24263019791012411 0.42803682032005991 0 -0.22554793835596351 0.44478132320157598 0 -0.2313941741476824 0.42795323546389102 0 -0.24263019791012411 0.42803682032005991 0 -0.22554793835596351 0.44478132320157598 0 -0.21437917226951189 0.43588067273166847 0 -0.21981228343346321 0.42499333058324978 0 -0.22554793835596351 0.44478132320157598 0 -0.2313941741476824 0.42795323546389102 0 -0.21981228343346321 0.42499333058324978 0 -0.2313941741476824 0.42795323546389102 0 -0.21981228343346321 0.42499333058324978 0 -0.2301621318308705 0.41771135234831969 0 -0.2313941741476824 0.42795323546389102 0 -0.2301621318308705 0.41771135234831969 0 -0.23881831920799079 0.42424335086624981 0 -0.21981228343346321 0.42499333058324978 0 -0.22162162460370111 0.40801623681407218 0 -0.2301621318308705 0.41771135234831969 0 -0.22162162460370111 0.40801623681407218 0 -0.2301621318308705 0.41771135234831969 0 -0.241034552697166 0.41286836770778501 0 -0.25157066981256843 0.40894445920752592 0 -0.241034552697166 0.41286836770778501 0 -0.24263019791012411 0.42803682032005991 0 -0.241034552697166 0.41286836770778501 0 -0.24263019791012411 0.42803682032005991 0 -0.23881831920799079 0.42424335086624981 0 -0.22162162460370111 0.40801623681407218 0 -0.241034552697166 0.41286836770778501 0 -0.24388213391773941 0.40163479241199579 0 -0.2301621318308705 0.41771135234831969 0 -0.241034552697166 0.41286836770778501 0 -0.23881831920799079 0.42424335086624981 0 -0.25157066981256843 0.40894445920752592 0 -0.241034552697166 0.41286836770778501 0 -0.24388213391773941 0.40163479241199579 0 -0.2313941741476824 0.42795323546389102 0 -0.24263019791012411 0.42803682032005991 0 -0.23881831920799079 0.42424335086624981 0 -0.24263019791012411 0.42803682032005991 0 -0.23881831920799079 0.42424335086624981 0 -0.25453646971320443 0.37462232419521813 0 -0.24781733580734391 0.38604582424895789 0 -0.23735930512057779 0.37349779701461089 0 -0.2365264908337599 0.38834162546439549 0 -0.24781733580734391 0.38604582424895789 0 -0.23735930512057779 0.37349779701461089 0 -0.2365264908337599 0.38834162546439549 0 -0.24781733580734391 0.38604582424895789 0 -0.24388213391773941 0.40163479241199579 0 -0.22162162460370111 0.40801623681407218 0 -0.24388213391773941 0.40163479241199579 0 -0.22162162460370111 0.40801623681407218 0 -0.2365264908337599 0.38834162546439549 0 -0.2225569648072106 0.38059728391652659 0 -0.22162162460370111 0.40801623681407218 0 -0.2365264908337599 0.38834162546439549 0 -0.24388213391773941 0.40163479241199579 0 -0.2365264908337599 0.38834162546439549 0 -0.2225569648072106 0.38059728391652659 0 -0.23735930512057779 0.37349779701461089 0 -0.2225569648072106 0.38059728391652659 0 -0.20545957084956781 0.38789926664213359 0 -0.1994770785436861 0.36691897370504389 0 -0.22162162460370111 0.40801623681407218 0 -0.2225569648072106 0.38059728391652659 0 -0.20545957084956781 0.38789926664213359 0 -0.22162162460370111 0.40801623681407218 0 -0.20545957084956781 0.38789926664213359 0 -0.19460267291041519 0.40299123798476227 0 -0.20545957084956781 0.38789926664213359 0 -0.19460267291041519 0.40299123798476227 0 -0.18736095772118591 0.3836472042370111 0 -0.20545957084956781 0.38789926664213359 0 -0.18736095772118591 0.3836472042370111 0 -0.1994770785436861 0.36691897370504389 0 -0.18736095772118591 0.3836472042370111 0 -0.16248792359233191 0.38534127627451031 0 -0.17644948136236779 0.3976803029940168 0 -0.18736095772118591 0.3836472042370111 0 -0.16248792359233191 0.38534127627451031 0 -0.1741500565645078 0.37123080613525078 0 -0.16248792359233191 0.38534127627451031 0 -0.16330635783110381 0.4038062271485704 0 -0.14438589058212131 0.3948348353259919 0 -0.16248792359233191 0.38534127627451031 0 -0.16330635783110381 0.4038062271485704 0 -0.17644948136236779 0.3976803029940168 0 -0.19460267291041519 0.40299123798476227 0 -0.17644948136236779 0.3976803029940168 0 -0.17778078602166139 0.40821888849324761 0 -0.19460267291041519 0.40299123798476227 0 -0.18736095772118591 0.3836472042370111 0 -0.17644948136236779 0.3976803029940168 0 -0.16330635783110381 0.4038062271485704 0 -0.17644948136236779 0.3976803029940168 0 -0.17778078602166139 0.40821888849324761 0 -0.19460267291041519 0.40299123798476227 0 -0.182164522352502 0.41833083015148409 0 -0.17778078602166139 0.40821888849324761 0 -0.182164522352502 0.41833083015148409 0 -0.1723808956519178 0.41828584418740389 0 -0.17778078602166139 0.40821888849324761 0 -0.19176926968858449 0.42488004754311998 0 -0.182164522352502 0.41833083015148409 0 -0.18693863061853061 0.43491447939059907 0 -0.182164522352502 0.41833083015148409 0 -0.18693863061853061 0.43491447939059907 0 -0.1697263717945888 0.43367042231820602 0 -0.182164522352502 0.41833083015148409 0 -0.1697263717945888 0.43367042231820602 0 -0.182164522352502 0.41833083015148409 0 -0.1723808956519178 0.41828584418740389 0 -0.1697263717945888 0.43367042231820602 0 -0.15995177900170021 0.44572512983606088 0 -0.1697263717945888 0.43367042231820602 0 -0.15376963845050121 0.4328235067909087 0 -0.1697263717945888 0.43367042231820602 0 -0.14650538949161929 0.41591584262955861 0 -0.15376963845050121 0.4328235067909087 0 -0.1697263717945888 0.43367042231820602 0 -0.14650538949161929 0.41591584262955861 0 -0.1723808956519178 0.41828584418740389 0 -0.1697263717945888 0.43367042231820602 0 -0.14650538949161929 0.41591584262955861 0 -0.1723808956519178 0.41828584418740389 0 -0.14650538949161929 0.41591584262955861 0 -0.16330635783110381 0.4038062271485704 0 -0.1723808956519178 0.41828584418740389 0 -0.14650538949161929 0.41591584262955861 0 -0.16330635783110381 0.4038062271485704 0 -0.1723808956519178 0.41828584418740389 0 -0.17778078602166139 0.40821888849324761 0 -0.14650538949161929 0.41591584262955861 0 -0.15376963845050121 0.4328235067909087 0 -0.13889501351409689 0.43598263237980822 0 -0.13889501351409689 0.43598263237980822 0 -0.12761284081938409 0.41418542740570108 0 -0.14650538949161929 0.41591584262955861 0 -0.13889501351409689 0.43598263237980822 0 -0.12761284081938409 0.41418542740570108 0 -0.13889501351409689 0.43598263237980822 0 -0.12761284081938409 0.41418542740570108 0 -0.1242648033483075 0.43981492828754482 0 -0.14650538949161929 0.41591584262955861 0 -0.12761284081938409 0.41418542740570108 0 -0.12644786621320531 0.40058001872868543 0 -0.14650538949161929 0.41591584262955861 0 -0.12644786621320531 0.40058001872868543 0 -0.14650538949161929 0.41591584262955861 0 -0.12761284081938409 0.41418542740570108 0 -0.14650538949161929 0.41591584262955861 0 -0.12644786621320531 0.40058001872868543 0 -0.14438589058212131 0.3948348353259919 0 -0.12644786621320531 0.40058001872868543 0 -0.12826940643264259 0.38638828685515292 0 -0.14438589058212131 0.3948348353259919 0 -0.1399268433138337 0.37661104245066729 0 -0.12826940643264259 0.38638828685515292 0 -0.1198206075896991 0.37069234566290138 0 -0.1399268433138337 0.37661104245066729 0 -0.12826940643264259 0.38638828685515292 0 -0.14438589058212131 0.3948348353259919 0 -0.16248792359233191 0.38534127627451031 0 -0.1399268433138337 0.37661104245066729 0 -0.1571746455416145 0.36408416689185819 0 -0.16248792359233191 0.38534127627451031 0 -0.1399268433138337 0.37661104245066729 0 -0.14438589058212131 0.3948348353259919 0 -0.16330635783110381 0.4038062271485704 0 -0.14650538949161929 0.41591584262955861 0 -0.14438589058212131 0.3948348353259919 0 -0.1367685514822152 0.35851885971508118 0 -0.13367478836053351 0.33932016938713638 0 -0.15331730601663701 0.3395623532820784 0 -0.1367685514822152 0.35851885971508118 0 -0.15331730601663701 0.3395623532820784 0 -0.1571746455416145 0.36408416689185819 0 -0.1399268433138337 0.37661104245066729 0 -0.1367685514822152 0.35851885971508118 0 -0.1571746455416145 0.36408416689185819 0 -0.1399268433138337 0.37661104245066729 0 -0.1367685514822152 0.35851885971508118 0 -0.1198206075896991 0.37069234566290138 0 -0.1367685514822152 0.35851885971508118 0 -0.13367478836053351 0.33932016938713638 0 -0.1173066256070304 0.35104950557859033 0 -0.13367478836053351 0.33932016938713638 0 -0.1262409447270301 0.3211703831111522 0 -0.1175879007316586 0.33497855513245622 0 -0.13367478836053351 0.33932016938713638 0 -0.1262409447270301 0.3211703831111522 0 -0.14995133854557879 0.31573290008088639 0 -0.1262409447270301 0.3211703831111522 0 -0.14995133854557879 0.31573290008088639 0 -0.13170636281121431 0.30540396541675668 0 -0.13367478836053351 0.33932016938713638 0 -0.14995133854557879 0.31573290008088639 0 -0.15331730601663701 0.3395623532820784 0 -0.15331730601663701 0.3395623532820784 0 -0.17079439025487569 0.32494122108339912 0 -0.1763971922801616 0.3532406634935612 0 -0.14995133854557879 0.31573290008088639 0 -0.17079439025487569 0.32494122108339912 0 -0.167164841548782 0.29891422322321631 0 -0.14995133854557879 0.31573290008088639 0 -0.15331730601663701 0.3395623532820784 0 -0.17079439025487569 0.32494122108339912 0 -0.17079439025487569 0.32494122108339912 0 -0.19256976679114979 0.33165381796875049 0 -0.19699128312530151 0.30504565645142051 0 -0.17079439025487569 0.32494122108339912 0 -0.1763971922801616 0.3532406634935612 0 -0.19256976679114979 0.33165381796875049 0 -0.15331730601663701 0.3395623532820784 0 -0.1763971922801616 0.3532406634935612 0 -0.1571746455416145 0.36408416689185819 0 -0.15331730601663701 0.3395623532820784 0 -0.1763971922801616 0.3532406634935612 0 -0.1763971922801616 0.3532406634935612 0 -0.1571746455416145 0.36408416689185819 0 -0.1741500565645078 0.37123080613525078 0 -0.16248792359233191 0.38534127627451031 0 -0.1571746455416145 0.36408416689185819 0 -0.1741500565645078 0.37123080613525078 0 -0.18736095772118591 0.3836472042370111 0 -0.1741500565645078 0.37123080613525078 0 -0.1994770785436861 0.36691897370504389 0 -0.1763971922801616 0.3532406634935612 0 -0.1741500565645078 0.37123080613525078 0 -0.1994770785436861 0.36691897370504389 0 -0.1763971922801616 0.3532406634935612 0 -0.1994770785436861 0.36691897370504389 0 -0.1763971922801616 0.3532406634935612 0 -0.20127160642404629 0.34878804965207372 0 -0.19256976679114979 0.33165381796875049 0 -0.1763971922801616 0.3532406634935612 0 -0.1994770785436861 0.36691897370504389 0 -0.20127160642404629 0.34878804965207372 0 -0.1994770785436861 0.36691897370504389 0 -0.20127160642404629 0.34878804965207372 0 -0.22480168799342179 0.35512276170724633 0 -0.20127160642404629 0.34878804965207372 0 -0.22480168799342179 0.35512276170724633 0 -0.2131123065118124 0.33700403138576668 0 -0.2225569648072106 0.38059728391652659 0 -0.1994770785436861 0.36691897370504389 0 -0.2225569648072106 0.38059728391652659 0 -0.1994770785436861 0.36691897370504389 0 -0.22480168799342179 0.35512276170724633 0 -0.2225569648072106 0.38059728391652659 0 -0.22480168799342179 0.35512276170724633 0 -0.23735930512057779 0.37349779701461089 0 -0.25368472498167011 0.34420349485172652 0 -0.22480168799342179 0.35512276170724633 0 -0.24822911175635759 0.36217347122335058 0 -0.22480168799342179 0.35512276170724633 0 -0.24822911175635759 0.36217347122335058 0 -0.23735930512057779 0.37349779701461089 0 -0.25453646971320443 0.37462232419521813 0 -0.24822911175635759 0.36217347122335058 0 -0.23735930512057779 0.37349779701461089 0 -0.25757488899104952 0.31786411623381933 0 -0.23478691102954721 0.33115088205162452 0 -0.2366570207200871 0.30010935915934539 0 -0.25368472498167011 0.34420349485172652 0 -0.22480168799342179 0.35512276170724633 0 -0.23478691102954721 0.33115088205162452 0 -0.25368472498167011 0.34420349485172652 0 -0.23478691102954721 0.33115088205162452 0 -0.25757488899104952 0.31786411623381933 0 -0.25368472498167011 0.34420349485172652 0 -0.23478691102954721 0.33115088205162452 0 -0.23478691102954721 0.33115088205162452 0 -0.2158890970774244 0.31809826925152251 0 -0.2131123065118124 0.33700403138576668 0 -0.22480168799342179 0.35512276170724633 0 -0.23478691102954721 0.33115088205162452 0 -0.2131123065118124 0.33700403138576668 0 -0.23478691102954721 0.33115088205162452 0 -0.2158890970774244 0.31809826925152251 0 -0.2366570207200871 0.30010935915934539 0 -0.23478691102954721 0.33115088205162452 0 -0.2158890970774244 0.31809826925152251 0 -0.2158890970774244 0.31809826925152251 0 -0.2131123065118124 0.33700403138576668 0 -0.19256976679114979 0.33165381796875049 0 -0.20127160642404629 0.34878804965207372 0 -0.2131123065118124 0.33700403138576668 0 -0.19256976679114979 0.33165381796875049 0 -0.2158890970774244 0.31809826925152251 0 -0.19256976679114979 0.33165381796875049 0 -0.19699128312530151 0.30504565645142051 0 -0.19699128312530151 0.30504565645142051 0 -0.2044220976180971 0.2747921468301005 0 -0.18537993383704029 0.28397978744787411 0 -0.19699128312530151 0.30504565645142051 0 -0.21636901433909059 0.29447561219915308 0 -0.2044220976180971 0.2747921468301005 0 -0.2158890970774244 0.31809826925152251 0 -0.19699128312530151 0.30504565645142051 0 -0.21636901433909059 0.29447561219915308 0 -0.2158890970774244 0.31809826925152251 0 -0.19699128312530151 0.30504565645142051 0 -0.2158890970774244 0.31809826925152251 0 -0.21636901433909059 0.29447561219915308 0 -0.2366570207200871 0.30010935915934539 0 -0.21636901433909059 0.29447561219915308 0 -0.2366570207200871 0.30010935915934539 0 -0.2235041758045673 0.27405874977876837 0 -0.26277913973510902 0.29023342414179659 0 -0.2366570207200871 0.30010935915934539 0 -0.2447247674615598 0.2718938593685879 0 -0.2366570207200871 0.30010935915934539 0 -0.2447247674615598 0.2718938593685879 0 -0.2235041758045673 0.27405874977876837 0 -0.25693865295534157 0.25278860643768353 0 -0.2416444700809012 0.25186566196455601 0 -0.2447247674615598 0.2718938593685879 0 -0.2416444700809012 0.25186566196455601 0 -0.2447247674615598 0.2718938593685879 0 -0.22667039518801041 0.25355429459537898 0 -0.2447247674615598 0.2718938593685879 0 -0.22667039518801041 0.25355429459537898 0 -0.2447247674615598 0.2718938593685879 0 -0.2235041758045673 0.27405874977876837 0 -0.22667039518801041 0.25355429459537898 0 -0.2235041758045673 0.27405874977876837 0 -0.22667039518801041 0.25355429459537898 0 -0.21218175950055909 0.24952722652004439 0 -0.2044220976180971 0.2747921468301005 0 -0.1929026130837673 0.25762258695206858 0 -0.21218175950055909 0.24952722652004439 0 -0.2044220976180971 0.2747921468301005 0 -0.21218175950055909 0.24952722652004439 0 -0.2235041758045673 0.27405874977876837 0 -0.2044220976180971 0.2747921468301005 0 -0.21218175950055909 0.24952722652004439 0 -0.21636901433909059 0.29447561219915308 0 -0.2235041758045673 0.27405874977876837 0 -0.2044220976180971 0.2747921468301005 0 -0.2044220976180971 0.2747921468301005 0 -0.1929026130837673 0.25762258695206858 0 -0.18537993383704029 0.28397978744787411 0 -0.1929026130837673 0.25762258695206858 0 -0.16582228118094081 0.26466105519565358 0 -0.18651378479530609 0.23505073182760211 0 -0.1929026130837673 0.25762258695206858 0 -0.16582228118094081 0.26466105519565358 0 -0.18537993383704029 0.28397978744787411 0 -0.16582228118094081 0.26466105519565358 0 -0.167164841548782 0.29891422322321631 0 -0.14136362158270599 0.28508793949713551 0 -0.16582228118094081 0.26466105519565358 0 -0.18537993383704029 0.28397978744787411 0 -0.167164841548782 0.29891422322321631 0 -0.19699128312530151 0.30504565645142051 0 -0.18537993383704029 0.28397978744787411 0 -0.167164841548782 0.29891422322321631 0 -0.17079439025487569 0.32494122108339912 0 -0.19699128312530151 0.30504565645142051 0 -0.167164841548782 0.29891422322321631 0 -0.167164841548782 0.29891422322321631 0 -0.14136362158270599 0.28508793949713551 0 -0.14995133854557879 0.31573290008088639 0 -0.167164841548782 0.29891422322321631 0 -0.14136362158270599 0.28508793949713551 0 -0.14995133854557879 0.31573290008088639 0 -0.14136362158270599 0.28508793949713551 0 -0.13170636281121431 0.30540396541675668 0 -0.1262409447270301 0.3211703831111522 0 -0.13170636281121431 0.30540396541675668 0 -0.1173504618646501 0.30916380798395637 0 -0.14136362158270599 0.28508793949713551 0 -0.13170636281121431 0.30540396541675668 0 -0.1202787732923796 0.29457691953651272 0 -0.14136362158270599 0.28508793949713551 0 -0.1196693143642453 0.28329908912575552 0 -0.1202787732923796 0.29457691953651272 0 -0.14136362158270599 0.28508793949713551 0 -0.1155624016166297 0.27126165577105521 0 -0.1196693143642453 0.28329908912575552 0 -0.14136362158270599 0.28508793949713551 0 -0.1155624016166297 0.27126165577105521 0 -0.12872708527658799 0.25991420809329241 0 -0.1416417428525672 0.26777243923482702 0 -0.1155624016166297 0.27126165577105521 0 -0.14136362158270599 0.28508793949713551 0 -0.1416417428525672 0.26777243923482702 0 -0.1155624016166297 0.27126165577105521 0 -0.12872708527658799 0.25991420809329241 0 -0.14534546737678511 0.25129379472131641 0 -0.1416417428525672 0.26777243923482702 0 -0.12872708527658799 0.25991420809329241 0 -0.14534546737678511 0.25129379472131641 0 -0.12470300375741469 0.2457033751303839 0 -0.16582228118094081 0.26466105519565358 0 -0.14534546737678511 0.25129379472131641 0 -0.1416417428525672 0.26777243923482702 0 -0.16582228118094081 0.26466105519565358 0 -0.14136362158270599 0.28508793949713551 0 -0.1416417428525672 0.26777243923482702 0 -0.1083690905562489 0.27746201143443072 0 -0.10470287070229969 0.27376422074294909 0 -0.09206590757372593 0.27740472432850488 0 -0.099741497972773749 0.27068482051400677 0 -0.1098053558875477 0.27272524579145851 0 -0.092391857727521592 0.25884509119311472 0 -0.1155624016166297 0.27126165577105521 0 -0.1098053558875477 0.27272524579145851 0 -0.092391857727521592 0.25884509119311472 0 -0.099741497972773749 0.27068482051400677 0 -0.09206590757372593 0.27740472432850488 0 -0.092391857727521592 0.25884509119311472 0 -0.10470287070229969 0.27376422074294909 0 -0.099741497972773749 0.27068482051400677 0 -0.1098053558875477 0.27272524579145851 0 -0.1083690905562489 0.27746201143443072 0 -0.1098053558875477 0.27272524579145851 0 -0.1083690905562489 0.27746201143443072 0 -0.10470287070229969 0.27376422074294909 0 -0.1098053558875477 0.27272524579145851 0 -0.10470287070229969 0.27376422074294909 0 -0.099741497972773749 0.27068482051400677 0 -0.09206590757372593 0.27740472432850488 0 -0.1155624016166297 0.27126165577105521 0 -0.092391857727521592 0.25884509119311472 0 -0.11076524853809321 0.25238606884059173 0 -0.1155624016166297 0.27126165577105521 0 -0.092391857727521592 0.25884509119311472 0 -0.11076524853809321 0.25238606884059173 0 -0.1199394347971814 0.25731632695883078 0 -0.1155624016166297 0.27126165577105521 0 -0.12872708527658799 0.25991420809329241 0 -0.1199394347971814 0.25731632695883078 0 -0.12470300375741469 0.2457033751303839 0 -0.11076524853809321 0.25238606884059173 0 -0.1199394347971814 0.25731632695883078 0 -0.12470300375741469 0.2457033751303839 0 -0.12872708527658799 0.25991420809329241 0 -0.1199394347971814 0.25731632695883078 0 -0.1155624016166297 0.27126165577105521 0 -0.12872708527658799 0.25991420809329241 0 -0.1155624016166297 0.27126165577105521 0 -0.1083690905562489 0.27746201143443072 0 -0.1155624016166297 0.27126165577105521 0 -0.1196693143642453 0.28329908912575552 0 -0.1083690905562489 0.27746201143443072 0 -0.1155624016166297 0.27126165577105521 0 -0.1098053558875477 0.27272524579145851 0 -0.1083690905562489 0.27746201143443072 0 -0.1155624016166297 0.27126165577105521 0 -0.1083690905562489 0.27746201143443072 0 -0.1202787732923796 0.29457691953651272 0 -0.1003457715998239 0.30392270831765028 0 -0.1083690905562489 0.27746201143443072 0 -0.1196693143642453 0.28329908912575552 0 -0.1202787732923796 0.29457691953651272 0 -0.1202787732923796 0.29457691953651272 0 -0.1173504618646501 0.30916380798395637 0 -0.1003457715998239 0.30392270831765028 0 -0.13170636281121431 0.30540396541675668 0 -0.1202787732923796 0.29457691953651272 0 -0.1173504618646501 0.30916380798395637 0 -0.1173504618646501 0.30916380798395637 0 -0.1003457715998239 0.30392270831765028 0 -0.1081804568928026 0.32074506353771021 0 -0.1083690905562489 0.27746201143443072 0 -0.08834593029567378 0.29472120043351602 0 -0.09206590757372593 0.27740472432850488 0 -0.1083690905562489 0.27746201143443072 0 -0.1003457715998239 0.30392270831765028 0 -0.08834593029567378 0.29472120043351602 0 -0.1083690905562489 0.27746201143443072 0 -0.1003457715998239 0.30392270831765028 0 -0.1083690905562489 0.27746201143443072 0 -0.08834593029567378 0.29472120043351602 0 -0.08834593029567378 0.29472120043351602 0 -0.079344374197139078 0.28508182268507098 0 -0.09206590757372593 0.27740472432850488 0 -0.08834593029567378 0.29472120043351602 0 -0.072463929930227558 0.29930610977545041 0 -0.077617967212061698 0.29366907382828078 0 -0.08834593029567378 0.29472120043351602 0 -0.079344374197139078 0.28508182268507098 0 -0.077617967212061698 0.29366907382828078 0 -0.08834593029567378 0.29472120043351602 0 -0.087527931766016032 0.31235393694025021 0 -0.08121949171140587 0.31012908581564408 0 -0.08834593029567378 0.29472120043351602 0 -0.068322770035098762 0.31198038943260148 0 -0.1003457715998239 0.30392270831765028 0 -0.08834593029567378 0.29472120043351602 0 -0.087527931766016032 0.31235393694025021 0 -0.08834593029567378 0.29472120043351602 0 -0.08121949171140587 0.31012908581564408 0 -0.069852456288818351 0.31207980665071 0 -0.08834593029567378 0.29472120043351602 0 -0.068322770035098762 0.31198038943260148 0 -0.069852456288818351 0.31207980665071 0 -0.08834593029567378 0.29472120043351602 0 -0.072463929930227558 0.29930610977545041 0 -0.068322770035098762 0.31198038943260148 0 -0.072463929930227558 0.29930610977545041 0 -0.064179569528432873 0.29754197169583518 0 -0.063962500348327456 0.30379626580195229 0 -0.072463929930227558 0.29930610977545041 0 -0.063962500348327456 0.30379626580195229 0 -0.068322770035098762 0.31198038943260148 0 -0.068322770035098762 0.31198038943260148 0 -0.069852456288818351 0.31207980665071 0 -0.079344374197139078 0.28508182268507098 0 -0.070510141993048517 0.29225124769799787 0 -0.067485792004003509 0.28106498521306011 0 -0.079344374197139078 0.28508182268507098 0 -0.077617967212061698 0.29366907382828078 0 -0.070510141993048517 0.29225124769799787 0 -0.072463929930227558 0.29930610977545041 0 -0.077617967212061698 0.29366907382828078 0 -0.070510141993048517 0.29225124769799787 0 -0.064179569528432873 0.29754197169583518 0 -0.070510141993048517 0.29225124769799787 0 -0.059799020663136082 0.29068729405280619 0 -0.072463929930227558 0.29930610977545041 0 -0.064179569528432873 0.29754197169583518 0 -0.070510141993048517 0.29225124769799787 0 -0.070510141993048517 0.29225124769799787 0 -0.067485792004003509 0.28106498521306011 0 -0.059799020663136082 0.29068729405280619 0 -0.079344374197139078 0.28508182268507098 0 -0.077112635008727601 0.26938653581869981 0 -0.067485792004003509 0.28106498521306011 0 -0.077112635008727601 0.26938653581869981 0 -0.067485792004003509 0.28106498521306011 0 -0.060296114269721542 0.26705395206363342 0 -0.079344374197139078 0.28508182268507098 0 -0.077112635008727601 0.26938653581869981 0 -0.09206590757372593 0.27740472432850488 0 -0.077112635008727601 0.26938653581869981 0 -0.09206590757372593 0.27740472432850488 0 -0.092391857727521592 0.25884509119311472 0 -0.092391857727521592 0.25884509119311472 0 -0.069221313838413207 0.24642852661517459 0 -0.077112635008727601 0.26938653581869981 0 -0.092391857727521592 0.25884509119311472 0 -0.069221313838413207 0.24642852661517459 0 -0.077112635008727601 0.26938653581869981 0 -0.060296114269721542 0.26705395206363342 0 -0.069221313838413207 0.24642852661517459 0 -0.048126263350958612 0.25465777805589501 0 -0.060296114269721542 0.26705395206363342 0 -0.069221313838413207 0.24642852661517459 0 -0.048126263350958612 0.25465777805589501 0 -0.060296114269721542 0.26705395206363342 0 -0.041784573477856593 0.2719242686623195 0 -0.055384127889045079 0.27986410773994991 0 -0.060296114269721542 0.26705395206363342 0 -0.041784573477856593 0.2719242686623195 0 -0.055384127889045079 0.27986410773994991 0 -0.041784573477856593 0.2719242686623195 0 -0.044370237993260717 0.29032640624232281 0 -0.067485792004003509 0.28106498521306011 0 -0.055384127889045079 0.27986410773994991 0 -0.060296114269721542 0.26705395206363342 0 -0.041784573477856593 0.2719242686623195 0 -0.028053557715267439 0.25838243531431121 0 -0.02550209953536561 0.27186686885002359 0 -0.041784573477856593 0.2719242686623195 0 -0.02550209953536561 0.27186686885002359 0 -0.031040102747703489 0.28267752730564011 0 -0.048126263350958612 0.25465777805589501 0 -0.041784573477856593 0.2719242686623195 0 -0.028053557715267439 0.25838243531431121 0 -0.048126263350958612 0.25465777805589501 0 -0.028053557715267439 0.25838243531431121 0 -0.033382390283993792 0.24359412621706661 0 -0.028053557715267439 0.25838243531431121 0 -0.01504563196256534 0.26333196488375049 0 -0.01778818590069102 0.2421293126167848 0 -0.01504563196256534 0.26333196488375049 0 -0.01778818590069102 0.2421293126167848 0 -0.028053557715267439 0.25838243531431121 0 -0.02550209953536561 0.27186686885002359 0 -0.01504563196256534 0.26333196488375049 0 -0.028053557715267439 0.25838243531431121 0 -0.01504563196256534 0.26333196488375049 0 -0.02550209953536561 0.27186686885002359 0 -0.01214761008608776 0.28573653795517551 0 -0.031040102747703489 0.28267752730564011 0 -0.02550209953536561 0.27186686885002359 0 -0.01504563196256534 0.26333196488375049 0 -0.01214761008608776 0.28573653795517551 0 -0.001267499687089951 0.2776013217203892 0 -0.01504563196256534 0.26333196488375049 0 -0.01214761008608776 0.28573653795517551 0 -0.01504563196256534 0.26333196488375049 0 -0.01214761008608776 0.28573653795517551 0 -0.00067809962666212902 0.26216505597133072 0 -0.01504563196256534 0.26333196488375049 0 0.010965700908337589 0.27322930467739909 0 -0.001267499687089951 0.2776013217203892 0 -0.01504563196256534 0.26333196488375049 0 0.010965700908337589 0.27322930467739909 0 -0.01504563196256534 0.26333196488375049 0 0.010965700908337589 0.27322930467739909 0 -0.0087132352456033638 0.25173417187717928 0 -0.01504563196256534 0.26333196488375049 0 -0.01778818590069102 0.2421293126167848 0 -0.00067809962666212902 0.26216505597133072 0 -0.0087132352456033638 0.25173417187717928 0 0.0027594708259384838 0.25829047161104352 0 -0.00067809962666212902 0.26216505597133072 0 -0.0087132352456033638 0.25173417187717928 0 -0.01504563196256534 0.26333196488375049 0 -0.009249588209606344 0.30814111102660002 0 -0.01214761008608776 0.28573653795517551 0 0.0038021096493471361 0.29689124930627131 0 -0.009249588209606344 0.30814111102660002 0 -0.01214761008608776 0.28573653795517551 0 -0.01214761008608776 0.28573653795517551 0 0.002380999114604244 0.28599596302517022 0 0.0038021096493471361 0.29689124930627131 0 -0.001267499687089951 0.2776013217203892 0 -0.01214761008608776 0.28573653795517551 0 0.002380999114604244 0.28599596302517022 0 -0.009249588209606344 0.30814111102660002 0 -0.01214761008608776 0.28573653795517551 0 -0.02711874363180217 0.2953884665518679 0 -0.01214761008608776 0.28573653795517551 0 -0.031040102747703489 0.28267752730564011 0 -0.02711874363180217 0.2953884665518679 0 -0.009249588209606344 0.30814111102660002 0 -0.02711874363180217 0.2953884665518679 0 -0.038786179122352507 0.31006075022960111 0 -0.009249588209606344 0.30814111102660002 0 -0.038786179122352507 0.31006075022960111 0 -0.02711874363180217 0.2953884665518679 0 -0.038786179122352507 0.31006075022960111 0 -0.044370237993260717 0.29032640624232281 0 -0.038786179122352507 0.31006075022960111 0 -0.044370237993260717 0.29032640624232281 0 -0.054162254707424723 0.30166894115096898 0 -0.031040102747703489 0.28267752730564011 0 -0.02711874363180217 0.2953884665518679 0 -0.044370237993260717 0.29032640624232281 0 -0.041784573477856593 0.2719242686623195 0 -0.031040102747703489 0.28267752730564011 0 -0.044370237993260717 0.29032640624232281 0 -0.055384127889045079 0.27986410773994991 0 -0.044370237993260717 0.29032640624232281 0 -0.059799020663136082 0.29068729405280619 0 -0.044370237993260717 0.29032640624232281 0 -0.059799020663136082 0.29068729405280619 0 -0.054162254707424723 0.30166894115096898 0 -0.064179569528432873 0.29754197169583518 0 -0.059799020663136082 0.29068729405280619 0 -0.054162254707424723 0.30166894115096898 0 -0.067485792004003509 0.28106498521306011 0 -0.055384127889045079 0.27986410773994991 0 -0.059799020663136082 0.29068729405280619 0 -0.068322770035098762 0.31198038943260148 0 -0.038786179122352507 0.31006075022960111 0 -0.068322770035098762 0.31198038943260148 0 -0.038786179122352507 0.31006075022960111 0 -0.054162254707424723 0.30166894115096898 0 -0.064179569528432873 0.29754197169583518 0 -0.063962500348327456 0.30379626580195229 0 -0.054162254707424723 0.30166894115096898 0 -0.063962500348327456 0.30379626580195229 0 -0.068322770035098762 0.31198038943260148 0 -0.054162254707424723 0.30166894115096898 0 -0.068322770035098762 0.31198038943260148 0 -0.038786179122352507 0.31006075022960111 0 -0.053879496619987192 0.32442993198196868 0 -0.068322770035098762 0.31198038943260148 0 -0.053879496619987192 0.32442993198196868 0 -0.059045099567240703 0.33862263320968672 0 -0.059976501396798443 0.34640013057040159 0 -0.068046633572776155 0.34513696516333192 0 -0.053879496619987192 0.32442993198196868 0 -0.059045099567240703 0.33862263320968672 0 -0.06815446288386498 0.3263880450875648 0 -0.053879496619987192 0.32442993198196868 0 -0.059045099567240703 0.33862263320968672 0 -0.049717572699208172 0.33977374392884352 0 -0.053879496619987192 0.32442993198196868 0 -0.049717572699208172 0.33977374392884352 0 -0.039436223204876379 0.33687947453133682 0 -0.059045099567240703 0.33862263320968672 0 -0.049717572699208172 0.33977374392884352 0 -0.052933118771744558 0.34753778728834739 0 -0.049717572699208172 0.33977374392884352 0 -0.039436223204876379 0.33687947453133682 0 -0.045752302425533672 0.34929255203680049 0 -0.053879496619987192 0.32442993198196868 0 -0.039436223204876379 0.33687947453133682 0 -0.039359444206513459 0.32419621080282812 0 -0.053879496619987192 0.32442993198196868 0 -0.039436223204876379 0.33687947453133682 0 -0.039436223204876379 0.33687947453133682 0 -0.039359444206513459 0.32419621080282812 0 -0.02531264429424256 0.33765677836634578 0 -0.039436223204876379 0.33687947453133682 0 -0.02531264429424256 0.33765677836634578 0 -0.034795741464765127 0.3466441775467104 0 -0.038786179122352507 0.31006075022960111 0 -0.053879496619987192 0.32442993198196868 0 -0.039359444206513459 0.32419621080282812 0 -0.038786179122352507 0.31006075022960111 0 -0.039359444206513459 0.32419621080282812 0 -0.024068293084679539 0.32272721199300619 0 -0.009249588209606344 0.30814111102660002 0 -0.038786179122352507 0.31006075022960111 0 -0.024068293084679539 0.32272721199300619 0 -0.024068293084679539 0.32272721199300619 0 -0.02531264429424256 0.33765677836634578 0 -0.005758602284471958 0.33512988219008361 0 -0.039359444206513459 0.32419621080282812 0 -0.024068293084679539 0.32272721199300619 0 -0.02531264429424256 0.33765677836634578 0 -0.005758602284471958 0.33512988219008361 0 -0.0077202170519437719 0.34710906184019069 0 0.0082446038140756572 0.34376242611402219 0 -0.02531264429424256 0.33765677836634578 0 -0.005758602284471958 0.33512988219008361 0 -0.0077202170519437719 0.34710906184019069 0 -0.009249588209606344 0.30814111102660002 0 -0.005758602284471958 0.33512988219008361 0 0.0094307060340404689 0.32376070079746733 0 -0.009249588209606344 0.30814111102660002 0 -0.005758602284471958 0.33512988219008361 0 -0.009249588209606344 0.30814111102660002 0 -0.024068293084679539 0.32272721199300619 0 -0.005758602284471958 0.33512988219008361 0 -0.0045677851665312944 0.36532665559408428 0 -0.0087141207398781558 0.37710904293520409 0 0.0077169544749549623 0.36306791211952738 0 -0.0045677851665312944 0.36532665559408428 0 -0.019623601183504629 0.35541479533684739 0 -0.0087141207398781558 0.37710904293520409 0 -0.0087141207398781558 0.37710904293520409 0 0.0077169544749549623 0.36306791211952738 0 -0.0077202170519437719 0.34710906184019069 0 -0.019623601183504629 0.35541479533684739 0 0.0038095970876644218 0.35606187191015221 0 -0.019623601183504629 0.35541479533684739 0 0.0038095970876644218 0.35606187191015221 0 -0.0045677851665312944 0.36532665559408428 0 -0.019623601183504629 0.35541479533684739 0 0.0038095970876644218 0.35606187191015221 0 -0.02531264429424256 0.33765677836634578 0 -0.019623601183504629 0.35541479533684739 0 -0.034795741464765127 0.3466441775467104 0 -0.02531264429424256 0.33765677836634578 0 -0.0077202170519437719 0.34710906184019069 0 -0.019623601183504629 0.35541479533684739 0 -0.019623601183504629 0.35541479533684739 0 -0.034100997704691827 0.37295894625721099 0 -0.0087141207398781558 0.37710904293520409 0 -0.019623601183504629 0.35541479533684739 0 -0.034100997704691827 0.37295894625721099 0 -0.043056799454673583 0.35476771876354157 0 -0.034100997704691827 0.37295894625721099 0 -0.047131069669461997 0.36807368878450081 0 -0.054593457040109393 0.3822816536988497 0 -0.034100997704691827 0.37295894625721099 0 -0.043056799454673583 0.35476771876354157 0 -0.034100997704691827 0.37295894625721099 0 -0.043056799454673583 0.35476771876354157 0 -0.047131069669461997 0.36807368878450081 0 -0.019623601183504629 0.35541479533684739 0 -0.043056799454673583 0.35476771876354157 0 -0.019623601183504629 0.35541479533684739 0 -0.034795741464765127 0.3466441775467104 0 -0.043056799454673583 0.35476771876354157 0 -0.043056799454673583 0.35476771876354157 0 -0.045752302425533672 0.34929255203680049 0 -0.039436223204876379 0.33687947453133682 0 -0.034795741464765127 0.3466441775467104 0 -0.045752302425533672 0.34929255203680049 0 -0.034795741464765127 0.3466441775467104 0 -0.043056799454673583 0.35476771876354157 0 -0.045752302425533672 0.34929255203680049 0 -0.043056799454673583 0.35476771876354157 0 -0.052933118771744558 0.34753778728834739 0 -0.059881153675432383 0.35430313662024071 0 -0.043056799454673583 0.35476771876354157 0 -0.059881153675432383 0.35430313662024071 0 -0.051828064233363932 0.36038047858465339 0 -0.043056799454673583 0.35476771876354157 0 -0.059881153675432383 0.35430313662024071 0 -0.043056799454673583 0.35476771876354157 0 -0.045752302425533672 0.34929255203680049 0 -0.052933118771744558 0.34753778728834739 0 -0.049717572699208172 0.33977374392884352 0 -0.045752302425533672 0.34929255203680049 0 -0.052933118771744558 0.34753778728834739 0 -0.059881153675432383 0.35430313662024071 0 -0.051828064233363932 0.36038047858465339 0 -0.058626870601395778 0.36023180910453118 0 -0.059045099567240703 0.33862263320968672 0 -0.052933118771744558 0.34753778728834739 0 -0.059976501396798443 0.34640013057040159 0 -0.052933118771744558 0.34753778728834739 0 -0.059881153675432383 0.35430313662024071 0 -0.059976501396798443 0.34640013057040159 0 -0.047131069669461997 0.36807368878450081 0 -0.054116187566776573 0.36544526432200969 0 -0.058148679921659119 0.37186744297544022 0 -0.047131069669461997 0.36807368878450081 0 -0.058148679921659119 0.37186744297544022 0 -0.054593457040109393 0.3822816536988497 0 -0.043056799454673583 0.35476771876354157 0 -0.047131069669461997 0.36807368878450081 0 -0.051828064233363932 0.36038047858465339 0 -0.047131069669461997 0.36807368878450081 0 -0.051828064233363932 0.36038047858465339 0 -0.054116187566776573 0.36544526432200969 0 -0.054116187566776573 0.36544526432200969 0 -0.058626870601395778 0.36023180910453118 0 -0.058148679921659119 0.37186744297544022 0 -0.051828064233363932 0.36038047858465339 0 -0.054116187566776573 0.36544526432200969 0 -0.058626870601395778 0.36023180910453118 0 -0.058626870601395778 0.36023180910453118 0 -0.058148679921659119 0.37186744297544022 0 -0.076275814730551866 0.38330479896731001 0 -0.058626870601395778 0.36023180910453118 0 -0.071157696118109362 0.36170448025062218 0 -0.076275814730551866 0.38330479896731001 0 -0.071157696118109362 0.36170448025062218 0 -0.084299133686975572 0.35684410208409001 0 -0.076275814730551866 0.38330479896731001 0 -0.058626870601395778 0.36023180910453118 0 -0.076275814730551866 0.38330479896731001 0 -0.084299133686975572 0.35684410208409001 0 -0.089436666146690338 0.3774527594588406 0 -0.076275814730551866 0.38330479896731001 0 -0.084299133686975572 0.35684410208409001 0 -0.076275814730551866 0.38330479896731001 0 -0.093494049974744503 0.36523362229143391 0 -0.084299133686975572 0.35684410208409001 0 -0.089436666146690338 0.3774527594588406 0 -0.084299133686975572 0.35684410208409001 0 -0.076705507896191183 0.35383855447693902 0 -0.080753986599573127 0.33990497651870988 0 -0.084299133686975572 0.35684410208409001 0 -0.092322452643399749 0.33038340520087017 0 -0.095141502753968779 0.35097174187852381 0 -0.093494049974744503 0.36523362229143391 0 -0.084299133686975572 0.35684410208409001 0 -0.095141502753968779 0.35097174187852381 0 -0.059881153675432383 0.35430313662024071 0 -0.071157696118109362 0.36170448025062218 0 -0.076705507896191183 0.35383855447693902 0 -0.076705507896191183 0.35383855447693902 0 -0.068046633572776155 0.34513696516333192 0 -0.080753986599573127 0.33990497651870988 0 -0.059881153675432383 0.35430313662024071 0 -0.076705507896191183 0.35383855447693902 0 -0.068046633572776155 0.34513696516333192 0 -0.059881153675432383 0.35430313662024071 0 -0.076705507896191183 0.35383855447693902 0 -0.071157696118109362 0.36170448025062218 0 -0.084299133686975572 0.35684410208409001 0 -0.076705507896191183 0.35383855447693902 0 -0.059881153675432383 0.35430313662024071 0 -0.058626870601395778 0.36023180910453118 0 -0.071157696118109362 0.36170448025062218 0 -0.059881153675432383 0.35430313662024071 0 -0.059976501396798443 0.34640013057040159 0 -0.068046633572776155 0.34513696516333192 0 -0.06815446288386498 0.3263880450875648 0 -0.079151648495115301 0.32136139923810009 0 -0.080753986599573127 0.33990497651870988 0 -0.068046633572776155 0.34513696516333192 0 -0.06815446288386498 0.3263880450875648 0 -0.080753986599573127 0.33990497651870988 0 -0.059045099567240703 0.33862263320968672 0 -0.068046633572776155 0.34513696516333192 0 -0.06815446288386498 0.3263880450875648 0 -0.068322770035098762 0.31198038943260148 0 -0.069852456288818351 0.31207980665071 0 -0.06815446288386498 0.3263880450875648 0 -0.068322770035098762 0.31198038943260148 0 -0.053879496619987192 0.32442993198196868 0 -0.06815446288386498 0.3263880450875648 0 -0.08121949171140587 0.31012908581564408 0 -0.069852456288818351 0.31207980665071 0 -0.079151648495115301 0.32136139923810009 0 -0.069852456288818351 0.31207980665071 0 -0.06815446288386498 0.3263880450875648 0 -0.079151648495115301 0.32136139923810009 0 -0.087527931766016032 0.31235393694025021 0 -0.079151648495115301 0.32136139923810009 0 -0.092322452643399749 0.33038340520087017 0 -0.1003457715998239 0.30392270831765028 0 -0.087527931766016032 0.31235393694025021 0 -0.092322452643399749 0.33038340520087017 0 -0.087527931766016032 0.31235393694025021 0 -0.08121949171140587 0.31012908581564408 0 -0.079151648495115301 0.32136139923810009 0 -0.084299133686975572 0.35684410208409001 0 -0.092322452643399749 0.33038340520087017 0 -0.079151648495115301 0.32136139923810009 0 -0.092322452643399749 0.33038340520087017 0 -0.080753986599573127 0.33990497651870988 0 -0.084299133686975572 0.35684410208409001 0 -0.092322452643399749 0.33038340520087017 0 -0.080753986599573127 0.33990497651870988 0 -0.092322452643399749 0.33038340520087017 0 -0.10472406897533799 0.34168768652513631 0 -0.095141502753968779 0.35097174187852381 0 -0.092322452643399749 0.33038340520087017 0 -0.10472406897533799 0.34168768652513631 0 -0.1081804568928026 0.32074506353771021 0 -0.1003457715998239 0.30392270831765028 0 -0.092322452643399749 0.33038340520087017 0 -0.1003457715998239 0.30392270831765028 0 -0.092322452643399749 0.33038340520087017 0 -0.1081804568928026 0.32074506353771021 0 -0.1262409447270301 0.3211703831111522 0 -0.1173504618646501 0.30916380798395637 0 -0.1081804568928026 0.32074506353771021 0 -0.1262409447270301 0.3211703831111522 0 -0.1081804568928026 0.32074506353771021 0 -0.1175879007316586 0.33497855513245622 0 -0.13367478836053351 0.33932016938713638 0 -0.1175879007316586 0.33497855513245622 0 -0.1173066256070304 0.35104950557859033 0 -0.10472406897533799 0.34168768652513631 0 -0.1081804568928026 0.32074506353771021 0 -0.1175879007316586 0.33497855513245622 0 -0.10472406897533799 0.34168768652513631 0 -0.1175879007316586 0.33497855513245622 0 -0.1173066256070304 0.35104950557859033 0 -0.1173066256070304 0.35104950557859033 0 -0.1198206075896991 0.37069234566290138 0 -0.1030551893938276 0.35978992576853291 0 -0.1367685514822152 0.35851885971508118 0 -0.1173066256070304 0.35104950557859033 0 -0.1198206075896991 0.37069234566290138 0 -0.1198206075896991 0.37069234566290138 0 -0.1030551893938276 0.35978992576853291 0 -0.10026372758235801 0.37465761506622741 0 -0.093494049974744503 0.36523362229143391 0 -0.10026372758235801 0.37465761506622741 0 -0.089436666146690338 0.3774527594588406 0 -0.093494049974744503 0.36523362229143391 0 -0.1030551893938276 0.35978992576853291 0 -0.10026372758235801 0.37465761506622741 0 -0.10472406897533799 0.34168768652513631 0 -0.1030551893938276 0.35978992576853291 0 -0.095141502753968779 0.35097174187852381 0 -0.093494049974744503 0.36523362229143391 0 -0.1030551893938276 0.35978992576853291 0 -0.095141502753968779 0.35097174187852381 0 -0.10472406897533799 0.34168768652513631 0 -0.1173066256070304 0.35104950557859033 0 -0.1030551893938276 0.35978992576853291 0 -0.101128536279416 0.3977608810528192 0 -0.11378235269799521 0.38746486633725291 0 -0.11258596611237601 0.40408595479252452 0 -0.101128536279416 0.3977608810528192 0 -0.095244926421122186 0.38729621463576269 0 -0.11378235269799521 0.38746486633725291 0 -0.101128536279416 0.3977608810528192 0 -0.11258596611237601 0.40408595479252452 0 -0.097808874238227678 0.41145560844912898 0 -0.101128536279416 0.3977608810528192 0 -0.097808874238227678 0.41145560844912898 0 -0.087042344484389883 0.39738020370821953 0 -0.101128536279416 0.3977608810528192 0 -0.095244926421122186 0.38729621463576269 0 -0.087042344484389883 0.39738020370821953 0 -0.10026372758235801 0.37465761506622741 0 -0.095244926421122186 0.38729621463576269 0 -0.11378235269799521 0.38746486633725291 0 -0.10026372758235801 0.37465761506622741 0 -0.095244926421122186 0.38729621463576269 0 -0.089436666146690338 0.3774527594588406 0 -0.1198206075896991 0.37069234566290138 0 -0.10026372758235801 0.37465761506622741 0 -0.11378235269799521 0.38746486633725291 0 -0.12826940643264259 0.38638828685515292 0 -0.1198206075896991 0.37069234566290138 0 -0.11378235269799521 0.38746486633725291 0 -0.12644786621320531 0.40058001872868543 0 -0.12826940643264259 0.38638828685515292 0 -0.11378235269799521 0.38746486633725291 0 -0.12761284081938409 0.41418542740570108 0 -0.11378235269799521 0.38746486633725291 0 -0.12761284081938409 0.41418542740570108 0 -0.12644786621320531 0.40058001872868543 0 -0.11378235269799521 0.38746486633725291 0 -0.12761284081938409 0.41418542740570108 0 -0.11378235269799521 0.38746486633725291 0 -0.11258596611237601 0.40408595479252452 0 -0.12761284081938409 0.41418542740570108 0 -0.11258596611237601 0.40408595479252452 0 -0.097808874238227678 0.41145560844912898 0 -0.12761284081938409 0.41418542740570108 0 -0.1126245701039178 0.4308246085444013 0 -0.097808874238227678 0.41145560844912898 0 -0.12761284081938409 0.41418542740570108 0 -0.097808874238227678 0.41145560844912898 0 -0.12761284081938409 0.41418542740570108 0 -0.1126245701039178 0.4308246085444013 0 -0.1242648033483075 0.43981492828754482 0 -0.1126245701039178 0.4308246085444013 0 -0.096605527178418776 0.42311346390882398 0 -0.097170403390676049 0.43571281837191522 0 -0.1126245701039178 0.4308246085444013 0 -0.097170403390676049 0.43571281837191522 0 -0.10338783084247161 0.44098956532991213 0 -0.1126245701039178 0.4308246085444013 0 -0.097808874238227678 0.41145560844912898 0 -0.1126245701039178 0.4308246085444013 0 -0.096605527178418776 0.42311346390882398 0 -0.097808874238227678 0.41145560844912898 0 -0.096605527178418776 0.42311346390882398 0 -0.097808874238227678 0.41145560844912898 0 -0.090623427087895073 0.41079747558654428 0 -0.097808874238227678 0.41145560844912898 0 -0.090623427087895073 0.41079747558654428 0 -0.096605527178418776 0.42311346390882398 0 -0.090623427087895073 0.41079747558654428 0 -0.084800361071377284 0.4267768085921303 0 -0.090623427087895073 0.41079747558654428 0 -0.084347825254610875 0.40943513047528779 0 -0.084800361071377284 0.4267768085921303 0 -0.084800361071377284 0.4267768085921303 0 -0.074925168374781331 0.40278603401425761 0 -0.084347825254610875 0.40943513047528779 0 -0.084800361071377284 0.4267768085921303 0 -0.074925168374781331 0.40278603401425761 0 -0.097808874238227678 0.41145560844912898 0 -0.090623427087895073 0.41079747558654428 0 -0.087042344484389883 0.39738020370821953 0 -0.096605527178418776 0.42311346390882398 0 -0.097170403390676049 0.43571281837191522 0 -0.084800361071377284 0.4267768085921303 0 -0.084800361071377284 0.4267768085921303 0 -0.077689053426030094 0.43734830183904833 0 -0.073740177733494089 0.43015549729097768 0 -0.084800361071377284 0.4267768085921303 0 -0.077689053426030094 0.43734830183904833 0 -0.085627028266785254 0.44117175463919189 0 -0.077689053426030094 0.43734830183904833 0 -0.073740177733494089 0.43015549729097768 0 -0.069373851585076945 0.43677151010665521 0 -0.084800361071377284 0.4267768085921303 0 -0.073740177733494089 0.43015549729097768 0 -0.074963529381557356 0.42372471124402672 0 -0.084800361071377284 0.4267768085921303 0 -0.074963529381557356 0.42372471124402672 0 -0.074207610301873977 0.415826985147286 0 -0.073740177733494089 0.43015549729097768 0 -0.07134827269677288 0.42521816639912852 0 -0.067010261651664849 0.42692585223643509 0 -0.073740177733494089 0.43015549729097768 0 -0.074963529381557356 0.42372471124402672 0 -0.07134827269677288 0.42521816639912852 0 -0.074963529381557356 0.42372471124402672 0 -0.07134827269677288 0.42521816639912852 0 -0.069903249343569923 0.42035209495099629 0 -0.06803153127557314 0.42418340705062968 0 -0.063864341410284964 0.42423751461595932 0 -0.069903249343569923 0.42035209495099629 0 -0.07134827269677288 0.42521816639912852 0 -0.06803153127557314 0.42418340705062968 0 -0.067010261651664849 0.42692585223643509 0 -0.07134827269677288 0.42521816639912852 0 -0.06803153127557314 0.42418340705062968 0 -0.069903249343569923 0.42035209495099629 0 -0.06803153127557314 0.42418340705062968 0 -0.063864341410284964 0.42423751461595932 0 -0.067010261651664849 0.42692585223643509 0 -0.063864341410284964 0.42423751461595932 0 -0.067010261651664849 0.42692585223643509 0 -0.067010261651664849 0.42692585223643509 0 -0.06657591115514655 0.43192586875325267 0 -0.062357688865182517 0.42920641545622512 0 -0.063864341410284964 0.42423751461595932 0 -0.067010261651664849 0.42692585223643509 0 -0.062357688865182517 0.42920641545622512 0 -0.063864341410284964 0.42423751461595932 0 -0.062357688865182517 0.42920641545622512 0 -0.073740177733494089 0.43015549729097768 0 -0.067010261651664849 0.42692585223643509 0 -0.06657591115514655 0.43192586875325267 0 -0.073740177733494089 0.43015549729097768 0 -0.06657591115514655 0.43192586875325267 0 -0.069373851585076945 0.43677151010665521 0 -0.06657591115514655 0.43192586875325267 0 -0.062750456602468974 0.43554137489064498 0 -0.062357688865182517 0.42920641545622512 0 -0.06657591115514655 0.43192586875325267 0 -0.062750456602468974 0.43554137489064498 0 -0.069373851585076945 0.43677151010665521 0 -0.063864341410284964 0.42423751461595932 0 -0.069903249343569923 0.42035209495099629 0 -0.070070078070418332 0.40377115679163461 0 -0.074207610301873977 0.415826985147286 0 -0.069903249343569923 0.42035209495099629 0 -0.070070078070418332 0.40377115679163461 0 -0.063864341410284964 0.42423751461595932 0 -0.070070078070418332 0.40377115679163461 0 -0.058881304157308093 0.40804381518971672 0 -0.063864341410284964 0.42423751461595932 0 -0.070070078070418332 0.40377115679163461 0 -0.084800361071377284 0.4267768085921303 0 -0.074207610301873977 0.415826985147286 0 -0.074925168374781331 0.40278603401425761 0 -0.074207610301873977 0.415826985147286 0 -0.070070078070418332 0.40377115679163461 0 -0.074925168374781331 0.40278603401425761 0 -0.074963529381557356 0.42372471124402672 0 -0.074207610301873977 0.415826985147286 0 -0.069903249343569923 0.42035209495099629 0 -0.070070078070418332 0.40377115679163461 0 -0.064506344576777661 0.39145758865641178 0 -0.076275814730551866 0.38330479896731001 0 -0.070070078070418332 0.40377115679163461 0 -0.074925168374781331 0.40278603401425761 0 -0.076275814730551866 0.38330479896731001 0 -0.070070078070418332 0.40377115679163461 0 -0.076275814730551866 0.38330479896731001 0 -0.070070078070418332 0.40377115679163461 0 -0.064506344576777661 0.39145758865641178 0 -0.057086028466031037 0.39647274516785291 0 -0.074925168374781331 0.40278603401425761 0 -0.087042344484389883 0.39738020370821953 0 -0.076275814730551866 0.38330479896731001 0 -0.084347825254610875 0.40943513047528779 0 -0.074925168374781331 0.40278603401425761 0 -0.087042344484389883 0.39738020370821953 0 -0.097808874238227678 0.41145560844912898 0 -0.087042344484389883 0.39738020370821953 0 -0.090623427087895073 0.41079747558654428 0 -0.084347825254610875 0.40943513047528779 0 -0.087042344484389883 0.39738020370821953 0 -0.087042344484389883 0.39738020370821953 0 -0.089436666146690338 0.3774527594588406 0 -0.076275814730551866 0.38330479896731001 0 -0.095244926421122186 0.38729621463576269 0 -0.087042344484389883 0.39738020370821953 0 -0.089436666146690338 0.3774527594588406 0 -0.087042344484389883 0.39738020370821953 0 -0.076275814730551866 0.38330479896731001 0 -0.064506344576777661 0.39145758865641178 0 -0.076275814730551866 0.38330479896731001 0 -0.054593457040109393 0.3822816536988497 0 -0.058148679921659119 0.37186744297544022 0 -0.076275814730551866 0.38330479896731001 0 -0.054593457040109393 0.3822816536988497 0 -0.064506344576777661 0.39145758865641178 0 -0.054593457040109393 0.3822816536988497 0 -0.057086028466031037 0.39647274516785291 0 -0.054593457040109393 0.3822816536988497 0 -0.057086028466031037 0.39647274516785291 0 -0.042391572779214973 0.39096282696345341 0 -0.057086028466031037 0.39647274516785291 0 -0.042391572779214973 0.39096282696345341 0 -0.044504768682498037 0.40769384418342008 0 -0.070070078070418332 0.40377115679163461 0 -0.057086028466031037 0.39647274516785291 0 -0.058881304157308093 0.40804381518971672 0 -0.057086028466031037 0.39647274516785291 0 -0.044504768682498037 0.40769384418342008 0 -0.058881304157308093 0.40804381518971672 0 -0.02514519595471108 0.39115017375088101 0 -0.044504768682498037 0.40769384418342008 0 -0.042391572779214973 0.39096282696345341 0 -0.02514519595471108 0.39115017375088101 0 -0.044504768682498037 0.40769384418342008 0 -0.034100997704691827 0.37295894625721099 0 -0.054593457040109393 0.3822816536988497 0 -0.042391572779214973 0.39096282696345341 0 -0.034100997704691827 0.37295894625721099 0 -0.042391572779214973 0.39096282696345341 0 -0.02514519595471108 0.39115017375088101 0 -0.034100997704691827 0.37295894625721099 0 -0.02514519595471108 0.39115017375088101 0 -0.034100997704691827 0.37295894625721099 0 -0.02514519595471108 0.39115017375088101 0 -0.0087141207398781558 0.37710904293520409 0 -0.02514519595471108 0.39115017375088101 0 -0.0087141207398781558 0.37710904293520409 0 -0.02514519595471108 0.39115017375088101 0 -0.014810785045769751 0.41214166341376801 0 -0.02514519595471108 0.39115017375088101 0 -0.014810785045769751 0.41214166341376801 0 -0.044504768682498037 0.40769384418342008 0 -0.0068648610501423502 0.39382000907293813 0 -0.014810785045769751 0.41214166341376801 0 0.0046995574085186929 0.41194005205042061 0 -0.02514519595471108 0.39115017375088101 0 -0.0068648610501423502 0.39382000907293813 0 -0.014810785045769751 0.41214166341376801 0 -0.02514519595471108 0.39115017375088101 0 -0.0068648610501423502 0.39382000907293813 0 -0.0087141207398781558 0.37710904293520409 0 -0.0068648610501423502 0.39382000907293813 0 -0.0087141207398781558 0.37710904293520409 0 0.0053185270157129726 0.37689571945341471 0 -0.0044763741368290672 0.43313315307665529 0 -0.014810785045769751 0.41214166341376801 0 -0.0044763741368290672 0.43313315307665529 0 -0.014810785045769751 0.41214166341376801 0 -0.026116443713473419 0.4246575807879529 0 -0.0044763741368290672 0.43313315307665529 0 -0.014810785045769751 0.41214166341376801 0 0.0046995574085186929 0.41194005205042061 0 -0.014810785045769751 0.41214166341376801 0 -0.026116443713473419 0.4246575807879529 0 -0.044504768682498037 0.40769384418342008 0 -0.0044763741368290672 0.43313315307665529 0 -0.026116443713473419 0.4246575807879529 0 -0.02623027688729573 0.44118750916919391 0 -0.026116443713473419 0.4246575807879529 0 -0.040560013814974517 0.42913173409672722 0 -0.02623027688729573 0.44118750916919391 0 -0.040560013814974517 0.42913173409672722 0 -0.048293098329248912 0.43867666423002288 0 -0.039090066940739521 0.44352471403713711 0 -0.026116443713473419 0.4246575807879529 0 -0.040560013814974517 0.42913173409672722 0 -0.044504768682498037 0.40769384418342008 0 -0.040560013814974517 0.42913173409672722 0 -0.044504768682498037 0.40769384418342008 0 -0.051886787429848112 0.42350176277299723 0 -0.063864341410284964 0.42423751461595932 0 -0.044504768682498037 0.40769384418342008 0 -0.058881304157308093 0.40804381518971672 0 -0.063864341410284964 0.42423751461595932 0 -0.044504768682498037 0.40769384418342008 0 -0.051886787429848112 0.42350176277299723 0 -0.063864341410284964 0.42423751461595932 0 -0.044504768682498037 0.40769384418342008 0 -0.053936434918908913 0.43159717611494758 0 -0.057641003333182179 0.44086754716312743 0 -0.048293098329248912 0.43867666423002288 0 -0.040560013814974517 0.42913173409672722 0 -0.053936434918908913 0.43159717611494758 0 -0.048293098329248912 0.43867666423002288 0 -0.040560013814974517 0.42913173409672722 0 -0.053936434918908913 0.43159717611494758 0 -0.051886787429848112 0.42350176277299723 0 -0.053936434918908913 0.43159717611494758 0 -0.051886787429848112 0.42350176277299723 0 -0.062357688865182517 0.42920641545622512 0 -0.063864341410284964 0.42423751461595932 0 -0.051886787429848112 0.42350176277299723 0 -0.062357688865182517 0.42920641545622512 0 -0.062750456602468974 0.43554137489064498 0 -0.053936434918908913 0.43159717611494758 0 -0.062357688865182517 0.42920641545622512 0 -0.062750456602468974 0.43554137489064498 0 -0.053936434918908913 0.43159717611494758 0 -0.057641003333182179 0.44086754716312743 0 -0.062750456602468974 0.43554137489064498 0 -0.057641003333182179 0.44086754716312743 0 -0.065491549478626135 0.44200233464982802 0 -0.057641003333182179 0.44086754716312743 0 -0.062398417199954148 0.4499603094023914 0 -0.065491549478626135 0.44200233464982802 0 -0.057641003333182179 0.44086754716312743 0 -0.062398417199954148 0.4499603094023914 0 -0.050237972638439453 0.44826214973817502 0 -0.057641003333182179 0.44086754716312743 0 -0.050237972638439453 0.44826214973817502 0 -0.048293098329248912 0.43867666423002288 0 -0.062398417199954148 0.4499603094023914 0 -0.050230730183752688 0.46259696058471089 0 -0.064501224992871267 0.46542691543905351 0 -0.062398417199954148 0.4499603094023914 0 -0.050237972638439453 0.44826214973817502 0 -0.050230730183752688 0.46259696058471089 0 -0.050230730183752688 0.46259696058471089 0 -0.035748626011326709 0.45858167758110602 0 -0.046040344352481867 0.47841272498986082 0 -0.050237972638439453 0.44826214973817502 0 -0.050230730183752688 0.46259696058471089 0 -0.035748626011326709 0.45858167758110602 0 -0.035748626011326709 0.45858167758110602 0 -0.039090066940739521 0.44352471403713711 0 -0.02623027688729573 0.44118750916919391 0 -0.050237972638439453 0.44826214973817502 0 -0.048293098329248912 0.43867666423002288 0 -0.039090066940739521 0.44352471403713711 0 -0.050237972638439453 0.44826214973817502 0 -0.035748626011326709 0.45858167758110602 0 -0.039090066940739521 0.44352471403713711 0 -0.040560013814974517 0.42913173409672722 0 -0.039090066940739521 0.44352471403713711 0 -0.02623027688729573 0.44118750916919391 0 -0.035748626011326709 0.45858167758110602 0 -0.02623027688729573 0.44118750916919391 0 -0.01728298942402769 0.45556140426229003 0 -0.0044763741368290672 0.43313315307665529 0 -0.02623027688729573 0.44118750916919391 0 -0.01728298942402769 0.45556140426229003 0 -0.035748626011326709 0.45858167758110602 0 -0.01728298942402769 0.45556140426229003 0 -0.022784747477638551 0.4775754860453762 0 -0.01728298942402769 0.45556140426229003 0 -0.0062093312902834459 0.46527566221073008 0 0.006403582431216831 0.45126676372832991 0 -0.01728298942402769 0.45556140426229003 0 -0.0062093312902834459 0.46527566221073008 0 -0.022784747477638551 0.4775754860453762 0 -0.0044763741368290672 0.43313315307665529 0 -0.01728298942402769 0.45556140426229003 0 0.006403582431216831 0.45126676372832991 0 -0.0062093312902834459 0.46527566221073008 0 -0.022784747477638551 0.4775754860453762 0 0.0095498935665802413 0.47810272379952351 0 -0.022784747477638551 0.4775754860453762 0 -0.021427984417146221 0.5 0 0.0095498935665802413 0.47810272379952351 0 -0.021427984417146221 0.5 0 0.0095498935665802413 0.47810272379952351 0 0.0086042794582089632 0.5 0 -0.022784747477638551 0.4775754860453762 0 -0.021427984417146221 0.5 0 -0.046040344352481867 0.47841272498986082 0 -0.021427984417146221 0.5 0 -0.046040344352481867 0.47841272498986082 0 -0.051460248292501398 0.5 0 -0.035748626011326709 0.45858167758110602 0 -0.022784747477638551 0.4775754860453762 0 -0.046040344352481867 0.47841272498986082 0 -0.046040344352481867 0.47841272498986082 0 -0.067939054777113927 0.48291587414950521 0 -0.064501224992871267 0.46542691543905351 0 -0.050230730183752688 0.46259696058471089 0 -0.046040344352481867 0.47841272498986082 0 -0.064501224992871267 0.46542691543905351 0 -0.046040344352481867 0.47841272498986082 0 -0.051460248292501398 0.5 0 -0.067939054777113927 0.48291587414950521 0 -0.051460248292501398 0.5 0 -0.081492512167856565 0.50000000000000011 0 -0.067939054777113927 0.48291587414950521 0 -0.081492512167856565 0.50000000000000011 0 -0.085878896958769185 0.47675925450649242 0 -0.067939054777113927 0.48291587414950521 0 -0.081492512167856565 0.50000000000000011 0 -0.085878896958769185 0.47675925450649242 0 -0.099362977551805121 0.48745008538217821 0 -0.081492512167856565 0.50000000000000011 0 -0.085878896958769185 0.47675925450649242 0 -0.085878896958769185 0.47675925450649242 0 -0.075452149305044958 0.46933040044586682 0 -0.067939054777113927 0.48291587414950521 0 -0.075452149305044958 0.46933040044586682 0 -0.067939054777113927 0.48291587414950521 0 -0.064501224992871267 0.46542691543905351 0 -0.064501224992871267 0.46542691543905351 0 -0.075214053997903707 0.45912990264989012 0 -0.070315415620740368 0.45334812155980347 0 -0.062398417199954148 0.4499603094023914 0 -0.064501224992871267 0.46542691543905351 0 -0.070315415620740368 0.45334812155980347 0 -0.075214053997903707 0.45912990264989012 0 -0.070315415620740368 0.45334812155980347 0 -0.081419329692844739 0.44979703694502599 0 -0.075452149305044958 0.46933040044586682 0 -0.064501224992871267 0.46542691543905351 0 -0.075214053997903707 0.45912990264989012 0 -0.075452149305044958 0.46933040044586682 0 -0.075214053997903707 0.45912990264989012 0 -0.082509194984251868 0.46007906520350089 0 -0.069373851585076945 0.43677151010665521 0 -0.065491549478626135 0.44200233464982802 0 -0.073041418115067244 0.44511613748665291 0 -0.062750456602468974 0.43554137489064498 0 -0.069373851585076945 0.43677151010665521 0 -0.065491549478626135 0.44200233464982802 0 -0.062398417199954148 0.4499603094023914 0 -0.065491549478626135 0.44200233464982802 0 -0.073041418115067244 0.44511613748665291 0 -0.062398417199954148 0.4499603094023914 0 -0.070315415620740368 0.45334812155980347 0 -0.073041418115067244 0.44511613748665291 0 -0.070315415620740368 0.45334812155980347 0 -0.073041418115067244 0.44511613748665291 0 -0.081419329692844739 0.44979703694502599 0 -0.073041418115067244 0.44511613748665291 0 -0.07941018481149445 0.44345804230003222 0 -0.081419329692844739 0.44979703694502599 0 -0.077689053426030094 0.43734830183904833 0 -0.069373851585076945 0.43677151010665521 0 -0.073041418115067244 0.44511613748665291 0 -0.077689053426030094 0.43734830183904833 0 -0.073041418115067244 0.44511613748665291 0 -0.07941018481149445 0.44345804230003222 0 -0.097170403390676049 0.43571281837191522 0 -0.084800361071377284 0.4267768085921303 0 -0.094675553767973264 0.45076758317000298 0 -0.084800361071377284 0.4267768085921303 0 -0.094675553767973264 0.45076758317000298 0 -0.084800361071377284 0.4267768085921303 0 -0.085627028266785254 0.44117175463919189 0 -0.094675553767973264 0.45076758317000298 0 -0.085627028266785254 0.44117175463919189 0 -0.07941018481149445 0.44345804230003222 0 -0.081419329692844739 0.44979703694502599 0 -0.077689053426030094 0.43734830183904833 0 -0.085627028266785254 0.44117175463919189 0 -0.07941018481149445 0.44345804230003222 0 -0.085627028266785254 0.44117175463919189 0 -0.081419329692844739 0.44979703694502599 0 -0.088082484801868088 0.44854024150695748 0 -0.081419329692844739 0.44979703694502599 0 -0.086047819819581178 0.45134535453790131 0 -0.088082484801868088 0.44854024150695748 0 -0.085627028266785254 0.44117175463919189 0 -0.088082484801868088 0.44854024150695748 0 -0.094675553767973264 0.45076758317000298 0 -0.086047819819581178 0.45134535453790131 0 -0.088082484801868088 0.44854024150695748 0 -0.090265281749681819 0.45351850901298468 0 -0.088082484801868088 0.44854024150695748 0 -0.090265281749681819 0.45351850901298468 0 -0.094675553767973264 0.45076758317000298 0 -0.085878896958769185 0.47675925450649242 0 -0.075452149305044958 0.46933040044586682 0 -0.082509194984251868 0.46007906520350089 0 -0.085878896958769185 0.47675925450649242 0 -0.090265281749681819 0.45351850901298468 0 -0.085878896958769185 0.47675925450649242 0 -0.090265281749681819 0.45351850901298468 0 -0.093944937474792503 0.46462082789344678 0 -0.085878896958769185 0.47675925450649242 0 -0.082509194984251868 0.46007906520350089 0 -0.090265281749681819 0.45351850901298468 0 -0.081419329692844739 0.44979703694502599 0 -0.086047819819581178 0.45134535453790131 0 -0.082509194984251868 0.46007906520350089 0 -0.075214053997903707 0.45912990264989012 0 -0.081419329692844739 0.44979703694502599 0 -0.082509194984251868 0.46007906520350089 0 -0.090265281749681819 0.45351850901298468 0 -0.093944937474792503 0.46462082789344678 0 -0.094675553767973264 0.45076758317000298 0 -0.086047819819581178 0.45134535453790131 0 -0.082509194984251868 0.46007906520350089 0 -0.090265281749681819 0.45351850901298468 0 -0.093944937474792503 0.46462082789344678 0 -0.094675553767973264 0.45076758317000298 0 -0.1045507464645692 0.47475835774787573 0 -0.094675553767973264 0.45076758317000298 0 -0.1045507464645692 0.47475835774787573 0 -0.1087715055698807 0.4588247561088431 0 -0.094675553767973264 0.45076758317000298 0 -0.1045507464645692 0.47475835774787573 0 -0.1126245701039178 0.4308246085444013 0 -0.1090807961073193 0.44665325123332839 0 -0.10338783084247161 0.44098956532991213 0 -0.097170403390676049 0.43571281837191522 0 -0.094675553767973264 0.45076758317000298 0 -0.10338783084247161 0.44098956532991213 0 -0.1087715055698807 0.4588247561088431 0 -0.094675553767973264 0.45076758317000298 0 -0.1090807961073193 0.44665325123332839 0 -0.094675553767973264 0.45076758317000298 0 -0.1090807961073193 0.44665325123332839 0 -0.10338783084247161 0.44098956532991213 0 -0.1126245701039178 0.4308246085444013 0 -0.1090807961073193 0.44665325123332839 0 -0.1242648033483075 0.43981492828754482 0 -0.1090807961073193 0.44665325123332839 0 -0.1242648033483075 0.43981492828754482 0 -0.1204057133641486 0.45504160574272429 0 -0.1087715055698807 0.4588247561088431 0 -0.1176294132596279 0.46872710166108278 0 -0.1045507464645692 0.47475835774787573 0 -0.1087715055698807 0.4588247561088431 0 -0.1204057133641486 0.45504160574272429 0 -0.1176294132596279 0.46872710166108278 0 -0.1087715055698807 0.4588247561088431 0 -0.1090807961073193 0.44665325123332839 0 -0.1204057133641486 0.45504160574272429 0 -0.13097929143795109 0.46459511115351071 0 -0.1204057133641486 0.45504160574272429 0 -0.1176294132596279 0.46872710166108278 0 -0.12908554574303099 0.47755934496718438 0 -0.1176294132596279 0.46872710166108278 0 -0.1160402402672886 0.48503019582547341 0 -0.1176294132596279 0.46872710166108278 0 -0.1160402402672886 0.48503019582547341 0 -0.1045507464645692 0.47475835774787573 0 -0.13803845513632401 0.5 0 -0.1097654836520903 0.5 0 -0.1160402402672886 0.48503019582547341 0 -0.1097654836520903 0.5 0 -0.1160402402672886 0.48503019582547341 0 -0.099362977551805121 0.48745008538217821 0 -0.081492512167856565 0.50000000000000011 0 -0.1097654836520903 0.5 0 -0.099362977551805121 0.48745008538217821 0 -0.085878896958769185 0.47675925450649242 0 -0.093944937474792503 0.46462082789344678 0 -0.1045507464645692 0.47475835774787573 0 -0.085878896958769185 0.47675925450649242 0 -0.099362977551805121 0.48745008538217821 0 -0.1045507464645692 0.47475835774787573 0 -0.1160402402672886 0.48503019582547341 0 -0.099362977551805121 0.48745008538217821 0 -0.1045507464645692 0.47475835774787573 0 -0.15850742705232401 0.077073165420907211 0 -0.17832815471062741 0.080370175701138483 0 -0.15596223049933161 0.089669487892629185 0 -0.17128916945913089 0.092189477241546317 0 -0.17832815471062741 0.080370175701138483 0 -0.15596223049933161 0.089669487892629185 0 -0.17832815471062741 0.080370175701138483 0 -0.15596223049933161 0.089669487892629185 0 -0.15850742705232401 0.077073165420907211 0 -0.16907692184479731 0.071953328836937142 0 -0.17832815471062741 0.080370175701138483 0 -0.15850742705232401 0.077073165420907211 0 -0.15722519427174569 0.065058312825911402 0 -0.16907692184479731 0.071953328836937142 0 -0.16907692184479731 0.071953328836937142 0 -0.1809864334298861 0.069780609401686525 0 -0.17832815471062741 0.080370175701138483 0 -0.16907692184479731 0.071953328836937142 0 -0.1809864334298861 0.069780609401686525 0 -0.18167022033174851 0.056262687610226528 0 -0.1809864334298861 0.069780609401686525 0 -0.17832815471062741 0.080370175701138483 0 -0.20069407892192309 0.071070863509647808 0 -0.1809864334298861 0.069780609401686525 0 -0.18167022033174851 0.056262687610226528 0 -0.1876556690991136 0.063313821709693935 0 -0.17128916945913089 0.092189477241546317 0 -0.18444466814129201 0.081023499242751457 0 -0.17631468167186989 0.1066384650542631 0 -0.17128916945913089 0.092189477241546317 0 -0.18444466814129201 0.081023499242751457 0 -0.17832815471062741 0.080370175701138483 0 -0.18444466814129201 0.081023499242751457 0 -0.17631468167186989 0.1066384650542631 0 -0.19937405773042491 0.1071019237599893 0 -0.17631468167186989 0.1066384650542631 0 -0.16393492635195239 0.1245978723337525 0 -0.1795193575176991 0.1294692331289829 0 -0.17631468167186989 0.1066384650542631 0 -0.19937405773042491 0.1071019237599893 0 -0.1795193575176991 0.1294692331289829 0 -0.16393492635195239 0.1245978723337525 0 -0.16139611227253359 0.1032457583169494 0 -0.15311233888185891 0.1152965378839053 0 -0.17631468167186989 0.1066384650542631 0 -0.16393492635195239 0.1245978723337525 0 -0.16139611227253359 0.1032457583169494 0 -0.17128916945913089 0.092189477241546317 0 -0.17631468167186989 0.1066384650542631 0 -0.16139611227253359 0.1032457583169494 0 -0.17128916945913089 0.092189477241546317 0 -0.16139611227253359 0.1032457583169494 0 -0.15596223049933161 0.089669487892629185 0 -0.16139611227253359 0.1032457583169494 0 -0.13359630628803579 0.098968800084119873 0 -0.15596223049933161 0.089669487892629185 0 -0.16139611227253359 0.1032457583169494 0 -0.15311233888185891 0.1152965378839053 0 -0.13359630628803579 0.098968800084119873 0 -0.13359630628803579 0.098968800084119873 0 -0.15596223049933161 0.089669487892629185 0 -0.15311233888185891 0.1152965378839053 0 -0.13930859898956699 0.1145050369687237 0 -0.153752621985453 0.14073392350839439 0 -0.15311233888185891 0.1152965378839053 0 -0.13930859898956699 0.1145050369687237 0 -0.13359630628803579 0.098968800084119873 0 -0.13930859898956699 0.1145050369687237 0 -0.12607259725238279 0.11330641960449821 0 -0.12916618827146031 0.12390190950899049 0 -0.13930859898956699 0.1145050369687237 0 -0.12607259725238279 0.11330641960449821 0 -0.13359630628803579 0.098968800084119873 0 -0.13359630628803579 0.098968800084119873 0 -0.12697672020224329 0.087309090757334687 0 -0.14089006822782121 0.082531143958766096 0 -0.12697672020224329 0.087309090757334687 0 -0.14089006822782121 0.082531143958766096 0 -0.12697985749263241 0.07630636069427757 0 -0.15850742705232401 0.077073165420907211 0 -0.14089006822782121 0.082531143958766096 0 -0.15596223049933161 0.089669487892629185 0 -0.13359630628803579 0.098968800084119873 0 -0.14089006822782121 0.082531143958766096 0 -0.15596223049933161 0.089669487892629185 0 -0.15850742705232401 0.077073165420907211 0 -0.14089006822782121 0.082531143958766096 0 -0.14764327064684279 0.071644858797684771 0 -0.15722519427174569 0.065058312825911402 0 -0.14764327064684279 0.071644858797684771 0 -0.1471722955607111 0.059591957907519158 0 -0.15850742705232401 0.077073165420907211 0 -0.15722519427174569 0.065058312825911402 0 -0.14764327064684279 0.071644858797684771 0 -0.14089006822782121 0.082531143958766096 0 -0.14764327064684279 0.071644858797684771 0 -0.13666502121529681 0.069478967649866344 0 -0.14764327064684279 0.071644858797684771 0 -0.13666502121529681 0.069478967649866344 0 -0.1471722955607111 0.059591957907519158 0 -0.14089006822782121 0.082531143958766096 0 -0.13666502121529681 0.069478967649866344 0 -0.12697985749263241 0.07630636069427757 0 -0.13666502121529681 0.069478967649866344 0 -0.12697985749263241 0.07630636069427757 0 -0.12509646681095879 0.065597408261105467 0 -0.13666502121529681 0.069478967649866344 0 -0.12509646681095879 0.065597408261105467 0 -0.13233523162579211 0.057527865090889828 0 -0.13233523162579211 0.057527865090889828 0 -0.1197320338084647 0.057760070231756527 0 -0.1244920148619628 0.050381604022983993 0 -0.12509646681095879 0.065597408261105467 0 -0.13233523162579211 0.057527865090889828 0 -0.1197320338084647 0.057760070231756527 0 -0.13666502121529681 0.069478967649866344 0 -0.13233523162579211 0.057527865090889828 0 -0.1471722955607111 0.059591957907519158 0 -0.13233523162579211 0.057527865090889828 0 -0.131277092146349 0.043237905602295942 0 -0.1435202772377579 0.047601805401877667 0 -0.13233523162579211 0.057527865090889828 0 -0.131277092146349 0.043237905602295942 0 -0.1244920148619628 0.050381604022983993 0 -0.131277092146349 0.043237905602295942 0 -0.14194951185496399 0.035172378083737049 0 -0.12424451236807239 0.027069144312366941 0 -0.131277092146349 0.043237905602295942 0 -0.12424451236807239 0.027069144312366941 0 -0.12075472355362291 0.04122338309529356 0 -0.131277092146349 0.043237905602295942 0 -0.12075472355362291 0.04122338309529356 0 -0.1244920148619628 0.050381604022983993 0 -0.131277092146349 0.043237905602295942 0 -0.14194951185496399 0.035172378083737049 0 -0.1435202772377579 0.047601805401877667 0 -0.14194951185496399 0.035172378083737049 0 -0.15126073753592009 0.02487777788828089 0 -0.1637260562540532 0.045028253166508762 0 -0.14194951185496399 0.035172378083737049 0 -0.1435202772377579 0.047601805401877667 0 -0.1637260562540532 0.045028253166508762 0 -0.15722519427174569 0.065058312825911402 0 -0.1471722955607111 0.059591957907519158 0 -0.1637260562540532 0.045028253166508762 0 -0.1471722955607111 0.059591957907519158 0 -0.1435202772377579 0.047601805401877667 0 -0.1637260562540532 0.045028253166508762 0 -0.13233523162579211 0.057527865090889828 0 -0.1471722955607111 0.059591957907519158 0 -0.1435202772377579 0.047601805401877667 0 -0.1244522405185825 -0.00038769298458709092 0 -0.1310798501921922 0.016754836893075501 0 -0.12424451236807239 0.027069144312366941 0 -0.1244522405185825 -0.00038769298458709092 0 -0.13302987177733741 0.0072862060594841918 0 -0.1310798501921922 0.016754836893075501 0 -0.13796817939809339 -7.5853332940862265e-05 0 -0.13302987177733741 0.0072862060594841918 0 -0.13861921700048169 0.01285353366238922 0 -0.1244522405185825 -0.00038769298458709092 0 -0.13796817939809339 -7.5853332940862265e-05 0 -0.13302987177733741 0.0072862060594841918 0 -0.13302987177733741 0.0072862060594841918 0 -0.13861921700048169 0.01285353366238922 0 -0.1310798501921922 0.016754836893075501 0 -0.14194951185496399 0.035172378083737049 0 -0.1395360945068517 0.023372288850015029 0 -0.12424451236807239 0.027069144312366941 0 -0.13861921700048169 0.01285353366238922 0 -0.1395360945068517 0.023372288850015029 0 -0.1310798501921922 0.016754836893075501 0 -0.1395360945068517 0.023372288850015029 0 -0.1310798501921922 0.016754836893075501 0 -0.12424451236807239 0.027069144312366941 0 -0.14194951185496399 0.035172378083737049 0 -0.1395360945068517 0.023372288850015029 0 -0.15126073753592009 0.02487777788828089 0 -0.15126073753592009 0.02487777788828089 0 -0.15188271994169991 0.01786916074884114 0 -0.14657132146084931 0.01677767438903701 0 -0.15126073753592009 0.02487777788828089 0 -0.15837519066330749 0.018103177496080571 0 -0.1567842680697151 0.017821512483746641 0 -0.15126073753592009 0.02487777788828089 0 -0.15188271994169991 0.01786916074884114 0 -0.1567842680697151 0.017821512483746641 0 -0.1543123506052223 0.01567032783345056 0 -0.15188271994169991 0.01786916074884114 0 -0.1567842680697151 0.017821512483746641 0 -0.13861921700048169 0.01285353366238922 0 -0.1395360945068517 0.023372288850015029 0 -0.14657132146084931 0.01677767438903701 0 -0.1395360945068517 0.023372288850015029 0 -0.15126073753592009 0.02487777788828089 0 -0.14657132146084931 0.01677767438903701 0 -0.15381676672243971 -0.0048344028756085976 0 -0.13796817939809339 -7.5853332940862265e-05 0 -0.14598604308907309 0.0075397954886723484 0 -0.15381676672243971 -0.0048344028756085976 0 -0.15837519066330749 0.018103177496080571 0 -0.15381676672243971 -0.0048344028756085976 0 -0.15182406541376531 0.011854288846745499 0 -0.15837519066330749 0.018103177496080571 0 -0.15381676672243971 -0.0048344028756085976 0 -0.15182406541376531 0.011854288846745499 0 -0.14598604308907309 0.0075397954886723484 0 -0.13861921700048169 0.01285353366238922 0 -0.14657132146084931 0.01677767438903701 0 -0.14598604308907309 0.0075397954886723484 0 -0.14657132146084931 0.01677767438903701 0 -0.15182406541376531 0.011854288846745499 0 -0.14598604308907309 0.0075397954886723484 0 -0.15188271994169991 0.01786916074884114 0 -0.14657132146084931 0.01677767438903701 0 -0.15182406541376531 0.011854288846745499 0 -0.1543123506052223 0.01567032783345056 0 -0.15182406541376531 0.011854288846745499 0 -0.15837519066330749 0.018103177496080571 0 -0.1543123506052223 0.01567032783345056 0 -0.15188271994169991 0.01786916074884114 0 -0.15182406541376531 0.011854288846745499 0 -0.13796817939809339 -7.5853332940862265e-05 0 -0.13861921700048169 0.01285353366238922 0 -0.14598604308907309 0.0075397954886723484 0 -0.15381676672243971 -0.0048344028756085976 0 -0.16872927738725291 0.0066655648670224509 0 -0.15837519066330749 0.018103177496080571 0 -0.16872927738725291 0.0066655648670224509 0 -0.15837519066330749 0.018103177496080571 0 -0.17312315274812851 0.016956976572924821 0 -0.15837519066330749 0.018103177496080571 0 -0.17088268452158301 0.030303691123205939 0 -0.18416549926151529 0.022669224655560441 0 -0.15837519066330749 0.018103177496080571 0 -0.17088268452158301 0.030303691123205939 0 -0.1637260562540532 0.045028253166508762 0 -0.15126073753592009 0.02487777788828089 0 -0.15837519066330749 0.018103177496080571 0 -0.1637260562540532 0.045028253166508762 0 -0.15837519066330749 0.018103177496080571 0 -0.18416549926151529 0.022669224655560441 0 -0.1543123506052223 0.01567032783345056 0 -0.15837519066330749 0.018103177496080571 0 -0.1567842680697151 0.017821512483746641 0 -0.15837519066330749 0.018103177496080571 0 -0.1567842680697151 0.017821512483746641 0 -0.15837519066330749 0.018103177496080571 0 -0.18416549926151529 0.022669224655560441 0 -0.17312315274812851 0.016956976572924821 0 -0.17088268452158301 0.030303691123205939 0 -0.18416549926151529 0.022669224655560441 0 -0.1815242396402782 0.037713578252632912 0 -0.18416549926151529 0.022669224655560441 0 -0.17919408738426101 0.017592611389363012 0 -0.18518118592807509 0.0154377595936586 0 -0.18416549926151529 0.022669224655560441 0 -0.17312315274812851 0.016956976572924821 0 -0.17919408738426101 0.017592611389363012 0 -0.1785064095432054 -0.0066611219507198768 0 -0.16872927738725291 0.0066655648670224509 0 -0.193034969706537 0.00064734206737222756 0 -0.16872927738725291 0.0066655648670224509 0 -0.193034969706537 0.00064734206737222756 0 -0.16872927738725291 0.0066655648670224509 0 -0.18518118592807509 0.0154377595936586 0 -0.193034969706537 0.00064734206737222756 0 -0.16872927738725291 0.0066655648670224509 0 -0.17919408738426101 0.017592611389363012 0 -0.18518118592807509 0.0154377595936586 0 -0.16872927738725291 0.0066655648670224509 0 -0.17312315274812851 0.016956976572924821 0 -0.17919408738426101 0.017592611389363012 0 -0.16907692184479731 0.071953328836937142 0 -0.1637260562540532 0.045028253166508762 0 -0.18167022033174851 0.056262687610226528 0 -0.15722519427174569 0.065058312825911402 0 -0.16907692184479731 0.071953328836937142 0 -0.1637260562540532 0.045028253166508762 0 -0.16907692184479731 0.071953328836937142 0 -0.1637260562540532 0.045028253166508762 0 -0.15837519066330749 0.018103177496080571 0 -0.1637260562540532 0.045028253166508762 0 -0.17088268452158301 0.030303691123205939 0 -0.1637260562540532 0.045028253166508762 0 -0.1815242396402782 0.037713578252632912 0 -0.1815242396402782 0.037713578252632912 0 -0.18167022033174851 0.056262687610226528 0 -0.1948999673891425 0.045815662425189529 0 -0.1637260562540532 0.045028253166508762 0 -0.1815242396402782 0.037713578252632912 0 -0.18167022033174851 0.056262687610226528 0 -0.18416549926151529 0.022669224655560441 0 -0.1815242396402782 0.037713578252632912 0 -0.19539241544158811 0.034915353149486399 0 -0.19598386328254799 0.058823167906541372 0 -0.20873259774339259 0.055173182954087172 0 -0.20069407892192309 0.071070863509647808 0 -0.18167022033174851 0.056262687610226528 0 -0.19598386328254799 0.058823167906541372 0 -0.1876556690991136 0.063313821709693935 0 -0.19598386328254799 0.058823167906541372 0 -0.1948999673891425 0.045815662425189529 0 -0.20873259774339259 0.055173182954087172 0 -0.18167022033174851 0.056262687610226528 0 -0.19598386328254799 0.058823167906541372 0 -0.1948999673891425 0.045815662425189529 0 -0.1815242396402782 0.037713578252632912 0 -0.1948999673891425 0.045815662425189529 0 -0.19539241544158811 0.034915353149486399 0 -0.1948999673891425 0.045815662425189529 0 -0.19539241544158811 0.034915353149486399 0 -0.20641656305728129 0.041143028599009299 0 -0.20641656305728129 0.041143028599009299 0 -0.20995580785972329 0.027235271815039791 0 -0.22080882119384479 0.043900986742667819 0 -0.19539241544158811 0.034915353149486399 0 -0.20641656305728129 0.041143028599009299 0 -0.20995580785972329 0.027235271815039791 0 -0.20641656305728129 0.041143028599009299 0 -0.20873259774339259 0.055173182954087172 0 -0.22080882119384479 0.043900986742667819 0 -0.20873259774339259 0.055173182954087172 0 -0.2267202713125637 0.058975611642501508 0 -0.2176358721649875 0.072186860311035453 0 -0.1948999673891425 0.045815662425189529 0 -0.20641656305728129 0.041143028599009299 0 -0.20873259774339259 0.055173182954087172 0 -0.20993853639106591 -0.0035380738047605968 0 -0.2009137908539024 0.01431144198083124 0 -0.193034969706537 0.00064734206737222756 0 -0.18518118592807509 0.0154377595936586 0 -0.2009137908539024 0.01431144198083124 0 -0.193034969706537 0.00064734206737222756 0 -0.18518118592807509 0.0154377595936586 0 -0.193034969706537 0.00064734206737222756 0 -0.18416549926151529 0.022669224655560441 0 -0.20995580785972329 0.027235271815039791 0 -0.18416549926151529 0.022669224655560441 0 -0.18518118592807509 0.0154377595936586 0 -0.2009137908539024 0.01431144198083124 0 -0.18416549926151529 0.022669224655560441 0 -0.2009137908539024 0.01431144198083124 0 -0.20995580785972329 0.027235271815039791 0 -0.18416549926151529 0.022669224655560441 0 -0.19539241544158811 0.034915353149486399 0 -0.20995580785972329 0.027235271815039791 0 -0.2009137908539024 0.01431144198083124 0 -0.20995580785972329 0.027235271815039791 0 -0.21568563774484731 0.0082874278720449449 0 -0.20993853639106591 -0.0035380738047605968 0 -0.2009137908539024 0.01431144198083124 0 -0.21568563774484731 0.0082874278720449449 0 -0.22684210307559549 -0.0077234896768903086 0 -0.21568563774484731 0.0082874278720449449 0 -0.23077795054394901 0.01115198904600462 0 -0.22684210307559549 -0.0077234896768903086 0 -0.23077795054394901 0.01115198904600462 0 -0.20995580785972329 0.027235271815039791 0 -0.21568563774484731 0.0082874278720449449 0 -0.23077795054394901 0.01115198904600462 0 -0.20995580785972329 0.027235271815039791 0 -0.2357461164579312 0.03180131897451912 0 -0.20995580785972329 0.027235271815039791 0 -0.23077795054394901 0.01115198904600462 0 -0.2357461164579312 0.03180131897451912 0 -0.23077795054394901 0.01115198904600462 0 -0.24854849079604721 0.020569936005881421 0 -0.2357461164579312 0.03180131897451912 0 -0.26153642505613889 0.036367366133998442 0 -0.24854849079604721 0.020569936005881421 0 -0.2357461164579312 0.03180131897451912 0 -0.23077795054394901 0.01115198904600462 0 -0.24854849079604721 0.020569936005881421 0 -0.24598119983726671 0.0037338506766126851 0 -0.22684210307559549 -0.0077234896768903086 0 -0.23077795054394901 0.01115198904600462 0 -0.24598119983726671 0.0037338506766126851 0 -0.20873259774339259 0.055173182954087172 0 -0.2267202713125637 0.058975611642501508 0 -0.22080882119384479 0.043900986742667819 0 -0.2267202713125637 0.058975611642501508 0 -0.22080882119384479 0.043900986742667819 0 -0.239388393447095 0.04766651035075449 0 -0.22080882119384479 0.043900986742667819 0 -0.2357461164579312 0.03180131897451912 0 -0.239388393447095 0.04766651035075449 0 -0.20995580785972329 0.027235271815039791 0 -0.22080882119384479 0.043900986742667819 0 -0.2357461164579312 0.03180131897451912 0 -0.26153642505613889 0.036367366133998442 0 -0.2357461164579312 0.03180131897451912 0 -0.26153642505613889 0.036367366133998442 0 -0.2357461164579312 0.03180131897451912 0 -0.239388393447095 0.04766651035075449 0 -0.25116276906762952 0.054241108780248931 0 -0.239388393447095 0.04766651035075449 0 -0.24035595759446179 0.060712669830591162 0 -0.2267202713125637 0.058975611642501508 0 -0.239388393447095 0.04766651035075449 0 -0.24035595759446179 0.060712669830591162 0 -0.25116276906762952 0.054241108780248931 0 -0.24035595759446179 0.060712669830591162 0 -0.24829977196364941 0.065213336215906109 0 -0.2267202713125637 0.058975611642501508 0 -0.24035595759446179 0.060712669830591162 0 -0.23791909572611269 0.075142721002645518 0 -0.24035595759446179 0.060712669830591162 0 -0.24829977196364941 0.065213336215906109 0 -0.23791909572611269 0.075142721002645518 0 -0.25064083865024739 0.073628726666345984 0 -0.23791909572611269 0.075142721002645518 0 -0.24857020570659841 0.081659589420377987 0 -0.25064083865024739 0.073628726666345984 0 -0.24829977196364941 0.065213336215906109 0 -0.23791909572611269 0.075142721002645518 0 -0.23791909572611269 0.075142721002645518 0 -0.2427234934652894 0.090762762990284518 0 -0.22646138453880821 0.085461994072224837 0 -0.25413031243694739 0.089521027236778197 0 -0.2427234934652894 0.090762762990284518 0 -0.24857020570659841 0.081659589420377987 0 -0.23791909572611269 0.075142721002645518 0 -0.2427234934652894 0.090762762990284518 0 -0.24857020570659841 0.081659589420377987 0 -0.2267202713125637 0.058975611642501508 0 -0.23791909572611269 0.075142721002645518 0 -0.2176358721649875 0.072186860311035453 0 -0.23791909572611269 0.075142721002645518 0 -0.22646138453880821 0.085461994072224837 0 -0.2176358721649875 0.072186860311035453 0 -0.20873259774339259 0.055173182954087172 0 -0.2176358721649875 0.072186860311035453 0 -0.20069407892192309 0.071070863509647808 0 -0.2176358721649875 0.072186860311035453 0 -0.20525373999263671 0.08640341449760941 0 -0.20069407892192309 0.071070863509647808 0 -0.22646138453880821 0.085461994072224837 0 -0.2176358721649875 0.072186860311035453 0 -0.20525373999263671 0.08640341449760941 0 -0.22646138453880821 0.085461994072224837 0 -0.20525373999263671 0.08640341449760941 0 -0.2161514522581473 0.1006972439961434 0 -0.18444466814129201 0.081023499242751457 0 -0.20525373999263671 0.08640341449760941 0 -0.20069407892192309 0.071070863509647808 0 -0.18444466814129201 0.081023499242751457 0 -0.20525373999263671 0.08640341449760941 0 -0.19937405773042491 0.1071019237599893 0 -0.17832815471062741 0.080370175701138483 0 -0.20069407892192309 0.071070863509647808 0 -0.18444466814129201 0.081023499242751457 0 -0.17832815471062741 0.080370175701138483 0 -0.20069407892192309 0.071070863509647808 0 -0.1809864334298861 0.069780609401686525 0 -0.1876556690991136 0.063313821709693935 0 -0.20069407892192309 0.071070863509647808 0 -0.19598386328254799 0.058823167906541372 0 -0.1876556690991136 0.063313821709693935 0 -0.20069407892192309 0.071070863509647808 0 -0.19937405773042491 0.1071019237599893 0 -0.2161514522581473 0.1006972439961434 0 -0.21430344731955769 0.133180348277227 0 -0.19937405773042491 0.1071019237599893 0 -0.19727411993202021 0.1275714443648302 0 -0.1795193575176991 0.1294692331289829 0 -0.18444466814129201 0.081023499242751457 0 -0.19937405773042491 0.1071019237599893 0 -0.20525373999263671 0.08640341449760941 0 -0.19937405773042491 0.1071019237599893 0 -0.2161514522581473 0.1006972439961434 0 -0.19937405773042491 0.1071019237599893 0 -0.21430344731955769 0.133180348277227 0 -0.19937405773042491 0.1071019237599893 0 -0.19727411993202021 0.1275714443648302 0 -0.21430344731955769 0.133180348277227 0 -0.2161514522581473 0.1006972439961434 0 -0.23231730930006211 0.10853516007106349 0 -0.21430344731955769 0.133180348277227 0 -0.2427234934652894 0.090762762990284518 0 -0.22646138453880821 0.085461994072224837 0 -0.23231730930006211 0.10853516007106349 0 -0.22646138453880821 0.085461994072224837 0 -0.2161514522581473 0.1006972439961434 0 -0.23231730930006211 0.10853516007106349 0 -0.25610310449345419 0.1041046972302731 0 -0.2427234934652894 0.090762762990284518 0 -0.23231730930006211 0.10853516007106349 0 -0.25610310449345419 0.1041046972302731 0 -0.23231730930006211 0.10853516007106349 0 -0.2495823492922267 0.12121763785839371 0 -0.23231730930006211 0.10853516007106349 0 -0.2495823492922267 0.12121763785839371 0 -0.23849568892714909 0.13696143350773771 0 -0.23231730930006211 0.10853516007106349 0 -0.23849568892714909 0.13696143350773771 0 -0.25477231595188199 0.13792181725732239 0 -0.2495823492922267 0.12121763785839371 0 -0.23849568892714909 0.13696143350773771 0 -0.23231730930006211 0.10853516007106349 0 -0.23849568892714909 0.13696143350773771 0 -0.21430344731955769 0.133180348277227 0 -0.23849568892714909 0.13696143350773771 0 -0.22923283690869051 0.15925877279446471 0 -0.21430344731955769 0.133180348277227 0 -0.22923283690869051 0.15925877279446471 0 -0.21430344731955769 0.133180348277227 0 -0.2543915534089356 0.15018751405662761 0 -0.23849568892714909 0.13696143350773771 0 -0.24467406855423091 0.1653877069444131 0 -0.23849568892714909 0.13696143350773771 0 -0.24467406855423091 0.1653877069444131 0 -0.22923283690869051 0.15925877279446471 0 -0.2543915534089356 0.15018751405662761 0 -0.25477231595188199 0.13792181725732239 0 -0.23849568892714909 0.13696143350773771 0 -0.23849568892714909 0.13696143350773771 0 -0.24467406855423091 0.1653877069444131 0 -0.24467406855423091 0.1653877069444131 0 -0.2350219134637796 0.18103954803765679 0 -0.22379977898383499 0.16989282922580509 0 -0.24467406855423091 0.1653877069444131 0 -0.24947341468037071 0.1874691479585941 0 -0.2350219134637796 0.18103954803765679 0 -0.24467406855423091 0.1653877069444131 0 -0.24947341468037071 0.1874691479585941 0 -0.2350219134637796 0.18103954803765679 0 -0.22004124654446131 0.18611549732905991 0 -0.22379977898383499 0.16989282922580509 0 -0.24467406855423091 0.1653877069444131 0 -0.22379977898383499 0.16989282922580509 0 -0.22923283690869051 0.15925877279446471 0 -0.22379977898383499 0.16989282922580509 0 -0.22923283690869051 0.15925877279446471 0 -0.20989634202023699 0.1560844752241346 0 -0.24467406855423091 0.1653877069444131 0 -0.22379977898383499 0.16989282922580509 0 -0.22379977898383499 0.16989282922580509 0 -0.20292548941343971 0.17439795150720031 0 -0.20989634202023699 0.1560844752241346 0 -0.20292548941343971 0.17439795150720031 0 -0.20989634202023699 0.1560844752241346 0 -0.17833905569944569 0.15756593750779829 0 -0.22379977898383499 0.16989282922580509 0 -0.20292548941343971 0.17439795150720031 0 -0.22004124654446131 0.18611549732905991 0 -0.22379977898383499 0.16989282922580509 0 -0.20292548941343971 0.17439795150720031 0 -0.22004124654446131 0.18611549732905991 0 -0.20292548941343971 0.17439795150720031 0 -0.22004124654446131 0.18611549732905991 0 -0.20292548941343971 0.17439795150720031 0 -0.20568385543668641 0.19260324117033031 0 -0.20292548941343971 0.17439795150720031 0 -0.1757122088887666 0.1802711648698879 0 -0.20292548941343971 0.17439795150720031 0 -0.1897130520823497 0.19444680225630501 0 -0.1757122088887666 0.1802711648698879 0 -0.20292548941343971 0.17439795150720031 0 -0.20568385543668641 0.19260324117033031 0 -0.1897130520823497 0.19444680225630501 0 -0.20292548941343971 0.17439795150720031 0 -0.17833905569944569 0.15756593750779829 0 -0.19589961716039911 0.1405342722931214 0 -0.20989634202023699 0.1560844752241346 0 -0.17833905569944569 0.15756593750779829 0 -0.19727411993202021 0.1275714443648302 0 -0.19589961716039911 0.1405342722931214 0 -0.1795193575176991 0.1294692331289829 0 -0.19727411993202021 0.1275714443648302 0 -0.19589961716039911 0.1405342722931214 0 -0.21430344731955769 0.133180348277227 0 -0.22923283690869051 0.15925877279446471 0 -0.21430344731955769 0.133180348277227 0 -0.20989634202023699 0.1560844752241346 0 -0.19589961716039911 0.1405342722931214 0 -0.21430344731955769 0.133180348277227 0 -0.20989634202023699 0.1560844752241346 0 -0.23288038931281729 0.23888496135878451 0 -0.21994142138302111 0.22426230620998819 0 -0.21218175950055909 0.24952722652004439 0 -0.22667039518801041 0.25355429459537898 0 -0.23288038931281729 0.23888496135878451 0 -0.21218175950055909 0.24952722652004439 0 -0.2416444700809012 0.25186566196455601 0 -0.22667039518801041 0.25355429459537898 0 -0.23288038931281729 0.23888496135878451 0 -0.2416444700809012 0.25186566196455601 0 -0.23288038931281729 0.23888496135878451 0 -0.2470081454867771 0.2422065880623451 0 -0.25693865295534157 0.25278860643768353 0 -0.2416444700809012 0.25186566196455601 0 -0.2470081454867771 0.2422065880623451 0 -0.25109603964961891 0.234366577265785 0 -0.2470081454867771 0.2422065880623451 0 -0.24424918889796191 0.23342051569475999 0 -0.23288038931281729 0.23888496135878451 0 -0.2470081454867771 0.2422065880623451 0 -0.24424918889796191 0.23342051569475999 0 -0.23288038931281729 0.23888496135878451 0 -0.24424918889796191 0.23342051569475999 0 -0.2396805993576108 0.22455316273993289 0 -0.24424918889796191 0.23342051569475999 0 -0.249817319625419 0.2274340479663062 0 -0.2396805993576108 0.22455316273993289 0 -0.25109603964961891 0.234366577265785 0 -0.24424918889796191 0.23342051569475999 0 -0.249817319625419 0.2274340479663062 0 -0.249817319625419 0.2274340479663062 0 -0.24904636230289101 0.22050689045355901 0 -0.2396805993576108 0.22455316273993289 0 -0.24904636230289101 0.22050689045355901 0 -0.2396805993576108 0.22455316273993289 0 -0.24333230173327219 0.21221501244476959 0 -0.2396805993576108 0.22455316273993289 0 -0.21994142138302111 0.22426230620998819 0 -0.23304733008138001 0.21339205942673259 0 -0.23288038931281729 0.23888496135878451 0 -0.2396805993576108 0.22455316273993289 0 -0.21994142138302111 0.22426230620998819 0 -0.21994142138302111 0.22426230620998819 0 -0.22770108326548311 0.19899738589993199 0 -0.210353022999335 0.20567537760669019 0 -0.21994142138302111 0.22426230620998819 0 -0.23304733008138001 0.21339205942673259 0 -0.22770108326548311 0.19899738589993199 0 -0.21994142138302111 0.22426230620998819 0 -0.22770108326548311 0.19899738589993199 0 -0.23304733008138001 0.21339205942673259 0 -0.2346933251094325 0.20523388649383931 0 -0.22770108326548311 0.19899738589993199 0 -0.25427276080650663 0.20955058897277601 0 -0.23715700367548431 0.1978330431509176 0 -0.2396805993576108 0.22455316273993289 0 -0.23304733008138001 0.21339205942673259 0 -0.24333230173327219 0.21221501244476959 0 -0.25427276080650663 0.20955058897277601 0 -0.24333230173327219 0.21221501244476959 0 -0.23715700367548431 0.1978330431509176 0 -0.25561524088587501 0.21572724177218369 0 -0.24904636230289101 0.22050689045355901 0 -0.24333230173327219 0.21221501244476959 0 -0.24333230173327219 0.21221501244476959 0 -0.2346933251094325 0.20523388649383931 0 -0.23715700367548431 0.1978330431509176 0 -0.23304733008138001 0.21339205942673259 0 -0.24333230173327219 0.21221501244476959 0 -0.2346933251094325 0.20523388649383931 0 -0.25427276080650663 0.20955058897277601 0 -0.24947341468037071 0.1874691479585941 0 -0.23715700367548431 0.1978330431509176 0 -0.24947341468037071 0.1874691479585941 0 -0.2350219134637796 0.18103954803765679 0 -0.23715700367548431 0.1978330431509176 0 -0.22004124654446131 0.18611549732905991 0 -0.23715700367548431 0.1978330431509176 0 -0.22004124654446131 0.18611549732905991 0 -0.23715700367548431 0.1978330431509176 0 -0.22770108326548311 0.19899738589993199 0 -0.2350219134637796 0.18103954803765679 0 -0.22004124654446131 0.18611549732905991 0 -0.23715700367548431 0.1978330431509176 0 -0.2346933251094325 0.20523388649383931 0 -0.23715700367548431 0.1978330431509176 0 -0.22770108326548311 0.19899738589993199 0 -0.22004124654446131 0.18611549732905991 0 -0.22770108326548311 0.19899738589993199 0 -0.21594480206149139 0.19584787550150309 0 -0.22770108326548311 0.19899738589993199 0 -0.21594480206149139 0.19584787550150309 0 -0.210353022999335 0.20567537760669019 0 -0.22004124654446131 0.18611549732905991 0 -0.21594480206149139 0.19584787550150309 0 -0.20568385543668641 0.19260324117033031 0 -0.21594480206149139 0.19584787550150309 0 -0.20568385543668641 0.19260324117033031 0 -0.210353022999335 0.20567537760669019 0 -0.20568385543668641 0.19260324117033031 0 -0.19800517532583911 0.2033181044808495 0 -0.210353022999335 0.20567537760669019 0 -0.20568385543668641 0.19260324117033031 0 -0.1897130520823497 0.19444680225630501 0 -0.19800517532583911 0.2033181044808495 0 -0.1897130520823497 0.19444680225630501 0 -0.19800517532583911 0.2033181044808495 0 -0.1863200837324982 0.20555600776477401 0 -0.19800517532583911 0.2033181044808495 0 -0.19795586237832599 0.21830909360614789 0 -0.210353022999335 0.20567537760669019 0 -0.19800517532583911 0.2033181044808495 0 -0.19795586237832599 0.21830909360614789 0 -0.1863200837324982 0.20555600776477401 0 -0.19795586237832599 0.21830909360614789 0 -0.18240126852579899 0.21930684119835961 0 -0.1863200837324982 0.20555600776477401 0 -0.21994142138302111 0.22426230620998819 0 -0.19795586237832599 0.21830909360614789 0 -0.210353022999335 0.20567537760669019 0 -0.21994142138302111 0.22426230620998819 0 -0.19795586237832599 0.21830909360614789 0 -0.20314208847108339 0.23556135501649109 0 -0.19795586237832599 0.21830909360614789 0 -0.18651378479530609 0.23505073182760211 0 -0.18240126852579899 0.21930684119835961 0 -0.19795586237832599 0.21830909360614789 0 -0.20314208847108339 0.23556135501649109 0 -0.18651378479530609 0.23505073182760211 0 -0.1929026130837673 0.25762258695206858 0 -0.20314208847108339 0.23556135501649109 0 -0.18651378479530609 0.23505073182760211 0 -0.1929026130837673 0.25762258695206858 0 -0.20314208847108339 0.23556135501649109 0 -0.21218175950055909 0.24952722652004439 0 -0.21994142138302111 0.22426230620998819 0 -0.21218175950055909 0.24952722652004439 0 -0.21994142138302111 0.22426230620998819 0 -0.20314208847108339 0.23556135501649109 0 -0.21218175950055909 0.24952722652004439 0 -0.16582228118094081 0.26466105519565358 0 -0.18651378479530609 0.23505073182760211 0 -0.1608218935138386 0.23306973899941771 0 -0.16582228118094081 0.26466105519565358 0 -0.14534546737678511 0.25129379472131641 0 -0.1608218935138386 0.23306973899941771 0 -0.18651378479530609 0.23505073182760211 0 -0.1608218935138386 0.23306973899941771 0 -0.18651378479530609 0.23505073182760211 0 -0.18240126852579899 0.21930684119835961 0 -0.1608218935138386 0.23306973899941771 0 -0.1608218935138386 0.23306973899941771 0 -0.16716432822862029 0.21469463307327219 0 -0.14537567171977789 0.21373021027012479 0 -0.18240126852579899 0.21930684119835961 0 -0.1608218935138386 0.23306973899941771 0 -0.16716432822862029 0.21469463307327219 0 -0.16716432822862029 0.21469463307327219 0 -0.15728284033457929 0.19872471446884221 0 -0.14537567171977789 0.21373021027012479 0 -0.16716432822862029 0.21469463307327219 0 -0.1863200837324982 0.20555600776477401 0 -0.15728284033457929 0.19872471446884221 0 -0.18240126852579899 0.21930684119835961 0 -0.16716432822862029 0.21469463307327219 0 -0.1863200837324982 0.20555600776477401 0 -0.1863200837324982 0.20555600776477401 0 -0.1747365466553682 0.1940095109997643 0 -0.15728284033457929 0.19872471446884221 0 -0.1897130520823497 0.19444680225630501 0 -0.1863200837324982 0.20555600776477401 0 -0.1747365466553682 0.1940095109997643 0 -0.1897130520823497 0.19444680225630501 0 -0.1747365466553682 0.1940095109997643 0 -0.1757122088887666 0.1802711648698879 0 -0.1747365466553682 0.1940095109997643 0 -0.16534449221108169 0.19019064904669619 0 -0.1757122088887666 0.1802711648698879 0 -0.1863200837324982 0.20555600776477401 0 -0.15728284033457929 0.19872471446884221 0 -0.1747365466553682 0.1940095109997643 0 -0.16534449221108169 0.19019064904669619 0 -0.15728284033457929 0.19872471446884221 0 -0.16534449221108169 0.19019064904669619 0 -0.15728284033457929 0.19872471446884221 0 -0.15629575781976141 0.184461654133797 0 -0.15728284033457929 0.19872471446884221 0 -0.12824559693666041 0.19189342117291039 0 -0.15629575781976141 0.184461654133797 0 -0.15728284033457929 0.19872471446884221 0 -0.12824559693666041 0.19189342117291039 0 -0.14537567171977789 0.21373021027012479 0 -0.15728284033457929 0.19872471446884221 0 -0.12824559693666041 0.19189342117291039 0 -0.12824559693666041 0.19189342117291039 0 -0.14537567171977789 0.21373021027012479 0 -0.1242544958201173 0.21504107598638081 0 -0.1608218935138386 0.23306973899941771 0 -0.14537567171977789 0.21373021027012479 0 -0.13513000223237101 0.23108874617123329 0 -0.1608218935138386 0.23306973899941771 0 -0.13513000223237101 0.23108874617123329 0 -0.14537567171977789 0.21373021027012479 0 -0.13513000223237101 0.23108874617123329 0 -0.1242544958201173 0.21504107598638081 0 -0.14534546737678511 0.25129379472131641 0 -0.13513000223237101 0.23108874617123329 0 -0.12470300375741469 0.2457033751303839 0 -0.14534546737678511 0.25129379472131641 0 -0.1608218935138386 0.23306973899941771 0 -0.13513000223237101 0.23108874617123329 0 -0.17833905569944569 0.15756593750779829 0 -0.1561619761378806 0.16047685630827471 0 -0.153752621985453 0.14073392350839439 0 -0.1795193575176991 0.1294692331289829 0 -0.17833905569944569 0.15756593750779829 0 -0.153752621985453 0.14073392350839439 0 -0.17833905569944569 0.15756593750779829 0 -0.153752621985453 0.14073392350839439 0 -0.16393492635195239 0.1245978723337525 0 -0.15311233888185891 0.1152965378839053 0 -0.153752621985453 0.14073392350839439 0 -0.16393492635195239 0.1245978723337525 0 -0.1795193575176991 0.1294692331289829 0 -0.153752621985453 0.14073392350839439 0 -0.19589961716039911 0.1405342722931214 0 -0.1795193575176991 0.1294692331289829 0 -0.17833905569944569 0.15756593750779829 0 -0.20292548941343971 0.17439795150720031 0 -0.17833905569944569 0.15756593750779829 0 -0.1757122088887666 0.1802711648698879 0 -0.1897130520823497 0.19444680225630501 0 -0.1757122088887666 0.1802711648698879 0 -0.16534449221108169 0.19019064904669619 0 -0.1757122088887666 0.1802711648698879 0 -0.15629575781976141 0.184461654133797 0 -0.1757122088887666 0.1802711648698879 0 -0.15629575781976141 0.184461654133797 0 -0.1757122088887666 0.1802711648698879 0 -0.15629575781976141 0.184461654133797 0 -0.1561619761378806 0.16047685630827471 0 -0.17833905569944569 0.15756593750779829 0 -0.1757122088887666 0.1802711648698879 0 -0.1561619761378806 0.16047685630827471 0 -0.1757122088887666 0.1802711648698879 0 -0.1561619761378806 0.16047685630827471 0 -0.1561619761378806 0.16047685630827471 0 -0.14126926821389521 0.17232478353634881 0 -0.1371080151487378 0.15864895140394189 0 -0.15629575781976141 0.184461654133797 0 -0.1561619761378806 0.16047685630827471 0 -0.14126926821389521 0.17232478353634881 0 -0.12824559693666041 0.19189342117291039 0 -0.15629575781976141 0.184461654133797 0 -0.14126926821389521 0.17232478353634881 0 -0.12824559693666041 0.19189342117291039 0 -0.14126926821389521 0.17232478353634881 0 -0.1248941403316576 0.1686438139500778 0 -0.14126926821389521 0.17232478353634881 0 -0.1371080151487378 0.15864895140394189 0 -0.1248941403316576 0.1686438139500778 0 -0.1371080151487378 0.15864895140394189 0 -0.1239269324459726 0.1539154783358255 0 -0.1248941403316576 0.1686438139500778 0 -0.1371080151487378 0.15864895140394189 0 -0.13661174338699569 0.1406825477466605 0 -0.1239269324459726 0.1539154783358255 0 -0.1561619761378806 0.16047685630827471 0 -0.13661174338699569 0.1406825477466605 0 -0.1561619761378806 0.16047685630827471 0 -0.13661174338699569 0.1406825477466605 0 -0.153752621985453 0.14073392350839439 0 -0.1561619761378806 0.16047685630827471 0 -0.1371080151487378 0.15864895140394189 0 -0.13661174338699569 0.1406825477466605 0 -0.12916618827146031 0.12390190950899049 0 -0.153752621985453 0.14073392350839439 0 -0.13930859898956699 0.1145050369687237 0 -0.12916618827146031 0.12390190950899049 0 -0.153752621985453 0.14073392350839439 0 -0.13661174338699569 0.1406825477466605 0 -0.11706151063611089 0.1208882391850464 0 -0.12916618827146031 0.12390190950899049 0 -0.13661174338699569 0.1406825477466605 0 -0.11706151063611089 0.1208882391850464 0 -0.12916618827146031 0.12390190950899049 0 -0.13661174338699569 0.1406825477466605 0 -0.153752621985453 0.14073392350839439 0 -0.13661174338699569 0.1406825477466605 0 -0.11473911200363 0.13153944404780621 0 -0.1132109842275667 0.1430328284895945 0 -0.13661174338699569 0.1406825477466605 0 -0.11473911200363 0.13153944404780621 0 -0.11706151063611089 0.1208882391850464 0 -0.11473911200363 0.13153944404780621 0 -0.1039338124667491 0.13009472872812991 0 -0.1132109842275667 0.1430328284895945 0 -0.11473911200363 0.13153944404780621 0 -0.1039338124667491 0.13009472872812991 0 -0.10601879130899509 0.12208205668825579 0 -0.1039338124667491 0.13009472872812991 0 -0.093398168270057425 0.14218175111966569 0 -0.093946486761182085 0.1175508364221631 0 -0.1039338124667491 0.13009472872812991 0 -0.1132109842275667 0.1430328284895945 0 -0.093398168270057425 0.14218175111966569 0 -0.1078097791349048 0.15856925008885259 0 -0.089544080768145809 0.16137822361845131 0 -0.093398168270057425 0.14218175111966569 0 -0.1132109842275667 0.1430328284895945 0 -0.1078097791349048 0.15856925008885259 0 -0.093398168270057425 0.14218175111966569 0 -0.13661174338699569 0.1406825477466605 0 -0.1132109842275667 0.1430328284895945 0 -0.1239269324459726 0.1539154783358255 0 -0.1132109842275667 0.1430328284895945 0 -0.1239269324459726 0.1539154783358255 0 -0.1078097791349048 0.15856925008885259 0 -0.1248941403316576 0.1686438139500778 0 -0.099208353538741523 0.18506212787697859 0 -0.1078097791349048 0.15856925008885259 0 -0.1239269324459726 0.1539154783358255 0 -0.1248941403316576 0.1686438139500778 0 -0.1078097791349048 0.15856925008885259 0 -0.12824559693666041 0.19189342117291039 0 -0.1248941403316576 0.1686438139500778 0 -0.099208353538741523 0.18506212787697859 0 -0.099208353538741523 0.18506212787697859 0 -0.1078097791349048 0.15856925008885259 0 -0.089544080768145809 0.16137822361845131 0 -0.089544080768145809 0.16137822361845131 0 -0.070171110140822543 0.1782308345810468 0 -0.074669823138777097 0.15727584041375819 0 -0.099208353538741523 0.18506212787697859 0 -0.089544080768145809 0.16137822361845131 0 -0.070171110140822543 0.1782308345810468 0 -0.099208353538741523 0.18506212787697859 0 -0.070171110140822543 0.1782308345810468 0 -0.070171110140822543 0.1782308345810468 0 -0.074669823138777097 0.15727584041375819 0 -0.057722578482997257 0.16273086802879619 0 -0.074669823138777097 0.15727584041375819 0 -0.066369438716585821 0.14892706699039879 0 -0.057722578482997257 0.16273086802879619 0 -0.074669823138777097 0.15727584041375819 0 -0.066369438716585821 0.14892706699039879 0 -0.074733199104357148 0.14603812585323231 0 -0.074669823138777097 0.15727584041375819 0 -0.074733199104357148 0.14603812585323231 0 -0.082756465015383474 0.1492386270883771 0 -0.074733199104357148 0.14603812585323231 0 -0.067315024607703278 0.13662092079142449 0 -0.081437053795579945 0.1393191944367777 0 -0.066369438716585821 0.14892706699039879 0 -0.074733199104357148 0.14603812585323231 0 -0.067315024607703278 0.13662092079142449 0 -0.066369438716585821 0.14892706699039879 0 -0.067315024607703278 0.13662092079142449 0 -0.054361576129613079 0.15178129246158931 0 -0.067315024607703278 0.13662092079142449 0 -0.088852304720190942 0.12644129241805541 0 -0.067315024607703278 0.13662092079142449 0 -0.088852304720190942 0.12644129241805541 0 -0.075786521408142987 0.12443322189858901 0 -0.067315024607703278 0.13662092079142449 0 -0.062016764747578973 0.12884034001808189 0 -0.075786521408142987 0.12443322189858901 0 -0.088852304720190942 0.12644129241805541 0 -0.093398168270057425 0.14218175111966569 0 -0.093946486761182085 0.1175508364221631 0 -0.067315024607703278 0.13662092079142449 0 -0.081437053795579945 0.1393191944367777 0 -0.088852304720190942 0.12644129241805541 0 -0.093398168270057425 0.14218175111966569 0 -0.093946486761182085 0.1175508364221631 0 -0.081437053795579945 0.1393191944367777 0 -0.088852304720190942 0.12644129241805541 0 -0.093398168270057425 0.14218175111966569 0 -0.089544080768145809 0.16137822361845131 0 -0.093398168270057425 0.14218175111966569 0 -0.082756465015383474 0.1492386270883771 0 -0.089544080768145809 0.16137822361845131 0 -0.074669823138777097 0.15727584041375819 0 -0.082756465015383474 0.1492386270883771 0 -0.074733199104357148 0.14603812585323231 0 -0.081437053795579945 0.1393191944367777 0 -0.082756465015383474 0.1492386270883771 0 -0.081437053795579945 0.1393191944367777 0 -0.093398168270057425 0.14218175111966569 0 -0.082756465015383474 0.1492386270883771 0 -0.11076524853809321 0.25238606884059173 0 -0.1094381109509034 0.22910775334304889 0 -0.091345724210048884 0.23566487628332011 0 -0.11076524853809321 0.25238606884059173 0 -0.092391857727521592 0.25884509119311472 0 -0.091345724210048884 0.23566487628332011 0 -0.13513000223237101 0.23108874617123329 0 -0.12470300375741469 0.2457033751303839 0 -0.1094381109509034 0.22910775334304889 0 -0.11076524853809321 0.25238606884059173 0 -0.12470300375741469 0.2457033751303839 0 -0.1094381109509034 0.22910775334304889 0 -0.13513000223237101 0.23108874617123329 0 -0.1094381109509034 0.22910775334304889 0 -0.13513000223237101 0.23108874617123329 0 -0.1094381109509034 0.22910775334304889 0 -0.1242544958201173 0.21504107598638081 0 -0.1094381109509034 0.22910775334304889 0 -0.10308309726087379 0.20938524897458621 0 -0.091345724210048884 0.23566487628332011 0 -0.1094381109509034 0.22910775334304889 0 -0.10308309726087379 0.20938524897458621 0 -0.1242544958201173 0.21504107598638081 0 -0.12824559693666041 0.19189342117291039 0 -0.10308309726087379 0.20938524897458621 0 -0.1242544958201173 0.21504107598638081 0 -0.12824559693666041 0.19189342117291039 0 -0.099208353538741523 0.18506212787697859 0 -0.12824559693666041 0.19189342117291039 0 -0.099208353538741523 0.18506212787697859 0 -0.10308309726087379 0.20938524897458621 0 -0.099208353538741523 0.18506212787697859 0 -0.070171110140822543 0.1782308345810468 0 -0.078220861930521898 0.21057701145176541 0 -0.070171110140822543 0.1782308345810468 0 -0.078220861930521898 0.21057701145176541 0 -0.056949983849450658 0.19269083667038239 0 -0.099208353538741523 0.18506212787697859 0 -0.10308309726087379 0.20938524897458621 0 -0.078220861930521898 0.21057701145176541 0 -0.078220861930521898 0.21057701145176541 0 -0.056178602179823331 0.21732906463454121 0 -0.056949983849450658 0.19269083667038239 0 -0.10308309726087379 0.20938524897458621 0 -0.078220861930521898 0.21057701145176541 0 -0.091345724210048884 0.23566487628332011 0 -0.078220861930521898 0.21057701145176541 0 -0.069221313838413207 0.24642852661517459 0 -0.091345724210048884 0.23566487628332011 0 -0.078220861930521898 0.21057701145176541 0 -0.069221313838413207 0.24642852661517459 0 -0.056178602179823331 0.21732906463454121 0 -0.092391857727521592 0.25884509119311472 0 -0.069221313838413207 0.24642852661517459 0 -0.091345724210048884 0.23566487628332011 0 -0.033382390283993792 0.24359412621706661 0 -0.046050769949304807 0.23401196203723451 0 -0.025866468353912139 0.2289639569827632 0 -0.048126263350958612 0.25465777805589501 0 -0.033382390283993792 0.24359412621706661 0 -0.046050769949304807 0.23401196203723451 0 -0.048126263350958612 0.25465777805589501 0 -0.069221313838413207 0.24642852661517459 0 -0.046050769949304807 0.23401196203723451 0 -0.069221313838413207 0.24642852661517459 0 -0.046050769949304807 0.23401196203723451 0 -0.069221313838413207 0.24642852661517459 0 -0.046050769949304807 0.23401196203723451 0 -0.056178602179823331 0.21732906463454121 0 -0.046050769949304807 0.23401196203723451 0 -0.03692704292774221 0.2147422921961073 0 -0.025866468353912139 0.2289639569827632 0 -0.046050769949304807 0.23401196203723451 0 -0.03692704292774221 0.2147422921961073 0 -0.056178602179823331 0.21732906463454121 0 -0.03692704292774221 0.2147422921961073 0 -0.056178602179823331 0.21732906463454121 0 -0.044221089124866657 0.20193605474889509 0 -0.03692704292774221 0.2147422921961073 0 -0.044221089124866657 0.20193605474889509 0 -0.032331133115066808 0.19858524020914661 0 -0.056178602179823331 0.21732906463454121 0 -0.056949983849450658 0.19269083667038239 0 -0.044221089124866657 0.20193605474889509 0 -0.056949983849450658 0.19269083667038239 0 -0.040360849617421202 0.18777351164107661 0 -0.044221089124866657 0.20193605474889509 0 -0.040360849617421202 0.18777351164107661 0 -0.032331133115066808 0.19858524020914661 0 -0.026751027678188599 0.18229597604057349 0 -0.040360849617421202 0.18777351164107661 0 -0.044221089124866657 0.20193605474889509 0 -0.032331133115066808 0.19858524020914661 0 -0.016914194843479571 0.2076274745640635 0 -0.026751027678188599 0.18229597604057349 0 -0.032331133115066808 0.19858524020914661 0 -0.016914194843479571 0.2076274745640635 0 -0.026751027678188599 0.18229597604057349 0 -0.01405220631290922 0.19352016069679451 0 -0.016914194843479571 0.2076274745640635 0 -0.026751027678188599 0.18229597604057349 0 -0.01405220631290922 0.19352016069679451 0 -0.0012364494800765971 0.1960628175593882 0 -0.01891215499648707 0.1765136475382359 0 -0.01405220631290922 0.19352016069679451 0 -0.0012364494800765971 0.1960628175593882 0 -0.0064787008301582438 0.20475797647738719 0 -0.0012364494800765971 0.1960628175593882 0 -0.0064787008301582438 0.20475797647738719 0 0.003893562275735573 0.2064819102401671 0 -0.01405220631290922 0.19352016069679451 0 -0.0064787008301582438 0.20475797647738719 0 -0.016914194843479571 0.2076274745640635 0 -0.0045317147067566524 0.21522543551468479 0 -0.016914194843479571 0.2076274745640635 0 -0.0070773620087705444 0.23295897308755351 0 -0.0064787008301582438 0.20475797647738719 0 -0.0045317147067566524 0.21522543551468479 0 -0.016914194843479571 0.2076274745640635 0 -0.0064787008301582438 0.20475797647738719 0 -0.0045317147067566524 0.21522543551468479 0 0.003893562275735573 0.2064819102401671 0 -0.03692704292774221 0.2147422921961073 0 -0.016914194843479571 0.2076274745640635 0 -0.025866468353912139 0.2289639569827632 0 -0.03692704292774221 0.2147422921961073 0 -0.032331133115066808 0.19858524020914661 0 -0.016914194843479571 0.2076274745640635 0 -0.016914194843479571 0.2076274745640635 0 -0.025866468353912139 0.2289639569827632 0 -0.0070773620087705444 0.23295897308755351 0 -0.016914194843479571 0.2076274745640635 0 -0.0070773620087705444 0.23295897308755351 0 -0.0045317147067566524 0.21522543551468479 0 -0.0070773620087705444 0.23295897308755351 0 0.0038866256090455522 0.2239579318999283 0 -0.0070773620087705444 0.23295897308755351 0 0.001894876929373096 0.24743045501984201 0 0.0027594708259384838 0.25829047161104352 0 -0.0070773620087705444 0.23295897308755351 0 0.0027594708259384838 0.25829047161104352 0 -0.0087132352456033638 0.25173417187717928 0 -0.0070773620087705444 0.23295897308755351 0 -0.01778818590069102 0.2421293126167848 0 -0.0087132352456033638 0.25173417187717928 0 -0.0070773620087705444 0.23295897308755351 0 0.0027594708259384838 0.25829047161104352 0 -0.025866468353912139 0.2289639569827632 0 -0.0070773620087705444 0.23295897308755351 0 -0.01778818590069102 0.2421293126167848 0 -0.028053557715267439 0.25838243531431121 0 -0.033382390283993792 0.24359412621706661 0 -0.01778818590069102 0.2421293126167848 0 -0.033382390283993792 0.24359412621706661 0 -0.025866468353912139 0.2289639569827632 0 -0.01778818590069102 0.2421293126167848 0 -0.044416936009294992 0.14744373737619401 0 -0.030319635528424791 0.14770209815471691 0 -0.021396469969749188 0.1374028974533886 0 -0.044416936009294992 0.14744373737619401 0 -0.030319635528424791 0.14770209815471691 0 -0.027639103276038759 0.15537380566908321 0 -0.044416936009294992 0.14744373737619401 0 -0.038116788675066252 0.15302723042411279 0 -0.027639103276038759 0.15537380566908321 0 -0.044416936009294992 0.14744373737619401 0 -0.041458398192443832 0.13942314763129199 0 -0.021396469969749188 0.1374028974533886 0 -0.044416936009294992 0.14744373737619401 0 -0.027639103276038759 0.15537380566908321 0 -0.044416936009294992 0.14744373737619401 0 -0.021396469969749188 0.1374028974533886 0 -0.044416936009294992 0.14744373737619401 0 -0.036587860512897558 0.15696447751708351 0 -0.044416936009294992 0.14744373737619401 0 -0.047012455662473793 0.15786975055381819 0 -0.036587860512897558 0.15696447751708351 0 -0.044416936009294992 0.14744373737619401 0 -0.038116788675066252 0.15302723042411279 0 -0.036587860512897558 0.15696447751708351 0 -0.038116788675066252 0.15302723042411279 0 -0.036587860512897558 0.15696447751708351 0 -0.027639103276038759 0.15537380566908321 0 -0.038116788675066252 0.15302723042411279 0 -0.036587860512897558 0.15696447751708351 0 -0.037500573576258918 0.13069979942664511 0 -0.041458398192443832 0.13942314763129199 0 -0.021396469969749188 0.1374028974533886 0 -0.037500573576258918 0.13069979942664511 0 -0.028643554108799551 0.12806760582925611 0 -0.034668926388748328 0.1237436995229996 0 -0.037500573576258918 0.13069979942664511 0 -0.047589673205635397 0.1324549890601831 0 -0.046884900963607742 0.11986348336078891 0 -0.037500573576258918 0.13069979942664511 0 -0.041458398192443832 0.13942314763129199 0 -0.047589673205635397 0.1324549890601831 0 -0.044416936009294992 0.14744373737619401 0 -0.041458398192443832 0.13942314763129199 0 -0.047589673205635397 0.1324549890601831 0 -0.067315024607703278 0.13662092079142449 0 -0.044416936009294992 0.14744373737619401 0 -0.062016764747578973 0.12884034001808189 0 -0.044416936009294992 0.14744373737619401 0 -0.062016764747578973 0.12884034001808189 0 -0.044416936009294992 0.14744373737619401 0 -0.047589673205635397 0.1324549890601831 0 -0.062016764747578973 0.12884034001808189 0 -0.047589673205635397 0.1324549890601831 0 -0.062016764747578973 0.12884034001808189 0 -0.046884900963607742 0.11986348336078891 0 -0.067315024607703278 0.13662092079142449 0 -0.044416936009294992 0.14744373737619401 0 -0.054361576129613079 0.15178129246158931 0 -0.067315024607703278 0.13662092079142449 0 -0.044416936009294992 0.14744373737619401 0 -0.044416936009294992 0.14744373737619401 0 -0.054361576129613079 0.15178129246158931 0 -0.044416936009294992 0.14744373737619401 0 -0.054361576129613079 0.15178129246158931 0 -0.047012455662473793 0.15786975055381819 0 -0.066369438716585821 0.14892706699039879 0 -0.054361576129613079 0.15178129246158931 0 -0.057722578482997257 0.16273086802879619 0 -0.057722578482997257 0.16273086802879619 0 -0.050411583818504503 0.1777900037548745 0 -0.045636115300606919 0.16650756778262649 0 -0.054361576129613079 0.15178129246158931 0 -0.057722578482997257 0.16273086802879619 0 -0.047012455662473793 0.15786975055381819 0 -0.057722578482997257 0.16273086802879619 0 -0.047012455662473793 0.15786975055381819 0 -0.045636115300606919 0.16650756778262649 0 -0.070171110140822543 0.1782308345810468 0 -0.056949983849450658 0.19269083667038239 0 -0.050411583818504503 0.1777900037548745 0 -0.070171110140822543 0.1782308345810468 0 -0.057722578482997257 0.16273086802879619 0 -0.050411583818504503 0.1777900037548745 0 -0.056949983849450658 0.19269083667038239 0 -0.040360849617421202 0.18777351164107661 0 -0.050411583818504503 0.1777900037548745 0 -0.040360849617421202 0.18777351164107661 0 -0.050411583818504503 0.1777900037548745 0 -0.039949487385523758 0.17426630734724691 0 -0.050411583818504503 0.1777900037548745 0 -0.039949487385523758 0.17426630734724691 0 -0.045636115300606919 0.16650756778262649 0 -0.040360849617421202 0.18777351164107661 0 -0.039949487385523758 0.17426630734724691 0 -0.026751027678188599 0.18229597604057349 0 -0.039949487385523758 0.17426630734724691 0 -0.036587860512897558 0.15696447751708351 0 -0.026751027678188599 0.18229597604057349 0 -0.036587860512897558 0.15696447751708351 0 -0.026751027678188599 0.18229597604057349 0 -0.039949487385523758 0.17426630734724691 0 -0.045636115300606919 0.16650756778262649 0 -0.036587860512897558 0.15696447751708351 0 -0.047012455662473793 0.15786975055381819 0 -0.045636115300606919 0.16650756778262649 0 -0.036587860512897558 0.15696447751708351 0 -0.01891215499648707 0.1765136475382359 0 -0.010861270542782259 0.1633038739619718 0 -0.027639103276038759 0.15537380566908321 0 -0.010861270542782259 0.1633038739619718 0 -0.027639103276038759 0.15537380566908321 0 -0.036587860512897558 0.15696447751708351 0 -0.01891215499648707 0.1765136475382359 0 -0.036587860512897558 0.15696447751708351 0 -0.01891215499648707 0.1765136475382359 0 -0.027639103276038759 0.15537380566908321 0 -0.01405220631290922 0.19352016069679451 0 -0.01891215499648707 0.1765136475382359 0 -0.026751027678188599 0.18229597604057349 0 -0.036587860512897558 0.15696447751708351 0 -0.01891215499648707 0.1765136475382359 0 -0.026751027678188599 0.18229597604057349 0 -0.01891215499648707 0.1765136475382359 0 -0.010861270542782259 0.1633038739619718 0 0.00061104658230836653 0.17769045695541219 0 -0.0012364494800765971 0.1960628175593882 0 -0.01891215499648707 0.1765136475382359 0 0.00061104658230836653 0.17769045695541219 0 -0.0012364494800765971 0.1960628175593882 0 -0.01891215499648707 0.1765136475382359 0 -0.010861270542782259 0.1633038739619718 0 0.001788155555331062 0.1557637096651584 0 0.00061104658230836653 0.17769045695541219 0 -0.01542264584752753 0.14956457798035719 0 -0.015783289274076458 0.13495459563681389 0 0.001788155555331062 0.1557637096651584 0 -0.015783289274076458 0.13495459563681389 0 0.001788155555331062 0.1557637096651584 0 0.01185912902997375 0.14130758542593569 0 -0.010861270542782259 0.1633038739619718 0 -0.01542264584752753 0.14956457798035719 0 0.001788155555331062 0.1557637096651584 0 -0.015783289274076458 0.13495459563681389 0 0.001788155555331062 0.1557637096651584 0 -0.01542264584752753 0.14956457798035719 0 -0.023159931299824549 0.14839209377580129 0 -0.027639103276038759 0.15537380566908321 0 -0.010861270542782259 0.1633038739619718 0 -0.01542264584752753 0.14956457798035719 0 -0.027639103276038759 0.15537380566908321 0 -0.01542264584752753 0.14956457798035719 0 -0.023159931299824549 0.14839209377580129 0 -0.021396469969749188 0.1374028974533886 0 -0.01542264584752753 0.14956457798035719 0 -0.021396469969749188 0.1374028974533886 0 -0.015783289274076458 0.13495459563681389 0 -0.030319635528424791 0.14770209815471691 0 -0.021396469969749188 0.1374028974533886 0 -0.023159931299824549 0.14839209377580129 0 -0.030319635528424791 0.14770209815471691 0 -0.021396469969749188 0.1374028974533886 0 -0.023159931299824549 0.14839209377580129 0 -0.030319635528424791 0.14770209815471691 0 -0.027639103276038759 0.15537380566908321 0 -0.028643554108799551 0.12806760582925611 0 -0.017506847497941139 0.13291345901070739 0 -0.032144953111298558 0.1155781737325411 0 -0.037500573576258918 0.13069979942664511 0 -0.028643554108799551 0.12806760582925611 0 -0.021396469969749188 0.1374028974533886 0 -0.021396469969749188 0.1374028974533886 0 -0.015783289274076458 0.13495459563681389 0 -0.017506847497941139 0.13291345901070739 0 -0.021396469969749188 0.1374028974533886 0 -0.015783289274076458 0.13495459563681389 0 -0.021396469969749188 0.1374028974533886 0 -0.017506847497941139 0.13291345901070739 0 -0.015783289274076458 0.13495459563681389 0 -0.017506847497941139 0.13291345901070739 0 -0.028643554108799551 0.12806760582925611 0 -0.021396469969749188 0.1374028974533886 0 -0.017506847497941139 0.13291345901070739 0 -0.015783289274076458 0.13495459563681389 0 -0.017506847497941139 0.13291345901070739 0 -0.0052228475358298988 0.1187351519746004 0 -0.015783289274076458 0.13495459563681389 0 -0.0052228475358298988 0.1187351519746004 0 0.0081407562022233586 0.1245196413435004 0 -0.017506847497941139 0.13291345901070739 0 -0.0052228475358298988 0.1187351519746004 0 -0.015783289274076458 0.13495459563681389 0 0.0081407562022233586 0.1245196413435004 0 -0.0052228475358298988 0.1187351519746004 0 -0.0040597014752050652 0.1051126182356364 0 -0.02761291541641378 0.1090435214711212 0 -0.017506847497941139 0.13291345901070739 0 -0.0052228475358298988 0.1187351519746004 0 -0.019344259015361451 0.119617058157429 0 -0.0040597014752050652 0.1051126182356364 0 -0.01533391803445322 0.09737838425916874 0 0.0051087594610210148 0.080527692295617709 0 -0.0052228475358298988 0.1187351519746004 0 -0.0040597014752050652 0.1051126182356364 0 0.0092582498306486675 0.1020209346744549 0 -0.0040597014752050652 0.1051126182356364 0 -0.01533391803445322 0.09737838425916874 0 -0.02761291541641378 0.1090435214711212 0 -0.01533391803445322 0.09737838425916874 0 -0.027797722535604891 0.095528124355643507 0 -0.02761291541641378 0.1090435214711212 0 -0.0052228475358298988 0.1187351519746004 0 -0.02761291541641378 0.1090435214711212 0 -0.019344259015361451 0.119617058157429 0 -0.017506847497941139 0.13291345901070739 0 -0.019344259015361451 0.119617058157429 0 -0.032144953111298558 0.1155781737325411 0 -0.02761291541641378 0.1090435214711212 0 -0.019344259015361451 0.119617058157429 0 -0.032144953111298558 0.1155781737325411 0 -0.0052228475358298988 0.1187351519746004 0 -0.02761291541641378 0.1090435214711212 0 -0.017506847497941139 0.13291345901070739 0 -0.032144953111298558 0.1155781737325411 0 -0.0012292332505543029 0.06378464068123596 0 -0.011084303888442551 0.081696622097620714 0 -0.018620569400409771 0.06708533464306303 0 -0.0012292332505543029 0.06378464068123596 0 -0.011084303888442551 0.081696622097620714 0 0.0051087594610210148 0.080527692295617709 0 -0.01533391803445322 0.09737838425916874 0 -0.011084303888442551 0.081696622097620714 0 0.0051087594610210148 0.080527692295617709 0 -0.01533391803445322 0.09737838425916874 0 0.0051087594610210148 0.080527692295617709 0 -0.011084303888442551 0.081696622097620714 0 0.0051087594610210148 0.080527692295617709 0 -0.027797722535604891 0.095528124355643507 0 -0.011084303888442551 0.081696622097620714 0 -0.032921925083363349 0.0833654898886593 0 -0.01533391803445322 0.09737838425916874 0 -0.027797722535604891 0.095528124355643507 0 -0.011084303888442551 0.081696622097620714 0 -0.018620569400409771 0.06708533464306303 0 -0.031868141831282552 0.069818555696904067 0 -0.028283535649973771 0.053358049395037133 0 -0.018620569400409771 0.06708533464306303 0 -0.031868141831282552 0.069818555696904067 0 -0.032921925083363349 0.0833654898886593 0 -0.011084303888442551 0.081696622097620714 0 -0.018620569400409771 0.06708533464306303 0 -0.032921925083363349 0.0833654898886593 0 -0.046276495737503101 0.06795068115397529 0 -0.032921925083363349 0.0833654898886593 0 -0.055882409073029139 0.082732437330199013 0 -0.046276495737503101 0.06795068115397529 0 -0.031868141831282552 0.069818555696904067 0 -0.028283535649973771 0.053358049395037133 0 -0.046276495737503101 0.06795068115397529 0 -0.031868141831282552 0.069818555696904067 0 -0.032921925083363349 0.0833654898886593 0 -0.027797722535604891 0.095528124355643507 0 -0.032921925083363349 0.0833654898886593 0 -0.050002983296997462 0.099351890967641507 0 -0.032921925083363349 0.0833654898886593 0 -0.055882409073029139 0.082732437330199013 0 -0.050002983296997462 0.099351890967641507 0 -0.055882409073029139 0.082732437330199013 0 -0.050002983296997462 0.099351890967641507 0 -0.072393051177581158 0.089660260464161839 0 -0.046276495737503101 0.06795068115397529 0 -0.055882409073029139 0.082732437330199013 0 -0.062589921296568873 0.06642957971461419 0 -0.032144953111298558 0.1155781737325411 0 -0.050002983296997462 0.099351890967641507 0 -0.046884900963607742 0.11986348336078891 0 -0.037500573576258918 0.13069979942664511 0 -0.034668926388748328 0.1237436995229996 0 -0.046884900963607742 0.11986348336078891 0 -0.028643554108799551 0.12806760582925611 0 -0.034668926388748328 0.1237436995229996 0 -0.032144953111298558 0.1155781737325411 0 -0.034668926388748328 0.1237436995229996 0 -0.032144953111298558 0.1155781737325411 0 -0.046884900963607742 0.11986348336078891 0 -0.027797722535604891 0.095528124355643507 0 -0.02761291541641378 0.1090435214711212 0 -0.050002983296997462 0.099351890967641507 0 -0.02761291541641378 0.1090435214711212 0 -0.050002983296997462 0.099351890967641507 0 -0.02761291541641378 0.1090435214711212 0 -0.032144953111298558 0.1155781737325411 0 -0.050002983296997462 0.099351890967641507 0 -0.050002983296997462 0.099351890967641507 0 -0.072393051177581158 0.089660260464161839 0 -0.050002983296997462 0.099351890967641507 0 -0.062115440392200259 0.1100516779477724 0 -0.072393051177581158 0.089660260464161839 0 -0.062016764747578973 0.12884034001808189 0 -0.062115440392200259 0.1100516779477724 0 -0.046884900963607742 0.11986348336078891 0 -0.050002983296997462 0.099351890967641507 0 -0.062115440392200259 0.1100516779477724 0 -0.046884900963607742 0.11986348336078891 0 -0.062016764747578973 0.12884034001808189 0 -0.062115440392200259 0.1100516779477724 0 -0.07825578499994286 0.1108801308713713 0 -0.062016764747578973 0.12884034001808189 0 -0.07825578499994286 0.1108801308713713 0 -0.062016764747578973 0.12884034001808189 0 -0.075786521408142987 0.12443322189858901 0 -0.07825578499994286 0.1108801308713713 0 -0.088852304720190942 0.12644129241805541 0 -0.075786521408142987 0.12443322189858901 0 -0.083719546898917335 0.119699814685821 0 -0.083719546898917335 0.119699814685821 0 -0.07825578499994286 0.1108801308713713 0 -0.093946486761182085 0.1175508364221631 0 -0.075786521408142987 0.12443322189858901 0 -0.083719546898917335 0.119699814685821 0 -0.07825578499994286 0.1108801308713713 0 -0.088852304720190942 0.12644129241805541 0 -0.083719546898917335 0.119699814685821 0 -0.093946486761182085 0.1175508364221631 0 -0.07825578499994286 0.1108801308713713 0 -0.072393051177581158 0.089660260464161839 0 -0.094494805252306774 0.092919921724660626 0 -0.07825578499994286 0.1108801308713713 0 -0.094494805252306774 0.092919921724660626 0 -0.093946486761182085 0.1175508364221631 0 -0.07825578499994286 0.1108801308713713 0 -0.094494805252306774 0.092919921724660626 0 -0.062115440392200259 0.1100516779477724 0 -0.07825578499994286 0.1108801308713713 0 -0.072393051177581158 0.089660260464161839 0 -0.055882409073029139 0.082732437330199013 0 -0.072393051177581158 0.089660260464161839 0 -0.062589921296568873 0.06642957971461419 0 -0.072393051177581158 0.089660260464161839 0 -0.062589921296568873 0.06642957971461419 0 -0.079461892795990779 0.070449194571112136 0 -0.062589921296568873 0.06642957971461419 0 -0.079461892795990779 0.070449194571112136 0 -0.072380178782229632 0.053292134703331731 0 -0.079461892795990779 0.070449194571112136 0 -0.094783119058163612 0.079968629960679383 0 -0.095163193665411511 0.062895368012773595 0 -0.072393051177581158 0.089660260464161839 0 -0.079461892795990779 0.070449194571112136 0 -0.094783119058163612 0.079968629960679383 0 -0.072393051177581158 0.089660260464161839 0 -0.094494805252306774 0.092919921724660626 0 -0.094783119058163612 0.079968629960679383 0 -0.072393051177581158 0.089660260464161839 0 -0.094783119058163612 0.079968629960679383 0 -0.094494805252306774 0.092919921724660626 0 -0.1072570836689255 0.074569224449017327 0 -0.1143352617609841 0.070976556735617355 0 -0.094494805252306774 0.092919921724660626 0 -0.094783119058163612 0.079968629960679383 0 -0.1072570836689255 0.074569224449017327 0 -0.094494805252306774 0.092919921724660626 0 -0.094783119058163612 0.079968629960679383 0 -0.094494805252306774 0.092919921724660626 0 -0.1143352617609841 0.070976556735617355 0 -0.11134444788944529 0.091345452974062963 0 -0.094494805252306774 0.092919921724660626 0 -0.1143352617609841 0.070976556735617355 0 -0.094783119058163612 0.079968629960679383 0 -0.095163193665411511 0.062895368012773595 0 -0.094783119058163612 0.079968629960679383 0 -0.095163193665411511 0.062895368012773595 0 -0.1072570836689255 0.074569224449017327 0 -0.095163193665411511 0.062895368012773595 0 -0.1143352617609841 0.070976556735617355 0 -0.1079186055395126 0.059947093390224047 0 -0.095163193665411511 0.062895368012773595 0 -0.1072570836689255 0.074569224449017327 0 -0.1143352617609841 0.070976556735617355 0 -0.095163193665411511 0.062895368012773595 0 -0.1143352617609841 0.070976556735617355 0 -0.094783119058163612 0.079968629960679383 0 -0.1072570836689255 0.074569224449017327 0 -0.1131683311422218 0.062814464837820119 0 -0.1163519950294771 0.068746068028026575 0 -0.1143352617609841 0.070976556735617355 0 -0.1131683311422218 0.062814464837820119 0 -0.1143352617609841 0.070976556735617355 0 -0.1079186055395126 0.059947093390224047 0 -0.1131683311422218 0.062814464837820119 0 -0.1163519950294771 0.068746068028026575 0 -0.1185872066977806 0.063729502839677182 0 -0.1163519950294771 0.068746068028026575 0 -0.1143352617609841 0.070976556735617355 0 -0.12697985749263241 0.07630636069427757 0 -0.1143352617609841 0.070976556735617355 0 -0.12697985749263241 0.07630636069427757 0 -0.1143352617609841 0.070976556735617355 0 -0.1200161930876608 0.081776906418299489 0 -0.12697985749263241 0.07630636069427757 0 -0.1163519950294771 0.068746068028026575 0 -0.1143352617609841 0.070976556735617355 0 -0.12697985749263241 0.07630636069427757 0 -0.12509646681095879 0.065597408261105467 0 -0.1163519950294771 0.068746068028026575 0 -0.12509646681095879 0.065597408261105467 0 -0.1163519950294771 0.068746068028026575 0 -0.1185872066977806 0.063729502839677182 0 -0.13359630628803579 0.098968800084119873 0 -0.12697672020224329 0.087309090757334687 0 -0.11134444788944529 0.091345452974062963 0 -0.1143352617609841 0.070976556735617355 0 -0.11134444788944529 0.091345452974062963 0 -0.1200161930876608 0.081776906418299489 0 -0.12697672020224329 0.087309090757334687 0 -0.11134444788944529 0.091345452974062963 0 -0.1200161930876608 0.081776906418299489 0 -0.12697672020224329 0.087309090757334687 0 -0.12697985749263241 0.07630636069427757 0 -0.1200161930876608 0.081776906418299489 0 -0.12607259725238279 0.11330641960449821 0 -0.13359630628803579 0.098968800084119873 0 -0.11123038207674001 0.1082681122756106 0 -0.13359630628803579 0.098968800084119873 0 -0.11134444788944529 0.091345452974062963 0 -0.11123038207674001 0.1082681122756106 0 -0.13359630628803579 0.098968800084119873 0 -0.11123038207674001 0.1082681122756106 0 -0.11134444788944529 0.091345452974062963 0 -0.11123038207674001 0.1082681122756106 0 -0.1057361510920251 0.099277959283072717 0 -0.12607259725238279 0.11330641960449821 0 -0.11123038207674001 0.1082681122756106 0 -0.11706151063611089 0.1208882391850464 0 -0.12607259725238279 0.11330641960449821 0 -0.12916618827146031 0.12390190950899049 0 -0.11706151063611089 0.1208882391850464 0 -0.11473911200363 0.13153944404780621 0 -0.11706151063611089 0.1208882391850464 0 -0.10601879130899509 0.12208205668825579 0 -0.1036345166478785 0.1154037657297244 0 -0.093946486761182085 0.1175508364221631 0 -0.097511277885226108 0.1010939306234323 0 -0.11123038207674001 0.1082681122756106 0 -0.11706151063611089 0.1208882391850464 0 -0.097511277885226108 0.1010939306234323 0 -0.11706151063611089 0.1208882391850464 0 -0.1036345166478785 0.1154037657297244 0 -0.097511277885226108 0.1010939306234323 0 -0.11706151063611089 0.1208882391850464 0 -0.097511277885226108 0.1010939306234323 0 -0.11706151063611089 0.1208882391850464 0 -0.1036345166478785 0.1154037657297244 0 -0.10601879130899509 0.12208205668825579 0 -0.1039338124667491 0.13009472872812991 0 -0.10601879130899509 0.12208205668825579 0 -0.093946486761182085 0.1175508364221631 0 -0.1036345166478785 0.1154037657297244 0 -0.10601879130899509 0.12208205668825579 0 -0.093946486761182085 0.1175508364221631 0 -0.094494805252306774 0.092919921724660626 0 -0.11134444788944529 0.091345452974062963 0 -0.1057361510920251 0.099277959283072717 0 -0.094494805252306774 0.092919921724660626 0 -0.093946486761182085 0.1175508364221631 0 -0.094494805252306774 0.092919921724660626 0 -0.093946486761182085 0.1175508364221631 0 -0.097511277885226108 0.1010939306234323 0 -0.094494805252306774 0.092919921724660626 0 -0.097511277885226108 0.1010939306234323 0 -0.1057361510920251 0.099277959283072717 0 -0.11123038207674001 0.1082681122756106 0 -0.097511277885226108 0.1010939306234323 0 -0.1057361510920251 0.099277959283072717 0 -0.1001339578063882 0.022436777626384768 0 -0.09536928659882779 0.01424719335382847 0 -0.1128440433065038 0.01636018592503535 0 -0.1001339578063882 0.022436777626384768 0 -0.1128440433065038 0.01636018592503535 0 -0.1012358460944251 0.033108064834657697 0 -0.1128440433065038 0.01636018592503535 0 -0.11393466639619521 0.035004472642448957 0 -0.1012358460944251 0.033108064834657697 0 -0.1128440433065038 0.01636018592503535 0 -0.1012358460944251 0.033108064834657697 0 -0.1001339578063882 0.022436777626384768 0 -0.1012358460944251 0.033108064834657697 0 -0.091086655225796079 0.026031666392017531 0 -0.1001339578063882 0.022436777626384768 0 -0.09536928659882779 0.01424719335382847 0 -0.091086655225796079 0.026031666392017531 0 -0.10394313851700079 0.0020556251079679459 0 -0.09536928659882779 0.01424719335382847 0 -0.085958893623968774 0.001514634656162053 0 -0.10394313851700079 0.0020556251079679459 0 -0.09536928659882779 0.01424719335382847 0 -0.1128440433065038 0.01636018592503535 0 -0.1244522405185825 -0.00038769298458709092 0 -0.12424451236807239 0.027069144312366941 0 -0.1244522405185825 -0.00038769298458709092 0 -0.1128440433065038 0.01636018592503535 0 -0.12424451236807239 0.027069144312366941 0 -0.1244522405185825 -0.00038769298458709092 0 -0.1128440433065038 0.01636018592503535 0 -0.1244522405185825 -0.00038769298458709092 0 -0.10394313851700079 0.0020556251079679459 0 -0.1128440433065038 0.01636018592503535 0 -0.1128440433065038 0.01636018592503535 0 -0.12424451236807239 0.027069144312366941 0 -0.11393466639619521 0.035004472642448957 0 -0.12424451236807239 0.027069144312366941 0 -0.12075472355362291 0.04122338309529356 0 -0.11393466639619521 0.035004472642448957 0 -0.12075472355362291 0.04122338309529356 0 -0.1244920148619628 0.050381604022983993 0 -0.1151670195775447 0.0482238646449 0 -0.11393466639619521 0.035004472642448957 0 -0.1151670195775447 0.0482238646449 0 -0.10635909785250069 0.04125385698526951 0 -0.12075472355362291 0.04122338309529356 0 -0.11393466639619521 0.035004472642448957 0 -0.1151670195775447 0.0482238646449 0 -0.12509646681095879 0.065597408261105467 0 -0.1185872066977806 0.063729502839677182 0 -0.1197320338084647 0.057760070231756527 0 -0.1197320338084647 0.057760070231756527 0 -0.1244920148619628 0.050381604022983993 0 -0.1151670195775447 0.0482238646449 0 -0.1151670195775447 0.0482238646449 0 -0.1125210466915524 0.054978807834542787 0 -0.1051700993263314 0.050476507920077678 0 -0.1197320338084647 0.057760070231756527 0 -0.1151670195775447 0.0482238646449 0 -0.1125210466915524 0.054978807834542787 0 -0.1131683311422218 0.062814464837820119 0 -0.1197320338084647 0.057760070231756527 0 -0.1125210466915524 0.054978807834542787 0 -0.1131683311422218 0.062814464837820119 0 -0.1125210466915524 0.054978807834542787 0 -0.1079186055395126 0.059947093390224047 0 -0.1131683311422218 0.062814464837820119 0 -0.1185872066977806 0.063729502839677182 0 -0.1197320338084647 0.057760070231756527 0 -0.095163193665411511 0.062895368012773595 0 -0.1051700993263314 0.050476507920077678 0 -0.095336714328198874 0.041619114628837717 0 -0.095163193665411511 0.062895368012773595 0 -0.095336714328198874 0.041619114628837717 0 -0.1125210466915524 0.054978807834542787 0 -0.1079186055395126 0.059947093390224047 0 -0.1051700993263314 0.050476507920077678 0 -0.095163193665411511 0.062895368012773595 0 -0.1079186055395126 0.059947093390224047 0 -0.1051700993263314 0.050476507920077678 0 -0.11393466639619521 0.035004472642448957 0 -0.10635909785250069 0.04125385698526951 0 -0.1012358460944251 0.033108064834657697 0 -0.1051700993263314 0.050476507920077678 0 -0.10635909785250069 0.04125385698526951 0 -0.095336714328198874 0.041619114628837717 0 -0.1151670195775447 0.0482238646449 0 -0.1051700993263314 0.050476507920077678 0 -0.10635909785250069 0.04125385698526951 0 -0.095336714328198874 0.041619114628837717 0 -0.1012358460944251 0.033108064834657697 0 -0.08853862327275358 0.036894035852943478 0 -0.10635909785250069 0.04125385698526951 0 -0.095336714328198874 0.041619114628837717 0 -0.1012358460944251 0.033108064834657697 0 -0.095336714328198874 0.041619114628837717 0 -0.1012358460944251 0.033108064834657697 0 -0.1012358460944251 0.033108064834657697 0 -0.08853862327275358 0.036894035852943478 0 -0.091086655225796079 0.026031666392017531 0 -0.08853862327275358 0.036894035852943478 0 -0.081088353484909961 0.032020518526829703 0 -0.091086655225796079 0.026031666392017531 0 -0.08853862327275358 0.036894035852943478 0 -0.079654612676290371 0.043453985766932421 0 -0.089627648882346422 0.049855943744280047 0 -0.095336714328198874 0.041619114628837717 0 -0.08853862327275358 0.036894035852943478 0 -0.089627648882346422 0.049855943744280047 0 -0.095336714328198874 0.041619114628837717 0 -0.089627648882346422 0.049855943744280047 0 -0.08853862327275358 0.036894035852943478 0 -0.079654612676290371 0.043453985766932421 0 -0.081088353484909961 0.032020518526829703 0 -0.095163193665411511 0.062895368012773595 0 -0.089627648882346422 0.049855943744280047 0 -0.072380178782229632 0.053292134703331731 0 -0.095163193665411511 0.062895368012773595 0 -0.095336714328198874 0.041619114628837717 0 -0.089627648882346422 0.049855943744280047 0 -0.095163193665411511 0.062895368012773595 0 -0.072380178782229632 0.053292134703331731 0 -0.079461892795990779 0.070449194571112136 0 -0.095163193665411511 0.062895368012773595 0 -0.072380178782229632 0.053292134703331731 0 -0.079654612676290371 0.043453985766932421 0 -0.089627648882346422 0.049855943744280047 0 -0.072380178782229632 0.053292134703331731 0 -0.079654612676290371 0.043453985766932421 0 -0.072380178782229632 0.053292134703331731 0 -0.065785112224924183 0.037111289768743512 0 -0.072380178782229632 0.053292134703331731 0 -0.065785112224924183 0.037111289768743512 0 -0.049597163899048183 0.043688901393888827 0 -0.079654612676290371 0.043453985766932421 0 -0.081088353484909961 0.032020518526829703 0 -0.065785112224924183 0.037111289768743512 0 -0.081088353484909961 0.032020518526829703 0 -0.065785112224924183 0.037111289768743512 0 -0.069646162847898541 0.026335067629459381 0 -0.069646162847898541 0.026335067629459381 0 -0.076118231742993758 0.01527396050979404 0 -0.05559295393876626 0.02093450171247024 0 -0.065785112224924183 0.037111289768743512 0 -0.069646162847898541 0.026335067629459381 0 -0.05559295393876626 0.02093450171247024 0 -0.081088353484909961 0.032020518526829703 0 -0.069646162847898541 0.026335067629459381 0 -0.076118231742993758 0.01527396050979404 0 -0.081088353484909961 0.032020518526829703 0 -0.091086655225796079 0.026031666392017531 0 -0.076118231742993758 0.01527396050979404 0 -0.09536928659882779 0.01424719335382847 0 -0.091086655225796079 0.026031666392017531 0 -0.076118231742993758 0.01527396050979404 0 -0.09536928659882779 0.01424719335382847 0 -0.085958893623968774 0.001514634656162053 0 -0.076118231742993758 0.01527396050979404 0 -0.076118231742993758 0.01527396050979404 0 -0.065648076432031049 0.00090955339710942099 0 -0.05559295393876626 0.02093450171247024 0 -0.085958893623968774 0.001514634656162053 0 -0.076118231742993758 0.01527396050979404 0 -0.065648076432031049 0.00090955339710942099 0 -0.045118160941850949 -0.00049033847668307538 0 -0.065648076432031049 0.00090955339710942099 0 -0.05559295393876626 0.02093450171247024 0 -0.05559295393876626 0.02093450171247024 0 -0.041197297059898302 0.028587588038626519 0 -0.049597163899048183 0.043688901393888827 0 -0.05559295393876626 0.02093450171247024 0 -0.032784921385912158 0.01564128096370114 0 -0.041197297059898302 0.028587588038626519 0 -0.032784921385912158 0.01564128096370114 0 -0.041197297059898302 0.028587588038626519 0 -0.02681414901586664 0.034085668084445887 0 -0.045118160941850949 -0.00049033847668307538 0 -0.05559295393876626 0.02093450171247024 0 -0.032784921385912158 0.01564128096370114 0 -0.045118160941850949 -0.00049033847668307538 0 -0.027025641752002061 -0.0079319500279313396 0 -0.032784921385912158 0.01564128096370114 0 -0.062589921296568873 0.06642957971461419 0 -0.072380178782229632 0.053292134703331731 0 -0.049597163899048183 0.043688901393888827 0 -0.046276495737503101 0.06795068115397529 0 -0.062589921296568873 0.06642957971461419 0 -0.049597163899048183 0.043688901393888827 0 -0.072380178782229632 0.053292134703331731 0 -0.049597163899048183 0.043688901393888827 0 -0.065785112224924183 0.037111289768743512 0 -0.05559295393876626 0.02093450171247024 0 -0.049597163899048183 0.043688901393888827 0 -0.049597163899048183 0.043688901393888827 0 -0.02681414901586664 0.034085668084445887 0 -0.041197297059898302 0.028587588038626519 0 -0.049597163899048183 0.043688901393888827 0 -0.02681414901586664 0.034085668084445887 0 -0.049597163899048183 0.043688901393888827 0 -0.028283535649973771 0.053358049395037133 0 -0.02681414901586664 0.034085668084445887 0 -0.046276495737503101 0.06795068115397529 0 -0.028283535649973771 0.053358049395037133 0 -0.046276495737503101 0.06795068115397529 0 -0.049597163899048183 0.043688901393888827 0 -0.028283535649973771 0.053358049395037133 0 -0.028283535649973771 0.053358049395037133 0 -0.010290575562444429 0.038765417636098962 0 -0.0097640400442320502 0.053032197103308337 0 -0.018620569400409771 0.06708533464306303 0 -0.028283535649973771 0.053358049395037133 0 -0.0097640400442320502 0.053032197103308337 0 -0.028283535649973771 0.053358049395037133 0 -0.010290575562444429 0.038765417636098962 0 -0.02681414901586664 0.034085668084445887 0 -0.010290575562444429 0.038765417636098962 0 -0.020835528804160591 0.022374223573919171 0 -0.028283535649973771 0.053358049395037133 0 -0.02681414901586664 0.034085668084445887 0 -0.010290575562444429 0.038765417636098962 0 -0.010290575562444429 0.038765417636098962 0 0.0077023845250848884 0.024172785877160811 0 -0.010290575562444429 0.038765417636098962 0 -0.0034349793211087142 0.044893397967285961 0 0.0047272217829380687 0.036246676438490527 0 -0.010290575562444429 0.038765417636098962 0 -0.0034349793211087142 0.044893397967285961 0 -0.0097640400442320502 0.053032197103308337 0 -0.0012292332505543029 0.06378464068123596 0 -0.018620569400409771 0.06708533464306303 0 -0.0097640400442320502 0.053032197103308337 0 -0.0034349793211087142 0.044893397967285961 0 -0.0097640400442320502 0.053032197103308337 0 0.0015874765393035599 0.051529300691246019 0 -0.0012292332505543029 0.06378464068123596 0 -0.0097640400442320502 0.053032197103308337 0 0.0015874765393035599 0.051529300691246019 0 -0.027025641752002061 -0.0079319500279313396 0 -0.032784921385912158 0.01564128096370114 0 -0.01566814095190756 0.010235570601176981 0 -0.032784921385912158 0.01564128096370114 0 -0.02681414901586664 0.034085668084445887 0 -0.020835528804160591 0.022374223573919171 0 -0.032784921385912158 0.01564128096370114 0 -0.01566814095190756 0.010235570601176981 0 -0.020835528804160591 0.022374223573919171 0 -0.010290575562444429 0.038765417636098962 0 -0.020835528804160591 0.022374223573919171 0 -0.0077262750329500059 0.02266504195052366 0 -0.01566814095190756 0.010235570601176981 0 -0.020835528804160591 0.022374223573919171 0 -0.0077262750329500059 0.02266504195052366 0 -0.010290575562444429 0.038765417636098962 0 -0.0077262750329500059 0.02266504195052366 0 0.0077023845250848884 0.024172785877160811 0 -0.0091716063734174208 -0.003332990253060792 0 -0.01566814095190756 0.010235570601176981 0 0.001118487675879971 0.0096665619175221752 0 -0.0091716063734174208 -0.003332990253060792 0 0.001118487675879971 0.0096665619175221752 0 0.006935528729737548 -0.0054826371559186567 0 -0.01566814095190756 0.010235570601176981 0 -0.0077262750329500059 0.02266504195052366 0 0.001118487675879971 0.0096665619175221752 0 0.001118487675879971 0.0096665619175221752 0 0.0077023845250848884 0.024172785877160811 0 0.025695344612614111 0.0095801541182225364 0 0.001118487675879971 0.0096665619175221752 0 0.025695344612614111 0.0095801541182225364 0 0.006935528729737548 -0.0054826371559186567 0 -0.0077262750329500059 0.02266504195052366 0 0.001118487675879971 0.0096665619175221752 0 0.0077023845250848884 0.024172785877160811 0 0.0077023845250848884 0.024172785877160811 0 0.024648998497944961 0.02642224341189468 0 0.015911730558903318 0.034762274935307848 0 0.024648998497944961 0.02642224341189468 0 0.025695344612614111 0.0095801541182225364 0 0.038363400138324961 0.019751697241263279 0 0.0077023845250848884 0.024172785877160811 0 0.024648998497944961 0.02642224341189468 0 0.025695344612614111 0.0095801541182225364 0 0.0077023845250848884 0.024172785877160811 0 0.025695344612614111 0.0095801541182225364 0 0.025695344612614111 0.0095801541182225364 0 0.006935528729737548 -0.0054826371559186567 0 0.01459521235494949 0.061710637509134872 0 0.0047272217829380687 0.036246676438490527 0 -0.0012292332505543029 0.06378464068123596 0 0.01459521235494949 0.061710637509134872 0 0.0015874765393035599 0.051529300691246019 0 0.01459521235494949 0.061710637509134872 0 0.0015874765393035599 0.051529300691246019 0 0.0047272217829380687 0.036246676438490527 0 0.01459521235494949 0.061710637509134872 0 0.0047272217829380687 0.036246676438490527 0 0.016570281580619739 0.045526930476817662 0 -0.010290575562444429 0.038765417636098962 0 0.0077023845250848884 0.024172785877160811 0 0.0047272217829380687 0.036246676438490527 0 -0.0034349793211087142 0.044893397967285961 0 0.0015874765393035599 0.051529300691246019 0 0.0047272217829380687 0.036246676438490527 0 0.0047272217829380687 0.036246676438490527 0 0.015911730558903318 0.034762274935307848 0 0.016570281580619739 0.045526930476817662 0 0.0077023845250848884 0.024172785877160811 0 0.0047272217829380687 0.036246676438490527 0 0.015911730558903318 0.034762274935307848 0 0.024648998497944961 0.02642224341189468 0 0.015911730558903318 0.034762274935307848 0 0.025892041879535671 0.039420421904702428 0 0.024648998497944961 0.02642224341189468 0 0.025892041879535671 0.039420421904702428 0 0.038236142792751733 0.035111405712831077 0 0.015911730558903318 0.034762274935307848 0 0.025892041879535671 0.039420421904702428 0 0.016570281580619739 0.045526930476817662 0 0.025892041879535671 0.039420421904702428 0 0.016570281580619739 0.045526930476817662 0 0.021716339062575678 0.05448348331271597 0 0.01459521235494949 0.061710637509134872 0 0.016570281580619739 0.045526930476817662 0 0.021716339062575678 0.05448348331271597 0 0.01459521235494949 0.061710637509134872 0 0.021716339062575678 0.05448348331271597 0 0.030459386295035529 0.05963142741263059 0 0.01459521235494949 0.061710637509134872 0 0.030459386295035529 0.05963142741263059 0 0.021716339062575678 0.05448348331271597 0 0.030459386295035529 0.05963142741263059 0 0.032703710623893968 0.046893395464013943 0 0.025892041879535671 0.039420421904702428 0 0.021716339062575678 0.05448348331271597 0 0.032703710623893968 0.046893395464013943 0 0.030459386295035529 0.05963142741263059 0 0.032703710623893968 0.046893395464013943 0 0.047214643089571059 0.045820238977188371 0 0.030459386295035529 0.05963142741263059 0 0.04797297407010033 0.057336039788577382 0 0.030459386295035529 0.05963142741263059 0 0.04797297407010033 0.057336039788577382 0 0.027635028654909001 0.06907575978797427 0 0.030459386295035529 0.05963142741263059 0 0.047214643089571059 0.045820238977188371 0 0.04797297407010033 0.057336039788577382 0 0.030459386295035529 0.05963142741263059 0 0.047214643089571059 0.045820238977188371 0 0.038236142792751733 0.035111405712831077 0 0.047214643089571059 0.045820238977188371 0 0.051031455664035288 0.029923240364304559 0 0.032703710623893968 0.046893395464013943 0 0.038236142792751733 0.035111405712831077 0 0.047214643089571059 0.045820238977188371 0 0.025892041879535671 0.039420421904702428 0 0.032703710623893968 0.046893395464013943 0 0.038236142792751733 0.035111405712831077 0 0.062359133547200143 0.040731400683572692 0 0.047214643089571059 0.045820238977188371 0 0.063969899884107562 0.032009050541747332 0 0.047214643089571059 0.045820238977188371 0 0.063969899884107562 0.032009050541747332 0 0.047214643089571059 0.045820238977188371 0 0.051031455664035288 0.029923240364304559 0 0.063969899884107562 0.032009050541747332 0 0.062359133547200143 0.040731400683572692 0 0.04797297407010033 0.057336039788577382 0 0.072379857481358154 0.054137194478101919 0 0.04797297407010033 0.057336039788577382 0 0.072379857481358154 0.054137194478101919 0 0.062359133547200143 0.040731400683572692 0 0.04797297407010033 0.057336039788577382 0 0.062359133547200143 0.040731400683572692 0 0.047214643089571059 0.045820238977188371 0 0.04797297407010033 0.057336039788577382 0 0.04797297407010033 0.057336039788577382 0 0.072379857481358154 0.054137194478101919 0 0.06072113176624426 0.066105246874810966 0 0.040835927619124697 0.0088703260301804514 0 0.038363400138324961 0.019751697241263279 0 0.051939500327619889 0.017318508583630769 0 0.040835927619124697 0.0088703260301804514 0 0.046640351189982193 0.001482106492276504 0 0.040314465242246092 -0.002276229875846851 0 0.025695344612614111 0.0095801541182225364 0 0.040314465242246092 -0.002276229875846851 0 0.025695344612614111 0.0095801541182225364 0 0.040835927619124697 0.0088703260301804514 0 0.040314465242246092 -0.002276229875846851 0 0.025695344612614111 0.0095801541182225364 0 0.040835927619124697 0.0088703260301804514 0 0.038363400138324961 0.019751697241263279 0 0.025695344612614111 0.0095801541182225364 0 0.038363400138324961 0.019751697241263279 0 0.024648998497944961 0.02642224341189468 0 0.038236142792751733 0.035111405712831077 0 0.038363400138324961 0.019751697241263279 0 0.038363400138324961 0.019751697241263279 0 0.051031455664035288 0.029923240364304559 0 0.038236142792751733 0.035111405712831077 0 0.038363400138324961 0.019751697241263279 0 0.051031455664035288 0.029923240364304559 0 0.038363400138324961 0.019751697241263279 0 0.051939500327619889 0.017318508583630769 0 0.051031455664035288 0.029923240364304559 0 0.051031455664035288 0.029923240364304559 0 0.062107590562420073 0.0228568457980407 0 0.063969899884107562 0.032009050541747332 0 0.051939500327619889 0.017318508583630769 0 0.062107590562420073 0.0228568457980407 0 0.064696567818308529 0.01472149906873369 0 0.051939500327619889 0.017318508583630769 0 0.051031455664035288 0.029923240364304559 0 0.062107590562420073 0.0228568457980407 0 0.055514373943813228 0.0067304088365214816 0 0.075461568133428525 0.0044331687040122013 0 0.049896637954744763 -0.0073960790217490677 0 0.051939500327619889 0.017318508583630769 0 0.055514373943813228 0.0067304088365214816 0 0.064696567818308529 0.01472149906873369 0 0.040835927619124697 0.0088703260301804514 0 0.051939500327619889 0.017318508583630769 0 0.055514373943813228 0.0067304088365214816 0 0.046640351189982193 0.001482106492276504 0 0.055514373943813228 0.0067304088365214816 0 0.049896637954744763 -0.0073960790217490677 0 0.040835927619124697 0.0088703260301804514 0 0.046640351189982193 0.001482106492276504 0 0.055514373943813228 0.0067304088365214816 0 0.075461568133428525 0.0044331687040122013 0 0.064696567818308529 0.01472149906873369 0 0.08072515667864405 0.018197862106306289 0 0.055514373943813228 0.0067304088365214816 0 0.075461568133428525 0.0044331687040122013 0 0.064696567818308529 0.01472149906873369 0 0.075461568133428525 0.0044331687040122013 0 0.1010264983121123 0.016262416429773479 0 0.075461568133428525 0.0044331687040122013 0 0.1010264983121123 0.016262416429773479 0 0.098011391193308373 -0.0056982583262641584 0 0.075461568133428525 0.0044331687040122013 0 0.08072515667864405 0.018197862106306289 0 0.1010264983121123 0.016262416429773479 0 0.088041666307225416 0.02743399724937181 0 0.08072515667864405 0.018197862106306289 0 0.1010264983121123 0.016262416429773479 0 0.088041666307225416 0.02743399724937181 0 0.08072515667864405 0.018197862106306289 0 0.076745293024301803 0.02412676157856956 0 0.088041666307225416 0.02743399724937181 0 0.076745293024301803 0.02412676157856956 0 0.082258845210710349 0.03253561428057717 0 0.08072515667864405 0.018197862106306289 0 0.076745293024301803 0.02412676157856956 0 0.063969899884107562 0.032009050541747332 0 0.062107590562420073 0.0228568457980407 0 0.064696567818308529 0.01472149906873369 0 0.08072515667864405 0.018197862106306289 0 0.08072515667864405 0.018197862106306289 0 0.063969899884107562 0.032009050541747332 0 0.062107590562420073 0.0228568457980407 0 0.08072515667864405 0.018197862106306289 0 0.063969899884107562 0.032009050541747332 0 0.062359133547200143 0.040731400683572692 0 0.076745293024301803 0.02412676157856956 0 0.062359133547200143 0.040731400683572692 0 0.076745293024301803 0.02412676157856956 0 0.076375628159171968 0.038405412939545532 0 0.062359133547200143 0.040731400683572692 0 0.076745293024301803 0.02412676157856956 0 0.063969899884107562 0.032009050541747332 0 0.062359133547200143 0.040731400683572692 0 0.076375628159171968 0.038405412939545532 0 0.072379857481358154 0.054137194478101919 0 0.072379857481358154 0.054137194478101919 0 0.087872793352142223 0.040176285354821803 0 0.096786740892615686 0.050938349167624693 0 0.072379857481358154 0.054137194478101919 0 0.096786740892615686 0.050938349167624693 0 0.072379857481358154 0.054137194478101919 0 0.096786740892615686 0.050938349167624693 0 0.089592915186254174 0.067390154600646832 0 0.076375628159171968 0.038405412939545532 0 0.072379857481358154 0.054137194478101919 0 0.087872793352142223 0.040176285354821803 0 0.076375628159171968 0.038405412939545532 0 0.082258845210710349 0.03253561428057717 0 0.087872793352142223 0.040176285354821803 0 0.076745293024301803 0.02412676157856956 0 0.076375628159171968 0.038405412939545532 0 0.082258845210710349 0.03253561428057717 0 0.088041666307225416 0.02743399724937181 0 0.087872793352142223 0.040176285354821803 0 0.098246025398924644 0.032379674771496843 0 0.088041666307225416 0.02743399724937181 0 0.082258845210710349 0.03253561428057717 0 0.087872793352142223 0.040176285354821803 0 0.098246025398924644 0.032379674771496843 0 0.09859813872304253 0.041737690340159041 0 0.1063796333462841 0.038668109643535398 0 0.087872793352142223 0.040176285354821803 0 0.098246025398924644 0.032379674771496843 0 0.09859813872304253 0.041737690340159041 0 0.087872793352142223 0.040176285354821803 0 0.09859813872304253 0.041737690340159041 0 0.096786740892615686 0.050938349167624693 0 0.09859813872304253 0.041737690340159041 0 0.1037055006252459 0.04652603276331644 0 0.096786740892615686 0.050938349167624693 0 0.1037055006252459 0.04652603276331644 0 0.1091701701315707 0.045405346223324289 0 0.1063796333462841 0.038668109643535398 0 0.09859813872304253 0.041737690340159041 0 0.1037055006252459 0.04652603276331644 0 0.1063796333462841 0.038668109643535398 0 0.098246025398924644 0.032379674771496843 0 0.1063796333462841 0.038668109643535398 0 0.1080469394596527 0.029312409717345649 0 0.1063796333462841 0.038668109643535398 0 0.11369005285381351 0.036564640387925021 0 0.1080469394596527 0.029312409717345649 0 0.10140855114010359 0.056741753968867333 0 0.1082136550722141 0.059696613986540442 0 0.089592915186254174 0.067390154600646832 0 0.10140855114010359 0.056741753968867333 0 0.096786740892615686 0.050938349167624693 0 0.089592915186254174 0.067390154600646832 0 0.10140855114010359 0.056741753968867333 0 0.096786740892615686 0.050938349167624693 0 0.1040187002827474 0.052009313231975308 0 0.1037055006252459 0.04652603276331644 0 0.096786740892615686 0.050938349167624693 0 0.1040187002827474 0.052009313231975308 0 0.1037055006252459 0.04652603276331644 0 0.10828434687670541 0.049049973369521209 0 0.1040187002827474 0.052009313231975308 0 0.1037055006252459 0.04652603276331644 0 0.1091701701315707 0.045405346223324289 0 0.10828434687670541 0.049049973369521209 0 0.10828434687670541 0.049049973369521209 0 0.1040187002827474 0.052009313231975308 0 0.1085923347430168 0.054888678040205661 0 0.10140855114010359 0.056741753968867333 0 0.1040187002827474 0.052009313231975308 0 0.1085923347430168 0.054888678040205661 0 0.10140855114010359 0.056741753968867333 0 0.1085923347430168 0.054888678040205661 0 0.1082136550722141 0.059696613986540442 0 0.1082136550722141 0.059696613986540442 0 0.12683439495817461 0.052003073372435288 0 0.1085923347430168 0.054888678040205661 0 0.1082136550722141 0.059696613986540442 0 0.12683439495817461 0.052003073372435288 0 0.1082136550722141 0.059696613986540442 0 0.1213053233293625 0.063977455960140386 0 0.12683439495817461 0.052003073372435288 0 0.1085923347430168 0.054888678040205661 0 0.11545296983014219 0.044674578582556468 0 0.12683439495817461 0.052003073372435288 0 0.1085923347430168 0.054888678040205661 0 0.11545296983014219 0.044674578582556468 0 0.10828434687670541 0.049049973369521209 0 0.1085923347430168 0.054888678040205661 0 0.11545296983014219 0.044674578582556468 0 0.11545296983014219 0.044674578582556468 0 0.12683439495817461 0.052003073372435288 0 0.11545296983014219 0.044674578582556468 0 0.12659142849079691 0.028091664155532971 0 0.13015300311198849 0.040381385354086502 0 0.11369005285381351 0.036564640387925021 0 0.11545296983014219 0.044674578582556468 0 0.12659142849079691 0.028091664155532971 0 0.11369005285381351 0.036564640387925021 0 0.1080469394596527 0.029312409717345649 0 0.12659142849079691 0.028091664155532971 0 0.11545296983014219 0.044674578582556468 0 0.12659142849079691 0.028091664155532971 0 0.1091701701315707 0.045405346223324289 0 0.1063796333462841 0.038668109643535398 0 0.11316657253878901 0.043202368340974628 0 0.11369005285381351 0.036564640387925021 0 0.11316657253878901 0.043202368340974628 0 0.11545296983014219 0.044674578582556468 0 0.1063796333462841 0.038668109643535398 0 0.11369005285381351 0.036564640387925021 0 0.11316657253878901 0.043202368340974628 0 0.1091701701315707 0.045405346223324289 0 0.10828434687670541 0.049049973369521209 0 0.11545296983014219 0.044674578582556468 0 0.1091701701315707 0.045405346223324289 0 0.11316657253878901 0.043202368340974628 0 0.11545296983014219 0.044674578582556468 0 0.11316657253878901 0.043202368340974628 0 0.11545296983014219 0.044674578582556468 0 0.11545296983014219 0.044674578582556468 0 0.13015300311198849 0.040381385354086502 0 0.12683439495817461 0.052003073372435288 0 0.11882011836095251 0.0065886106746579649 0 0.1010264983121123 0.016262416429773479 0 0.12659142849079691 0.028091664155532971 0 0.1010264983121123 0.016262416429773479 0 0.12659142849079691 0.028091664155532971 0 0.1010264983121123 0.016262416429773479 0 0.1080469394596527 0.029312409717345649 0 0.12659142849079691 0.028091664155532971 0 0.11882011836095251 0.0065886106746579649 0 0.1010264983121123 0.016262416429773479 0 0.098011391193308373 -0.0056982583262641584 0 0.088041666307225416 0.02743399724937181 0 0.098246025398924644 0.032379674771496843 0 0.1010264983121123 0.016262416429773479 0 0.098246025398924644 0.032379674771496843 0 0.1010264983121123 0.016262416429773479 0 0.1080469394596527 0.029312409717345649 0 0.102028599401492 0.1079210482782756 0 0.1185648575779607 0.095458187827811403 0 0.097454497296707604 0.093489332089851121 0 0.102028599401492 0.1079210482782756 0 0.094862282777670462 0.1196438628042634 0 0.1117522404438802 0.12667258555115829 0 0.123281054128593 0.11724462113534739 0 0.1117522404438802 0.12667258555115829 0 0.13947052033133081 0.1245003570974072 0 0.102028599401492 0.1079210482782756 0 0.123281054128593 0.11724462113534739 0 0.1117522404438802 0.12667258555115829 0 0.102028599401492 0.1079210482782756 0 0.123281054128593 0.11724462113534739 0 0.102028599401492 0.1079210482782756 0 0.123281054128593 0.11724462113534739 0 0.1185648575779607 0.095458187827811403 0 0.1185648575779607 0.095458187827811403 0 0.10766661625946521 0.081617344394697103 0 0.12679961534922851 0.075073796793526271 0 0.1127439035567581 0.069567645006608142 0 0.10766661625946521 0.081617344394697103 0 0.12679961534922851 0.075073796793526271 0 0.1213053233293625 0.063977455960140386 0 0.1127439035567581 0.069567645006608142 0 0.12679961534922851 0.075073796793526271 0 0.1082136550722141 0.059696613986540442 0 0.1213053233293625 0.063977455960140386 0 0.1127439035567581 0.069567645006608142 0 0.1082136550722141 0.059696613986540442 0 0.089592915186254174 0.067390154600646832 0 0.1014387622560044 0.070574023901201433 0 0.10766661625946521 0.081617344394697103 0 0.08998097741878798 0.081820185866337797 0 0.1082136550722141 0.059696613986540442 0 0.1014387622560044 0.070574023901201433 0 0.089592915186254174 0.067390154600646832 0 0.1082136550722141 0.059696613986540442 0 0.1127439035567581 0.069567645006608142 0 0.1014387622560044 0.070574023901201433 0 0.1127439035567581 0.069567645006608142 0 0.1014387622560044 0.070574023901201433 0 0.10766661625946521 0.081617344394697103 0 0.1185648575779607 0.095458187827811403 0 0.097454497296707604 0.093489332089851121 0 0.10766661625946521 0.081617344394697103 0 0.097454497296707604 0.093489332089851121 0 0.10766661625946521 0.081617344394697103 0 0.08998097741878798 0.081820185866337797 0 0.097454497296707604 0.093489332089851121 0 0.08998097741878798 0.081820185866337797 0 0.080776144674391009 0.098597475421203867 0 0.08998097741878798 0.081820185866337797 0 0.071888117261322881 0.075707086101057836 0 0.080776144674391009 0.098597475421203867 0 0.08998097741878798 0.081820185866337797 0 0.089592915186254174 0.067390154600646832 0 0.071888117261322881 0.075707086101057836 0 0.1014387622560044 0.070574023901201433 0 0.08998097741878798 0.081820185866337797 0 0.089592915186254174 0.067390154600646832 0 0.072379857481358154 0.054137194478101919 0 0.089592915186254174 0.067390154600646832 0 0.071888117261322881 0.075707086101057836 0 0.072379857481358154 0.054137194478101919 0 0.071888117261322881 0.075707086101057836 0 0.06072113176624426 0.066105246874810966 0 0.071888117261322881 0.075707086101057836 0 0.080776144674391009 0.098597475421203867 0 0.059523689947290133 0.089273902564132146 0 0.069834633883481517 0.1065625652268001 0 0.059315065316452309 0.1025539410383776 0 0.059523689947290133 0.089273902564132146 0 0.080776144674391009 0.098597475421203867 0 0.059523689947290133 0.089273902564132146 0 0.069834633883481517 0.1065625652268001 0 0.080776144674391009 0.098597475421203867 0 0.081634330708880196 0.1151370033827101 0 0.069834633883481517 0.1065625652268001 0 0.080776144674391009 0.098597475421203867 0 0.059523689947290133 0.089273902564132146 0 0.069834633883481517 0.1065625652268001 0 0.064307476710745728 0.1098785041095611 0 0.059315065316452309 0.1025539410383776 0 0.102028599401492 0.1079210482782756 0 0.080776144674391009 0.098597475421203867 0 0.081634330708880196 0.1151370033827101 0 0.102028599401492 0.1079210482782756 0 0.080776144674391009 0.098597475421203867 0 0.102028599401492 0.1079210482782756 0 0.097454497296707604 0.093489332089851121 0 0.080776144674391009 0.098597475421203867 0 0.102028599401492 0.1079210482782756 0 0.094862282777670462 0.1196438628042634 0 0.081634330708880196 0.1151370033827101 0 0.094862282777670462 0.1196438628042634 0 0.081634330708880196 0.1151370033827101 0 0.084033960556429532 0.12884481400490949 0 0.081634330708880196 0.1151370033827101 0 0.071861500007931359 0.1232467005620789 0 0.084033960556429532 0.12884481400490949 0 0.081634330708880196 0.1151370033827101 0 0.071861500007931359 0.1232467005620789 0 0.068543873750645412 0.1149277749384955 0 0.069834633883481517 0.1065625652268001 0 0.081634330708880196 0.1151370033827101 0 0.068543873750645412 0.1149277749384955 0 0.068543873750645412 0.1149277749384955 0 0.064307476710745728 0.1098785041095611 0 0.059536333892403683 0.1154697352345713 0 0.069834633883481517 0.1065625652268001 0 0.068543873750645412 0.1149277749384955 0 0.064307476710745728 0.1098785041095611 0 0.071861500007931359 0.1232467005620789 0 0.068543873750645412 0.1149277749384955 0 0.059536333892403683 0.1154697352345713 0 0.056458373241313059 0.1220229844831647 0 0.046980594318971967 0.103944553472415 0 0.044984286063853948 0.1144984098979744 0 0.056458373241313059 0.1220229844831647 0 0.059536333892403683 0.1154697352345713 0 0.047111977694586651 0.095143209078012936 0 0.056458373241313059 0.1220229844831647 0 0.047823074661834691 0.1229743903388081 0 0.044984286063853948 0.1144984098979744 0 0.056458373241313059 0.1220229844831647 0 0.047111977694586651 0.095143209078012936 0 0.056458373241313059 0.1220229844831647 0 0.047111977694586651 0.095143209078012936 0 0.046980594318971967 0.103944553472415 0 0.059536333892403683 0.1154697352345713 0 0.059315065316452309 0.1025539410383776 0 0.048250118395506067 0.092934788779969885 0 0.064307476710745728 0.1098785041095611 0 0.059536333892403683 0.1154697352345713 0 0.059315065316452309 0.1025539410383776 0 0.059536333892403683 0.1154697352345713 0 0.047111977694586651 0.095143209078012936 0 0.048250118395506067 0.092934788779969885 0 0.059536333892403683 0.1154697352345713 0 0.048250118395506067 0.092934788779969885 0 0.059315065316452309 0.1025539410383776 0 0.059523689947290133 0.089273902564132146 0 0.048250118395506067 0.092934788779969885 0 0.046980594318971967 0.103944553472415 0 0.031997015267580219 0.10661530464401089 0 0.044984286063853948 0.1144984098979744 0 0.046980594318971967 0.103944553472415 0 0.039592722901722707 0.099159129702000026 0 0.031997015267580219 0.10661530464401089 0 0.047111977694586651 0.095143209078012936 0 0.046980594318971967 0.103944553472415 0 0.044236279529428407 0.098362398272746204 0 0.043259823202432338 0.095202700838556822 0 0.039592722901722707 0.099159129702000026 0 0.040006298791842428 0.091064350555588536 0 0.047111977694586651 0.095143209078012936 0 0.043259823202432338 0.095202700838556822 0 0.043326765309194368 0.091114650811160686 0 0.047111977694586651 0.095143209078012936 0 0.043259823202432338 0.095202700838556822 0 0.044236279529428407 0.098362398272746204 0 0.046980594318971967 0.103944553472415 0 0.044236279529428407 0.098362398272746204 0 0.039592722901722707 0.099159129702000026 0 0.043259823202432338 0.095202700838556822 0 0.044236279529428407 0.098362398272746204 0 0.039592722901722707 0.099159129702000026 0 0.039592722901722707 0.099159129702000026 0 0.040006298791842428 0.091064350555588536 0 0.033999193661208522 0.092549709374426317 0 0.039592722901722707 0.099159129702000026 0 0.031997015267580219 0.10661530464401089 0 0.033999193661208522 0.092549709374426317 0 0.031997015267580219 0.10661530464401089 0 0.044984286063853948 0.1144984098979744 0 0.040254683338031831 0.12792389191371131 0 0.031997015267580219 0.10661530464401089 0 0.027418588341799281 0.11951208787462859 0 0.040254683338031831 0.12792389191371131 0 0.031997015267580219 0.10661530464401089 0 0.040254683338031831 0.12792389191371131 0 0.047823074661834691 0.1229743903388081 0 0.044984286063853948 0.1144984098979744 0 0.040254683338031831 0.12792389191371131 0 0.071888117261322881 0.075707086101057836 0 0.050643578252195447 0.077240667131504986 0 0.06072113176624426 0.066105246874810966 0 0.071888117261322881 0.075707086101057836 0 0.050643578252195447 0.077240667131504986 0 0.04797297407010033 0.057336039788577382 0 0.050643578252195447 0.077240667131504986 0 0.06072113176624426 0.066105246874810966 0 0.059523689947290133 0.089273902564132146 0 0.048250118395506067 0.092934788779969885 0 0.038271235220189187 0.079950329707060411 0 0.050643578252195447 0.077240667131504986 0 0.059523689947290133 0.089273902564132146 0 0.038271235220189187 0.079950329707060411 0 0.059523689947290133 0.089273902564132146 0 0.038271235220189187 0.079950329707060411 0 0.071888117261322881 0.075707086101057836 0 0.050643578252195447 0.077240667131504986 0 0.059523689947290133 0.089273902564132146 0 0.050643578252195447 0.077240667131504986 0 0.038271235220189187 0.079950329707060411 0 0.029399039243067929 0.078774248161950916 0 0.043326765309194368 0.091114650811160686 0 0.040006298791842428 0.091064350555588536 0 0.038271235220189187 0.079950329707060411 0 0.048250118395506067 0.092934788779969885 0 0.043326765309194368 0.091114650811160686 0 0.038271235220189187 0.079950329707060411 0 0.047111977694586651 0.095143209078012936 0 0.048250118395506067 0.092934788779969885 0 0.043326765309194368 0.091114650811160686 0 0.043259823202432338 0.095202700838556822 0 0.043326765309194368 0.091114650811160686 0 0.040006298791842428 0.091064350555588536 0 0.040006298791842428 0.091064350555588536 0 0.033999193661208522 0.092549709374426317 0 0.035112272261912547 0.085996705185296951 0 0.033999193661208522 0.092549709374426317 0 0.035112272261912547 0.085996705185296951 0 0.030562463090829231 0.085656845023995995 0 0.040006298791842428 0.091064350555588536 0 0.035112272261912547 0.085996705185296951 0 0.038271235220189187 0.079950329707060411 0 0.035112272261912547 0.085996705185296951 0 0.038271235220189187 0.079950329707060411 0 0.029399039243067929 0.078774248161950916 0 0.035112272261912547 0.085996705185296951 0 0.029399039243067929 0.078774248161950916 0 0.030562463090829231 0.085656845023995995 0 0.04797297407010033 0.057336039788577382 0 0.027635028654909001 0.06907575978797427 0 0.029399039243067929 0.078774248161950916 0 0.04797297407010033 0.057336039788577382 0 0.050643578252195447 0.077240667131504986 0 0.029399039243067929 0.078774248161950916 0 0.050643578252195447 0.077240667131504986 0 0.029399039243067929 0.078774248161950916 0 0.04797297407010033 0.057336039788577382 0 0.029399039243067929 0.078774248161950916 0 0.01459521235494949 0.061710637509134872 0 0.030459386295035529 0.05963142741263059 0 0.017825248683011649 0.070045619055208203 0 0.01459521235494949 0.061710637509134872 0 0.017825248683011649 0.070045619055208203 0 0.030459386295035529 0.05963142741263059 0 0.017825248683011649 0.070045619055208203 0 0.030459386295035529 0.05963142741263059 0 0.017825248683011649 0.070045619055208203 0 0.027635028654909001 0.06907575978797427 0 0.027635028654909001 0.06907575978797427 0 0.021430743364398389 0.07934945609652827 0 0.029399039243067929 0.078774248161950916 0 0.017825248683011649 0.070045619055208203 0 0.027635028654909001 0.06907575978797427 0 0.021430743364398389 0.07934945609652827 0 0.017825248683011649 0.070045619055208203 0 0.021430743364398389 0.07934945609652827 0 0.023739347197128589 0.085306717374310406 0 0.0092582498306486675 0.1020209346744549 0 0.021430743364398389 0.07934945609652827 0 0.023739347197128589 0.085306717374310406 0 0.01369104835205702 0.085774757015682671 0 0.021430743364398389 0.07934945609652827 0 0.023739347197128589 0.085306717374310406 0 0.021430743364398389 0.07934945609652827 0 0.029399039243067929 0.078774248161950916 0 0.023739347197128589 0.085306717374310406 0 0.021430743364398389 0.07934945609652827 0 0.029399039243067929 0.078774248161950916 0 0.029399039243067929 0.078774248161950916 0 0.030562463090829231 0.085656845023995995 0 0.023739347197128589 0.085306717374310406 0 0.029399039243067929 0.078774248161950916 0 0.023739347197128589 0.085306717374310406 0 0.033999193661208522 0.092549709374426317 0 0.030562463090829231 0.085656845023995995 0 0.023739347197128589 0.085306717374310406 0 0.023739347197128589 0.085306717374310406 0 0.01369104835205702 0.085774757015682671 0 0.0092582498306486675 0.1020209346744549 0 0.0051087594610210148 0.080527692295617709 0 0.01369104835205702 0.085774757015682671 0 0.0092582498306486675 0.1020209346744549 0 0.021430743364398389 0.07934945609652827 0 0.0051087594610210148 0.080527692295617709 0 0.021430743364398389 0.07934945609652827 0 0.0051087594610210148 0.080527692295617709 0 0.01369104835205702 0.085774757015682671 0 -0.0012292332505543029 0.06378464068123596 0 0.01459521235494949 0.061710637509134872 0 -0.0012292332505543029 0.06378464068123596 0 0.01459521235494949 0.061710637509134872 0 0.0080955592782806732 0.069159055867407046 0 0.017825248683011649 0.070045619055208203 0 0.021430743364398389 0.07934945609652827 0 0.0051087594610210148 0.080527692295617709 0 -0.0012292332505543029 0.06378464068123596 0 0.0051087594610210148 0.080527692295617709 0 0.0080955592782806732 0.069159055867407046 0 0.017825248683011649 0.070045619055208203 0 0.0051087594610210148 0.080527692295617709 0 0.0080955592782806732 0.069159055867407046 0 0.017825248683011649 0.070045619055208203 0 0.0051087594610210148 0.080527692295617709 0 0.01459521235494949 0.061710637509134872 0 0.017825248683011649 0.070045619055208203 0 0.0080955592782806732 0.069159055867407046 0 0.019482067178466251 0.1107491432724047 0 0.017356945103072018 0.1204998149293544 0 0.027418588341799281 0.11951208787462859 0 0.017356945103072018 0.1204998149293544 0 0.027418588341799281 0.11951208787462859 0 0.028136896369567631 0.1331750506540591 0 0.031997015267580219 0.10661530464401089 0 0.019482067178466251 0.1107491432724047 0 0.027418588341799281 0.11951208787462859 0 0.031997015267580219 0.10661530464401089 0 0.033999193661208522 0.092549709374426317 0 0.023739347197128589 0.085306717374310406 0 0.023739347197128589 0.085306717374310406 0 0.02108550348152554 0.10082233348119581 0 0.0092582498306486675 0.1020209346744549 0 0.031997015267580219 0.10661530464401089 0 0.023739347197128589 0.085306717374310406 0 0.031997015267580219 0.10661530464401089 0 0.023739347197128589 0.085306717374310406 0 0.02108550348152554 0.10082233348119581 0 0.031997015267580219 0.10661530464401089 0 0.019482067178466251 0.1107491432724047 0 0.02108550348152554 0.10082233348119581 0 0.019482067178466251 0.1107491432724047 0 0.02108550348152554 0.10082233348119581 0 0.0092582498306486675 0.1020209346744549 0 -0.0040597014752050652 0.1051126182356364 0 0.0051087594610210148 0.080527692295617709 0 0.0092582498306486675 0.1020209346744549 0 0.019482067178466251 0.1107491432724047 0 0.0092582498306486675 0.1020209346744549 0 0.0097761010461718117 0.1150243840307837 0 -0.0052228475358298988 0.1187351519746004 0 0.0092582498306486675 0.1020209346744549 0 -0.0052228475358298988 0.1187351519746004 0 0.0092582498306486675 0.1020209346744549 0 0.0097761010461718117 0.1150243840307837 0 0.019482067178466251 0.1107491432724047 0 0.017356945103072018 0.1204998149293544 0 0.0097761010461718117 0.1150243840307837 0 0.017356945103072018 0.1204998149293544 0 0.0081407562022233586 0.1245196413435004 0 0.017356945103072018 0.1204998149293544 0 0.0097761010461718117 0.1150243840307837 0 0.0081407562022233586 0.1245196413435004 0 -0.0052228475358298988 0.1187351519746004 0 0.0097761010461718117 0.1150243840307837 0 0.0081407562022233586 0.1245196413435004 0 -0.0052228475358298988 0.1187351519746004 0 0.0081407562022233586 0.1245196413435004 0 -0.015783289274076458 0.13495459563681389 0 0.0081407562022233586 0.1245196413435004 0 0.01185912902997375 0.14130758542593569 0 0.017356945103072018 0.1204998149293544 0 0.0081407562022233586 0.1245196413435004 0 0.028136896369567631 0.1331750506540591 0 0.0081407562022233586 0.1245196413435004 0 0.028136896369567631 0.1331750506540591 0 0.0081407562022233586 0.1245196413435004 0 0.028136896369567631 0.1331750506540591 0 0.01185912902997375 0.14130758542593569 0 0.028136896369567631 0.1331750506540591 0 0.0267736462585265 0.15269096182544131 0 0.035919394343652343 0.14075559589415579 0 0.028136896369567631 0.1331750506540591 0 0.0267736462585265 0.15269096182544131 0 0.01185912902997375 0.14130758542593569 0 0.0267736462585265 0.15269096182544131 0 0.001788155555331062 0.1557637096651584 0 0.01185912902997375 0.14130758542593569 0 0.001788155555331062 0.1557637096651584 0 0.00061104658230836653 0.17769045695541219 0 0.019359600384737739 0.17657282369350361 0 0.001788155555331062 0.1557637096651584 0 0.019359600384737739 0.17657282369350361 0 0.00061104658230836653 0.17769045695541219 0 0.019359600384737739 0.17657282369350361 0 0.017852612557627559 0.19656860209324539 0 0.019359600384737739 0.17657282369350361 0 0.036931045214144441 0.19738193772184889 0 0.0267736462585265 0.15269096182544131 0 0.001788155555331062 0.1557637096651584 0 0.019359600384737739 0.17657282369350361 0 0.0267736462585265 0.15269096182544131 0 0.019359600384737739 0.17657282369350361 0 0.038399134829123632 0.17159850230738899 0 0.0267736462585265 0.15269096182544131 0 0.038399134829123632 0.17159850230738899 0 0.048512351408483409 0.1492324791834117 0 0.019359600384737739 0.17657282369350361 0 0.038399134829123632 0.17159850230738899 0 0.036931045214144441 0.19738193772184889 0 0.038399134829123632 0.17159850230738899 0 0.053915020648589329 0.181809847856817 0 0.036931045214144441 0.19738193772184889 0 0.053915020648589329 0.181809847856817 0 0.056298621576963533 0.16595151756685289 0 0.075151164334765874 0.17578253529346821 0 0.038399134829123632 0.17159850230738899 0 0.053915020648589329 0.181809847856817 0 0.056298621576963533 0.16595151756685289 0 0.038399134829123632 0.17159850230738899 0 0.056298621576963533 0.16595151756685289 0 0.048512351408483409 0.1492324791834117 0 0.048512351408483409 0.1492324791834117 0 0.055211699142625699 0.13746009370018761 0 0.065804768788039439 0.14890275988831639 0 0.056298621576963533 0.16595151756685289 0 0.048512351408483409 0.1492324791834117 0 0.065804768788039439 0.14890275988831639 0 0.048512351408483409 0.1492324791834117 0 0.055211699142625699 0.13746009370018761 0 0.049904412172306151 0.13036597214331841 0 0.056458373241313059 0.1220229844831647 0 0.059536333892403683 0.1154697352345713 0 0.070822549389301243 0.1380046816891726 0 0.056458373241313059 0.1220229844831647 0 0.055211699142625699 0.13746009370018761 0 0.065804768788039439 0.14890275988831639 0 0.056458373241313059 0.1220229844831647 0 0.065804768788039439 0.14890275988831639 0 0.056458373241313059 0.1220229844831647 0 0.047823074661834691 0.1229743903388081 0 0.049904412172306151 0.13036597214331841 0 0.056458373241313059 0.1220229844831647 0 0.055211699142625699 0.13746009370018761 0 0.049904412172306151 0.13036597214331841 0 0.048512351408483409 0.1492324791834117 0 0.040254683338031831 0.12792389191371131 0 0.048512351408483409 0.1492324791834117 0 0.040254683338031831 0.12792389191371131 0 0.035919394343652343 0.14075559589415579 0 0.048512351408483409 0.1492324791834117 0 0.049904412172306151 0.13036597214331841 0 0.040254683338031831 0.12792389191371131 0 0.047823074661834691 0.1229743903388081 0 0.049904412172306151 0.13036597214331841 0 0.040254683338031831 0.12792389191371131 0 0.027418588341799281 0.11951208787462859 0 0.028136896369567631 0.1331750506540591 0 0.040254683338031831 0.12792389191371131 0 0.028136896369567631 0.1331750506540591 0 0.040254683338031831 0.12792389191371131 0 0.035919394343652343 0.14075559589415579 0 0.0267736462585265 0.15269096182544131 0 0.048512351408483409 0.1492324791834117 0 0.035919394343652343 0.14075559589415579 0 0.020197736684044801 0.2291273398277828 0 0.034114961552744377 0.23516115760169301 0 0.036501911092354018 0.25177276941539839 0 0.018629400856135309 0.24429501886194191 0 0.020197736684044801 0.2291273398277828 0 0.02692674034290404 0.25134916217479408 0 0.020197736684044801 0.2291273398277828 0 0.02692674034290404 0.25134916217479408 0 0.036501911092354018 0.25177276941539839 0 0.020197736684044801 0.2291273398277828 0 0.036501911092354018 0.25177276941539839 0 0.018629400856135309 0.24429501886194191 0 0.0082785766384091443 0.23618007315607359 0 0.020197736684044801 0.2291273398277828 0 0.018629400856135309 0.24429501886194191 0 0.012944211518790589 0.24639919126045251 0 0.0082785766384091443 0.23618007315607359 0 0.012944211518790589 0.24639919126045251 0 0.001894876929373096 0.24743045501984201 0 0.0082785766384091443 0.23618007315607359 0 -0.0070773620087705444 0.23295897308755351 0 0.001894876929373096 0.24743045501984201 0 0.0082785766384091443 0.23618007315607359 0 0.0082785766384091443 0.23618007315607359 0 0.0038866256090455522 0.2239579318999283 0 0.020197736684044801 0.2291273398277828 0 0.0038866256090455522 0.2239579318999283 0 0.020197736684044801 0.2291273398277828 0 0.003893562275735573 0.2064819102401671 0 -0.0070773620087705444 0.23295897308755351 0 0.0082785766384091443 0.23618007315607359 0 0.0038866256090455522 0.2239579318999283 0 0.01643925603633389 0.21561198758054059 0 0.035370792182188207 0.216260201755786 0 0.034114961552744377 0.23516115760169301 0 0.020197736684044801 0.2291273398277828 0 0.01643925603633389 0.21561198758054059 0 0.034114961552744377 0.23516115760169301 0 0.01643925603633389 0.21561198758054059 0 0.034114961552744377 0.23516115760169301 0 0.017852612557627559 0.19656860209324539 0 0.036931045214144441 0.19738193772184889 0 0.035370792182188207 0.216260201755786 0 0.01643925603633389 0.21561198758054059 0 0.017852612557627559 0.19656860209324539 0 0.035370792182188207 0.216260201755786 0 0.020197736684044801 0.2291273398277828 0 0.003893562275735573 0.2064819102401671 0 -0.0045317147067566524 0.21522543551468479 0 0.0038866256090455522 0.2239579318999283 0 0.003893562275735573 0.2064819102401671 0 -0.0012364494800765971 0.1960628175593882 0 0.01643925603633389 0.21561198758054059 0 -0.0012364494800765971 0.1960628175593882 0 0.01643925603633389 0.21561198758054059 0 0.003893562275735573 0.2064819102401671 0 0.020197736684044801 0.2291273398277828 0 0.01643925603633389 0.21561198758054059 0 0.003893562275735573 0.2064819102401671 0 -0.0012364494800765971 0.1960628175593882 0 0.01643925603633389 0.21561198758054059 0 0.017852612557627559 0.19656860209324539 0 -0.0012364494800765971 0.1960628175593882 0 0.00061104658230836653 0.17769045695541219 0 0.017852612557627559 0.19656860209324539 0 0.019359600384737739 0.17657282369350361 0 0.017852612557627559 0.19656860209324539 0 0.036931045214144441 0.19738193772184889 0 0.053915020648589329 0.181809847856817 0 0.036931045214144441 0.19738193772184889 0 0.062795137287949193 0.19833474639452611 0 0.036931045214144441 0.19738193772184889 0 0.054502490043551163 0.2181910517501941 0 0.062795137287949193 0.19833474639452611 0 0.036931045214144441 0.19738193772184889 0 0.054502490043551163 0.2181910517501941 0 0.036931045214144441 0.19738193772184889 0 0.054502490043551163 0.2181910517501941 0 0.035370792182188207 0.216260201755786 0 0.054502490043551163 0.2181910517501941 0 0.035370792182188207 0.216260201755786 0 0.034114961552744377 0.23516115760169301 0 0.054502490043551163 0.2181910517501941 0 0.055174909047777811 0.2396291133956362 0 0.034114961552744377 0.23516115760169301 0 0.054502490043551163 0.2181910517501941 0 0.055174909047777811 0.2396291133956362 0 0.072073934872957782 0.23900016577853919 0 0.055174909047777811 0.2396291133956362 0 0.034114961552744377 0.23516115760169301 0 0.051790667069154861 0.2547103276228454 0 0.055174909047777811 0.2396291133956362 0 0.051790667069154861 0.2547103276228454 0 0.063392491700480919 0.2510828642249095 0 0.034114961552744377 0.23516115760169301 0 0.036501911092354018 0.25177276941539839 0 0.051790667069154861 0.2547103276228454 0 0.034114961552744377 0.23516115760169301 0 0.051790667069154861 0.2547103276228454 0 0.072073934872957782 0.23900016577853919 0 0.093843955428218759 0.229542086103772 0 0.089645379702363526 0.25980927980688501 0 0.072073934872957782 0.23900016577853919 0 0.089645379702363526 0.25980927980688501 0 0.055174909047777811 0.2396291133956362 0 0.072073934872957782 0.23900016577853919 0 0.063392491700480919 0.2510828642249095 0 0.072073934872957782 0.23900016577853919 0 0.063392491700480919 0.2510828642249095 0 0.074261774750864804 0.25289133929391111 0 0.054502490043551163 0.2181910517501941 0 0.072073934872957782 0.23900016577853919 0 0.054502490043551163 0.2181910517501941 0 0.072073934872957782 0.23900016577853919 0 0.07691655231929137 0.22036312128655 0 0.072073934872957782 0.23900016577853919 0 0.07691655231929137 0.22036312128655 0 0.093843955428218759 0.229542086103772 0 0.084497559881492323 0.20266231069862009 0 0.1011551627426199 0.2154511434485995 0 0.093843955428218759 0.229542086103772 0 0.084497559881492323 0.20266231069862009 0 0.093843955428218759 0.229542086103772 0 0.07691655231929137 0.22036312128655 0 0.084497559881492323 0.20266231069862009 0 0.093843955428218759 0.229542086103772 0 0.07691655231929137 0.22036312128655 0 0.062795137287949193 0.19833474639452611 0 0.084497559881492323 0.20266231069862009 0 0.054502490043551163 0.2181910517501941 0 0.07691655231929137 0.22036312128655 0 0.062795137287949193 0.19833474639452611 0 0.062795137287949193 0.19833474639452611 0 0.084497559881492323 0.20266231069862009 0 0.075151164334765874 0.17578253529346821 0 0.084497559881492323 0.20266231069862009 0 0.075151164334765874 0.17578253529346821 0 0.084497559881492323 0.20266231069862009 0 0.10184565838461331 0.1924014028594688 0 0.093394980383096363 0.18307457459837531 0 0.084497559881492323 0.20266231069862009 0 0.10184565838461331 0.1924014028594688 0 0.10260278643249959 0.20376756124449391 0 0.10184565838461331 0.1924014028594688 0 0.1105875138732399 0.1994169567440035 0 0.10260278643249959 0.20376756124449391 0 0.10184565838461331 0.1924014028594688 0 0.1131184160342838 0.18994185980391479 0 0.1105875138732399 0.1994169567440035 0 0.10184565838461331 0.1924014028594688 0 0.1131184160342838 0.18994185980391479 0 0.1054525685194168 0.18020148819897211 0 0.1131184160342838 0.18994185980391479 0 0.1210814068145178 0.19423580856195369 0 0.1131184160342838 0.18994185980391479 0 0.1210814068145178 0.19423580856195369 0 0.1196286990311512 0.18236386641526309 0 0.1210814068145178 0.19423580856195369 0 0.11958782189190099 0.20227867846385961 0 0.13241563583181001 0.2003476577346209 0 0.1131184160342838 0.18994185980391479 0 0.1210814068145178 0.19423580856195369 0 0.11958782189190099 0.20227867846385961 0 0.1131184160342838 0.18994185980391479 0 0.11958782189190099 0.20227867846385961 0 0.1105875138732399 0.1994169567440035 0 0.11958782189190099 0.20227867846385961 0 0.1105875138732399 0.1994169567440035 0 0.11467542950451071 0.21015036581969679 0 0.11958782189190099 0.20227867846385961 0 0.11467542950451071 0.21015036581969679 0 0.12714211421566091 0.2115365522170618 0 0.11467542950451071 0.21015036581969679 0 0.1287590091161889 0.22454109023782651 0 0.12714211421566091 0.2115365522170618 0 0.11467542950451071 0.21015036581969679 0 0.1011551627426199 0.2154511434485995 0 0.1117838155087727 0.22779371718329239 0 0.084497559881492323 0.20266231069862009 0 0.10260278643249959 0.20376756124449391 0 0.1011551627426199 0.2154511434485995 0 0.1105875138732399 0.1994169567440035 0 0.11467542950451071 0.21015036581969679 0 0.10260278643249959 0.20376756124449391 0 0.11467542950451071 0.21015036581969679 0 0.10260278643249959 0.20376756124449391 0 0.1011551627426199 0.2154511434485995 0 0.1011551627426199 0.2154511434485995 0 0.093843955428218759 0.229542086103772 0 0.1117838155087727 0.22779371718329239 0 0.11467542950451071 0.21015036581969679 0 0.1117838155087727 0.22779371718329239 0 0.1287590091161889 0.22454109023782651 0 0.1117838155087727 0.22779371718329239 0 0.1287590091161889 0.22454109023782651 0 0.116065923487036 0.25155424759680489 0 0.093843955428218759 0.229542086103772 0 0.089645379702363526 0.25980927980688501 0 0.116065923487036 0.25155424759680489 0 0.093843955428218759 0.229542086103772 0 0.1117838155087727 0.22779371718329239 0 0.116065923487036 0.25155424759680489 0 0.085867858697711436 0.14453522140638461 0 0.070822549389301243 0.1380046816891726 0 0.082108764886198796 0.1605396281437739 0 0.085867858697711436 0.14453522140638461 0 0.082108764886198796 0.1605396281437739 0 0.098061838006449922 0.1524476624703702 0 0.085867858697711436 0.14453522140638461 0 0.084033960556429532 0.12884481400490949 0 0.098019367542785563 0.1407790739484335 0 0.085867858697711436 0.14453522140638461 0 0.084033960556429532 0.12884481400490949 0 0.070822549389301243 0.1380046816891726 0 0.071861500007931359 0.1232467005620789 0 0.059536333892403683 0.1154697352345713 0 0.070822549389301243 0.1380046816891726 0 0.059536333892403683 0.1154697352345713 0 0.070822549389301243 0.1380046816891726 0 0.056458373241313059 0.1220229844831647 0 0.070822549389301243 0.1380046816891726 0 0.065804768788039439 0.14890275988831639 0 0.071861500007931359 0.1232467005620789 0 0.084033960556429532 0.12884481400490949 0 0.070822549389301243 0.1380046816891726 0 0.070822549389301243 0.1380046816891726 0 0.082108764886198796 0.1605396281437739 0 0.070822549389301243 0.1380046816891726 0 0.065804768788039439 0.14890275988831639 0 0.082108764886198796 0.1605396281437739 0 0.056298621576963533 0.16595151756685289 0 0.065804768788039439 0.14890275988831639 0 0.075151164334765874 0.17578253529346821 0 0.065804768788039439 0.14890275988831639 0 0.075151164334765874 0.17578253529346821 0 0.082108764886198796 0.1605396281437739 0 0.065804768788039439 0.14890275988831639 0 0.075151164334765874 0.17578253529346821 0 0.053915020648589329 0.181809847856817 0 0.062795137287949193 0.19833474639452611 0 0.075151164334765874 0.17578253529346821 0 0.075151164334765874 0.17578253529346821 0 0.093394980383096363 0.18307457459837531 0 0.082108764886198796 0.1605396281437739 0 0.084497559881492323 0.20266231069862009 0 0.075151164334765874 0.17578253529346821 0 0.093394980383096363 0.18307457459837531 0 0.093394980383096363 0.18307457459837531 0 0.082108764886198796 0.1605396281437739 0 0.1017810834163356 0.16778327145988009 0 0.093394980383096363 0.18307457459837531 0 0.082108764886198796 0.1605396281437739 0 0.082108764886198796 0.1605396281437739 0 0.1017810834163356 0.16778327145988009 0 0.098061838006449922 0.1524476624703702 0 0.1017810834163356 0.16778327145988009 0 0.1094413004412432 0.1568441156191657 0 0.098061838006449922 0.1524476624703702 0 0.10184565838461331 0.1924014028594688 0 0.093394980383096363 0.18307457459837531 0 0.1054525685194168 0.18020148819897211 0 0.093394980383096363 0.18307457459837531 0 0.1017810834163356 0.16778327145988009 0 0.1054525685194168 0.18020148819897211 0 0.1017810834163356 0.16778327145988009 0 0.1054525685194168 0.18020148819897211 0 0.1143103312636523 0.17467474260035151 0 0.1131184160342838 0.18994185980391479 0 0.1132877880089454 0.18182979361660931 0 0.1196286990311512 0.18236386641526309 0 0.1131184160342838 0.18994185980391479 0 0.1054525685194168 0.18020148819897211 0 0.1132877880089454 0.18182979361660931 0 0.1054525685194168 0.18020148819897211 0 0.1132877880089454 0.18182979361660931 0 0.1143103312636523 0.17467474260035151 0 0.1132877880089454 0.18182979361660931 0 0.1143103312636523 0.17467474260035151 0 0.1196286990311512 0.18236386641526309 0 0.1143103312636523 0.17467474260035151 0 0.1229466648353691 0.17360959233997481 0 0.1196286990311512 0.18236386641526309 0 0.1229466648353691 0.17360959233997481 0 0.1196286990311512 0.18236386641526309 0 0.1315359285025598 0.17914174819028489 0 0.1210814068145178 0.19423580856195369 0 0.1196286990311512 0.18236386641526309 0 0.1315359285025598 0.17914174819028489 0 0.1017810834163356 0.16778327145988009 0 0.1143103312636523 0.17467474260035151 0 0.11826309888899959 0.1638296446882945 0 0.1017810834163356 0.16778327145988009 0 0.1094413004412432 0.1568441156191657 0 0.11826309888899959 0.1638296446882945 0 0.1094413004412432 0.1568441156191657 0 0.11826309888899959 0.1638296446882945 0 0.12116198843957229 0.15461983439099389 0 0.1143103312636523 0.17467474260035151 0 0.1229466648353691 0.17360959233997481 0 0.11826309888899959 0.1638296446882945 0 0.1229466648353691 0.17360959233997481 0 0.11826309888899959 0.1638296446882945 0 0.1286748755814317 0.16568949079043779 0 0.11826309888899959 0.1638296446882945 0 0.12116198843957229 0.15461983439099389 0 0.1286748755814317 0.16568949079043779 0 0.12116198843957229 0.15461983439099389 0 0.1235319134973574 0.14279740261083959 0 0.11069945258584669 0.14552439304262721 0 0.1094413004412432 0.1568441156191657 0 0.12116198843957229 0.15461983439099389 0 0.11069945258584669 0.14552439304262721 0 0.1094413004412432 0.1568441156191657 0 0.11069945258584669 0.14552439304262721 0 0.098061838006449922 0.1524476624703702 0 0.11069945258584669 0.14552439304262721 0 0.098019367542785563 0.1407790739484335 0 0.098061838006449922 0.1524476624703702 0 0.085867858697711436 0.14453522140638461 0 0.098019367542785563 0.1407790739484335 0 0.098061838006449922 0.1524476624703702 0 0.084033960556429532 0.12884481400490949 0 0.1117522404438802 0.12667258555115829 0 0.094862282777670462 0.1196438628042634 0 0.084033960556429532 0.12884481400490949 0 0.1117522404438802 0.12667258555115829 0 0.084033960556429532 0.12884481400490949 0 0.098019367542785563 0.1407790739484335 0 0.1117522404438802 0.12667258555115829 0 0.11069945258584669 0.14552439304262721 0 0.098019367542785563 0.1407790739484335 0 0.1117522404438802 0.12667258555115829 0 0.1235319134973574 0.14279740261083959 0 0.11069945258584669 0.14552439304262721 0 0.1117522404438802 0.12667258555115829 0 0.1235319134973574 0.14279740261083959 0 0.1117522404438802 0.12667258555115829 0 0.1338250830151082 0.13680555700437169 0 0.1117522404438802 0.12667258555115829 0 0.1338250830151082 0.13680555700437169 0 0.13947052033133081 0.1245003570974072 0 0.1117522404438802 0.12667258555115829 0 0.13947052033133081 0.1245003570974072 0 0.1338250830151082 0.13680555700437169 0 0.14773514824261011 0.13994704674368119 0 0.13947052033133081 0.1245003570974072 0 0.14773514824261011 0.13994704674368119 0 0.13947052033133081 0.1245003570974072 0 0.16718880021878149 0.12232812864365609 0 0.14773514824261011 0.13994704674368119 0 0.1492794596183103 0.15557552201751701 0 0.16307655427518189 0.1461583771030025 0 0.14773514824261011 0.13994704674368119 0 0.1492794596183103 0.15557552201751701 0 0.13636128964255501 0.15303395959459851 0 0.1235319134973574 0.14279740261083959 0 0.1338250830151082 0.13680555700437169 0 0.13636128964255501 0.15303395959459851 0 0.1338250830151082 0.13680555700437169 0 0.14773514824261011 0.13994704674368119 0 0.13636128964255501 0.15303395959459851 0 0.12116198843957229 0.15461983439099389 0 0.1235319134973574 0.14279740261083959 0 0.13636128964255501 0.15303395959459851 0 0.12116198843957229 0.15461983439099389 0 0.13636128964255501 0.15303395959459851 0 0.1286748755814317 0.16568949079043779 0 0.13636128964255501 0.15303395959459851 0 0.1286748755814317 0.16568949079043779 0 0.1402599975996246 0.1687496010839549 0 0.1286748755814317 0.16568949079043779 0 0.1402599975996246 0.1687496010839549 0 0.1315359285025598 0.17914174819028489 0 0.1210814068145178 0.19423580856195369 0 0.1315359285025598 0.17914174819028489 0 0.14172685770208041 0.18088834424850889 0 0.1229466648353691 0.17360959233997481 0 0.1286748755814317 0.16568949079043779 0 0.1315359285025598 0.17914174819028489 0 0.1402599975996246 0.1687496010839549 0 0.1315359285025598 0.17914174819028489 0 0.14172685770208041 0.18088834424850889 0 0.1315359285025598 0.17914174819028489 0 0.14172685770208041 0.18088834424850889 0 0.14172685770208041 0.18088834424850889 0 0.1589643083315804 0.1699886255623487 0 0.15664227980061579 0.1834446584897341 0 0.14172685770208041 0.18088834424850889 0 0.1589643083315804 0.1699886255623487 0 0.1402599975996246 0.1687496010839549 0 0.14172685770208041 0.18088834424850889 0 0.1589643083315804 0.1699886255623487 0 0.14172685770208041 0.18088834424850889 0 0.15664227980061579 0.1834446584897341 0 0.14735069213281321 0.19092796682168489 0 0.14172685770208041 0.18088834424850889 0 0.15664227980061579 0.1834446584897341 0 0.1492794596183103 0.15557552201751701 0 0.1402599975996246 0.1687496010839549 0 0.1589643083315804 0.1699886255623487 0 0.1492794596183103 0.15557552201751701 0 0.13636128964255501 0.15303395959459851 0 0.1402599975996246 0.1687496010839549 0 0.1492794596183103 0.15557552201751701 0 0.1589643083315804 0.1699886255623487 0 0.16307655427518189 0.1461583771030025 0 0.1589643083315804 0.1699886255623487 0 0.1832181015668064 0.15465227861531949 0 0.16307655427518189 0.1461583771030025 0 0.1589643083315804 0.1699886255623487 0 0.16307655427518189 0.1461583771030025 0 0.1589643083315804 0.1699886255623487 0 0.1832181015668064 0.15465227861531949 0 0.1589643083315804 0.1699886255623487 0 0.15664227980061579 0.1834446584897341 0 0.17367876449497299 0.17356388092826039 0 0.15664227980061579 0.1834446584897341 0 0.17803712215301101 0.18711146321258301 0 0.15664227980061579 0.1834446584897341 0 0.17367876449497299 0.17356388092826039 0 0.17803712215301101 0.18711146321258301 0 0.1589643083315804 0.1699886255623487 0 0.15664227980061579 0.1834446584897341 0 0.17367876449497299 0.17356388092826039 0 0.17803712215301101 0.18711146321258301 0 0.1915320106228488 0.17262237876131631 0 0.1589643083315804 0.1699886255623487 0 0.17367876449497299 0.17356388092826039 0 0.1832181015668064 0.15465227861531949 0 0.17367876449497299 0.17356388092826039 0 0.1832181015668064 0.15465227861531949 0 0.1915320106228488 0.17262237876131631 0 0.1832181015668064 0.15465227861531949 0 0.18154761934540289 0.13534417850528041 0 0.16307655427518189 0.1461583771030025 0 0.18154761934540289 0.13534417850528041 0 0.19370351113240411 0.1202502215829211 0 0.16718880021878149 0.12232812864365609 0 0.16307655427518189 0.1461583771030025 0 0.16718880021878149 0.12232812864365609 0 0.14773514824261011 0.13994704674368119 0 0.16307655427518189 0.1461583771030025 0 0.16718880021878149 0.12232812864365609 0 0.18154761934540289 0.13534417850528041 0 0.16307655427518189 0.1461583771030025 0 0.16718880021878149 0.12232812864365609 0 0.14248646727170791 0.24329921538672239 0 0.16890701105638031 0.23504418317664161 0 0.14248646727170791 0.24329921538672239 0 0.116065923487036 0.25155424759680489 0 0.14248646727170791 0.24329921538672239 0 0.1287590091161889 0.22454109023782651 0 0.116065923487036 0.25155424759680489 0 0.14248646727170791 0.24329921538672239 0 0.1287590091161889 0.22454109023782651 0 0.14216045677169509 0.2226427774354276 0 0.1287590091161889 0.22454109023782651 0 0.14216045677169509 0.2226427774354276 0 0.13903299807830019 0.21154409335764149 0 0.14248646727170791 0.24329921538672239 0 0.14216045677169509 0.2226427774354276 0 0.16890701105638031 0.23504418317664161 0 0.14216045677169509 0.2226427774354276 0 0.1513137794066001 0.21432303737238931 0 0.16890701105638031 0.23504418317664161 0 0.15183105921464751 0.210852851725322 0 0.13241563583181001 0.2003476577346209 0 0.15183105921464751 0.210852851725322 0 0.13903299807830019 0.21154409335764149 0 0.13241563583181001 0.2003476577346209 0 0.1513137794066001 0.21432303737238931 0 0.15183105921464751 0.210852851725322 0 0.14522842943996589 0.21534193400985699 0 0.1513137794066001 0.21432303737238931 0 0.15183105921464751 0.210852851725322 0 0.15183105921464751 0.210852851725322 0 0.14522842943996589 0.21534193400985699 0 0.13903299807830019 0.21154409335764149 0 0.14216045677169509 0.2226427774354276 0 0.1513137794066001 0.21432303737238931 0 0.14522842943996589 0.21534193400985699 0 0.14216045677169509 0.2226427774354276 0 0.14522842943996589 0.21534193400985699 0 0.13903299807830019 0.21154409335764149 0 0.1287590091161889 0.22454109023782651 0 0.13903299807830019 0.21154409335764149 0 0.12714211421566091 0.2115365522170618 0 0.11958782189190099 0.20227867846385961 0 0.12714211421566091 0.2115365522170618 0 0.13241563583181001 0.2003476577346209 0 0.13903299807830019 0.21154409335764149 0 0.12714211421566091 0.2115365522170618 0 0.13241563583181001 0.2003476577346209 0 0.1210814068145178 0.19423580856195369 0 0.13241563583181001 0.2003476577346209 0 0.13808072668616231 0.19149491569441959 0 0.1210814068145178 0.19423580856195369 0 0.14172685770208041 0.18088834424850889 0 0.13808072668616231 0.19149491569441959 0 0.1210814068145178 0.19423580856195369 0 0.14172685770208041 0.18088834424850889 0 0.1210814068145178 0.19423580856195369 0 0.13241563583181001 0.2003476577346209 0 0.15664227980061579 0.1834446584897341 0 0.15183105921464751 0.210852851725322 0 0.14735069213281321 0.19092796682168489 0 0.14172685770208041 0.18088834424850889 0 0.13808072668616231 0.19149491569441959 0 0.14735069213281321 0.19092796682168489 0 0.15183105921464751 0.210852851725322 0 0.13808072668616231 0.19149491569441959 0 0.14735069213281321 0.19092796682168489 0 0.15664227980061579 0.1834446584897341 0 0.15183105921464751 0.210852851725322 0 0.15183105921464751 0.210852851725322 0 0.13241563583181001 0.2003476577346209 0 0.13808072668616231 0.19149491569441959 0 0.15183105921464751 0.210852851725322 0 0.13808072668616231 0.19149491569441959 0 0.15664227980061579 0.1834446584897341 0 0.17803712215301101 0.18711146321258301 0 0.17078007948547791 0.20461318166966591 0 0.15664227980061579 0.1834446584897341 0 0.15183105921464751 0.210852851725322 0 0.17078007948547791 0.20461318166966591 0 0.17803712215301101 0.18711146321258301 0 0.18699821765939811 0.20575379358823331 0 0.17078007948547791 0.20461318166966591 0 0.18699821765939811 0.20575379358823331 0 0.18150256540618689 0.21619068467845909 0 0.17078007948547791 0.20461318166966591 0 0.18150256540618689 0.21619068467845909 0 0.17078007948547791 0.20461318166966591 0 0.1696832039875637 0.2204437538389574 0 0.15183105921464751 0.210852851725322 0 0.1696832039875637 0.2204437538389574 0 0.15183105921464751 0.210852851725322 0 0.17078007948547791 0.20461318166966591 0 0.1696832039875637 0.2204437538389574 0 0.15183105921464751 0.210852851725322 0 0.16890701105638031 0.23504418317664161 0 0.15183105921464751 0.210852851725322 0 0.1696832039875637 0.2204437538389574 0 0.16890701105638031 0.23504418317664161 0 0.1513137794066001 0.21432303737238931 0 0.15183105921464751 0.210852851725322 0 0.16890701105638031 0.23504418317664161 0 0.1696832039875637 0.2204437538389574 0 0.1730962958839812 0.23373525170759399 0 0.16890701105638031 0.23504418317664161 0 0.18150256540618689 0.21619068467845909 0 0.1696832039875637 0.2204437538389574 0 0.1874551123034256 0.23002704556275291 0 0.1696832039875637 0.2204437538389574 0 0.1874551123034256 0.23002704556275291 0 0.1730962958839812 0.23373525170759399 0 0.1696832039875637 0.2204437538389574 0 0.1874551123034256 0.23002704556275291 0 0.16890701105638031 0.23504418317664161 0 0.18564289691528729 0.25868749876629671 0 0.1821848497420967 0.24129823675235251 0 0.16890701105638031 0.23504418317664161 0 0.18564289691528729 0.25868749876629671 0 0.1730962958839812 0.23373525170759399 0 0.1821848497420967 0.24129823675235251 0 0.16890701105638031 0.23504418317664161 0 0.1874551123034256 0.23002704556275291 0 0.1730962958839812 0.23373525170759399 0 0.1821848497420967 0.24129823675235251 0 0.14248646727170791 0.24329921538672239 0 0.16890701105638031 0.23504418317664161 0 0.1631161995596529 0.25657386530356069 0 0.1730962958839812 0.23373525170759399 0 0.16890701105638031 0.23504418317664161 0 0.2052270206192876 0.23961033728654851 0 0.2245441737887168 0.23093760545441711 0 0.21458810326103989 0.25029177234766842 0 0.2052270206192876 0.23961033728654851 0 0.2050239072751949 0.2492833193895482 0 0.21458810326103989 0.25029177234766842 0 0.2052270206192876 0.23961033728654851 0 0.2050239072751949 0.2492833193895482 0 0.1956251304139873 0.24830732682566101 0 0.1874551123034256 0.23002704556275291 0 0.1821848497420967 0.24129823675235251 0 0.1956251304139873 0.24830732682566101 0 0.1874551123034256 0.23002704556275291 0 0.2052270206192876 0.23961033728654851 0 0.1821848497420967 0.24129823675235251 0 0.1956251304139873 0.24830732682566101 0 0.18564289691528729 0.25868749876629671 0 0.1874551123034256 0.23002704556275291 0 0.2052270206192876 0.23961033728654851 0 0.1956251304139873 0.24830732682566101 0 0.1874551123034256 0.23002704556275291 0 0.2052270206192876 0.23961033728654851 0 0.20110338325899621 0.22697869990708769 0 0.18150256540618689 0.21619068467845909 0 0.1874551123034256 0.23002704556275291 0 0.19422843088031849 0.2167901493339745 0 0.1874551123034256 0.23002704556275291 0 0.20110338325899621 0.22697869990708769 0 0.19422843088031849 0.2167901493339745 0 0.20110338325899621 0.22697869990708769 0 0.2086865974780466 0.21738525977654841 0 0.19422843088031849 0.2167901493339745 0 0.2052270206192876 0.23961033728654851 0 0.21155197229915221 0.22775520817690251 0 0.2245441737887168 0.23093760545441711 0 0.20110338325899621 0.22697869990708769 0 0.21155197229915221 0.22775520817690251 0 0.2086865974780466 0.21738525977654841 0 0.2052270206192876 0.23961033728654851 0 0.20110338325899621 0.22697869990708769 0 0.21155197229915221 0.22775520817690251 0 0.21155197229915221 0.22775520817690251 0 0.2086865974780466 0.21738525977654841 0 0.22156171208109349 0.2232889965660497 0 0.211417792929007 0.20448623071467029 0 0.2086865974780466 0.21738525977654841 0 0.22411523440486891 0.2128525325182862 0 0.2086865974780466 0.21738525977654841 0 0.22411523440486891 0.2128525325182862 0 0.22156171208109349 0.2232889965660497 0 0.211417792929007 0.20448623071467029 0 0.2086865974780466 0.21738525977654841 0 0.19996516513116139 0.20542151256053021 0 0.2086865974780466 0.21738525977654841 0 0.19422843088031849 0.2167901493339745 0 0.19996516513116139 0.20542151256053021 0 0.18699821765939811 0.20575379358823331 0 0.18150256540618689 0.21619068467845909 0 0.19422843088031849 0.2167901493339745 0 0.18699821765939811 0.20575379358823331 0 0.19422843088031849 0.2167901493339745 0 0.19996516513116139 0.20542151256053021 0 0.18699821765939811 0.20575379358823331 0 0.19996516513116139 0.20542151256053021 0 0.19943196450540629 0.19077826793543179 0 0.17803712215301101 0.18711146321258301 0 0.19943196450540629 0.19077826793543179 0 0.17803712215301101 0.18711146321258301 0 0.18699821765939811 0.20575379358823331 0 0.19943196450540629 0.19077826793543179 0 0.211417792929007 0.20448623071467029 0 0.19943196450540629 0.19077826793543179 0 0.22082680685780151 0.19444507265828059 0 0.19943196450540629 0.19077826793543179 0 0.22082680685780151 0.19444507265828059 0 0.211417792929007 0.20448623071467029 0 0.19996516513116139 0.20542151256053021 0 0.19943196450540629 0.19077826793543179 0 0.22082680685780151 0.19444507265828059 0 0.2418323282778008 0.1922485172988235 0 0.23200417938957321 0.20455559625434991 0 0.22082680685780151 0.19444507265828059 0 0.2418323282778008 0.1922485172988235 0 0.2298041727050075 0.1787595393801808 0 0.2418323282778008 0.1922485172988235 0 0.24124234801782149 0.21867626254200909 0 0.2418323282778008 0.1922485172988235 0 0.24124234801782149 0.21867626254200909 0 0.25471258750952741 0.20148162901819469 0 0.2418323282778008 0.1922485172988235 0 0.24124234801782149 0.21867626254200909 0 0.23200417938957321 0.20455559625434991 0 0.24124234801782149 0.21867626254200909 0 0.25357276657721323 0.21641202867955539 0 0.25471258750952741 0.20148162901819469 0 0.24124234801782149 0.21867626254200909 0 0.22411523440486891 0.2128525325182862 0 0.2303270751280653 0.22194856436908961 0 0.211417792929007 0.20448623071467029 0 0.22082680685780151 0.19444507265828059 0 0.22411523440486891 0.2128525325182862 0 0.22082680685780151 0.19444507265828059 0 0.23200417938957321 0.20455559625434991 0 0.22411523440486891 0.2128525325182862 0 0.24124234801782149 0.21867626254200909 0 0.23200417938957321 0.20455559625434991 0 0.22411523440486891 0.2128525325182862 0 0.22411523440486891 0.2128525325182862 0 0.22156171208109349 0.2232889965660497 0 0.2303270751280653 0.22194856436908961 0 0.22156171208109349 0.2232889965660497 0 0.2245441737887168 0.23093760545441711 0 0.2301452193877111 0.22885480910105491 0 0.21155197229915221 0.22775520817690251 0 0.22156171208109349 0.2232889965660497 0 0.2245441737887168 0.23093760545441711 0 0.2301452193877111 0.22885480910105491 0 0.23408043491912681 0.23335190051361199 0 0.23787356880598759 0.22384871304106421 0 0.2301452193877111 0.22885480910105491 0 0.23408043491912681 0.23335190051361199 0 0.2258394828391487 0.23585902185418811 0 0.2245441737887168 0.23093760545441711 0 0.2301452193877111 0.22885480910105491 0 0.2258394828391487 0.23585902185418811 0 0.2301452193877111 0.22885480910105491 0 0.2303270751280653 0.22194856436908961 0 0.23787356880598759 0.22384871304106421 0 0.22156171208109349 0.2232889965660497 0 0.2301452193877111 0.22885480910105491 0 0.2303270751280653 0.22194856436908961 0 0.24124234801782149 0.21867626254200909 0 0.2303270751280653 0.22194856436908961 0 0.23787356880598759 0.22384871304106421 0 0.24124234801782149 0.21867626254200909 0 0.23787356880598759 0.22384871304106421 0 0.25357276657721323 0.21641202867955539 0 0.23408043491912681 0.23335190051361199 0 0.24868260911088891 0.2303107595792985 0 0.25357276657721323 0.21641202867955539 0 0.23408043491912681 0.23335190051361199 0 0.23787356880598759 0.22384871304106421 0 0.25357276657721323 0.21641202867955539 0 0.23408043491912681 0.23335190051361199 0 0.25357276657721323 0.21641202867955539 0 0.24868260911088891 0.2303107595792985 0 0.2392512687495113 0.23539683186585869 0 0.2471090749199483 0.2357199094212839 0 0.23408043491912681 0.23335190051361199 0 0.24868260911088891 0.2303107595792985 0 0.2392512687495113 0.23539683186585869 0 0.23408043491912681 0.23335190051361199 0 0.2356673672060029 0.23553231024254659 0 0.23369101455560959 0.23545012385447089 0 0.2356673672060029 0.23553231024254659 0 0.23652425047500741 0.24096462129343871 0 0.23369101455560959 0.23545012385447089 0 0.23652425047500741 0.24096462129343871 0 0.2392512687495113 0.23539683186585869 0 0.24523436150048811 0.24199469982198529 0 0.2356673672060029 0.23553231024254659 0 0.23652425047500741 0.24096462129343871 0 0.2392512687495113 0.23539683186585869 0 0.23408043491912681 0.23335190051361199 0 0.2356673672060029 0.23553231024254659 0 0.2392512687495113 0.23539683186585869 0 0.24523436150048811 0.24199469982198529 0 0.2471090749199483 0.2357199094212839 0 0.25452501640087027 0.2374112721999547 0 0.2392512687495113 0.23539683186585869 0 0.24523436150048811 0.24199469982198529 0 0.2471090749199483 0.2357199094212839 0 0.24523436150048811 0.24199469982198529 0 0.23995652529561701 0.25039133628829258 0 0.25404003316197471 0.25208422786308371 0 0.23652425047500741 0.24096462129343871 0 0.24523436150048811 0.24199469982198529 0 0.23995652529561701 0.25039133628829258 0 0.23652425047500741 0.24096462129343871 0 0.23169913173193779 0.25404958449575432 0 0.23995652529561701 0.25039133628829258 0 0.23369101455560959 0.23545012385447089 0 0.2170338530129477 0.25958452376210089 0 0.21458810326103989 0.25029177234766842 0 0.23408043491912681 0.23335190051361199 0 0.23369101455560959 0.23545012385447089 0 0.21458810326103989 0.25029177234766842 0 0.23408043491912681 0.23335190051361199 0 0.21458810326103989 0.25029177234766842 0 0.2245441737887168 0.23093760545441711 0 0.21458810326103989 0.25029177234766842 0 0.23408043491912681 0.23335190051361199 0 0.2258394828391487 0.23585902185418811 0 0.21458810326103989 0.25029177234766842 0 0.23369101455560959 0.23545012385447089 0 0.2170338530129477 0.25958452376210089 0 0.23169913173193779 0.25404958449575432 0 0.23652425047500741 0.24096462129343871 0 0.23369101455560959 0.23545012385447089 0 0.23169913173193779 0.25404958449575432 0 0.23369101455560959 0.23545012385447089 0 0.2170338530129477 0.25958452376210089 0 0.2245441737887168 0.23093760545441711 0 0.2258394828391487 0.23585902185418811 0 0.21458810326103989 0.25029177234766842 0 0.2074718948020329 0.13931593166829101 0 0.2035930282546865 0.1573108976369578 0 0.22801201431925219 0.15227861461809999 0 0.2074718948020329 0.13931593166829101 0 0.22815060196587239 0.13250420183309389 0 0.2202182220460269 0.1181723145221887 0 0.2074718948020329 0.13931593166829101 0 0.2202182220460269 0.1181723145221887 0 0.19370351113240411 0.1202502215829211 0 0.18154761934540289 0.13534417850528041 0 0.2074718948020329 0.13931593166829101 0 0.19370351113240411 0.1202502215829211 0 0.1832181015668064 0.15465227861531949 0 0.2074718948020329 0.13931593166829101 0 0.1832181015668064 0.15465227861531949 0 0.18154761934540289 0.13534417850528041 0 0.2074718948020329 0.13931593166829101 0 0.1832181015668064 0.15465227861531949 0 0.2074718948020329 0.13931593166829101 0 0.2035930282546865 0.1573108976369578 0 0.1832181015668064 0.15465227861531949 0 0.1915320106228488 0.17262237876131631 0 0.2035930282546865 0.1573108976369578 0 0.1915320106228488 0.17262237876131631 0 0.21309098299550949 0.1707274381193544 0 0.2035930282546865 0.1573108976369578 0 0.19943196450540629 0.19077826793543179 0 0.1915320106228488 0.17262237876131631 0 0.21309098299550949 0.1707274381193544 0 0.17803712215301101 0.18711146321258301 0 0.19943196450540629 0.19077826793543179 0 0.1915320106228488 0.17262237876131631 0 0.19943196450540629 0.19077826793543179 0 0.22082680685780151 0.19444507265828059 0 0.21309098299550949 0.1707274381193544 0 0.21309098299550949 0.1707274381193544 0 0.2035930282546865 0.1573108976369578 0 0.22801201431925219 0.15227861461809999 0 0.2298041727050075 0.1787595393801808 0 0.2424223085377801 0.16582077205563811 0 0.22801201431925219 0.15227861461809999 0 0.21309098299550949 0.1707274381193544 0 0.2298041727050075 0.1787595393801808 0 0.22801201431925219 0.15227861461809999 0 0.22082680685780151 0.19444507265828059 0 0.21309098299550949 0.1707274381193544 0 0.2298041727050075 0.1787595393801808 0 0.2418323282778008 0.1922485172988235 0 0.2424223085377801 0.16582077205563811 0 0.2418323282778008 0.1922485172988235 0 0.2424223085377801 0.16582077205563811 0 0.26032431562704572 0.18342712708893841 0 0.2418323282778008 0.1922485172988235 0 0.2298041727050075 0.1787595393801808 0 0.2424223085377801 0.16582077205563811 0 0.2424223085377801 0.16582077205563811 0 0.24301228879775941 0.13939302681245261 0 0.2424223085377801 0.16582077205563811 0 0.24301228879775941 0.13939302681245261 0 0.25486404381895789 0.1523024957907583 0 0.22801201431925219 0.15227861461809999 0 0.23648687609860089 0.13476882232929049 0 0.24301228879775941 0.13939302681245261 0 0.2424223085377801 0.16582077205563811 0 0.22801201431925219 0.15227861461809999 0 0.24301228879775941 0.13939302681245261 0 0.2074718948020329 0.13931593166829101 0 0.22801201431925219 0.15227861461809999 0 0.22815060196587239 0.13250420183309389 0 0.22815060196587239 0.13250420183309389 0 0.24420216851797599 0.1292372680552665 0 0.2202182220460269 0.1181723145221887 0 0.22801201431925219 0.15227861461809999 0 0.22815060196587239 0.13250420183309389 0 0.23648687609860089 0.13476882232929049 0 0.22815060196587239 0.13250420183309389 0 0.23648687609860089 0.13476882232929049 0 0.24420216851797599 0.1292372680552665 0 0.23648687609860089 0.13476882232929049 0 0.24301228879775941 0.13939302681245261 0 0.24420216851797599 0.1292372680552665 0 0.24646482385440791 0.1109165710353929 0 0.23770217468454991 0.11680213067385049 0 0.255186127323073 0.11543194682551421 0 0.24420216851797599 0.1292372680552665 0 0.23770217468454991 0.11680213067385049 0 0.255186127323073 0.11543194682551421 0 0.23770217468454991 0.11680213067385049 0 0.255186127323073 0.11543194682551421 0 0.23770217468454991 0.11680213067385049 0 0.24055722746134861 0.1095612663226197 0 0.23538797832625211 0.10692464088038291 0 0.24646482385440791 0.1109165710353929 0 0.23770217468454991 0.11680213067385049 0 0.24055722746134861 0.1095612663226197 0 0.24174744587836799 0.1033548466348798 0 0.22816008327650389 0.097918375238235045 0 0.24736227196270541 0.090270970101712061 0 0.22816008327650389 0.097918375238235045 0 0.24736227196270541 0.090270970101712061 0 0.24174744587836799 0.1033548466348798 0 0.24736227196270541 0.090270970101712061 0 0.25459763100830068 0.096141582858552177 0 0.24174744587836799 0.1033548466348798 0 0.25459763100830068 0.096141582858552177 0 0.24646482385440791 0.1109165710353929 0 0.24174744587836799 0.1033548466348798 0 0.25655208948606423 0.10927836717886751 0 0.24174744587836799 0.1033548466348798 0 0.25655208948606423 0.10927836717886751 0 0.24646482385440791 0.1109165710353929 0 0.24055722746134861 0.1095612663226197 0 0.24174744587836799 0.1033548466348798 0 0.23538797832625211 0.10692464088038291 0 0.24174744587836799 0.1033548466348798 0 0.22816008327650389 0.097918375238235045 0 0.24055722746134861 0.1095612663226197 0 0.23538797832625211 0.10692464088038291 0 0.24174744587836799 0.1033548466348798 0 0.23538797832625211 0.10692464088038291 0 0.24174744587836799 0.1033548466348798 0 0.24174744587836799 0.1033548466348798 0 0.22816008327650389 0.097918375238235045 0 0.23538797832625211 0.10692464088038291 0 0.22816008327650389 0.097918375238235045 0 0.22436085098549791 0.1097634104313145 0 0.23770217468454991 0.11680213067385049 0 0.2202182220460269 0.1181723145221887 0 0.23770217468454991 0.11680213067385049 0 0.2202182220460269 0.1181723145221887 0 0.22436085098549791 0.1097634104313145 0 0.24420216851797599 0.1292372680552665 0 0.23770217468454991 0.11680213067385049 0 0.2202182220460269 0.1181723145221887 0 0.24420216851797599 0.1292372680552665 0 0.2202182220460269 0.1181723145221887 0 0.23770217468454991 0.11680213067385049 0 0.23538797832625211 0.10692464088038291 0 0.22436085098549791 0.1097634104313145 0 0.2202182220460269 0.1181723145221887 0 0.20033579659415629 0.10899959084191641 0 0.19370351113240411 0.1202502215829211 0 0.2202182220460269 0.1181723145221887 0 0.20033579659415629 0.10899959084191641 0 0.2202182220460269 0.1181723145221887 0 0.19370351113240411 0.1202502215829211 0 0.2202182220460269 0.1181723145221887 0 0.22436085098549791 0.1097634104313145 0 0.20033579659415629 0.10899959084191641 0 0.22816008327650389 0.097918375238235045 0 0.22436085098549791 0.1097634104313145 0 0.20033579659415629 0.10899959084191641 0 0.22816008327650389 0.097918375238235045 0 0.20033579659415629 0.10899959084191641 0 0.2016134769563831 0.087296750559026068 0 0.22816008327650389 0.097918375238235045 0 0.20033579659415629 0.10899959084191641 0 0.20033579659415629 0.10899959084191641 0 0.18422746814952201 0.1154148446289336 0 0.1860496622757298 0.1024087067025775 0 0.20033579659415629 0.10899959084191641 0 0.2016134769563831 0.087296750559026068 0 0.1860496622757298 0.1024087067025775 0 0.20033579659415629 0.10899959084191641 0 0.1860496622757298 0.1024087067025775 0 0.20033579659415629 0.10899959084191641 0 0.19370351113240411 0.1202502215829211 0 0.18422746814952201 0.1154148446289336 0 0.20033579659415629 0.10899959084191641 0 0.18422746814952201 0.1154148446289336 0 0.19220101611619109 0.069455466931817506 0 0.2016134769563831 0.087296750559026068 0 0.22553753830923129 0.072562856517635971 0 0.19220101611619109 0.069455466931817506 0 0.22553753830923129 0.072562856517635971 0 0.20371280465575431 0.054854742933563613 0 0.19220101611619109 0.069455466931817506 0 0.2016134769563831 0.087296750559026068 0 0.17506687063626211 0.076675125879817507 0 0.2016134769563831 0.087296750559026068 0 0.17506687063626211 0.076675125879817507 0 0.2016134769563831 0.087296750559026068 0 0.1860496622757298 0.1024087067025775 0 0.17954517331912459 0.085943521096986275 0 0.22816008327650389 0.097918375238235045 0 0.2016134769563831 0.087296750559026068 0 0.22553753830923129 0.072562856517635971 0 0.22816008327650389 0.097918375238235045 0 0.2016134769563831 0.087296750559026068 0 0.22553753830923129 0.072562856517635971 0 0.20371280465575431 0.054854742933563613 0 0.22816008327650389 0.097918375238235045 0 0.22553753830923129 0.072562856517635971 0 0.24736227196270541 0.090270970101712061 0 0.22553753830923129 0.072562856517635971 0 0.24736227196270541 0.090270970101712061 0 0.22553753830923129 0.072562856517635971 0 0.24736227196270541 0.090270970101712061 0 0.24874122334595 0.07170785510379532 0 0.22553753830923129 0.072562856517635971 0 0.24874122334595 0.07170785510379532 0 0.24629062771517271 0.052820950830226497 0 0.24629062771517271 0.052820950830226497 0 0.22540450977275331 0.044226989078737088 0 0.24629062771517271 0.052820950830226497 0 0.2492733855269578 0.041579555173777823 0 0.22540450977275331 0.044226989078737088 0 0.2492733855269578 0.041579555173777823 0 0.23050941707716249 0.025621187905106171 0 0.2492733855269578 0.041579555173777823 0 0.22540450977275331 0.044226989078737088 0 0.23050941707716249 0.025621187905106171 0 0.22540450977275331 0.044226989078737088 0 0.23050941707716249 0.025621187905106171 0 0.21805144048265651 0.031797176764528597 0 0.22553753830923129 0.072562856517635971 0 0.24629062771517271 0.052820950830226497 0 0.22540450977275331 0.044226989078737088 0 0.23790413247208811 0.0091049515404343275 0 0.25322369798355371 0.0032948183560677501 0 0.2464198669495459 -0.012097030270161889 0 0.23790413247208811 0.0091049515404343275 0 0.25442723867738032 0.016379625870619269 0 0.25322369798355371 0.0032948183560677501 0 0.2492733855269578 0.041579555173777823 0 0.24818833723327199 0.02644705719899533 0 0.23050941707716249 0.025621187905106171 0 0.23790413247208811 0.0091049515404343275 0 0.24818833723327199 0.02644705719899533 0 0.25442723867738032 0.016379625870619269 0 0.23790413247208811 0.0091049515404343275 0 0.24818833723327199 0.02644705719899533 0 0.23050941707716249 0.025621187905106171 0 0.23050941707716249 0.025621187905106171 0 0.2117734432503762 0.02170750274702346 0 0.21805144048265651 0.031797176764528597 0 0.23050941707716249 0.025621187905106171 0 0.21174544862736719 0.0096628206364345465 0 0.23050941707716249 0.025621187905106171 0 0.22518260227175371 0.0072623370788317187 0 0.21174544862736719 0.0096628206364345465 0 0.23790413247208811 0.0091049515404343275 0 0.22518260227175371 0.0072623370788317187 0 0.2300866381754704 -0.0072438550720441714 0 0.23790413247208811 0.0091049515404343275 0 0.23050941707716249 0.025621187905106171 0 0.22518260227175371 0.0072623370788317187 0 0.21174544862736719 0.0096628206364345465 0 0.2117734432503762 0.02170750274702346 0 0.20589386385567829 -0.0063134785331596111 0 0.2117734432503762 0.02170750274702346 0 0.19985428483697371 0.01027601627170664 0 0.20589386385567829 -0.0063134785331596111 0 0.2117734432503762 0.02170750274702346 0 0.20589386385567829 -0.0063134785331596111 0 0.22518260227175371 0.0072623370788317187 0 0.21174544862736719 0.0096628206364345465 0 0.2185782736923042 -0.0038367730406402641 0 0.23050941707716249 0.025621187905106171 0 0.21174544862736719 0.0096628206364345465 0 0.2117734432503762 0.02170750274702346 0 0.2117734432503762 0.02170750274702346 0 0.19994459845139961 0.023663902980434019 0 0.19985428483697371 0.01027601627170664 0 0.2117734432503762 0.02170750274702346 0 0.21805144048265651 0.031797176764528597 0 0.20451839183033399 0.035633027327247678 0 0.2117734432503762 0.02170750274702346 0 0.19994459845139961 0.023663902980434019 0 0.20451839183033399 0.035633027327247678 0 0.19994459845139961 0.023663902980434019 0 0.20451839183033399 0.035633027327247678 0 0.1836322738879155 0.027039065575756291 0 0.19994459845139961 0.023663902980434019 0 0.19985428483697371 0.01027601627170664 0 0.1836322738879155 0.027039065575756291 0 0.19985428483697371 0.01027601627170664 0 0.20589386385567829 -0.0063134785331596111 0 0.18863989258252481 -0.001979820774580698 0 0.19985428483697371 0.01027601627170664 0 0.1836322738879155 0.027039065575756291 0 0.18863989258252481 -0.001979820774580698 0 0.22553753830923129 0.072562856517635971 0 0.22540450977275331 0.044226989078737088 0 0.20371280465575431 0.054854742933563613 0 0.22540450977275331 0.044226989078737088 0 0.20451839183033399 0.035633027327247678 0 0.22540450977275331 0.044226989078737088 0 0.21805144048265651 0.031797176764528597 0 0.20451839183033399 0.035633027327247678 0 0.22540450977275331 0.044226989078737088 0 0.20371280465575431 0.054854742933563613 0 0.20451839183033399 0.035633027327247678 0 0.20451839183033399 0.035633027327247678 0 0.1818880710022803 0.03714662934948755 0 0.1836322738879155 0.027039065575756291 0 0.20371280465575431 0.054854742933563613 0 0.20451839183033399 0.035633027327247678 0 0.1818880710022803 0.03714662934948755 0 0.20371280465575431 0.054854742933563613 0 0.1818880710022803 0.03714662934948755 0 0.20451839183033399 0.035633027327247678 0 0.1836322738879155 0.027039065575756291 0 0.20371280465575431 0.054854742933563613 0 0.17847747081927551 0.05691087761465332 0 0.1818880710022803 0.03714662934948755 0 0.19220101611619109 0.069455466931817506 0 0.20371280465575431 0.054854742933563613 0 0.17847747081927551 0.05691087761465332 0 0.17847747081927551 0.05691087761465332 0 0.1818880710022803 0.03714662934948755 0 0.17847747081927551 0.05691087761465332 0 0.1818880710022803 0.03714662934948755 0 0.1636569447874848 0.036789081642687432 0 0.1818880710022803 0.03714662934948755 0 0.1836322738879155 0.027039065575756291 0 0.1818880710022803 0.03714662934948755 0 0.1636569447874848 0.036789081642687432 0 0.1620242678869008 0.02102957209859084 0 0.17847747081927551 0.05691087761465332 0 0.1636569447874848 0.036789081642687432 0 0.15962551614652079 0.053115759904931073 0 0.17847747081927551 0.05691087761465332 0 0.15962551614652079 0.053115759904931073 0 0.16641746421004469 0.065589342706300277 0 0.15962551614652079 0.053115759904931073 0 0.15045482833334159 0.067212260357143019 0 0.16641746421004469 0.065589342706300277 0 0.1716695151525548 0.011722155214289249 0 0.17506184651935949 -0.0021247232161890161 0 0.18863989258252481 -0.001979820774580698 0 0.1836322738879155 0.027039065575756291 0 0.18863989258252481 -0.001979820774580698 0 0.1836322738879155 0.027039065575756291 0 0.1716695151525548 0.011722155214289249 0 0.18863989258252481 -0.001979820774580698 0 0.1818880710022803 0.03714662934948755 0 0.1730573255808272 0.02268781650565178 0 0.1620242678869008 0.02102957209859084 0 0.1818880710022803 0.03714662934948755 0 0.1620242678869008 0.02102957209859084 0 0.1730573255808272 0.02268781650565178 0 0.1836322738879155 0.027039065575756291 0 0.1716695151525548 0.011722155214289249 0 0.1730573255808272 0.02268781650565178 0 0.1836322738879155 0.027039065575756291 0 0.1818880710022803 0.03714662934948755 0 0.1730573255808272 0.02268781650565178 0 0.1836322738879155 0.027039065575756291 0 0.1636569447874848 0.036789081642687432 0 0.1620242678869008 0.02102957209859084 0 0.15032019737810451 0.03113296745297477 0 0.1730573255808272 0.02268781650565178 0 0.1620242678869008 0.02102957209859084 0 0.1716695151525548 0.011722155214289249 0 0.1620242678869008 0.02102957209859084 0 0.1716695151525548 0.011722155214289249 0 0.15871689523486121 0.010399441389301141 0 0.1716695151525548 0.011722155214289249 0 0.15871689523486121 0.010399441389301141 0 0.1628037813635097 0.0015330777282007481 0 0.15871689523486121 0.010399441389301141 0 0.1628037813635097 0.0015330777282007481 0 0.15453230216132671 0.0032055715019124438 0 0.1716695151525548 0.011722155214289249 0 0.1628037813635097 0.0015330777282007481 0 0.17506184651935949 -0.0021247232161890161 0 0.1620242678869008 0.02102957209859084 0 0.14216046477152491 0.0049125148476896544 0 0.15871689523486121 0.010399441389301141 0 0.14216046477152491 0.0049125148476896544 0 0.15453230216132671 0.0032055715019124438 0 0.14216046477152491 0.0049125148476896544 0 0.15453230216132671 0.0032055715019124438 0 0.15849764294065671 -0.0060544572746906826 0 0.1620242678869008 0.02102957209859084 0 0.15871689523486121 0.010399441389301141 0 0.14216046477152491 0.0049125148476896544 0 0.1620242678869008 0.02102957209859084 0 0.14216046477152491 0.0049125148476896544 0 0.1432298655490542 0.02239521632663263 0 0.1620242678869008 0.02102957209859084 0 0.1432298655490542 0.02239521632663263 0 0.15032019737810451 0.03113296745297477 0 0.1432298655490542 0.02239521632663263 0 0.15032019737810451 0.03113296745297477 0 0.1366405524080008 0.032741533152345258 0 0.1432298655490542 0.02239521632663263 0 0.12659142849079691 0.028091664155532971 0 0.1366405524080008 0.032741533152345258 0 0.14216046477152491 0.0049125148476896544 0 0.1432298655490542 0.02239521632663263 0 0.12659142849079691 0.028091664155532971 0 0.14216046477152491 0.0049125148476896544 0 0.12659142849079691 0.028091664155532971 0 0.1323442420055404 0.014884056975098 0 0.14216046477152491 0.0049125148476896544 0 0.12659142849079691 0.028091664155532971 0 0.11882011836095251 0.0065886106746579649 0 0.12659142849079691 0.028091664155532971 0 0.1323442420055404 0.014884056975098 0 0.12659142849079691 0.028091664155532971 0 0.1366405524080008 0.032741533152345258 0 0.11882011836095251 0.0065886106746579649 0 0.1323442420055404 0.014884056975098 0 0.13735218555535891 0.001011181807127467 0 0.1323442420055404 0.014884056975098 0 0.13735218555535891 0.001011181807127467 0 0.14216046477152491 0.0049125148476896544 0 0.1323442420055404 0.014884056975098 0 0.13735218555535891 0.001011181807127467 0 0.14216046477152491 0.0049125148476896544 0 0.13735218555535891 0.001011181807127467 0 0.15962551614652079 0.053115759904931073 0 0.1452456698728295 0.044396077507560729 0 0.15045482833334159 0.067212260357143019 0 0.1452456698728295 0.044396077507560729 0 0.12683439495817461 0.052003073372435288 0 0.15045482833334159 0.067212260357143019 0 0.1636569447874848 0.036789081642687432 0 0.15032019737810451 0.03113296745297477 0 0.1452456698728295 0.044396077507560729 0 0.1636569447874848 0.036789081642687432 0 0.15962551614652079 0.053115759904931073 0 0.1452456698728295 0.044396077507560729 0 0.1636569447874848 0.036789081642687432 0 0.1452456698728295 0.044396077507560729 0 0.15032019737810451 0.03113296745297477 0 0.1452456698728295 0.044396077507560729 0 0.1366405524080008 0.032741533152345258 0 0.1452456698728295 0.044396077507560729 0 0.13015300311198849 0.040381385354086502 0 0.12683439495817461 0.052003073372435288 0 0.1452456698728295 0.044396077507560729 0 0.1366405524080008 0.032741533152345258 0 0.13015300311198849 0.040381385354086502 0 0.12659142849079691 0.028091664155532971 0 0.1366405524080008 0.032741533152345258 0 0.13015300311198849 0.040381385354086502 0 0.12683439495817461 0.052003073372435288 0 0.13134854049252651 0.064566646620811727 0 0.15045482833334159 0.067212260357143019 0 0.1452456698728295 0.044396077507560729 0 0.12683439495817461 0.052003073372435288 0 0.12683439495817461 0.052003073372435288 0 0.15045482833334159 0.067212260357143019 0 0.1213053233293625 0.063977455960140386 0 0.12683439495817461 0.052003073372435288 0 0.13134854049252651 0.064566646620811727 0 0.13134854049252651 0.064566646620811727 0 0.12679961534922851 0.075073796793526271 0 0.15045482833334159 0.067212260357143019 0 0.1213053233293625 0.063977455960140386 0 0.13134854049252651 0.064566646620811727 0 0.12679961534922851 0.075073796793526271 0 0.12679961534922851 0.075073796793526271 0 0.15045482833334159 0.067212260357143019 0 0.1492815716532653 0.085445809678383625 0 0.1185648575779607 0.095458187827811403 0 0.12679961534922851 0.075073796793526271 0 0.13332649773741079 0.089989738391902788 0 0.1492815716532653 0.085445809678383625 0 0.13332649773741079 0.089989738391902788 0 0.13865994636918871 0.10398115926788989 0 0.12679961534922851 0.075073796793526271 0 0.1492815716532653 0.085445809678383625 0 0.12679961534922851 0.075073796793526271 0 0.1492815716532653 0.085445809678383625 0 0.13332649773741079 0.089989738391902788 0 0.123281054128593 0.11724462113534739 0 0.1185648575779607 0.095458187827811403 0 0.13865994636918871 0.10398115926788989 0 0.1185648575779607 0.095458187827811403 0 0.13332649773741079 0.089989738391902788 0 0.13865994636918871 0.10398115926788989 0 0.123281054128593 0.11724462113534739 0 0.13865994636918871 0.10398115926788989 0 0.13947052033133081 0.1245003570974072 0 0.13947052033133081 0.1245003570974072 0 0.15026369300765779 0.1129544164764977 0 0.16718880021878149 0.12232812864365609 0 0.13947052033133081 0.1245003570974072 0 0.16718880021878149 0.12232812864365609 0 0.13865994636918871 0.10398115926788989 0 0.13947052033133081 0.1245003570974072 0 0.15026369300765779 0.1129544164764977 0 0.1492815716532653 0.085445809678383625 0 0.13865994636918871 0.10398115926788989 0 0.15573550511132991 0.1010080208970377 0 0.13865994636918871 0.10398115926788989 0 0.15026369300765779 0.1129544164764977 0 0.15573550511132991 0.1010080208970377 0 0.15573550511132991 0.1010080208970377 0 0.17176352795730221 0.095817822563241214 0 0.16718880021878149 0.12232812864365609 0 0.17176352795730221 0.095817822563241214 0 0.16718880021878149 0.12232812864365609 0 0.1492815716532653 0.085445809678383625 0 0.15573550511132991 0.1010080208970377 0 0.17176352795730221 0.095817822563241214 0 0.15026369300765779 0.1129544164764977 0 0.15573550511132991 0.1010080208970377 0 0.16718880021878149 0.12232812864365609 0 0.16718880021878149 0.12232812864365609 0 0.18422746814952201 0.1154148446289336 0 0.17176352795730221 0.095817822563241214 0 0.16718880021878149 0.12232812864365609 0 0.18422746814952201 0.1154148446289336 0 0.19370351113240411 0.1202502215829211 0 0.16718880021878149 0.12232812864365609 0 0.19370351113240411 0.1202502215829211 0 0.16718880021878149 0.12232812864365609 0 0.18422746814952201 0.1154148446289336 0 0.17176352795730221 0.095817822563241214 0 0.18422746814952201 0.1154148446289336 0 0.1860496622757298 0.1024087067025775 0 0.17176352795730221 0.095817822563241214 0 0.1860496622757298 0.1024087067025775 0 0.17954517331912459 0.085943521096986275 0 0.17176352795730221 0.095817822563241214 0 0.1860496622757298 0.1024087067025775 0 0.2016134769563831 0.087296750559026068 0 0.17954517331912459 0.085943521096986275 0 0.17506687063626211 0.076675125879817507 0 0.17176352795730221 0.095817822563241214 0 0.17407526170850959 0.082421447341849294 0 0.17176352795730221 0.095817822563241214 0 0.17954517331912459 0.085943521096986275 0 0.17407526170850959 0.082421447341849294 0 0.17954517331912459 0.085943521096986275 0 0.17407526170850959 0.082421447341849294 0 0.17506687063626211 0.076675125879817507 0 0.17407526170850959 0.082421447341849294 0 0.17506687063626211 0.076675125879817507 0 0.17954517331912459 0.085943521096986275 0 0.17407526170850959 0.082421447341849294 0 0.17847747081927551 0.05691087761465332 0 0.17506687063626211 0.076675125879817507 0 0.19220101611619109 0.069455466931817506 0 0.17847747081927551 0.05691087761465332 0 0.17506687063626211 0.076675125879817507 0 0.17847747081927551 0.05691087761465332 0 0.17506687063626211 0.076675125879817507 0 0.16641746421004469 0.065589342706300277 0 0.17407526170850959 0.082421447341849294 0 0.17506687063626211 0.076675125879817507 0 0.16846263511482451 0.074032689774956653 0 0.15045482833334159 0.067212260357143019 0 0.16846263511482451 0.074032689774956653 0 0.16641746421004469 0.065589342706300277 0 0.17506687063626211 0.076675125879817507 0 0.16846263511482451 0.074032689774956653 0 0.16641746421004469 0.065589342706300277 0 0.15045482833334159 0.067212260357143019 0 0.17407526170850959 0.082421447341849294 0 0.16846263511482451 0.074032689774956653 0 0.17506687063626211 0.076675125879817507 0 0.16846263511482451 0.074032689774956653 0 0.15045482833334159 0.067212260357143019 0 0.17407526170850959 0.082421447341849294 0 0.1492815716532653 0.085445809678383625 0 0.17176352795730221 0.095817822563241214 0 0.1492815716532653 0.085445809678383625 0 0.17176352795730221 0.095817822563241214 0 0.17407526170850959 0.082421447341849294 0 0.15045482833334159 0.067212260357143019 0 0.1492815716532653 0.085445809678383625 0 0.17407526170850959 0.082421447341849294 0 0.094789198081262169 0.47221984895451657 0 0.09870107108427445 0.5 0 0.1248616532684987 0.47476888169724352 0 0.09870107108427445 0.5 0 0.1248616532684987 0.47476888169724352 0 0.1287333349596296 0.50000000000000233 0 0.1248616532684987 0.47476888169724352 0 0.1154926134483955 0.45328817880533262 0 0.094789198081262169 0.47221984895451657 0 0.1248616532684987 0.47476888169724352 0 0.1154926134483955 0.45328817880533262 0 0.1248616532684987 0.47476888169724352 0 0.1205619018159948 0.44674810255646558 0 0.1248616532684987 0.47476888169724352 0 0.1154926134483955 0.45328817880533262 0 0.1205619018159948 0.44674810255646558 0 0.1154926134483955 0.45328817880533262 0 0.106123573628292 0.43180747591342172 0 0.1154926134483955 0.45328817880533262 0 0.1205619018159948 0.44674810255646558 0 0.106123573628292 0.43180747591342172 0 0.1154926134483955 0.45328817880533262 0 0.096722182691352548 0.44869154901932268 0 0.106123573628292 0.43180747591342172 0 0.094789198081262169 0.47221984895451657 0 0.1154926134483955 0.45328817880533262 0 0.096722182691352548 0.44869154901932268 0 0.094789198081262169 0.47221984895451657 0 0.077453222292990773 0.45016302493177879 0 0.067202034968243438 0.47028323083424428 0 0.094789198081262169 0.47221984895451657 0 0.096722182691352548 0.44869154901932268 0 0.077453222292990773 0.45016302493177879 0 0.096722182691352548 0.44869154901932268 0 0.077453222292990773 0.45016302493177879 0 0.085233479690329184 0.42595657570789891 0 0.077453222292990773 0.45016302493177879 0 0.085233479690329184 0.42595657570789891 0 0.077453222292990773 0.45016302493177879 0 0.055846149836862702 0.43889490050586683 0 0.065639666334966471 0.42409002317344818 0 0.077453222292990773 0.45016302493177879 0 0.067202034968243438 0.47028323083424428 0 0.051776939420019832 0.45519588853091181 0 0.094789198081262169 0.47221984895451657 0 0.067202034968243438 0.47028323083424428 0 0.068668807208919325 0.5 0 0.094789198081262169 0.47221984895451657 0 0.09870107108427445 0.5 0 0.068668807208919325 0.5 0 0.068668807208919325 0.5 0 0.043814234576468783 0.4752156274217324 0 0.038636543333564137 0.5 0 0.067202034968243438 0.47028323083424428 0 0.068668807208919325 0.5 0 0.043814234576468783 0.4752156274217324 0 0.038636543333564137 0.5 0 0.0095498935665802413 0.47810272379952351 0 0.0086042794582089632 0.5 0 0.043814234576468783 0.4752156274217324 0 0.038636543333564137 0.5 0 0.0095498935665802413 0.47810272379952351 0 0.043814234576468783 0.4752156274217324 0 0.0095498935665802413 0.47810272379952351 0 0.02936257191825143 0.45548825099001988 0 -0.0044763741368290672 0.43313315307665529 0 0.006403582431216831 0.45126676372832991 0 0.01131617767293759 0.43066417693356068 0 0.006403582431216831 0.45126676372832991 0 0.024585063983693121 0.43937755350337049 0 0.01131617767293759 0.43066417693356068 0 -0.0062093312902834459 0.46527566221073008 0 0.0095498935665802413 0.47810272379952351 0 0.006403582431216831 0.45126676372832991 0 0.0095498935665802413 0.47810272379952351 0 0.006403582431216831 0.45126676372832991 0 0.02936257191825143 0.45548825099001988 0 0.02936257191825143 0.45548825099001988 0 0.024585063983693121 0.43937755350337049 0 0.039439570502417587 0.44016889882154447 0 0.006403582431216831 0.45126676372832991 0 0.02936257191825143 0.45548825099001988 0 0.024585063983693121 0.43937755350337049 0 0.02936257191825143 0.45548825099001988 0 0.039439570502417587 0.44016889882154447 0 0.051776939420019832 0.45519588853091181 0 0.043814234576468783 0.4752156274217324 0 0.02936257191825143 0.45548825099001988 0 0.051776939420019832 0.45519588853091181 0 0.067202034968243438 0.47028323083424428 0 0.043814234576468783 0.4752156274217324 0 0.051776939420019832 0.45519588853091181 0 0.039439570502417587 0.44016889882154447 0 0.051776939420019832 0.45519588853091181 0 0.055846149836862702 0.43889490050586683 0 0.077453222292990773 0.45016302493177879 0 0.051776939420019832 0.45519588853091181 0 0.055846149836862702 0.43889490050586683 0 0.055846149836862702 0.43889490050586683 0 0.044352211855280779 0.42435697566478181 0 0.065639666334966471 0.42409002317344818 0 0.054179592762823331 0.4124556941646933 0 0.065774511826563423 0.40583773171119408 0 0.065639666334966471 0.42409002317344818 0 0.054179592762823331 0.4124556941646933 0 0.044352211855280779 0.42435697566478181 0 0.042551786202842029 0.40583695196884878 0 0.054179592762823331 0.4124556941646933 0 0.044352211855280779 0.42435697566478181 0 0.065639666334966471 0.42409002317344818 0 0.054179592762823331 0.4124556941646933 0 0.052579787594463898 0.40215678830519391 0 0.065774511826563423 0.40583773171119408 0 0.054179592762823331 0.4124556941646933 0 0.042551786202842029 0.40583695196884878 0 0.052579787594463898 0.40215678830519391 0 0.031615607723292562 0.41237007764590089 0 0.044352211855280779 0.42435697566478181 0 0.042551786202842029 0.40583695196884878 0 0.031615607723292562 0.41237007764590089 0 0.044352211855280779 0.42435697566478181 0 0.029348552931666359 0.42650056435783129 0 0.039439570502417587 0.44016889882154447 0 0.055846149836862702 0.43889490050586683 0 0.044352211855280779 0.42435697566478181 0 0.039439570502417587 0.44016889882154447 0 0.044352211855280779 0.42435697566478181 0 0.029348552931666359 0.42650056435783129 0 0.024585063983693121 0.43937755350337049 0 0.039439570502417587 0.44016889882154447 0 0.029348552931666359 0.42650056435783129 0 0.024585063983693121 0.43937755350337049 0 0.029348552931666359 0.42650056435783129 0 0.01131617767293759 0.43066417693356068 0 0.029348552931666359 0.42650056435783129 0 0.019479081626689841 0.41692126840220728 0 0.01131617767293759 0.43066417693356068 0 0.031615607723292562 0.41237007764590089 0 0.029348552931666359 0.42650056435783129 0 0.019479081626689841 0.41692126840220728 0 0.031615607723292562 0.41237007764590089 0 0.019479081626689841 0.41692126840220728 0 0.02210553341445062 0.40298972327242938 0 0.019479081626689841 0.41692126840220728 0 0.0046995574085186929 0.41194005205042061 0 0.02210553341445062 0.40298972327242938 0 0.019479081626689841 0.41692126840220728 0 0.0046995574085186929 0.41194005205042061 0 0.01131617767293759 0.43066417693356068 0 -0.0044763741368290672 0.43313315307665529 0 0.0046995574085186929 0.41194005205042061 0 0.01131617767293759 0.43066417693356068 0 -0.0068648610501423502 0.39382000907293813 0 0.0053185270157129726 0.37689571945341471 0 0.0079727676898529512 0.39395805239723503 0 0.0053185270157129726 0.37689571945341471 0 0.0079727676898529512 0.39395805239723503 0 0.017055050774382831 0.3783760363496293 0 0.0053185270157129726 0.37689571945341471 0 0.017055050774382831 0.3783760363496293 0 0.014905446519761849 0.37011919055753012 0 -0.0068648610501423502 0.39382000907293813 0 0.0046995574085186929 0.41194005205042061 0 0.0079727676898529512 0.39395805239723503 0 0.0046995574085186929 0.41194005205042061 0 0.0079727676898529512 0.39395805239723503 0 0.02210553341445062 0.40298972327242938 0 0.0079727676898529512 0.39395805239723503 0 0.02210553341445062 0.40298972327242938 0 0.02735486101880703 0.39232044610694311 0 0.031615607723292562 0.41237007764590089 0 0.02210553341445062 0.40298972327242938 0 0.03492587150599015 0.39714318271575322 0 0.02210553341445062 0.40298972327242938 0 0.02735486101880703 0.39232044610694311 0 0.03492587150599015 0.39714318271575322 0 0.0079727676898529512 0.39395805239723503 0 0.02735486101880703 0.39232044610694311 0 0.033420514628485373 0.38302977191180709 0 0.017055050774382831 0.3783760363496293 0 0.033420514628485373 0.38302977191180709 0 0.023779055828078009 0.37097747554075361 0 0.0079727676898529512 0.39395805239723503 0 0.017055050774382831 0.3783760363496293 0 0.033420514628485373 0.38302977191180709 0 0.0079727676898529512 0.39395805239723503 0 0.033420514628485373 0.38302977191180709 0 0.02735486101880703 0.39232044610694311 0 0.032859848824407727 0.38560668074253002 0 0.033420514628485373 0.38302977191180709 0 0.02735486101880703 0.39232044610694311 0 0.032859848824407727 0.38560668074253002 0 0.032844630049655758 0.3911952656019041 0 0.033420514628485373 0.38302977191180709 0 0.040531910439000007 0.38820627445006711 0 0.055078026168592691 0.37372917012189599 0 0.033420514628485373 0.38302977191180709 0 0.055078026168592691 0.37372917012189599 0 0.032859848824407727 0.38560668074253002 0 0.033420514628485373 0.38302977191180709 0 0.032859848824407727 0.38560668074253002 0 0.040531910439000007 0.38820627445006711 0 0.032844630049655758 0.3911952656019041 0 0.032859848824407727 0.38560668074253002 0 0.033420514628485373 0.38302977191180709 0 0.040531910439000007 0.38820627445006711 0 0.031615607723292562 0.41237007764590089 0 0.03492587150599015 0.39714318271575322 0 0.042551786202842029 0.40583695196884878 0 0.040531910439000007 0.38820627445006711 0 0.03492587150599015 0.39714318271575322 0 0.032844630049655758 0.3911952656019041 0 0.02735486101880703 0.39232044610694311 0 0.03492587150599015 0.39714318271575322 0 0.032844630049655758 0.3911952656019041 0 0.040531910439000007 0.38820627445006711 0 0.03492587150599015 0.39714318271575322 0 0.044409534997012647 0.39663533348309749 0 0.040531910439000007 0.38820627445006711 0 0.044409534997012647 0.39663533348309749 0 0.05145831924276717 0.38983346997562462 0 0.044409534997012647 0.39663533348309749 0 0.042551786202842029 0.40583695196884878 0 0.052579787594463898 0.40215678830519391 0 0.03492587150599015 0.39714318271575322 0 0.044409534997012647 0.39663533348309749 0 0.042551786202842029 0.40583695196884878 0 0.052579787594463898 0.40215678830519391 0 0.065929237187869999 0.38841376689227869 0 0.065774511826563423 0.40583773171119408 0 0.044409534997012647 0.39663533348309749 0 0.052579787594463898 0.40215678830519391 0 0.05145831924276717 0.38983346997562462 0 0.052579787594463898 0.40215678830519391 0 0.05145831924276717 0.38983346997562462 0 0.065929237187869999 0.38841376689227869 0 0.05145831924276717 0.38983346997562462 0 0.065929237187869999 0.38841376689227869 0 0.055078026168592691 0.37372917012189599 0 0.040531910439000007 0.38820627445006711 0 0.05145831924276717 0.38983346997562462 0 0.055078026168592691 0.37372917012189599 0 0.065929237187869999 0.38841376689227869 0 0.07065435961583541 0.37741521318853999 0 0.055078026168592691 0.37372917012189599 0 0.065929237187869999 0.38841376689227869 0 0.07065435961583541 0.37741521318853999 0 0.084874637398179506 0.3830893474080016 0 0.065929237187869999 0.38841376689227869 0 0.084874637398179506 0.3830893474080016 0 0.078183007061163587 0.39730645121706609 0 0.084874637398179506 0.3830893474080016 0 0.09301373708766289 0.40175012648401748 0 0.1017514530376761 0.37456476915266362 0 0.084874637398179506 0.3830893474080016 0 0.1017514530376761 0.37456476915266362 0 0.089894590955766338 0.37016501712229671 0 0.084874637398179506 0.3830893474080016 0 0.09301373708766289 0.40175012648401748 0 0.084874637398179506 0.3830893474080016 0 0.09301373708766289 0.40175012648401748 0 0.078183007061163587 0.39730645121706609 0 0.09301373708766289 0.40175012648401748 0 0.078183007061163587 0.39730645121706609 0 0.0779125114683729 0.4107996813321716 0 0.065929237187869999 0.38841376689227869 0 0.078183007061163587 0.39730645121706609 0 0.065774511826563423 0.40583773171119408 0 0.078183007061163587 0.39730645121706609 0 0.065774511826563423 0.40583773171119408 0 0.0779125114683729 0.4107996813321716 0 0.065774511826563423 0.40583773171119408 0 0.0779125114683729 0.4107996813321716 0 0.065639666334966471 0.42409002317344818 0 0.0779125114683729 0.4107996813321716 0 0.065639666334966471 0.42409002317344818 0 0.085233479690329184 0.42595657570789891 0 0.077453222292990773 0.45016302493177879 0 0.065639666334966471 0.42409002317344818 0 0.085233479690329184 0.42595657570789891 0 0.09301373708766289 0.40175012648401748 0 0.085233479690329184 0.42595657570789891 0 0.09301373708766289 0.40175012648401748 0 0.0779125114683729 0.4107996813321716 0 0.085233479690329184 0.42595657570789891 0 0.09301373708766289 0.40175012648401748 0 0.085233479690329184 0.42595657570789891 0 0.096641093798834857 0.4103746730739769 0 0.096641093798834857 0.4103746730739769 0 0.106123573628292 0.43180747591342172 0 0.096641093798834857 0.4103746730739769 0 0.1162621503634904 0.41872732341568758 0 0.11303311796937431 0.39768424579749467 0 0.096641093798834857 0.4103746730739769 0 0.106123573628292 0.43180747591342172 0 0.1162621503634904 0.41872732341568758 0 0.096641093798834857 0.4103746730739769 0 0.1162621503634904 0.41872732341568758 0 0.085233479690329184 0.42595657570789891 0 0.096641093798834857 0.4103746730739769 0 0.106123573628292 0.43180747591342172 0 0.096722182691352548 0.44869154901932268 0 0.085233479690329184 0.42595657570789891 0 0.106123573628292 0.43180747591342172 0 0.1205619018159948 0.44674810255646558 0 0.1162621503634904 0.41872732341568758 0 0.1205619018159948 0.44674810255646558 0 0.106123573628292 0.43180747591342172 0 0.1162621503634904 0.41872732341568758 0 0.1162621503634904 0.41872732341568758 0 0.11303311796937431 0.39768424579749467 0 0.11303311796937431 0.39768424579749467 0 0.1231373165426977 0.3806134049577457 0 0.1271742827044339 0.39597619803598749 0 0.1162621503634904 0.41872732341568758 0 0.11303311796937431 0.39768424579749467 0 0.1271742827044339 0.39597619803598749 0 0.11303311796937431 0.39768424579749467 0 0.1098040855752573 0.37664116817930182 0 0.11303311796937431 0.39768424579749467 0 0.1098040855752573 0.37664116817930182 0 0.1231373165426977 0.3806134049577457 0 0.09301373708766289 0.40175012648401748 0 0.10162794664532369 0.38287681265592 0 0.1017514530376761 0.37456476915266362 0 0.11303311796937431 0.39768424579749467 0 0.1098040855752573 0.37664116817930182 0 0.10162794664532369 0.38287681265592 0 0.09301373708766289 0.40175012648401748 0 0.1017514530376761 0.37456476915266362 0 0.09301373708766289 0.40175012648401748 0 0.096641093798834857 0.4103746730739769 0 0.10162794664532369 0.38287681265592 0 0.096641093798834857 0.4103746730739769 0 0.10162794664532369 0.38287681265592 0 0.096641093798834857 0.4103746730739769 0 0.11303311796937431 0.39768424579749467 0 0.10162794664532369 0.38287681265592 0 0.09301373708766289 0.40175012648401748 0 0.096641093798834857 0.4103746730739769 0 0.10657505318114149 0.3555980905611088 0 0.1040837309638282 0.33936254988137232 0 0.10657505318114149 0.3555980905611088 0 0.096269577202366938 0.34885221845001108 0 0.090674694454237537 0.35844253683721511 0 0.10657505318114149 0.3555980905611088 0 0.1081370103155585 0.34698533999968961 0 0.1040837309638282 0.33936254988137232 0 0.10657505318114149 0.3555980905611088 0 0.096269577202366938 0.34885221845001108 0 0.1040837309638282 0.33936254988137232 0 0.10657505318114149 0.3555980905611088 0 0.1081370103155585 0.34698533999968961 0 0.1081370103155585 0.34698533999968961 0 0.1105857944332822 0.35159063999376577 0 0.10657505318114149 0.3555980905611088 0 0.1081370103155585 0.34698533999968961 0 0.1105857944332822 0.35159063999376577 0 0.10657505318114149 0.3555980905611088 0 0.097223947907205094 0.36469260341832099 0 0.090674694454237537 0.35844253683721511 0 0.1098040855752573 0.37664116817930182 0 0.10657505318114149 0.3555980905611088 0 0.1098040855752573 0.37664116817930182 0 0.10162794664532369 0.38287681265592 0 0.10657505318114149 0.3555980905611088 0 0.10657505318114149 0.3555980905611088 0 0.097223947907205094 0.36469260341832099 0 0.1017514530376761 0.37456476915266362 0 0.10162794664532369 0.38287681265592 0 0.10657505318114149 0.3555980905611088 0 0.10162794664532369 0.38287681265592 0 0.10657505318114149 0.3555980905611088 0 0.1017514530376761 0.37456476915266362 0 0.097223947907205094 0.36469260341832099 0 0.1017514530376761 0.37456476915266362 0 0.089894590955766338 0.37016501712229671 0 0.1231373165426977 0.3806134049577457 0 0.1176766025370503 0.36283148293627721 0 0.13271547193899449 0.36524458735671972 0 0.1098040855752573 0.37664116817930182 0 0.10657505318114149 0.3555980905611088 0 0.1176766025370503 0.36283148293627721 0 0.1098040855752573 0.37664116817930182 0 0.1231373165426977 0.3806134049577457 0 0.1176766025370503 0.36283148293627721 0 0.1176766025370503 0.36283148293627721 0 0.1232256624926347 0.35239419723674059 0 0.13271547193899449 0.36524458735671972 0 0.10657505318114149 0.3555980905611088 0 0.1176766025370503 0.36283148293627721 0 0.1105857944332822 0.35159063999376577 0 0.1176766025370503 0.36283148293627721 0 0.1232256624926347 0.35239419723674059 0 0.1105857944332822 0.35159063999376577 0 0.1081370103155585 0.34698533999968961 0 0.1105857944332822 0.35159063999376577 0 0.1168368962248217 0.34531303274388031 0 0.1232256624926347 0.35239419723674059 0 0.1105857944332822 0.35159063999376577 0 0.1168368962248217 0.34531303274388031 0 0.1232256624926347 0.35239419723674059 0 0.1168368962248217 0.34531303274388031 0 0.1260676383484185 0.3399282146226113 0 0.1081370103155585 0.34698533999968961 0 0.1173014636805894 0.33730338313169689 0 0.1117137236550247 0.32726307032677399 0 0.1081370103155585 0.34698533999968961 0 0.1117137236550247 0.32726307032677399 0 0.1168368962248217 0.34531303274388031 0 0.1173014636805894 0.33730338313169689 0 0.1260676383484185 0.3399282146226113 0 0.1173014636805894 0.33730338313169689 0 0.12375204985912221 0.32702725796552912 0 0.1260676383484185 0.3399282146226113 0 0.1173014636805894 0.33730338313169689 0 0.12375204985912221 0.32702725796552912 0 0.1117137236550247 0.32726307032677399 0 0.1081370103155585 0.34698533999968961 0 0.1168368962248217 0.34531303274388031 0 0.1173014636805894 0.33730338313169689 0 0.1117137236550247 0.32726307032677399 0 0.11529043699448981 0.30754080065385803 0 0.1117137236550247 0.32726307032677399 0 0.1095765413243488 0.31862098055757049 0 0.11529043699448981 0.30754080065385803 0 0.1214195525311879 0.31440901896845502 0 0.1117137236550247 0.32726307032677399 0 0.11529043699448981 0.30754080065385803 0 0.1214195525311879 0.31440901896845502 0 0.12375204985912221 0.32702725796552912 0 0.12817088130983889 0.317450689473041 0 0.1214195525311879 0.31440901896845502 0 0.12375204985912221 0.32702725796552912 0 0.1117137236550247 0.32726307032677399 0 0.1040837309638282 0.33936254988137232 0 0.090103400857782137 0.31307047550514489 0 0.1040837309638282 0.33936254988137232 0 0.1025673515982234 0.32948055280164651 0 0.090103400857782137 0.31307047550514489 0 0.10278173829001019 0.3206216626476312 0 0.1025673515982234 0.32948055280164651 0 0.090103400857782137 0.31307047550514489 0 0.1095765413243488 0.31862098055757049 0 0.10278173829001019 0.3206216626476312 0 0.099947674014671917 0.31467323404701991 0 0.1095765413243488 0.31862098055757049 0 0.099947674014671917 0.31467323404701991 0 0.09732687347400408 0.30507295899279041 0 0.1117137236550247 0.32726307032677399 0 0.1095765413243488 0.31862098055757049 0 0.10278173829001019 0.3206216626476312 0 0.1117137236550247 0.32726307032677399 0 0.10278173829001019 0.3206216626476312 0 0.1025673515982234 0.32948055280164651 0 0.10278173829001019 0.3206216626476312 0 0.099947674014671917 0.31467323404701991 0 0.090103400857782137 0.31307047550514489 0 0.096269577202366938 0.34885221845001108 0 0.1040837309638282 0.33936254988137232 0 0.085896102217652828 0.34083244099607402 0 0.1081370103155585 0.34698533999968961 0 0.1117137236550247 0.32726307032677399 0 0.1040837309638282 0.33936254988137232 0 0.1081370103155585 0.34698533999968961 0 0.1040837309638282 0.33936254988137232 0 0.1117137236550247 0.32726307032677399 0 0.1040837309638282 0.33936254988137232 0 0.1025673515982234 0.32948055280164651 0 0.1040837309638282 0.33936254988137232 0 0.1025673515982234 0.32948055280164651 0 0.1040837309638282 0.33936254988137232 0 0.085896102217652828 0.34083244099607402 0 0.090103400857782137 0.31307047550514489 0 0.085896102217652828 0.34083244099607402 0 0.090103400857782137 0.31307047550514489 0 0.073944851781294785 0.32640562720437011 0 0.073944851781294785 0.32640562720437011 0 0.05926959110604698 0.32438382341666039 0 0.066452600317618793 0.30933520022964911 0 0.090103400857782137 0.31307047550514489 0 0.073944851781294785 0.32640562720437011 0 0.066452600317618793 0.30933520022964911 0 0.068002564407373206 0.3444061958743222 0 0.05926959110604698 0.32438382341666039 0 0.085896102217652828 0.34083244099607402 0 0.073944851781294785 0.32640562720437011 0 0.068002564407373206 0.3444061958743222 0 0.073944851781294785 0.32640562720437011 0 0.068002564407373206 0.3444061958743222 0 0.05926959110604698 0.32438382341666039 0 0.068002564407373206 0.3444061958743222 0 0.081709153938225559 0.35166937446406898 0 0.076735537708699481 0.364428568331984 0 0.068002564407373206 0.3444061958743222 0 0.076735537708699481 0.364428568331984 0 0.068002564407373206 0.3444061958743222 0 0.076735537708699481 0.364428568331984 0 0.058880509289504487 0.35752542115937253 0 0.085896102217652828 0.34083244099607402 0 0.068002564407373206 0.3444061958743222 0 0.081709153938225559 0.35166937446406898 0 0.081709153938225559 0.35166937446406898 0 0.090674694454237537 0.35844253683721511 0 0.076735537708699481 0.364428568331984 0 0.096269577202366938 0.34885221845001108 0 0.081709153938225559 0.35166937446406898 0 0.090674694454237537 0.35844253683721511 0 0.096269577202366938 0.34885221845001108 0 0.085896102217652828 0.34083244099607402 0 0.081709153938225559 0.35166937446406898 0 0.084874637398179506 0.3830893474080016 0 0.089894590955766338 0.37016501712229671 0 0.076735537708699481 0.364428568331984 0 0.084874637398179506 0.3830893474080016 0 0.076735537708699481 0.364428568331984 0 0.097223947907205094 0.36469260341832099 0 0.090674694454237537 0.35844253683721511 0 0.089894590955766338 0.37016501712229671 0 0.090674694454237537 0.35844253683721511 0 0.089894590955766338 0.37016501712229671 0 0.076735537708699481 0.364428568331984 0 0.090674694454237537 0.35844253683721511 0 0.076735537708699481 0.364428568331984 0 0.076735537708699481 0.364428568331984 0 0.055078026168592691 0.37372917012189599 0 0.058880509289504487 0.35752542115937253 0 0.07065435961583541 0.37741521318853999 0 0.084874637398179506 0.3830893474080016 0 0.076735537708699481 0.364428568331984 0 0.07065435961583541 0.37741521318853999 0 0.076735537708699481 0.364428568331984 0 0.055078026168592691 0.37372917012189599 0 0.076735537708699481 0.364428568331984 0 0.055078026168592691 0.37372917012189599 0 0.055078026168592691 0.37372917012189599 0 0.058880509289504487 0.35752542115937253 0 0.039125882353897343 0.35680699826087081 0 0.068002564407373206 0.3444061958743222 0 0.058880509289504487 0.35752542115937253 0 0.05148455776782021 0.34576385860545072 0 0.058880509289504487 0.35752542115937253 0 0.05148455776782021 0.34576385860545072 0 0.039125882353897343 0.35680699826087081 0 0.039125882353897343 0.35680699826087081 0 0.031548662582759998 0.36398682567210089 0 0.025752053585936779 0.33511492304397028 0 0.05148455776782021 0.34576385860545072 0 0.039125882353897343 0.35680699826087081 0 0.044831250079309708 0.3305842246099347 0 0.033420514628485373 0.38302977191180709 0 0.039125882353897343 0.35680699826087081 0 0.031548662582759998 0.36398682567210089 0 0.033420514628485373 0.38302977191180709 0 0.055078026168592691 0.37372917012189599 0 0.039125882353897343 0.35680699826087081 0 0.033420514628485373 0.38302977191180709 0 0.039125882353897343 0.35680699826087081 0 0.033420514628485373 0.38302977191180709 0 0.031548662582759998 0.36398682567210089 0 0.023779055828078009 0.37097747554075361 0 0.017055050774382831 0.3783760363496293 0 0.023779055828078009 0.37097747554075361 0 0.014905446519761849 0.37011919055753012 0 0.023779055828078009 0.37097747554075361 0 0.019349684376360511 0.36318206543595072 0 0.014905446519761849 0.37011919055753012 0 0.031548662582759998 0.36398682567210089 0 0.019349684376360511 0.36318206543595072 0 0.019690074755218789 0.35178644121934483 0 0.031548662582759998 0.36398682567210089 0 0.023779055828078009 0.37097747554075361 0 0.019349684376360511 0.36318206543595072 0 0.031548662582759998 0.36398682567210089 0 0.025752053585936779 0.33511492304397028 0 0.031548662582759998 0.36398682567210089 0 0.019690074755218789 0.35178644121934483 0 0.025752053585936779 0.33511492304397028 0 0.019349684376360511 0.36318206543595072 0 0.019690074755218789 0.35178644121934483 0 0.0119730942360182 0.35563939605115702 0 0.0119730942360182 0.35563939605115702 0 0.0038095970876644218 0.35606187191015221 0 0.0077169544749549623 0.36306791211952738 0 -0.0077202170519437719 0.34710906184019069 0 0.0082446038140756572 0.34376242611402219 0 0.0038095970876644218 0.35606187191015221 0 0.0119730942360182 0.35563939605115702 0 0.0082446038140756572 0.34376242611402219 0 0.0038095970876644218 0.35606187191015221 0 0.019690074755218789 0.35178644121934483 0 0.0119730942360182 0.35563939605115702 0 0.0082446038140756572 0.34376242611402219 0 -0.0045677851665312944 0.36532665559408428 0 0.0038095970876644218 0.35606187191015221 0 0.0077169544749549623 0.36306791211952738 0 -0.0087141207398781558 0.37710904293520409 0 0.0053185270157129726 0.37689571945341471 0 0.0077169544749549623 0.36306791211952738 0 0.0053185270157129726 0.37689571945341471 0 0.0077169544749549623 0.36306791211952738 0 0.014905446519761849 0.37011919055753012 0 0.019349684376360511 0.36318206543595072 0 0.0077169544749549623 0.36306791211952738 0 0.014905446519761849 0.37011919055753012 0 0.019349684376360511 0.36318206543595072 0 0.0119730942360182 0.35563939605115702 0 0.0077169544749549623 0.36306791211952738 0 -0.009249588209606344 0.30814111102660002 0 0.0094307060340404689 0.32376070079746733 0 0.01995544458911469 0.30624302041583928 0 -0.005758602284471958 0.33512988219008361 0 0.0082446038140756572 0.34376242611402219 0 0.0094307060340404689 0.32376070079746733 0 0.0082446038140756572 0.34376242611402219 0 0.0094307060340404689 0.32376070079746733 0 0.025752053585936779 0.33511492304397028 0 0.019690074755218789 0.35178644121934483 0 0.0082446038140756572 0.34376242611402219 0 0.025752053585936779 0.33511492304397028 0 0.025752053585936779 0.33511492304397028 0 0.01995544458911469 0.30624302041583928 0 0.025752053585936779 0.33511492304397028 0 0.034898059553693392 0.31581284699138767 0 0.01995544458911469 0.30624302041583928 0 0.0094307060340404689 0.32376070079746733 0 0.025752053585936779 0.33511492304397028 0 0.01995544458911469 0.30624302041583928 0 0.034898059553693392 0.31581284699138767 0 0.044831250079309708 0.3305842246099347 0 0.05053661780472133 0.30436145095899841 0 0.025752053585936779 0.33511492304397028 0 0.034898059553693392 0.31581284699138767 0 0.044831250079309708 0.3305842246099347 0 0.039125882353897343 0.35680699826087081 0 0.025752053585936779 0.33511492304397028 0 0.044831250079309708 0.3305842246099347 0 0.039125882353897343 0.35680699826087081 0 0.044831250079309708 0.3305842246099347 0 0.068002564407373206 0.3444061958743222 0 0.05148455776782021 0.34576385860545072 0 0.05926959110604698 0.32438382341666039 0 0.05148455776782021 0.34576385860545072 0 0.044831250079309708 0.3305842246099347 0 0.05926959110604698 0.32438382341666039 0 0.044831250079309708 0.3305842246099347 0 0.05053661780472133 0.30436145095899841 0 0.044831250079309708 0.3305842246099347 0 0.05926959110604698 0.32438382341666039 0 0.05053661780472133 0.30436145095899841 0 0.05926959110604698 0.32438382341666039 0 0.05053661780472133 0.30436145095899841 0 0.05926959110604698 0.32438382341666039 0 0.05053661780472133 0.30436145095899841 0 0.066452600317618793 0.30933520022964911 0 0.059204269303370749 0.30137448027593422 0 0.05053661780472133 0.30436145095899841 0 0.066452600317618793 0.30933520022964911 0 0.04765756321016474 0.29776054867416191 0 0.05053661780472133 0.30436145095899841 0 0.052561166870736087 0.29505630281458828 0 0.059204269303370749 0.30137448027593422 0 0.05053661780472133 0.30436145095899841 0 0.052561166870736087 0.29505630281458828 0 0.05053661780472133 0.30436145095899841 0 0.052561166870736087 0.29505630281458828 0 0.04765756321016474 0.29776054867416191 0 0.05053661780472133 0.30436145095899841 0 0.052561166870736087 0.29505630281458828 0 0.036977033779240318 0.28312664447104818 0 0.062988366650143207 0.29302398426469728 0 0.036977033779240318 0.28312664447104818 0 0.048149862160842181 0.27985089866820428 0 0.062988366650143207 0.29302398426469728 0 0.036977033779240318 0.28312664447104818 0 0.062988366650143207 0.29302398426469728 0 0.048149862160842181 0.27985089866820428 0 0.054778979573680928 0.27715841955607551 0 0.062988366650143207 0.29302398426469728 0 0.059204269303370749 0.30137448027593422 0 0.052561166870736087 0.29505630281458828 0 0.062988366650143207 0.29302398426469728 0 0.04765756321016474 0.29776054867416191 0 0.036186098738389023 0.29603891009636157 0 0.036977033779240318 0.28312664447104818 0 0.04765756321016474 0.29776054867416191 0 0.052561166870736087 0.29505630281458828 0 0.036977033779240318 0.28312664447104818 0 0.036186098738389023 0.29603891009636157 0 0.036977033779240318 0.28312664447104818 0 0.027757552790527541 0.29644954410470781 0 0.034898059553693392 0.31581284699138767 0 0.05053661780472133 0.30436145095899841 0 0.039754971674175903 0.30430037111620312 0 0.04765756321016474 0.29776054867416191 0 0.05053661780472133 0.30436145095899841 0 0.039754971674175903 0.30430037111620312 0 0.04765756321016474 0.29776054867416191 0 0.036186098738389023 0.29603891009636157 0 0.039754971674175903 0.30430037111620312 0 0.036186098738389023 0.29603891009636157 0 0.039754971674175903 0.30430037111620312 0 0.028740536311392211 0.30567206060121932 0 0.034898059553693392 0.31581284699138767 0 0.039754971674175903 0.30430037111620312 0 0.028740536311392211 0.30567206060121932 0 0.034898059553693392 0.31581284699138767 0 0.028740536311392211 0.30567206060121932 0 0.01995544458911469 0.30624302041583928 0 0.028740536311392211 0.30567206060121932 0 0.01995544458911469 0.30624302041583928 0 0.01995544458911469 0.30624302041583928 0 0.027757552790527541 0.29644954410470781 0 0.016928650534501429 0.29116708493907051 0 0.01995544458911469 0.30624302041583928 0 0.016928650534501429 0.29116708493907051 0 0.036186098738389023 0.29603891009636157 0 0.028740536311392211 0.30567206060121932 0 0.027757552790527541 0.29644954410470781 0 0.028740536311392211 0.30567206060121932 0 0.01995544458911469 0.30624302041583928 0 0.027757552790527541 0.29644954410470781 0 0.036977033779240318 0.28312664447104818 0 0.016928650534501429 0.29116708493907051 0 0.013901856479889301 0.2760911494623014 0 0.036977033779240318 0.28312664447104818 0 0.027757552790527541 0.29644954410470781 0 0.016928650534501429 0.29116708493907051 0 0.016928650534501429 0.29116708493907051 0 0.0075090435902615098 0.27971283806045072 0 0.013901856479889301 0.2760911494623014 0 0.016928650534501429 0.29116708493907051 0 0.013901856479889301 0.2760911494623014 0 0.016928650534501429 0.29116708493907051 0 0.002380999114604244 0.28599596302517022 0 0.0075090435902615098 0.27971283806045072 0 0.016928650534501429 0.29116708493907051 0 0.002380999114604244 0.28599596302517022 0 0.0038021096493471361 0.29689124930627131 0 0.01995544458911469 0.30624302041583928 0 0.016928650534501429 0.29116708493907051 0 0.0038021096493471361 0.29689124930627131 0 -0.009249588209606344 0.30814111102660002 0 0.01995544458911469 0.30624302041583928 0 -0.009249588209606344 0.30814111102660002 0 0.01995544458911469 0.30624302041583928 0 0.0038021096493471361 0.29689124930627131 0 0.012944211518790589 0.24639919126045251 0 0.001894876929373096 0.24743045501984201 0 0.027350481215018482 0.26092432701142793 0 0.001894876929373096 0.24743045501984201 0 0.01235577794179212 0.26160751525750708 0 0.027350481215018482 0.26092432701142793 0 0.001894876929373096 0.24743045501984201 0 0.027350481215018482 0.26092432701142793 0 0.01235577794179212 0.26160751525750708 0 0.0066431973405819862 0.26423936680728111 0 0.01332705073189009 0.26743114199411 0 0.001894876929373096 0.24743045501984201 0 0.01235577794179212 0.26160751525750708 0 0.0027594708259384838 0.25829047161104352 0 0.01235577794179212 0.26160751525750708 0 0.0027594708259384838 0.25829047161104352 0 0.0066431973405819862 0.26423936680728111 0 -0.00067809962666212902 0.26216505597133072 0 0.0027594708259384838 0.25829047161104352 0 0.0066431973405819862 0.26423936680728111 0 -0.00067809962666212902 0.26216505597133072 0 0.0066431973405819862 0.26423936680728111 0 0.010965700908337589 0.27322930467739909 0 -0.001267499687089951 0.2776013217203892 0 0.0075090435902615098 0.27971283806045072 0 0.010965700908337589 0.27322930467739909 0 -0.001267499687089951 0.2776013217203892 0 0.002380999114604244 0.28599596302517022 0 0.0075090435902615098 0.27971283806045072 0 0.0075090435902615098 0.27971283806045072 0 0.013901856479889301 0.2760911494623014 0 0.010965700908337589 0.27322930467739909 0 0.010965700908337589 0.27322930467739909 0 0.01332705073189009 0.26743114199411 0 0.022419763759722669 0.26962443384228668 0 0.0066431973405819862 0.26423936680728111 0 0.010965700908337589 0.27322930467739909 0 0.01332705073189009 0.26743114199411 0 0.036977033779240318 0.28312664447104818 0 0.010965700908337589 0.27322930467739909 0 0.022419763759722669 0.26962443384228668 0 0.01235577794179212 0.26160751525750708 0 0.01332705073189009 0.26743114199411 0 0.022419763759722669 0.26962443384228668 0 0.036977033779240318 0.28312664447104818 0 0.013901856479889301 0.2760911494623014 0 0.010965700908337589 0.27322930467739909 0 0.036977033779240318 0.28312664447104818 0 0.010965700908337589 0.27322930467739909 0 0.036977033779240318 0.28312664447104818 0 0.022419763759722669 0.26962443384228668 0 0.032397819765571212 0.27218151163944088 0 0.022419763759722669 0.26962443384228668 0 0.027350481215018482 0.26092432701142793 0 0.032397819765571212 0.27218151163944088 0 0.018629400856135309 0.24429501886194191 0 0.012944211518790589 0.24639919126045251 0 0.027350481215018482 0.26092432701142793 0 0.018629400856135309 0.24429501886194191 0 0.027350481215018482 0.26092432701142793 0 0.02692674034290404 0.25134916217479408 0 0.01235577794179212 0.26160751525750708 0 0.022419763759722669 0.26962443384228668 0 0.027350481215018482 0.26092432701142793 0 0.027350481215018482 0.26092432701142793 0 0.02692674034290404 0.25134916217479408 0 0.036501911092354018 0.25177276941539839 0 0.027350481215018482 0.26092432701142793 0 0.036501911092354018 0.25177276941539839 0 0.052806085500663583 0.27441819900301412 0 0.036501911092354018 0.25177276941539839 0 0.052806085500663583 0.27441819900301412 0 0.027350481215018482 0.26092432701142793 0 0.039536256484267153 0.27410031615862712 0 0.052806085500663583 0.27441819900301412 0 0.027350481215018482 0.26092432701142793 0 0.052806085500663583 0.27441819900301412 0 0.036977033779240318 0.28312664447104818 0 0.032397819765571212 0.27218151163944088 0 0.039536256484267153 0.27410031615862712 0 0.027350481215018482 0.26092432701142793 0 0.032397819765571212 0.27218151163944088 0 0.039536256484267153 0.27410031615862712 0 0.039536256484267153 0.27410031615862712 0 0.048149862160842181 0.27985089866820428 0 0.052806085500663583 0.27441819900301412 0 0.036977033779240318 0.28312664447104818 0 0.039536256484267153 0.27410031615862712 0 0.048149862160842181 0.27985089866820428 0 0.052806085500663583 0.27441819900301412 0 0.051790667069154861 0.2547103276228454 0 0.069466372585565969 0.27425949764399721 0 0.052806085500663583 0.27441819900301412 0 0.054778979573680928 0.27715841955607551 0 0.076123070751733898 0.28677840112891878 0 0.048149862160842181 0.27985089866820428 0 0.052806085500663583 0.27441819900301412 0 0.054778979573680928 0.27715841955607551 0 0.052806085500663583 0.27441819900301412 0 0.054778979573680928 0.27715841955607551 0 0.051790667069154861 0.2547103276228454 0 0.069466372585565969 0.27425949764399721 0 0.036501911092354018 0.25177276941539839 0 0.052806085500663583 0.27441819900301412 0 0.051790667069154861 0.2547103276228454 0 0.051790667069154861 0.2547103276228454 0 0.062472563593505302 0.26110660749064829 0 0.069466372585565969 0.27425949764399721 0 0.051790667069154861 0.2547103276228454 0 0.062472563593505302 0.26110660749064829 0 0.063392491700480919 0.2510828642249095 0 0.07090317009537217 0.25886987532900169 0 0.089645379702363526 0.25980927980688501 0 0.066829182329119829 0.26693814307945207 0 0.063392491700480919 0.2510828642249095 0 0.07090317009537217 0.25886987532900169 0 0.074261774750864804 0.25289133929391111 0 0.062472563593505302 0.26110660749064829 0 0.063392491700480919 0.2510828642249095 0 0.07090317009537217 0.25886987532900169 0 0.062472563593505302 0.26110660749064829 0 0.07090317009537217 0.25886987532900169 0 0.066829182329119829 0.26693814307945207 0 0.07090317009537217 0.25886987532900169 0 0.074261774750864804 0.25289133929391111 0 0.089645379702363526 0.25980927980688501 0 0.072073934872957782 0.23900016577853919 0 0.074261774750864804 0.25289133929391111 0 0.089645379702363526 0.25980927980688501 0 0.089645379702363526 0.25980927980688501 0 0.066829182329119829 0.26693814307945207 0 0.089645379702363526 0.25980927980688501 0 0.084738505220855201 0.27427167124983992 0 0.066829182329119829 0.26693814307945207 0 0.084738505220855201 0.27427167124983992 0 0.069466372585565969 0.27425949764399721 0 0.085077205623658711 0.29152493742801078 0 0.084738505220855201 0.27427167124983992 0 0.095910340366493346 0.28464594086445177 0 0.099818528257267281 0.27185690653089678 0 0.089645379702363526 0.25980927980688501 0 0.084738505220855201 0.27427167124983992 0 0.099818528257267281 0.27185690653089678 0 0.084738505220855201 0.27427167124983992 0 0.066829182329119829 0.26693814307945207 0 0.069466372585565969 0.27425949764399721 0 0.052806085500663583 0.27441819900301412 0 0.069466372585565969 0.27425949764399721 0 0.076123070751733898 0.28677840112891878 0 0.052806085500663583 0.27441819900301412 0 0.076123070751733898 0.28677840112891878 0 0.069466372585565969 0.27425949764399721 0 0.076123070751733898 0.28677840112891878 0 0.062472563593505302 0.26110660749064829 0 0.069466372585565969 0.27425949764399721 0 0.062472563593505302 0.26110660749064829 0 0.066829182329119829 0.26693814307945207 0 0.069466372585565969 0.27425949764399721 0 0.069466372585565969 0.27425949764399721 0 0.085077205623658711 0.29152493742801078 0 0.069466372585565969 0.27425949764399721 0 0.076123070751733898 0.28677840112891878 0 0.085077205623658711 0.29152493742801078 0 0.062988366650143207 0.29302398426469728 0 0.076123070751733898 0.28677840112891878 0 0.066452600317618793 0.30933520022964911 0 0.054778979573680928 0.27715841955607551 0 0.062988366650143207 0.29302398426469728 0 0.076123070751733898 0.28677840112891878 0 0.090103400857782137 0.31307047550514489 0 0.076123070751733898 0.28677840112891878 0 0.066452600317618793 0.30933520022964911 0 0.059204269303370749 0.30137448027593422 0 0.062988366650143207 0.29302398426469728 0 0.066452600317618793 0.30933520022964911 0 0.090103400857782137 0.31307047550514489 0 0.076123070751733898 0.28677840112891878 0 0.085077205623658711 0.29152493742801078 0 0.090103400857782137 0.31307047550514489 0 0.076123070751733898 0.28677840112891878 0 0.090103400857782137 0.31307047550514489 0 0.085077205623658711 0.29152493742801078 0 0.09732687347400408 0.30507295899279041 0 0.085077205623658711 0.29152493742801078 0 0.09732687347400408 0.30507295899279041 0 0.084738505220855201 0.27427167124983992 0 0.085077205623658711 0.29152493742801078 0 0.095910340366493346 0.28464594086445177 0 0.076123070751733898 0.28677840112891878 0 0.085077205623658711 0.29152493742801078 0 0.085077205623658711 0.29152493742801078 0 0.095910340366493346 0.28464594086445177 0 0.10018382130907411 0.29953286904093468 0 0.085077205623658711 0.29152493742801078 0 0.10018382130907411 0.29953286904093468 0 0.095910340366493346 0.28464594086445177 0 0.10809736708577181 0.28553666446189058 0 0.10018382130907411 0.29953286904093468 0 0.10809736708577181 0.28553666446189058 0 0.10018382130907411 0.29953286904093468 0 0.10959494141679089 0.29761357018739809 0 0.099947674014671917 0.31467323404701991 0 0.090103400857782137 0.31307047550514489 0 0.09732687347400408 0.30507295899279041 0 0.085077205623658711 0.29152493742801078 0 0.09732687347400408 0.30507295899279041 0 0.10018382130907411 0.29953286904093468 0 0.09732687347400408 0.30507295899279041 0 0.10018382130907411 0.29953286904093468 0 0.1055944182754792 0.3076919023112884 0 0.10018382130907411 0.29953286904093468 0 0.11529043699448981 0.30754080065385803 0 0.10959494141679089 0.29761357018739809 0 0.10018382130907411 0.29953286904093468 0 0.11529043699448981 0.30754080065385803 0 0.1095765413243488 0.31862098055757049 0 0.09732687347400408 0.30507295899279041 0 0.1055944182754792 0.3076919023112884 0 0.10018382130907411 0.29953286904093468 0 0.1055944182754792 0.3076919023112884 0 0.11529043699448981 0.30754080065385803 0 0.1095765413243488 0.31862098055757049 0 0.09732687347400408 0.30507295899279041 0 0.1095765413243488 0.31862098055757049 0 0.1055944182754792 0.3076919023112884 0 0.11529043699448981 0.30754080065385803 0 0.11529043699448981 0.30754080065385803 0 0.11637637905870279 0.30155283343175482 0 0.11810871752106521 0.30621928700195911 0 0.11529043699448981 0.30754080065385803 0 0.10959494141679089 0.29761357018739809 0 0.11637637905870279 0.30155283343175482 0 0.10959494141679089 0.29761357018739809 0 0.11637637905870279 0.30155283343175482 0 0.1164892219926046 0.29243334627748818 0 0.11529043699448981 0.30754080065385803 0 0.11637637905870279 0.30155283343175482 0 0.11637637905870279 0.30155283343175482 0 0.1222906650571363 0.2985709440566281 0 0.1164892219926046 0.29243334627748818 0 0.1222906650571363 0.2985709440566281 0 0.1206025954822835 0.30378795350269022 0 0.1243783730770044 0.30485679470236721 0 0.11637637905870279 0.30155283343175482 0 0.1222906650571363 0.2985709440566281 0 0.1206025954822835 0.30378795350269022 0 0.11637637905870279 0.30155283343175482 0 0.1206025954822835 0.30378795350269022 0 0.11810871752106521 0.30621928700195911 0 0.1206025954822835 0.30378795350269022 0 0.11810871752106521 0.30621928700195911 0 0.1213521300308707 0.30775440284793348 0 0.11529043699448981 0.30754080065385803 0 0.11810871752106521 0.30621928700195911 0 0.11930841490252821 0.30912172642276631 0 0.11810871752106521 0.30621928700195911 0 0.1213521300308707 0.30775440284793348 0 0.11930841490252821 0.30912172642276631 0 0.1243783730770044 0.30485679470236721 0 0.1213521300308707 0.30775440284793348 0 0.1244342991148414 0.30898461385241399 0 0.1206025954822835 0.30378795350269022 0 0.1243783730770044 0.30485679470236721 0 0.1213521300308707 0.30775440284793348 0 0.1214195525311879 0.31440901896845502 0 0.1244342991148414 0.30898461385241399 0 0.12900107104525951 0.30968741412501871 0 0.1214195525311879 0.31440901896845502 0 0.1213521300308707 0.30775440284793348 0 0.1244342991148414 0.30898461385241399 0 0.1214195525311879 0.31440901896845502 0 0.11529043699448981 0.30754080065385803 0 0.11930841490252821 0.30912172642276631 0 0.1214195525311879 0.31440901896845502 0 0.1213521300308707 0.30775440284793348 0 0.11930841490252821 0.30912172642276631 0 0.10809736708577181 0.28553666446189058 0 0.1164892219926046 0.29243334627748818 0 0.1210835213650209 0.28058702695229848 0 0.10809736708577181 0.28553666446189058 0 0.10959494141679089 0.29761357018739809 0 0.1164892219926046 0.29243334627748818 0 0.1222906650571363 0.2985709440566281 0 0.1164892219926046 0.29243334627748818 0 0.12596292383497329 0.28976449579057961 0 0.1164892219926046 0.29243334627748818 0 0.1210835213650209 0.28058702695229848 0 0.12596292383497329 0.28976449579057961 0 0.10809736708577181 0.28553666446189058 0 0.1210835213650209 0.28058702695229848 0 0.1147979612748997 0.2707881575742877 0 0.1210835213650209 0.28058702695229848 0 0.1147979612748997 0.2707881575742877 0 0.12791172371537049 0.26609555254785411 0 0.1147979612748997 0.2707881575742877 0 0.116065923487036 0.25155424759680489 0 0.099818528257267281 0.27185690653089678 0 0.1147979612748997 0.2707881575742877 0 0.116065923487036 0.25155424759680489 0 0.12791172371537049 0.26609555254785411 0 0.089645379702363526 0.25980927980688501 0 0.116065923487036 0.25155424759680489 0 0.089645379702363526 0.25980927980688501 0 0.116065923487036 0.25155424759680489 0 0.099818528257267281 0.27185690653089678 0 0.089645379702363526 0.25980927980688501 0 0.099818528257267281 0.27185690653089678 0 0.095910340366493346 0.28464594086445177 0 0.10809736708577181 0.28553666446189058 0 0.099818528257267281 0.27185690653089678 0 0.10809736708577181 0.28553666446189058 0 0.1147979612748997 0.2707881575742877 0 0.099818528257267281 0.27185690653089678 0 0.14627836463393121 0.26809473379089088 0 0.14256315404166739 0.2804585798755338 0 0.1332419302865058 0.27890394506169119 0 0.14627836463393121 0.26809473379089088 0 0.14256315404166739 0.2804585798755338 0 0.15383705453569649 0.27951082009548711 0 0.14627836463393121 0.26809473379089088 0 0.15383705453569649 0.27951082009548711 0 0.1609818760820641 0.2708255403471686 0 0.14248646727170791 0.24329921538672239 0 0.14627836463393121 0.26809473379089088 0 0.1631161995596529 0.25657386530356069 0 0.14248646727170791 0.24329921538672239 0 0.116065923487036 0.25155424759680489 0 0.12791172371537049 0.26609555254785411 0 0.14248646727170791 0.24329921538672239 0 0.14627836463393121 0.26809473379089088 0 0.12791172371537049 0.26609555254785411 0 0.14627836463393121 0.26809473379089088 0 0.12791172371537049 0.26609555254785411 0 0.1332419302865058 0.27890394506169119 0 0.1210835213650209 0.28058702695229848 0 0.12791172371537049 0.26609555254785411 0 0.1332419302865058 0.27890394506169119 0 0.1332419302865058 0.27890394506169119 0 0.12596292383497329 0.28976449579057961 0 0.13463915166403909 0.29011289163129678 0 0.1210835213650209 0.28058702695229848 0 0.1332419302865058 0.27890394506169119 0 0.12596292383497329 0.28976449579057961 0 0.1222906650571363 0.2985709440566281 0 0.12596292383497329 0.28976449579057961 0 0.12923992476061211 0.29615108028493942 0 0.12596292383497329 0.28976449579057961 0 0.12923992476061211 0.29615108028493942 0 0.13463915166403909 0.29011289163129678 0 0.13463915166403909 0.29011289163129678 0 0.13544399911061031 0.29845687749894129 0 0.1416447250157222 0.29544082675589128 0 0.12923992476061211 0.29615108028493942 0 0.13463915166403909 0.29011289163129678 0 0.13544399911061031 0.29845687749894129 0 0.14256315404166739 0.2804585798755338 0 0.1332419302865058 0.27890394506169119 0 0.13463915166403909 0.29011289163129678 0 0.1243783730770044 0.30485679470236721 0 0.1244342991148414 0.30898461385241399 0 0.12900107104525951 0.30968741412501871 0 0.1243783730770044 0.30485679470236721 0 0.12900107104525951 0.30968741412501871 0 0.1290658347258283 0.30205966601357243 0 0.12900107104525951 0.30968741412501871 0 0.1290658347258283 0.30205966601357243 0 0.1340409753043473 0.30463488541353972 0 0.1222906650571363 0.2985709440566281 0 0.1243783730770044 0.30485679470236721 0 0.1290658347258283 0.30205966601357243 0 0.1222906650571363 0.2985709440566281 0 0.12923992476061211 0.29615108028493942 0 0.1290658347258283 0.30205966601357243 0 0.12923992476061211 0.29615108028493942 0 0.1290658347258283 0.30205966601357243 0 0.13544399911061031 0.29845687749894129 0 0.13544399911061031 0.29845687749894129 0 0.14170706289926879 0.30357921339911909 0 0.1416447250157222 0.29544082675589128 0 0.13544399911061031 0.29845687749894129 0 0.1340409753043473 0.30463488541353972 0 0.14170706289926879 0.30357921339911909 0 0.1290658347258283 0.30205966601357243 0 0.13544399911061031 0.29845687749894129 0 0.1340409753043473 0.30463488541353972 0 0.13598458437900529 0.30983158877234418 0 0.14130712994747449 0.31140798331507108 0 0.14170706289926879 0.30357921339911909 0 0.12900107104525951 0.30968741412501871 0 0.1340409753043473 0.30463488541353972 0 0.13598458437900529 0.30983158877234418 0 0.1340409753043473 0.30463488541353972 0 0.13598458437900529 0.30983158877234418 0 0.14170706289926879 0.30357921339911909 0 0.13598458437900529 0.30983158877234418 0 0.14130712994747449 0.31140798331507108 0 0.13528824775885559 0.3155805734405937 0 0.12900107104525951 0.30968741412501871 0 0.13598458437900529 0.30983158877234418 0 0.13528824775885559 0.3155805734405937 0 0.1483486037307668 0.31106151759990119 0 0.14130712994747449 0.31140798331507108 0 0.14170706289926879 0.30357921339911909 0 0.1483486037307668 0.31106151759990119 0 0.14170706289926879 0.30357921339911909 0 0.1513591925520972 0.30423422291399321 0 0.14170706289926879 0.30357921339911909 0 0.14924189349128261 0.29698436464102829 0 0.1513591925520972 0.30423422291399321 0 0.14170706289926879 0.30357921339911909 0 0.14924189349128261 0.29698436464102829 0 0.1416447250157222 0.29544082675589128 0 0.1513591925520972 0.30423422291399321 0 0.15847128754916129 0.30901971199088751 0 0.1567398971697517 0.30020769771567818 0 0.14924189349128261 0.29698436464102829 0 0.1513591925520972 0.30423422291399321 0 0.1567398971697517 0.30020769771567818 0 0.1483486037307668 0.31106151759990119 0 0.1513591925520972 0.30423422291399321 0 0.15847128754916129 0.30901971199088751 0 0.1483486037307668 0.31106151759990119 0 0.15847128754916129 0.30901971199088751 0 0.1531779528472626 0.31690967251270458 0 0.14256315404166739 0.2804585798755338 0 0.15383705453569649 0.27951082009548711 0 0.14728728951424691 0.28871625735014939 0 0.14256315404166739 0.2804585798755338 0 0.13463915166403909 0.29011289163129678 0 0.14728728951424691 0.28871625735014939 0 0.14924189349128261 0.29698436464102829 0 0.14728728951424691 0.28871625735014939 0 0.1416447250157222 0.29544082675589128 0 0.13463915166403909 0.29011289163129678 0 0.14728728951424691 0.28871625735014939 0 0.1416447250157222 0.29544082675589128 0 0.14924189349128261 0.29698436464102829 0 0.1576814993112734 0.29111844862325259 0 0.1567398971697517 0.30020769771567818 0 0.14924189349128261 0.29698436464102829 0 0.14728728951424691 0.28871625735014939 0 0.1576814993112734 0.29111844862325259 0 0.15383705453569649 0.27951082009548711 0 0.14728728951424691 0.28871625735014939 0 0.1576814993112734 0.29111844862325259 0 0.15383705453569649 0.27951082009548711 0 0.1576814993112734 0.29111844862325259 0 0.16532030222413041 0.28061774918364429 0 0.1576814993112734 0.29111844862325259 0 0.1689979645595176 0.28949488405725932 0 0.16532030222413041 0.28061774918364429 0 0.1576814993112734 0.29111844862325259 0 0.1689979645595176 0.28949488405725932 0 0.16694561294494401 0.29968174040922901 0 0.1689979645595176 0.28949488405725932 0 0.16694561294494401 0.29968174040922901 0 0.17866142019044989 0.29199773726540068 0 0.1689979645595176 0.28949488405725932 0 0.17498255083596301 0.28300150235233201 0 0.16532030222413041 0.28061774918364429 0 0.1576814993112734 0.29111844862325259 0 0.1567398971697517 0.30020769771567818 0 0.16694561294494401 0.29968174040922901 0 0.15847128754916129 0.30901971199088751 0 0.1567398971697517 0.30020769771567818 0 0.16694561294494401 0.29968174040922901 0 0.16694561294494401 0.29968174040922901 0 0.17666858027807311 0.3015349886251833 0 0.1707678241303611 0.31259989648156872 0 0.15847128754916129 0.30901971199088751 0 0.16694561294494401 0.29968174040922901 0 0.1707678241303611 0.31259989648156872 0 0.17666858027807311 0.3015349886251833 0 0.18371952992762389 0.30785332357736089 0 0.1707678241303611 0.31259989648156872 0 0.16694561294494401 0.29968174040922901 0 0.17666858027807311 0.3015349886251833 0 0.17866142019044989 0.29199773726540068 0 0.17666858027807311 0.3015349886251833 0 0.18371952992762389 0.30785332357736089 0 0.1898902111984884 0.29891268329407239 0 0.18371952992762389 0.30785332357736089 0 0.1898902111984884 0.29891268329407239 0 0.17666858027807311 0.3015349886251833 0 0.17866142019044989 0.29199773726540068 0 0.1898902111984884 0.29891268329407239 0 0.17498255083596301 0.28300150235233201 0 0.17866142019044989 0.29199773726540068 0 0.1849298445554361 0.28099903695767547 0 0.1689979645595176 0.28949488405725932 0 0.17498255083596301 0.28300150235233201 0 0.17866142019044989 0.29199773726540068 0 0.17866142019044989 0.29199773726540068 0 0.18677859260729601 0.28760164196875848 0 0.1898902111984884 0.29891268329407239 0 0.17866142019044989 0.29199773726540068 0 0.18677859260729601 0.28760164196875848 0 0.1849298445554361 0.28099903695767547 0 0.1849298445554361 0.28099903695767547 0 0.17528279401001801 0.2714166079934146 0 0.19094745617081291 0.27038549871767581 0 0.17528279401001801 0.2714166079934146 0 0.18564289691528729 0.25868749876629671 0 0.19094745617081291 0.27038549871767581 0 0.17498255083596301 0.28300150235233201 0 0.1849298445554361 0.28099903695767547 0 0.17528279401001801 0.2714166079934146 0 0.17528279401001801 0.2714166079934146 0 0.16532030222413041 0.28061774918364429 0 0.1609818760820641 0.2708255403471686 0 0.17498255083596301 0.28300150235233201 0 0.17528279401001801 0.2714166079934146 0 0.16532030222413041 0.28061774918364429 0 0.17528279401001801 0.2714166079934146 0 0.1609818760820641 0.2708255403471686 0 0.1631161995596529 0.25657386530356069 0 0.15383705453569649 0.27951082009548711 0 0.16532030222413041 0.28061774918364429 0 0.1609818760820641 0.2708255403471686 0 0.14627836463393121 0.26809473379089088 0 0.1609818760820641 0.2708255403471686 0 0.1631161995596529 0.25657386530356069 0 0.16890701105638031 0.23504418317664161 0 0.1631161995596529 0.25657386530356069 0 0.18564289691528729 0.25868749876629671 0 0.17528279401001801 0.2714166079934146 0 0.1631161995596529 0.25657386530356069 0 0.18564289691528729 0.25868749876629671 0 0.1956251304139873 0.24830732682566101 0 0.18564289691528729 0.25868749876629671 0 0.20465537480646501 0.25892384109831479 0 0.18564289691528729 0.25868749876629671 0 0.19094745617081291 0.27038549871767581 0 0.20465537480646501 0.25892384109831479 0 0.2050239072751949 0.2492833193895482 0 0.1956251304139873 0.24830732682566101 0 0.20465537480646501 0.25892384109831479 0 0.19094745617081291 0.27038549871767581 0 0.20212350544635149 0.27452240688285762 0 0.1917381003592612 0.28136787577326228 0 0.1849298445554361 0.28099903695767547 0 0.19094745617081291 0.27038549871767581 0 0.1917381003592612 0.28136787577326228 0 0.19094745617081291 0.27038549871767581 0 0.20212350544635149 0.27452240688285762 0 0.20465537480646501 0.25892384109831479 0 0.21559138507808229 0.27635001083075639 0 0.2170338530129477 0.25958452376210089 0 0.2223889939606305 0.26849190584137572 0 0.20212350544635149 0.27452240688285762 0 0.2170338530129477 0.25958452376210089 0 0.20037669147028589 0.28371892366973078 0 0.2170338530129477 0.25958452376210089 0 0.20037669147028589 0.28371892366973078 0 0.21559138507808229 0.27635001083075639 0 0.2170338530129477 0.25958452376210089 0 0.20037669147028589 0.28371892366973078 0 0.20212350544635149 0.27452240688285762 0 0.20465537480646501 0.25892384109831479 0 0.21458810326103989 0.25029177234766842 0 0.20212350544635149 0.27452240688285762 0 0.2170338530129477 0.25958452376210089 0 0.21458810326103989 0.25029177234766842 0 0.20212350544635149 0.27452240688285762 0 0.21458810326103989 0.25029177234766842 0 0.2050239072751949 0.2492833193895482 0 0.20465537480646501 0.25892384109831479 0 0.21458810326103989 0.25029177234766842 0 0.20465537480646501 0.25892384109831479 0 0.21458810326103989 0.25029177234766842 0 0.23169913173193779 0.25404958449575432 0 0.22942687348362151 0.26728355318502178 0 0.24090080429007341 0.26281353644332878 0 0.23169913173193779 0.25404958449575432 0 0.2249153238939712 0.26221153605608138 0 0.22942687348362151 0.26728355318502178 0 0.2170338530129477 0.25958452376210089 0 0.2249153238939712 0.26221153605608138 0 0.2223889939606305 0.26849190584137572 0 0.2170338530129477 0.25958452376210089 0 0.23169913173193779 0.25404958449575432 0 0.2249153238939712 0.26221153605608138 0 0.2223889939606305 0.26849190584137572 0 0.2255322572178127 0.27738204478537232 0 0.22942687348362151 0.26728355318502178 0 0.2249153238939712 0.26221153605608138 0 0.2223889939606305 0.26849190584137572 0 0.22942687348362151 0.26728355318502178 0 0.21559138507808229 0.27635001083075639 0 0.2255322572178127 0.27738204478537232 0 0.21985426169801439 0.28935406669317137 0 0.21559138507808229 0.27635001083075639 0 0.2223889939606305 0.26849190584137572 0 0.2255322572178127 0.27738204478537232 0 0.2255322572178127 0.27738204478537232 0 0.23621117140834261 0.27732665952701641 0 0.23095623596381579 0.2876536505458 0 0.2255322572178127 0.27738204478537232 0 0.22942687348362151 0.26728355318502178 0 0.23621117140834261 0.27732665952701641 0 0.23621117140834261 0.27732665952701641 0 0.24818821145747599 0.27522177653690871 0 0.24090080429007341 0.26281353644332878 0 0.22942687348362151 0.26728355318502178 0 0.23621117140834261 0.27732665952701641 0 0.24090080429007341 0.26281353644332878 0 0.24818821145747599 0.27522177653690871 0 0.24090080429007341 0.26281353644332878 0 0.25530776412370298 0.26639583896058622 0 0.23995652529561701 0.25039133628829258 0 0.24090080429007341 0.26281353644332878 0 0.25404003316197471 0.25208422786308371 0 0.23169913173193779 0.25404958449575432 0 0.23995652529561701 0.25039133628829258 0 0.24090080429007341 0.26281353644332878 0 0.23765651747073049 0.31117848176507701 0 0.2454028482605469 0.29267792886045368 0 0.25114017462525878 0.31153615041935723 0 0.23765651747073049 0.31117848176507701 0 0.2454028482605469 0.29267792886045368 0 0.2283396740985745 0.30195705682751389 0 0.2454028482605469 0.29267792886045368 0 0.23095623596381579 0.2876536505458 0 0.2283396740985745 0.30195705682751389 0 0.23621117140834261 0.27732665952701641 0 0.24818821145747599 0.27522177653690871 0 0.2454028482605469 0.29267792886045368 0 0.23621117140834261 0.27732665952701641 0 0.2454028482605469 0.29267792886045368 0 0.23095623596381579 0.2876536505458 0 0.2255322572178127 0.27738204478537232 0 0.23095623596381579 0.2876536505458 0 0.21985426169801439 0.28935406669317137 0 0.23095623596381579 0.2876536505458 0 0.21985426169801439 0.28935406669317137 0 0.2283396740985745 0.30195705682751389 0 0.2283396740985745 0.30195705682751389 0 0.2184758680590754 0.31184724711422762 0 0.22801070301179061 0.32060690690137728 0 0.21985426169801439 0.28935406669317137 0 0.2283396740985745 0.30195705682751389 0 0.21670572119465931 0.30172893354768798 0 0.23765651747073049 0.31117848176507701 0 0.2283396740985745 0.30195705682751389 0 0.22801070301179061 0.32060690690137728 0 0.2283396740985745 0.30195705682751389 0 0.2184758680590754 0.31184724711422762 0 0.21670572119465931 0.30172893354768798 0 0.2184758680590754 0.31184724711422762 0 0.21670572119465931 0.30172893354768798 0 0.20632342479934371 0.30585855598863948 0 0.21670572119465931 0.30172893354768798 0 0.20632342479934371 0.30585855598863948 0 0.21141614329998781 0.29390938293380992 0 0.20632342479934371 0.30585855598863948 0 0.21141614329998781 0.29390938293380992 0 0.2042452804315445 0.29308429151921322 0 0.21559138507808229 0.27635001083075639 0 0.21985426169801439 0.28935406669317137 0 0.2104384150331686 0.28649738738125968 0 0.21985426169801439 0.28935406669317137 0 0.21141614329998781 0.29390938293380992 0 0.2104384150331686 0.28649738738125968 0 0.21985426169801439 0.28935406669317137 0 0.21670572119465931 0.30172893354768798 0 0.21141614329998781 0.29390938293380992 0 0.21141614329998781 0.29390938293380992 0 0.2042452804315445 0.29308429151921322 0 0.2104384150331686 0.28649738738125968 0 0.2042452804315445 0.29308429151921322 0 0.2104384150331686 0.28649738738125968 0 0.20037669147028589 0.28371892366973078 0 0.21559138507808229 0.27635001083075639 0 0.2104384150331686 0.28649738738125968 0 0.20037669147028589 0.28371892366973078 0 0.20212350544635149 0.27452240688285762 0 0.20037669147028589 0.28371892366973078 0 0.1898902111984884 0.29891268329407239 0 0.18677859260729601 0.28760164196875848 0 0.1917381003592612 0.28136787577326228 0 0.1898902111984884 0.29891268329407239 0 0.20037669147028589 0.28371892366973078 0 0.1976595376627992 0.29976589533378561 0 0.1898902111984884 0.29891268329407239 0 0.2042452804315445 0.29308429151921322 0 0.20037669147028589 0.28371892366973078 0 0.1976595376627992 0.29976589533378561 0 0.20212350544635149 0.27452240688285762 0 0.1898902111984884 0.29891268329407239 0 0.20212350544635149 0.27452240688285762 0 0.1917381003592612 0.28136787577326228 0 0.1898902111984884 0.29891268329407239 0 0.20037669147028589 0.28371892366973078 0 0.1898902111984884 0.29891268329407239 0 0.18677859260729601 0.28760164196875848 0 0.1849298445554361 0.28099903695767547 0 0.1917381003592612 0.28136787577326228 0 0.20632342479934371 0.30585855598863948 0 0.19412409721151189 0.30848045781950378 0 0.19635424873152091 0.31866253726922511 0 0.20632342479934371 0.30585855598863948 0 0.1976595376627992 0.29976589533378561 0 0.19412409721151189 0.30848045781950378 0 0.20632342479934371 0.30585855598863948 0 0.2042452804315445 0.29308429151921322 0 0.1976595376627992 0.29976589533378561 0 0.18371952992762389 0.30785332357736089 0 0.1976595376627992 0.29976589533378561 0 0.1898902111984884 0.29891268329407239 0 0.18371952992762389 0.30785332357736089 0 0.19412409721151189 0.30848045781950378 0 0.19635424873152091 0.31866253726922511 0 0.18371952992762389 0.30785332357736089 0 0.1976595376627992 0.29976589533378561 0 0.19412409721151189 0.30848045781950378 0 0.19635424873152091 0.31866253726922511 0 0.19329834396814641 0.33328399686629978 0 0.21150607161232149 0.3245036863190196 0 0.19635424873152091 0.31866253726922511 0 0.19329834396814641 0.33328399686629978 0 0.1818581672390053 0.32281790922797782 0 0.19329834396814641 0.33328399686629978 0 0.20841238186686439 0.34472105417207632 0 0.1876990638134575 0.35190483133425488 0 0.19329834396814641 0.33328399686629978 0 0.21150607161232149 0.3245036863190196 0 0.20841238186686439 0.34472105417207632 0 0.21150607161232149 0.3245036863190196 0 0.22736457019319431 0.33776348264759248 0 0.20841238186686439 0.34472105417207632 0 0.20632342479934371 0.30585855598863948 0 0.19635424873152091 0.31866253726922511 0 0.21150607161232149 0.3245036863190196 0 0.2184758680590754 0.31184724711422762 0 0.20632342479934371 0.30585855598863948 0 0.21150607161232149 0.3245036863190196 0 0.21150607161232149 0.3245036863190196 0 0.22801070301179061 0.32060690690137728 0 0.22736457019319431 0.33776348264759248 0 0.2184758680590754 0.31184724711422762 0 0.21150607161232149 0.3245036863190196 0 0.22801070301179061 0.32060690690137728 0 0.22801070301179061 0.32060690690137728 0 0.22736457019319431 0.33776348264759248 0 0.24490867605631639 0.32967072069511189 0 0.22736457019319431 0.33776348264759248 0 0.24490867605631639 0.32967072069511189 0 0.24521693247762111 0.35027114815259558 0 0.23765651747073049 0.31117848176507701 0 0.22801070301179061 0.32060690690137728 0 0.24490867605631639 0.32967072069511189 0 0.23765651747073049 0.31117848176507701 0 0.24490867605631639 0.32967072069511189 0 0.25114017462525878 0.31153615041935723 0 0.24305895760768401 0.36641304215893011 0 0.24521693247762111 0.35027114815259558 0 0.22613265613425179 0.35680737964537468 0 0.22736457019319431 0.33776348264759248 0 0.24521693247762111 0.35027114815259558 0 0.22613265613425179 0.35680737964537468 0 0.22736457019319431 0.33776348264759248 0 0.22613265613425179 0.35680737964537468 0 0.20841238186686439 0.34472105417207632 0 0.22613265613425179 0.35680737964537468 0 0.20200890290724041 0.36500873302905812 0 0.22860253219506471 0.37841014948266538 0 0.24305895760768401 0.36641304215893011 0 0.22613265613425179 0.35680737964537468 0 0.22860253219506471 0.37841014948266538 0 0.20200890290724041 0.36500873302905812 0 0.22860253219506471 0.37841014948266538 0 0.22613265613425179 0.35680737964537468 0 0.20841238186686439 0.34472105417207632 0 0.20200890290724041 0.36500873302905812 0 0.20841238186686439 0.34472105417207632 0 0.1876990638134575 0.35190483133425488 0 0.20200890290724041 0.36500873302905812 0 0.1876990638134575 0.35190483133425488 0 0.20200890290724041 0.36500873302905812 0 0.17637045729064621 0.37495278481954358 0 0.1876990638134575 0.35190483133425488 0 0.17637045729064621 0.37495278481954358 0 0.16909864488713719 0.35514267549568418 0 0.15975417249048229 0.36968310563447321 0 0.16909864488713719 0.35514267549568418 0 0.14990537096685039 0.36070173528474042 0 0.17637045729064621 0.37495278481954358 0 0.15975417249048229 0.36968310563447321 0 0.16909864488713719 0.35514267549568418 0 0.16909864488713719 0.35514267549568418 0 0.1770056519607103 0.33831974362286749 0 0.1619384281755652 0.34052596047808847 0 0.16909864488713719 0.35514267549568418 0 0.14990537096685039 0.36070173528474042 0 0.15416632756111201 0.34898696826244741 0 0.16909864488713719 0.35514267549568418 0 0.1619384281755652 0.34052596047808847 0 0.15416632756111201 0.34898696826244741 0 0.1876990638134575 0.35190483133425488 0 0.16909864488713719 0.35514267549568418 0 0.1770056519607103 0.33831974362286749 0 0.19329834396814641 0.33328399686629978 0 0.1770056519607103 0.33831974362286749 0 0.1818581672390053 0.32281790922797782 0 0.19329834396814641 0.33328399686629978 0 0.1876990638134575 0.35190483133425488 0 0.1770056519607103 0.33831974362286749 0 0.1770056519607103 0.33831974362286749 0 0.1818581672390053 0.32281790922797782 0 0.1657389141743941 0.32607447656151611 0 0.1818581672390053 0.32281790922797782 0 0.1707678241303611 0.31259989648156872 0 0.1657389141743941 0.32607447656151611 0 0.18371952992762389 0.30785332357736089 0 0.19635424873152091 0.31866253726922511 0 0.1818581672390053 0.32281790922797782 0 0.18371952992762389 0.30785332357736089 0 0.1818581672390053 0.32281790922797782 0 0.1707678241303611 0.31259989648156872 0 0.1707678241303611 0.31259989648156872 0 0.1657389141743941 0.32607447656151611 0 0.16084478468494731 0.31759224325908281 0 0.1657389141743941 0.32607447656151611 0 0.15632698434060879 0.32309477146443721 0 0.16084478468494731 0.31759224325908281 0 0.1657389141743941 0.32607447656151611 0 0.15632698434060879 0.32309477146443721 0 0.1534459738215358 0.33116830427909388 0 0.15847128754916129 0.30901971199088751 0 0.1707678241303611 0.31259989648156872 0 0.16084478468494731 0.31759224325908281 0 0.15847128754916129 0.30901971199088751 0 0.16084478468494731 0.31759224325908281 0 0.1531779528472626 0.31690967251270458 0 0.15632698434060879 0.32309477146443721 0 0.16084478468494731 0.31759224325908281 0 0.1531779528472626 0.31690967251270458 0 0.1770056519607103 0.33831974362286749 0 0.1657389141743941 0.32607447656151611 0 0.1619384281755652 0.34052596047808847 0 0.1657389141743941 0.32607447656151611 0 0.1619384281755652 0.34052596047808847 0 0.1534459738215358 0.33116830427909388 0 0.1619384281755652 0.34052596047808847 0 0.14537830609435001 0.34101383565047871 0 0.15416632756111201 0.34898696826244741 0 0.1619384281755652 0.34052596047808847 0 0.1534459738215358 0.33116830427909388 0 0.14537830609435001 0.34101383565047871 0 0.1534459738215358 0.33116830427909388 0 0.1427633336259623 0.33140140495610498 0 0.14842729617490411 0.32372916070978858 0 0.1534459738215358 0.33116830427909388 0 0.1427633336259623 0.33140140495610498 0 0.14537830609435001 0.34101383565047871 0 0.1427633336259623 0.33140140495610498 0 0.14537830609435001 0.34101383565047871 0 0.13654253772275141 0.33890423694427602 0 0.1483486037307668 0.31106151759990119 0 0.1531779528472626 0.31690967251270458 0 0.14487070829517959 0.31682928085866202 0 0.1531779528472626 0.31690967251270458 0 0.14842729617490411 0.32372916070978858 0 0.14487070829517959 0.31682928085866202 0 0.15632698434060879 0.32309477146443721 0 0.1534459738215358 0.33116830427909388 0 0.14842729617490411 0.32372916070978858 0 0.15632698434060879 0.32309477146443721 0 0.1531779528472626 0.31690967251270458 0 0.14842729617490411 0.32372916070978858 0 0.1427633336259623 0.33140140495610498 0 0.14842729617490411 0.32372916070978858 0 0.1402378637359267 0.32270884290342983 0 0.14842729617490411 0.32372916070978858 0 0.14487070829517959 0.31682928085866202 0 0.1402378637359267 0.32270884290342983 0 0.1483486037307668 0.31106151759990119 0 0.14130712994747449 0.31140798331507108 0 0.14487070829517959 0.31682928085866202 0 0.14130712994747449 0.31140798331507108 0 0.14487070829517959 0.31682928085866202 0 0.13528824775885559 0.3155805734405937 0 0.14487070829517959 0.31682928085866202 0 0.13528824775885559 0.3155805734405937 0 0.1402378637359267 0.32270884290342983 0 0.13528824775885559 0.3155805734405937 0 0.1330765722643745 0.32249408610517011 0 0.1402378637359267 0.32270884290342983 0 0.1330765722643745 0.32249408610517011 0 0.1402378637359267 0.32270884290342983 0 0.13309473665224339 0.33072661256584468 0 0.12375204985912221 0.32702725796552912 0 0.1330765722643745 0.32249408610517011 0 0.13309473665224339 0.33072661256584468 0 0.12375204985912221 0.32702725796552912 0 0.1330765722643745 0.32249408610517011 0 0.12817088130983889 0.317450689473041 0 0.13528824775885559 0.3155805734405937 0 0.1330765722643745 0.32249408610517011 0 0.12817088130983889 0.317450689473041 0 0.1214195525311879 0.31440901896845502 0 0.12900107104525951 0.30968741412501871 0 0.12817088130983889 0.317450689473041 0 0.12900107104525951 0.30968741412501871 0 0.13528824775885559 0.3155805734405937 0 0.12817088130983889 0.317450689473041 0 0.14537830609435001 0.34101383565047871 0 0.13654253772275141 0.33890423694427602 0 0.13685475473781181 0.34959577292381833 0 0.13654253772275141 0.33890423694427602 0 0.1260676383484185 0.3399282146226113 0 0.13685475473781181 0.34959577292381833 0 0.1427633336259623 0.33140140495610498 0 0.13654253772275141 0.33890423694427602 0 0.13309473665224339 0.33072661256584468 0 0.1427633336259623 0.33140140495610498 0 0.1402378637359267 0.32270884290342983 0 0.13309473665224339 0.33072661256584468 0 0.12375204985912221 0.32702725796552912 0 0.13309473665224339 0.33072661256584468 0 0.1260676383484185 0.3399282146226113 0 0.13654253772275141 0.33890423694427602 0 0.13309473665224339 0.33072661256584468 0 0.1260676383484185 0.3399282146226113 0 0.1232256624926347 0.35239419723674059 0 0.13685475473781181 0.34959577292381833 0 0.13271547193899449 0.36524458735671972 0 0.1232256624926347 0.35239419723674059 0 0.1260676383484185 0.3399282146226113 0 0.13685475473781181 0.34959577292381833 0 0.13685475473781181 0.34959577292381833 0 0.13271547193899449 0.36524458735671972 0 0.14990537096685039 0.36070173528474042 0 0.13271547193899449 0.36524458735671972 0 0.14727668153694909 0.37350977329143831 0 0.1384203385310763 0.3853027474406937 0 0.13271547193899449 0.36524458735671972 0 0.14727668153694909 0.37350977329143831 0 0.14990537096685039 0.36070173528474042 0 0.15975417249048229 0.36968310563447321 0 0.14727668153694909 0.37350977329143831 0 0.14990537096685039 0.36070173528474042 0 0.14537830609435001 0.34101383565047871 0 0.13685475473781181 0.34959577292381833 0 0.15416632756111201 0.34898696826244741 0 0.13685475473781181 0.34959577292381833 0 0.14990537096685039 0.36070173528474042 0 0.15416632756111201 0.34898696826244741 0 0.15196678808574959 0.39634912392256672 0 0.1402717845598023 0.40641241395674649 0 0.16129649351817349 0.40676751558544272 0 0.15196678808574959 0.39634912392256672 0 0.1384203385310763 0.3853027474406937 0 0.1402717845598023 0.40641241395674649 0 0.15196678808574959 0.39634912392256672 0 0.15611970777082879 0.38410855928095938 0 0.1384203385310763 0.3853027474406937 0 0.14727668153694909 0.37350977329143831 0 0.15611970777082879 0.38410855928095938 0 0.1384203385310763 0.3853027474406937 0 0.15975417249048229 0.36968310563447321 0 0.14727668153694909 0.37350977329143831 0 0.15611970777082879 0.38410855928095938 0 0.1231373165426977 0.3806134049577457 0 0.13271547193899449 0.36524458735671972 0 0.1384203385310763 0.3853027474406937 0 0.1231373165426977 0.3806134049577457 0 0.1384203385310763 0.3853027474406937 0 0.1271742827044339 0.39597619803598749 0 0.1384203385310763 0.3853027474406937 0 0.1271742827044339 0.39597619803598749 0 0.1402717845598023 0.40641241395674649 0 0.1162621503634904 0.41872732341568758 0 0.1271742827044339 0.39597619803598749 0 0.1402717845598023 0.40641241395674649 0 0.1162621503634904 0.41872732341568758 0 0.1402717845598023 0.40641241395674649 0 0.14380353536204241 0.43078456768362461 0 0.1162621503634904 0.41872732341568758 0 0.14380353536204241 0.43078456768362461 0 0.1205619018159948 0.44674810255646558 0 0.1162621503634904 0.41872732341568758 0 0.13914808732176639 0.43525501877606959 0 0.1162621503634904 0.41872732341568758 0 0.13914808732176639 0.43525501877606959 0 0.14380353536204241 0.43078456768362461 0 0.1402717845598023 0.40641241395674649 0 0.16129649351817349 0.40676751558544272 0 0.1583102357697074 0.42239552662274649 0 0.1402717845598023 0.40641241395674649 0 0.14380353536204241 0.43078456768362461 0 0.1583102357697074 0.42239552662274649 0 0.16129649351817349 0.40676751558544272 0 0.17483444504792359 0.42517132393635743 0 0.1767108048052333 0.40648620419478521 0 0.16129649351817349 0.40676751558544272 0 0.1583102357697074 0.42239552662274649 0 0.17483444504792359 0.42517132393635743 0 0.1583102357697074 0.42239552662274649 0 0.17483444504792359 0.42517132393635743 0 0.1713449203605947 0.44284181195156158 0 0.14380353536204241 0.43078456768362461 0 0.1713449203605947 0.44284181195156158 0 0.14380353536204241 0.43078456768362461 0 0.1583102357697074 0.42239552662274649 0 0.1713449203605947 0.44284181195156158 0 0.17483444504792359 0.42517132393635743 0 0.18216746451451801 0.43740730714955978 0 0.1713449203605947 0.44284181195156158 0 0.17483444504792359 0.42517132393635743 0 0.1713449203605947 0.44284181195156158 0 0.17483444504792359 0.42517132393635743 0 0.1894098998784805 0.41329321868770491 0 0.19020123220431809 0.42989189963497759 0 0.17483444504792359 0.42517132393635743 0 0.18216746451451801 0.43740730714955978 0 0.19020123220431809 0.42989189963497759 0 0.17483444504792359 0.42517132393635743 0 0.1767108048052333 0.40648620419478521 0 0.1894098998784805 0.41329321868770491 0 0.1767108048052333 0.40648620419478521 0 0.16971698500113649 0.39319336099264368 0 0.18829620058045249 0.39400560177177729 0 0.1767108048052333 0.40648620419478521 0 0.18829620058045249 0.39400560177177729 0 0.1894098998784805 0.41329321868770491 0 0.15196678808574959 0.39634912392256672 0 0.15611970777082879 0.38410855928095938 0 0.16971698500113649 0.39319336099264368 0 0.15196678808574959 0.39634912392256672 0 0.16129649351817349 0.40676751558544272 0 0.16971698500113649 0.39319336099264368 0 0.16129649351817349 0.40676751558544272 0 0.1767108048052333 0.40648620419478521 0 0.16971698500113649 0.39319336099264368 0 0.17637045729064621 0.37495278481954358 0 0.15975417249048229 0.36968310563447321 0 0.15611970777082879 0.38410855928095938 0 0.17637045729064621 0.37495278481954358 0 0.15611970777082879 0.38410855928095938 0 0.16971698500113649 0.39319336099264368 0 0.17637045729064621 0.37495278481954358 0 0.16971698500113649 0.39319336099264368 0 0.18829620058045249 0.39400560177177729 0 0.20200890290724041 0.36500873302905812 0 0.18829620058045249 0.39400560177177729 0 0.21022739730807871 0.38998636848418261 0 0.20200890290724041 0.36500873302905812 0 0.17637045729064621 0.37495278481954358 0 0.18829620058045249 0.39400560177177729 0 0.18829620058045249 0.39400560177177729 0 0.21022739730807871 0.38998636848418261 0 0.20498907662426999 0.40636669370009521 0 0.18829620058045249 0.39400560177177729 0 0.20498907662426999 0.40636669370009521 0 0.1894098998784805 0.41329321868770491 0 0.21022739730807871 0.38998636848418261 0 0.225418264115859 0.4045632601918206 0 0.20498907662426999 0.40636669370009521 0 0.20200890290724041 0.36500873302905812 0 0.21022739730807871 0.38998636848418261 0 0.22860253219506471 0.37841014948266538 0 0.21022739730807871 0.38998636848418261 0 0.22860253219506471 0.37841014948266538 0 0.225418264115859 0.4045632601918206 0 0.225418264115859 0.4045632601918206 0 0.2490748840761759 0.41447913741323361 0 0.25519616148288887 0.39181156593627298 0 0.22860253219506471 0.37841014948266538 0 0.225418264115859 0.4045632601918206 0 0.25519616148288887 0.39181156593627298 0 0.22860253219506471 0.37841014948266538 0 0.25519616148288887 0.39181156593627298 0 0.24305895760768401 0.36641304215893011 0 0.22860253219506471 0.37841014948266538 0 0.25519616148288887 0.39181156593627298 0 0.2490748840761759 0.41447913741323361 0 0.23040520055063371 0.42472223384156732 0 0.24517769652138269 0.43868647355565088 0 0.225418264115859 0.4045632601918206 0 0.2490748840761759 0.41447913741323361 0 0.23040520055063371 0.42472223384156732 0 0.225418264115859 0.4045632601918206 0 0.23040520055063371 0.42472223384156732 0 0.20794960100346549 0.42683021087399747 0 0.23040520055063371 0.42472223384156732 0 0.20794960100346549 0.42683021087399747 0 0.2229924843016429 0.43948176305630821 0 0.23040520055063371 0.42472223384156732 0 0.2229924843016429 0.43948176305630821 0 0.24517769652138269 0.43868647355565088 0 0.225418264115859 0.4045632601918206 0 0.20794960100346549 0.42683021087399747 0 0.20498907662426999 0.40636669370009521 0 0.20794960100346549 0.42683021087399747 0 0.20498907662426999 0.40636669370009521 0 0.1894098998784805 0.41329321868770491 0 0.20794960100346549 0.42683021087399747 0 0.19020123220431809 0.42989189963497759 0 0.19426067079655579 0.44330707928475449 0 0.20794960100346549 0.42683021087399747 0 0.1894098998784805 0.41329321868770491 0 0.19020123220431809 0.42989189963497759 0 0.18216746451451801 0.43740730714955978 0 0.19020123220431809 0.42989189963497759 0 0.19426067079655579 0.44330707928475449 0 0.19426067079655579 0.44330707928475449 0 0.1940681668251448 0.45640187690020761 0 0.18254949088188149 0.4477470207382499 0 0.19426067079655579 0.44330707928475449 0 0.1940681668251448 0.45640187690020761 0 0.20814429074563079 0.44944136850783811 0 0.1940681668251448 0.45640187690020761 0 0.20814429074563079 0.44944136850783811 0 0.2039949308663013 0.472197178379127 0 0.1940681668251448 0.45640187690020761 0 0.2039949308663013 0.472197178379127 0 0.18608081776579821 0.46867989557539208 0 0.1940681668251448 0.45640187690020761 0 0.18608081776579821 0.46867989557539208 0 0.18254949088188149 0.4477470207382499 0 0.20814429074563079 0.44944136850783811 0 0.22852149564367849 0.45772005811557609 0 0.2039949308663013 0.472197178379127 0 0.20794960100346549 0.42683021087399747 0 0.19426067079655579 0.44330707928475449 0 0.20814429074563079 0.44944136850783811 0 0.20794960100346549 0.42683021087399747 0 0.20814429074563079 0.44944136850783811 0 0.2229924843016429 0.43948176305630821 0 0.2229924843016429 0.43948176305630821 0 0.22852149564367849 0.45772005811557609 0 0.24517769652138269 0.43868647355565088 0 0.20814429074563079 0.44944136850783811 0 0.2229924843016429 0.43948176305630821 0 0.22852149564367849 0.45772005811557609 0 0.22852149564367849 0.45772005811557609 0 0.2480713074063006 0.45455858161591112 0 0.2508124586903176 0.47172026355836871 0 0.22852149564367849 0.45772005811557609 0 0.2480713074063006 0.45455858161591112 0 0.24517769652138269 0.43868647355565088 0 0.24658834009167641 0.5 0 0.2268462464291012 0.47913099520174052 0 0.2508124586903176 0.47172026355836871 0 0.22852149564367849 0.45772005811557609 0 0.2268462464291012 0.47913099520174052 0 0.2508124586903176 0.47172026355836871 0 0.22852149564367849 0.45772005811557609 0 0.2268462464291012 0.47913099520174052 0 0.2039949308663013 0.472197178379127 0 0.24658834009167641 0.5 0 0.2268462464291012 0.47913099520174052 0 0.21774471386125249 0.5 0 0.2039949308663013 0.472197178379127 0 0.18890108763082861 0.5 0 0.18608081776579821 0.46867989557539208 0 0.21774471386125249 0.5 0 0.2039949308663013 0.472197178379127 0 0.18890108763082861 0.5 0 0.2268462464291012 0.47913099520174052 0 0.21774471386125249 0.5 0 0.2039949308663013 0.472197178379127 0 0.18890108763082861 0.5 0 0.16570119088049859 0.47142090597577962 0 0.18608081776579821 0.46867989557539208 0 0.18890108763082861 0.5 0 0.1600574614004048 0.499999999999998 0 0.16570119088049859 0.47142090597577962 0 0.1600574614004048 0.499999999999998 0 0.16570119088049859 0.47142090597577962 0 0.1600574614004048 0.499999999999998 0 0.16570119088049859 0.47142090597577962 0 0.1473140710794911 0.47841155746419622 0 0.16570119088049859 0.47142090597577962 0 0.18608081776579821 0.46867989557539208 0 0.18254949088188149 0.4477470207382499 0 0.16570119088049859 0.47142090597577962 0 0.18254949088188149 0.4477470207382499 0 0.1713449203605947 0.44284181195156158 0 0.18216746451451801 0.43740730714955978 0 0.19426067079655579 0.44330707928475449 0 0.18254949088188149 0.4477470207382499 0 0.18254949088188149 0.4477470207382499 0 0.1713449203605947 0.44284181195156158 0 0.18216746451451801 0.43740730714955978 0 0.18254949088188149 0.4477470207382499 0 0.1713449203605947 0.44284181195156158 0 0.16570119088049859 0.47142090597577962 0 0.1713449203605947 0.44284181195156158 0 0.16570119088049859 0.47142090597577962 0 0.1713449203605947 0.44284181195156158 0 0.15076126992746861 0.45128164001408699 0 0.16570119088049859 0.47142090597577962 0 0.14979107830043681 0.4659705410046826 0 0.15076126992746861 0.45128164001408699 0 0.14979107830043681 0.4659705410046826 0 0.15076126992746861 0.45128164001408699 0 0.13538778131428869 0.46276806056466779 0 0.13914808732176639 0.43525501877606959 0 0.14380353536204241 0.43078456768362461 0 0.15076126992746861 0.45128164001408699 0 0.14380353536204241 0.43078456768362461 0 0.1713449203605947 0.44284181195156158 0 0.15076126992746861 0.45128164001408699 0 0.13914808732176639 0.43525501877606959 0 0.15076126992746861 0.45128164001408699 0 0.13538778131428869 0.46276806056466779 0 0.13914808732176639 0.43525501877606959 0 0.13538778131428869 0.46276806056466779 0 0.1205619018159948 0.44674810255646558 0 0.13914808732176639 0.43525501877606959 0 0.13538778131428869 0.46276806056466779 0 0.1248616532684987 0.47476888169724352 0 0.1205619018159948 0.44674810255646558 0 0.13538778131428869 0.46276806056466779 0 0.13538778131428869 0.46276806056466779 0 0.13162747530681079 0.49028110235326611 0 0.1248616532684987 0.47476888169724352 0 0.13538778131428869 0.46276806056466779 0 0.13162747530681079 0.49028110235326611 0 0.13538778131428869 0.46276806056466779 0 0.13162747530681079 0.49028110235326611 0 0.1473140710794911 0.47841155746419622 0 0.1248616532684987 0.47476888169724352 0 0.13162747530681079 0.49028110235326611 0 0.1248616532684987 0.47476888169724352 0 0.1287333349596296 0.50000000000000233 0 0.1248616532684987 0.47476888169724352 0 0.13162747530681079 0.49028110235326611 0 0.1287333349596296 0.50000000000000233 0 0.13162747530681079 0.49028110235326611 0 0.1302991587401483 0.50000000000000044 0 0.13162747530681079 0.49028110235326611 0 0.1302991587401483 0.50000000000000044 0 0.13586647714571501 0.50000000000000044 0 0.13162747530681079 0.49028110235326611 0 0.1287333349596296 0.50000000000000233 0 0.1302991587401483 0.50000000000000044 0 0.13162747530681079 0.49028110235326611 0 0.13586647714571501 0.50000000000000044 0 0.14406777576738011 0.49099847585001533 0 0.13162747530681079 0.49028110235326611 0 0.13586647714571501 0.50000000000000044 0 0.1600574614004048 0.499999999999998 0 0.13586647714571501 0.50000000000000044 0 0.14406777576738011 0.49099847585001533 0 0.1600574614004048 0.499999999999998 0 0.14406777576738011 0.49099847585001533 0 0.1473140710794911 0.47841155746419622 0 0.13162747530681079 0.49028110235326611 0 0.14406777576738011 0.49099847585001533 0 0.1473140710794911 0.47841155746419622 0 0.16570119088049859 0.47142090597577962 0 0.14979107830043681 0.4659705410046826 0 0.1473140710794911 0.47841155746419622 0 0.14979107830043681 0.4659705410046826 0 0.13538778131428869 0.46276806056466779 0 0.1473140710794911 0.47841155746419622 0 0.3484716028812469 0.46927922019571022 0 0.3639431844790027 0.47792576209206161 0 0.36215729707138089 0.45952194433731441 0 0.3484716028812469 0.46927922019571022 0 0.34825454286986979 0.4866410253547736 0 0.3639431844790027 0.47792576209206161 0 0.34825454286986979 0.4866410253547736 0 0.36196284501337178 0.5 0 0.3639431844790027 0.47792576209206161 0 0.34825454286986979 0.4866410253547736 0 0.36196284501337178 0.5 0 0.33311921878294798 0.5 0 0.36196284501337178 0.5 0 0.3639431844790027 0.47792576209206161 0 0.38120033573297152 0.48442634992442057 0 0.3639431844790027 0.47792576209206161 0 0.37844435483634198 0.4675903904274426 0 0.38120033573297152 0.48442634992442057 0 0.3639431844790027 0.47792576209206161 0 0.36215729707138089 0.45952194433731441 0 0.37844435483634198 0.4675903904274426 0 0.36215729707138089 0.45952194433731441 0 0.37809165231809289 0.44568724501072521 0 0.37844435483634198 0.4675903904274426 0 0.36215729707138089 0.45952194433731441 0 0.35494335133579169 0.44207750056399991 0 0.37809165231809289 0.44568724501072521 0 0.35494335133579169 0.44207750056399991 0 0.365542703577178 0.42914551292816783 0 0.37809165231809289 0.44568724501072521 0 0.35494335133579169 0.44207750056399991 0 0.33746945485668051 0.4332718215327816 0 0.35494335133579169 0.44207750056399991 0 0.33933393763431879 0.44574212964051668 0 0.33746945485668051 0.4332718215327816 0 0.36215729707138089 0.45952194433731441 0 0.35494335133579169 0.44207750056399991 0 0.34904963657780902 0.45457154773394731 0 0.35494335133579169 0.44207750056399991 0 0.34904963657780902 0.45457154773394731 0 0.33933393763431879 0.44574212964051668 0 0.3484716028812469 0.46927922019571022 0 0.36215729707138089 0.45952194433731441 0 0.34904963657780902 0.45457154773394731 0 0.3484716028812469 0.46927922019571022 0 0.34904963657780902 0.45457154773394731 0 0.33768006752307722 0.45817683321967928 0 0.33768006752307722 0.45817683321967928 0 0.32516604183334019 0.44948070643492349 0 0.3263791186886712 0.4718105620932988 0 0.3484716028812469 0.46927922019571022 0 0.33768006752307722 0.45817683321967928 0 0.3263791186886712 0.4718105620932988 0 0.33933393763431879 0.44574212964051668 0 0.32516604183334019 0.44948070643492349 0 0.33457771181584611 0.43369686048393857 0 0.32516604183334019 0.44948070643492349 0 0.33457771181584611 0.43369686048393857 0 0.33933393763431879 0.44574212964051668 0 0.33457771181584611 0.43369686048393857 0 0.33746945485668051 0.4332718215327816 0 0.34904963657780902 0.45457154773394731 0 0.33768006752307722 0.45817683321967928 0 0.33933393763431879 0.44574212964051668 0 0.33768006752307722 0.45817683321967928 0 0.33933393763431879 0.44574212964051668 0 0.32516604183334019 0.44948070643492349 0 0.32516604183334019 0.44948070643492349 0 0.30610823095482448 0.43788140873538328 0 0.33457771181584611 0.43369686048393857 0 0.32516604183334019 0.44948070643492349 0 0.30909376894118562 0.45443190325323968 0 0.30610823095482448 0.43788140873538328 0 0.32516604183334019 0.44948070643492349 0 0.3263791186886712 0.4718105620932988 0 0.30909376894118562 0.45443190325323968 0 0.3263791186886712 0.4718105620932988 0 0.30059931196992168 0.47005809262963882 0 0.31153103284441203 0.48323920778459489 0 0.3484716028812469 0.46927922019571022 0 0.34825454286986979 0.4866410253547736 0 0.3263791186886712 0.4718105620932988 0 0.34825454286986979 0.4866410253547736 0 0.3263791186886712 0.4718105620932988 0 0.33311921878294798 0.5 0 0.3263791186886712 0.4718105620932988 0 0.33311921878294798 0.5 0 0.31153103284441203 0.48323920778459489 0 0.33311921878294798 0.5 0 0.30427559255252412 0.5 0 0.31153103284441203 0.48323920778459489 0 0.30427559255252412 0.5 0 0.31153103284441203 0.48323920778459489 0 0.29110307967174748 0.48580921065493432 0 0.30059931196992168 0.47005809262963882 0 0.31153103284441203 0.48323920778459489 0 0.29110307967174748 0.48580921065493432 0 0.30059931196992168 0.47005809262963882 0 0.29110307967174748 0.48580921065493432 0 0.27585954767988607 0.47408041721782612 0 0.30427559255252412 0.5 0 0.29110307967174748 0.48580921065493432 0 0.27543196632210021 0.5 0 0.27543196632210021 0.5 0 0.27585954767988607 0.47408041721782612 0 0.26198527678341299 0.48673919500437729 0 0.29110307967174748 0.48580921065493432 0 0.27543196632210021 0.5 0 0.27585954767988607 0.47408041721782612 0 0.27585954767988607 0.47408041721782612 0 0.2508124586903176 0.47172026355836871 0 0.26198527678341299 0.48673919500437729 0 0.24658834009167641 0.5 0 0.2508124586903176 0.47172026355836871 0 0.26198527678341299 0.48673919500437729 0 0.24658834009167641 0.5 0 0.27543196632210021 0.5 0 0.26198527678341299 0.48673919500437729 0 0.2480713074063006 0.45455858161591112 0 0.24517769652138269 0.43868647355565088 0 0.26777357876982372 0.45010753123404867 0 0.24517769652138269 0.43868647355565088 0 0.26777357876982372 0.45010753123404867 0 0.26600993858745892 0.42808938636359573 0 0.2480713074063006 0.45455858161591112 0 0.2508124586903176 0.47172026355836871 0 0.26777357876982372 0.45010753123404867 0 0.27585954767988607 0.47408041721782612 0 0.2508124586903176 0.47172026355836871 0 0.26777357876982372 0.45010753123404867 0 0.27585954767988607 0.47408041721782612 0 0.26777357876982372 0.45010753123404867 0 0.28975077836376328 0.45156795454144122 0 0.26777357876982372 0.45010753123404867 0 0.28975077836376328 0.45156795454144122 0 0.28607917402868899 0.43188291486824332 0 0.28975077836376328 0.45156795454144122 0 0.30610823095482448 0.43788140873538328 0 0.28607917402868899 0.43188291486824332 0 0.30059931196992168 0.47005809262963882 0 0.27585954767988607 0.47408041721782612 0 0.28975077836376328 0.45156795454144122 0 0.3263791186886712 0.4718105620932988 0 0.30059931196992168 0.47005809262963882 0 0.30909376894118562 0.45443190325323968 0 0.30059931196992168 0.47005809262963882 0 0.28975077836376328 0.45156795454144122 0 0.30909376894118562 0.45443190325323968 0 0.28975077836376328 0.45156795454144122 0 0.30909376894118562 0.45443190325323968 0 0.30610823095482448 0.43788140873538328 0 0.30610823095482448 0.43788140873538328 0 0.30869255759955722 0.41877018355733042 0 0.28607917402868899 0.43188291486824332 0 0.3075810200549029 0.4073564129674252 0 0.30869255759955722 0.41877018355733042 0 0.30232024370737348 0.40459188745546998 0 0.31142364564813352 0.41093370315849659 0 0.3075810200549029 0.4073564129674252 0 0.31015955469665918 0.40201373970895371 0 0.31142364564813352 0.41093370315849659 0 0.3075810200549029 0.4073564129674252 0 0.30869255759955722 0.41877018355733042 0 0.30869255759955722 0.41877018355733042 0 0.29605666041485018 0.40551048050067168 0 0.30232024370737348 0.40459188745546998 0 0.30869255759955722 0.41877018355733042 0 0.2819443595412231 0.40529087474680159 0 0.30869255759955722 0.41877018355733042 0 0.2819443595412231 0.40529087474680159 0 0.29605666041485018 0.40551048050067168 0 0.30869255759955722 0.41877018355733042 0 0.28607917402868899 0.43188291486824332 0 0.2819443595412231 0.40529087474680159 0 0.2490748840761759 0.41447913741323361 0 0.26600993858745892 0.42808938636359573 0 0.2819443595412231 0.40529087474680159 0 0.26777357876982372 0.45010753123404867 0 0.28607917402868899 0.43188291486824332 0 0.26600993858745892 0.42808938636359573 0 0.28607917402868899 0.43188291486824332 0 0.26600993858745892 0.42808938636359573 0 0.2819443595412231 0.40529087474680159 0 0.2490748840761759 0.41447913741323361 0 0.24517769652138269 0.43868647355565088 0 0.26600993858745892 0.42808938636359573 0 0.2490748840761759 0.41447913741323361 0 0.25519616148288887 0.39181156593627298 0 0.2819443595412231 0.40529087474680159 0 0.25519616148288887 0.39181156593627298 0 0.2618259464583832 0.36726095095448358 0 0.25519616148288887 0.39181156593627298 0 0.27405714121884811 0.38409687161834088 0 0.2618259464583832 0.36726095095448358 0 0.24305895760768401 0.36641304215893011 0 0.25519616148288887 0.39181156593627298 0 0.2618259464583832 0.36726095095448358 0 0.2490748840761759 0.41447913741323361 0 0.25519616148288887 0.39181156593627298 0 0.27405714121884811 0.38409687161834088 0 0.2819443595412231 0.40529087474680159 0 0.28762179706039948 0.39125587461843808 0 0.25519616148288887 0.39181156593627298 0 0.2819443595412231 0.40529087474680159 0 0.25519616148288887 0.39181156593627298 0 0.27405714121884811 0.38409687161834088 0 0.2819443595412231 0.40529087474680159 0 0.27405714121884811 0.38409687161834088 0 0.28403056220722062 0.37531448917755911 0 0.2737626695690904 0.37327007608818358 0 0.27405714121884811 0.38409687161834088 0 0.28403056220722062 0.37531448917755911 0 0.28762179706039948 0.39125587461843808 0 0.29405085274881382 0.37834813740539031 0 0.28762179706039948 0.39125587461843808 0 0.30049862001061489 0.39881078008944609 0 0.28403056220722062 0.37531448917755911 0 0.29405085274881382 0.37834813740539031 0 0.28762179706039948 0.39125587461843808 0 0.2819443595412231 0.40529087474680159 0 0.28762179706039948 0.39125587461843808 0 0.29316512877403511 0.40022580951085568 0 0.28762179706039948 0.39125587461843808 0 0.29316512877403511 0.40022580951085568 0 0.30049862001061489 0.39881078008944609 0 0.2819443595412231 0.40529087474680159 0 0.29316512877403511 0.40022580951085568 0 0.29605666041485018 0.40551048050067168 0 0.29316512877403511 0.40022580951085568 0 0.29605666041485018 0.40551048050067168 0 0.30042223720462058 0.4004666581126537 0 0.29605666041485018 0.40551048050067168 0 0.30232024370737348 0.40459188745546998 0 0.30042223720462058 0.4004666581126537 0 0.29316512877403511 0.40022580951085568 0 0.30042223720462058 0.4004666581126537 0 0.30049862001061489 0.39881078008944609 0 0.30042223720462058 0.4004666581126537 0 0.30049862001061489 0.39881078008944609 0 0.30232024370737348 0.40459188745546998 0 0.30049862001061489 0.39881078008944609 0 0.30232024370737348 0.40459188745546998 0 0.30049862001061489 0.39881078008944609 0 0.30430913302558388 0.40020258685778032 0 0.30232024370737348 0.40459188745546998 0 0.30042223720462058 0.4004666581126537 0 0.30049862001061489 0.39881078008944609 0 0.30049862001061489 0.39881078008944609 0 0.30098622665836988 0.38824011406760628 0 0.30049862001061489 0.39881078008944609 0 0.30430913302558388 0.40020258685778032 0 0.30098622665836988 0.38824011406760628 0 0.30098622665836988 0.38824011406760628 0 0.30110064445947421 0.38575968774854158 0 0.31262554991773928 0.39787599139405988 0 0.31015955469665918 0.40201373970895371 0 0.30098622665836988 0.38824011406760628 0 0.30110064445947421 0.38575968774854158 0 0.31262554991773928 0.39787599139405988 0 0.30430913302558388 0.40020258685778032 0 0.31015955469665918 0.40201373970895371 0 0.30098622665836988 0.38824011406760628 0 0.31015955469665918 0.40201373970895371 0 0.30098622665836988 0.38824011406760628 0 0.31262554991773928 0.39787599139405988 0 0.3075810200549029 0.4073564129674252 0 0.30232024370737348 0.40459188745546998 0 0.30430913302558388 0.40020258685778032 0 0.3075810200549029 0.4073564129674252 0 0.30430913302558388 0.40020258685778032 0 0.31015955469665918 0.40201373970895371 0 0.29405085274881382 0.37834813740539031 0 0.30049862001061489 0.39881078008944609 0 0.29405085274881382 0.37834813740539031 0 0.30049862001061489 0.39881078008944609 0 0.30098622665836988 0.38824011406760628 0 0.30110064445947421 0.38575968774854158 0 0.30177514978199971 0.3711373061071076 0 0.30110064445947421 0.38575968774854158 0 0.3104817065657739 0.3858680532317833 0 0.30177514978199971 0.3711373061071076 0 0.29405085274881382 0.37834813740539031 0 0.30110064445947421 0.38575968774854158 0 0.30177514978199971 0.3711373061071076 0 0.29405085274881382 0.37834813740539031 0 0.30110064445947421 0.38575968774854158 0 0.29405085274881382 0.37834813740539031 0 0.30098622665836988 0.38824011406760628 0 0.30110064445947421 0.38575968774854158 0 0.29405085274881382 0.37834813740539031 0 0.30098622665836988 0.38824011406760628 0 0.30098622665836988 0.38824011406760628 0 0.30110064445947421 0.38575968774854158 0 0.30110064445947421 0.38575968774854158 0 0.3104817065657739 0.3858680532317833 0 0.31262554991773928 0.39787599139405988 0 0.3104817065657739 0.3858680532317833 0 0.30177514978199971 0.3711373061071076 0 0.3104817065657739 0.3858680532317833 0 0.31717345926189522 0.3709258031848055 0 0.30177514978199971 0.3711373061071076 0 0.3104817065657739 0.3858680532317833 0 0.3376156911696272 0.37620073599141618 0 0.3104817065657739 0.3858680532317833 0 0.3376156911696272 0.37620073599141618 0 0.31717345926189522 0.3709258031848055 0 0.3104817065657739 0.3858680532317833 0 0.3376156911696272 0.37620073599141618 0 0.3351802944883514 0.39738750443412002 0 0.3376156911696272 0.37620073599141618 0 0.3351802944883514 0.39738750443412002 0 0.34879159400795012 0.38769315231290841 0 0.3351802944883514 0.39738750443412002 0 0.33658962428999861 0.41133204962483783 0 0.34988972217452752 0.40801784569160632 0 0.3351802944883514 0.39738750443412002 0 0.32415045537600512 0.40999229503957763 0 0.33658962428999861 0.41133204962483783 0 0.3351802944883514 0.39738750443412002 0 0.31909953512109351 0.40044867980609039 0 0.32415045537600512 0.40999229503957763 0 0.3104817065657739 0.3858680532317833 0 0.3351802944883514 0.39738750443412002 0 0.31909953512109351 0.40044867980609039 0 0.3104817065657739 0.3858680532317833 0 0.31909953512109351 0.40044867980609039 0 0.3104817065657739 0.3858680532317833 0 0.31262554991773928 0.39787599139405988 0 0.31909953512109351 0.40044867980609039 0 0.31262554991773928 0.39787599139405988 0 0.32415045537600512 0.40999229503957763 0 0.31015955469665918 0.40201373970895371 0 0.31262554991773928 0.39787599139405988 0 0.32415045537600512 0.40999229503957763 0 0.31262554991773928 0.39787599139405988 0 0.31909953512109351 0.40044867980609039 0 0.32415045537600512 0.40999229503957763 0 0.31015955469665918 0.40201373970895371 0 0.31933288273494848 0.41578736535030097 0 0.32415045537600512 0.40999229503957763 0 0.31142364564813352 0.41093370315849659 0 0.31015955469665918 0.40201373970895371 0 0.31933288273494848 0.41578736535030097 0 0.30869255759955722 0.41877018355733042 0 0.31933288273494848 0.41578736535030097 0 0.32906281765607392 0.42006619542527468 0 0.31015955469665918 0.40201373970895371 0 0.31933288273494848 0.41578736535030097 0 0.31142364564813352 0.41093370315849659 0 0.30869255759955722 0.41877018355733042 0 0.31933288273494848 0.41578736535030097 0 0.31933288273494848 0.41578736535030097 0 0.32415045537600512 0.40999229503957763 0 0.32906281765607392 0.42006619542527468 0 0.30869255759955722 0.41877018355733042 0 0.33457771181584611 0.43369686048393857 0 0.33544075565789128 0.43224949236785898 0 0.30869255759955722 0.41877018355733042 0 0.33544075565789128 0.43224949236785898 0 0.30610823095482448 0.43788140873538328 0 0.30869255759955722 0.41877018355733042 0 0.33457771181584611 0.43369686048393857 0 0.30869255759955722 0.41877018355733042 0 0.33544075565789128 0.43224949236785898 0 0.32906281765607392 0.42006619542527468 0 0.30610823095482448 0.43788140873538328 0 0.33457771181584611 0.43369686048393857 0 0.33457771181584611 0.43369686048393857 0 0.33544075565789128 0.43224949236785898 0 0.33746945485668051 0.4332718215327816 0 0.33457771181584611 0.43369686048393857 0 0.33544075565789128 0.43224949236785898 0 0.33544075565789128 0.43224949236785898 0 0.33746945485668051 0.4332718215327816 0 0.35001853239939229 0.42365555934674631 0 0.33544075565789128 0.43224949236785898 0 0.33746945485668051 0.4332718215327816 0 0.33457771181584611 0.43369686048393857 0 0.33746945485668051 0.4332718215327816 0 0.33544075565789128 0.43224949236785898 0 0.33658962428999861 0.41133204962483783 0 0.34988972217452752 0.40801784569160632 0 0.33544075565789128 0.43224949236785898 0 0.32906281765607392 0.42006619542527468 0 0.33658962428999861 0.41133204962483783 0 0.33544075565789128 0.43224949236785898 0 0.34988972217452752 0.40801784569160632 0 0.32415045537600512 0.40999229503957763 0 0.32906281765607392 0.42006619542527468 0 0.33658962428999861 0.41133204962483783 0 0.33544075565789128 0.43224949236785898 0 0.34988972217452752 0.40801784569160632 0 0.35001853239939229 0.42365555934674631 0 0.34988972217452752 0.40801784569160632 0 0.36165970526353591 0.41519797525725338 0 0.36412400085156282 0.39702719229323191 0 0.34988972217452752 0.40801784569160632 0 0.35001853239939229 0.42365555934674631 0 0.36165970526353591 0.41519797525725338 0 0.35494335133579169 0.44207750056399991 0 0.33746945485668051 0.4332718215327816 0 0.365542703577178 0.42914551292816783 0 0.33746945485668051 0.4332718215327816 0 0.35001853239939229 0.42365555934674631 0 0.365542703577178 0.42914551292816783 0 0.33746945485668051 0.4332718215327816 0 0.365542703577178 0.42914551292816783 0 0.35001853239939229 0.42365555934674631 0 0.365542703577178 0.42914551292816783 0 0.36165970526353591 0.41519797525725338 0 0.365542703577178 0.42914551292816783 0 0.36165970526353591 0.41519797525725338 0 0.37744029411777058 0.41252948965876268 0 0.36165970526353591 0.41519797525725338 0 0.36412400085156282 0.39702719229323191 0 0.37744029411777058 0.41252948965876268 0 0.36412400085156282 0.39702719229323191 0 0.38026367080056678 0.39066664182047522 0 0.37744029411777058 0.41252948965876268 0 0.34988972217452752 0.40801784569160632 0 0.36412400085156282 0.39702719229323191 0 0.36433868869116592 0.38378619901535488 0 0.36433868869116592 0.38378619901535488 0 0.3773824667175657 0.37546563606013739 0 0.38026367080056678 0.39066664182047522 0 0.36433868869116592 0.38378619901535488 0 0.36474967577348072 0.36653341875104961 0 0.3773824667175657 0.37546563606013739 0 0.36412400085156282 0.39702719229323191 0 0.36433868869116592 0.38378619901535488 0 0.38026367080056678 0.39066664182047522 0 0.36433868869116592 0.38378619901535488 0 0.36474967577348072 0.36653341875104961 0 0.36412400085156282 0.39702719229323191 0 0.36433868869116592 0.38378619901535488 0 0.3376156911696272 0.37620073599141618 0 0.34879159400795012 0.38769315231290841 0 0.36474967577348072 0.36653341875104961 0 0.36433868869116592 0.38378619901535488 0 0.34879159400795012 0.38769315231290841 0 0.36474967577348072 0.36653341875104961 0 0.3351802944883514 0.39738750443412002 0 0.34988972217452752 0.40801784569160632 0 0.34879159400795012 0.38769315231290841 0 0.34988972217452752 0.40801784569160632 0 0.36433868869116592 0.38378619901535488 0 0.34988972217452752 0.40801784569160632 0 0.36433868869116592 0.38378619901535488 0 0.34879159400795012 0.38769315231290841 0 0.34699100967064078 0.35539672769273539 0 0.36474967577348072 0.36653341875104961 0 0.36518945593320651 0.34509967395937191 0 0.34699100967064078 0.35539672769273539 0 0.36518945593320651 0.34509967395937191 0 0.348137396692076 0.34077307725183559 0 0.3376156911696272 0.37620073599141618 0 0.34699100967064078 0.35539672769273539 0 0.36474967577348072 0.36653341875104961 0 0.3376156911696272 0.37620073599141618 0 0.36474967577348072 0.36653341875104961 0 0.36474967577348072 0.36653341875104961 0 0.36518945593320651 0.34509967395937191 0 0.36474967577348072 0.36653341875104961 0 0.36518945593320651 0.34509967395937191 0 0.3855881021147175 0.35910908792858098 0 0.36518945593320651 0.34509967395937191 0 0.36562923609293069 0.32366592916769399 0 0.36518945593320651 0.34509967395937191 0 0.36562923609293069 0.32366592916769399 0 0.348137396692076 0.34077307725183559 0 0.36518945593320651 0.34509967395937191 0 0.36562923609293069 0.32366592916769399 0 0.38128435600444488 0.32837669887387311 0 0.36562923609293069 0.32366592916769399 0 0.36606901625265492 0.30223218437601618 0 0.38242981621443428 0.31397380775534678 0 0.36562923609293069 0.32366592916769399 0 0.36606901625265492 0.30223218437601618 0 0.36562923609293069 0.32366592916769399 0 0.34238706329751362 0.32476320095938682 0 0.35183379698966949 0.31056891257481539 0 0.36562923609293069 0.32366592916769399 0 0.348137396692076 0.34077307725183559 0 0.34238706329751362 0.32476320095938682 0 0.348137396692076 0.34077307725183559 0 0.33072504187423118 0.34237289876026822 0 0.34238706329751362 0.32476320095938682 0 0.33072504187423118 0.34237289876026822 0 0.34238706329751362 0.32476320095938682 0 0.32122702449841589 0.32177081607522939 0 0.34238706329751362 0.32476320095938682 0 0.33644502425256478 0.30910566618648461 0 0.35183379698966949 0.31056891257481539 0 0.34238706329751362 0.32476320095938682 0 0.32122702449841589 0.32177081607522939 0 0.33644502425256478 0.30910566618648461 0 0.32122702449841589 0.32177081607522939 0 0.31445651652981632 0.33878768779705848 0 0.30372390616191358 0.32889084998335888 0 0.33072504187423118 0.34237289876026822 0 0.32122702449841589 0.32177081607522939 0 0.31445651652981632 0.33878768779705848 0 0.33072504187423118 0.34237289876026822 0 0.31445651652981632 0.33878768779705848 0 0.31594857135045817 0.35062531106266931 0 0.33072504187423118 0.34237289876026822 0 0.31594857135045817 0.35062531106266931 0 0.32442852787466708 0.36030442639367111 0 0.31594857135045817 0.35062531106266931 0 0.32442852787466708 0.36030442639367111 0 0.31156622091740832 0.36111849420004938 0 0.34699100967064078 0.35539672769273539 0 0.348137396692076 0.34077307725183559 0 0.33072504187423118 0.34237289876026822 0 0.34699100967064078 0.35539672769273539 0 0.33072504187423118 0.34237289876026822 0 0.32442852787466708 0.36030442639367111 0 0.3376156911696272 0.37620073599141618 0 0.34699100967064078 0.35539672769273539 0 0.32442852787466708 0.36030442639367111 0 0.3376156911696272 0.37620073599141618 0 0.32442852787466708 0.36030442639367111 0 0.31717345926189522 0.3709258031848055 0 0.32442852787466708 0.36030442639367111 0 0.31717345926189522 0.3709258031848055 0 0.31156622091740832 0.36111849420004938 0 0.30177514978199971 0.3711373061071076 0 0.30274952797195698 0.35001407804523332 0 0.31717345926189522 0.3709258031848055 0 0.31156622091740832 0.36111849420004938 0 0.30177514978199971 0.3711373061071076 0 0.31156622091740832 0.36111849420004938 0 0.30177514978199971 0.3711373061071076 0 0.30274952797195698 0.35001407804523332 0 0.30177514978199971 0.3711373061071076 0 0.30274952797195698 0.35001407804523332 0 0.29106955940472562 0.3530243656434488 0 0.31445651652981632 0.33878768779705848 0 0.31594857135045817 0.35062531106266931 0 0.30274952797195698 0.35001407804523332 0 0.31594857135045817 0.35062531106266931 0 0.31156622091740832 0.36111849420004938 0 0.30274952797195698 0.35001407804523332 0 0.29106955940472562 0.3530243656434488 0 0.28705150305193838 0.35613499197806497 0 0.28036396902745148 0.33491142517978989 0 0.28705150305193838 0.35613499197806497 0 0.28036396902745148 0.33491142517978989 0 0.28705150305193838 0.35613499197806497 0 0.27644360280618341 0.34191623842927221 0 0.28036396902745148 0.33491142517978989 0 0.29106955940472562 0.3530243656434488 0 0.28036396902745148 0.33491142517978989 0 0.30274952797195698 0.35001407804523332 0 0.29106955940472562 0.3530243656434488 0 0.29374099595638509 0.3392252011883215 0 0.28705150305193838 0.35613499197806497 0 0.28458867991473008 0.36361942358965982 0 0.27543832275303448 0.34988028840297991 0 0.29405085274881382 0.37834813740539031 0 0.28705150305193838 0.35613499197806497 0 0.28458867991473008 0.36361942358965982 0 0.29405085274881382 0.37834813740539031 0 0.28705150305193838 0.35613499197806497 0 0.30177514978199971 0.3711373061071076 0 0.29106955940472562 0.3530243656434488 0 0.29405085274881382 0.37834813740539031 0 0.30177514978199971 0.3711373061071076 0 0.28705150305193838 0.35613499197806497 0 0.30177514978199971 0.3711373061071076 0 0.29106955940472562 0.3530243656434488 0 0.28705150305193838 0.35613499197806497 0 0.29405085274881382 0.37834813740539031 0 0.28458867991473008 0.36361942358965982 0 0.28403056220722062 0.37531448917755911 0 0.2815017213106239 0.3651550498314205 0 0.27898286169525299 0.37041503512408969 0 0.29405085274881382 0.37834813740539031 0 0.2815017213106239 0.3651550498314205 0 0.28403056220722062 0.37531448917755911 0 0.29405085274881382 0.37834813740539031 0 0.2815017213106239 0.3651550498314205 0 0.29405085274881382 0.37834813740539031 0 0.28458867991473008 0.36361942358965982 0 0.2815017213106239 0.3651550498314205 0 0.28403056220722062 0.37531448917755911 0 0.27898286169525299 0.37041503512408969 0 0.2737626695690904 0.37327007608818358 0 0.27663649369407689 0.36792052539919551 0 0.2737626695690904 0.37327007608818358 0 0.27125000512352843 0.36234153133647429 0 0.27405714121884811 0.38409687161834088 0 0.2737626695690904 0.37327007608818358 0 0.2618259464583832 0.36726095095448358 0 0.2815017213106239 0.3651550498314205 0 0.27898286169525299 0.37041503512408969 0 0.27663649369407689 0.36792052539919551 0 0.27898286169525299 0.37041503512408969 0 0.27663649369407689 0.36792052539919551 0 0.2737626695690904 0.37327007608818358 0 0.2737626695690904 0.37327007608818358 0 0.27125000512352843 0.36234153133647429 0 0.2618259464583832 0.36726095095448358 0 0.27125000512352843 0.36234153133647429 0 0.26895258987243392 0.3519619622574508 0 0.2618259464583832 0.36726095095448358 0 0.2815017213106239 0.3651550498314205 0 0.27125000512352843 0.36234153133647429 0 0.26895258987243392 0.3519619622574508 0 0.2815017213106239 0.3651550498314205 0 0.27663649369407689 0.36792052539919551 0 0.27125000512352843 0.36234153133647429 0 0.28458867991473008 0.36361942358965982 0 0.2815017213106239 0.3651550498314205 0 0.27543832275303448 0.34988028840297991 0 0.2815017213106239 0.3651550498314205 0 0.26895258987243392 0.3519619622574508 0 0.28458867991473008 0.36361942358965982 0 0.27543832275303448 0.34988028840297991 0 0.26895258987243392 0.3519619622574508 0 0.2618259464583832 0.36726095095448358 0 0.2684557314338783 0.34271033597269462 0 0.2815017213106239 0.3651550498314205 0 0.27543832275303448 0.34988028840297991 0 0.26895258987243392 0.3519619622574508 0 0.28705150305193838 0.35613499197806497 0 0.27543832275303448 0.34988028840297991 0 0.27644360280618341 0.34191623842927221 0 0.27543832275303448 0.34988028840297991 0 0.2684557314338783 0.34271033597269462 0 0.27644360280618341 0.34191623842927221 0 0.27543832275303448 0.34988028840297991 0 0.26895258987243392 0.3519619622574508 0 0.2684557314338783 0.34271033597269462 0 0.2618259464583832 0.36726095095448358 0 0.2684557314338783 0.34271033597269462 0 0.24521693247762111 0.35027114815259558 0 0.2618259464583832 0.36726095095448358 0 0.2684557314338783 0.34271033597269462 0 0.24305895760768401 0.36641304215893011 0 0.24521693247762111 0.35027114815259558 0 0.2618259464583832 0.36726095095448358 0 0.24490867605631639 0.32967072069511189 0 0.26050839607327853 0.32387463406168998 0 0.25114017462525878 0.31153615041935723 0 0.26050839607327853 0.32387463406168998 0 0.25114017462525878 0.31153615041935723 0 0.26342424027676908 0.31148804944983333 0 0.24490867605631639 0.32967072069511189 0 0.26050839607327853 0.32387463406168998 0 0.2684557314338783 0.34271033597269462 0 0.24490867605631639 0.32967072069511189 0 0.24521693247762111 0.35027114815259558 0 0.2684557314338783 0.34271033597269462 0 0.26050839607327853 0.32387463406168998 0 0.2684557314338783 0.34271033597269462 0 0.27508551640937329 0.31815972099090539 0 0.2684557314338783 0.34271033597269462 0 0.27508551640937329 0.31815972099090539 0 0.2684557314338783 0.34271033597269462 0 0.27787730485363338 0.33070420273373929 0 0.27508551640937329 0.31815972099090539 0 0.2684557314338783 0.34271033597269462 0 0.27644360280618341 0.34191623842927221 0 0.27787730485363338 0.33070420273373929 0 0.27644360280618341 0.34191623842927221 0 0.28036396902745148 0.33491142517978989 0 0.27787730485363338 0.33070420273373929 0 0.28036396902745148 0.33491142517978989 0 0.27787730485363338 0.33070420273373929 0 0.28036396902745148 0.33491142517978989 0 0.27787730485363338 0.33070420273373929 0 0.27508551640937329 0.31815972099090539 0 0.28036396902745148 0.33491142517978989 0 0.27508551640937329 0.31815972099090539 0 0.26050839607327853 0.32387463406168998 0 0.27508551640937329 0.31815972099090539 0 0.26342424027676908 0.31148804944983333 0 0.27584787744150779 0.31533663815394608 0 0.27508551640937329 0.31815972099090539 0 0.2839587577339367 0.31315639516335231 0 0.27584787744150779 0.31533663815394608 0 0.27508551640937329 0.31815972099090539 0 0.28036396902745148 0.33491142517978989 0 0.27508551640937329 0.31815972099090539 0 0.28884331716543121 0.32432796479040632 0 0.27508551640937329 0.31815972099090539 0 0.2839587577339367 0.31315639516335231 0 0.28884331716543121 0.32432796479040632 0 0.2839587577339367 0.31315639516335231 0 0.28884331716543121 0.32432796479040632 0 0.29436859405188742 0.31561290386725788 0 0.28884331716543121 0.32432796479040632 0 0.29436859405188742 0.31561290386725788 0 0.30372390616191358 0.32889084998335888 0 0.29106955940472562 0.3530243656434488 0 0.28036396902745148 0.33491142517978989 0 0.29374099595638509 0.3392252011883215 0 0.28036396902745148 0.33491142517978989 0 0.28884331716543121 0.32432796479040632 0 0.29374099595638509 0.3392252011883215 0 0.28884331716543121 0.32432796479040632 0 0.29374099595638509 0.3392252011883215 0 0.30372390616191358 0.32889084998335888 0 0.30274952797195698 0.35001407804523332 0 0.29374099595638509 0.3392252011883215 0 0.30372390616191358 0.32889084998335888 0 0.31445651652981632 0.33878768779705848 0 0.30274952797195698 0.35001407804523332 0 0.30372390616191358 0.32889084998335888 0 0.30274952797195698 0.35001407804523332 0 0.30372390616191358 0.32889084998335888 0 0.29436859405188742 0.31561290386725788 0 0.30372390616191358 0.32889084998335888 0 0.30469828435187041 0.30776762192148471 0 0.32122702449841589 0.32177081607522939 0 0.30372390616191358 0.32889084998335888 0 0.30469828435187041 0.30776762192148471 0 0.30372390616191358 0.32889084998335888 0 0.30469828435187041 0.30776762192148471 0 0.30469828435187041 0.30776762192148471 0 0.29887142377560671 0.29447355700322281 0 0.31975384086217118 0.29390073052843008 0 0.30469828435187041 0.30776762192148471 0 0.29887142377560671 0.29447355700322281 0 0.29061870484628499 0.30392168747768772 0 0.29887142377560671 0.29447355700322281 0 0.29803417524575498 0.27809430922643119 0 0.31975384086217118 0.29390073052843008 0 0.29887142377560671 0.29447355700322281 0 0.28125211357195179 0.28868343586208051 0 0.29803417524575498 0.27809430922643119 0 0.29887142377560671 0.29447355700322281 0 0.28125211357195179 0.28868343586208051 0 0.29061870484628499 0.30392168747768772 0 0.29436859405188742 0.31561290386725788 0 0.30469828435187041 0.30776762192148471 0 0.29061870484628499 0.30392168747768772 0 0.2839587577339367 0.31315639516335231 0 0.29436859405188742 0.31561290386725788 0 0.29061870484628499 0.30392168747768772 0 0.28125211357195179 0.28868343586208051 0 0.29061870484628499 0.30392168747768772 0 0.27979091010679558 0.3031930520058399 0 0.2839587577339367 0.31315639516335231 0 0.29061870484628499 0.30392168747768772 0 0.27979091010679558 0.3031930520058399 0 0.27584787744150779 0.31533663815394608 0 0.2839587577339367 0.31315639516335231 0 0.27979091010679558 0.3031930520058399 0 0.27584787744150779 0.31533663815394608 0 0.27979091010679558 0.3031930520058399 0 0.26696287399916629 0.2923816923273807 0 0.27508551640937329 0.31815972099090539 0 0.26696287399916629 0.2923816923273807 0 0.27508551640937329 0.31815972099090539 0 0.26696287399916629 0.2923816923273807 0 0.26342424027676908 0.31148804944983333 0 0.27584787744150779 0.31533663815394608 0 0.27508551640937329 0.31815972099090539 0 0.26696287399916629 0.2923816923273807 0 0.28125211357195179 0.28868343586208051 0 0.26696287399916629 0.2923816923273807 0 0.26185531842249993 0.2787869231154117 0 0.28125211357195179 0.28868343586208051 0 0.27979091010679558 0.3031930520058399 0 0.26696287399916629 0.2923816923273807 0 0.2454028482605469 0.29267792886045368 0 0.26696287399916629 0.2923816923273807 0 0.26185531842249993 0.2787869231154117 0 0.24818821145747599 0.27522177653690871 0 0.2454028482605469 0.29267792886045368 0 0.26185531842249993 0.2787869231154117 0 0.26696287399916629 0.2923816923273807 0 0.25114017462525878 0.31153615041935723 0 0.26342424027676908 0.31148804944983333 0 0.2454028482605469 0.29267792886045368 0 0.26696287399916629 0.2923816923273807 0 0.25114017462525878 0.31153615041935723 0 0.25404003316197471 0.25208422786308371 0 0.25530776412370298 0.26639583896058622 0 0.27103688063193948 0.26427270241964718 0 0.24090080429007341 0.26281353644332878 0 0.25404003316197471 0.25208422786308371 0 0.25530776412370298 0.26639583896058622 0 0.25530776412370298 0.26639583896058622 0 0.26185531842249993 0.2787869231154117 0 0.27103688063193948 0.26427270241964718 0 0.24818821145747599 0.27522177653690871 0 0.25530776412370298 0.26639583896058622 0 0.26185531842249993 0.2787869231154117 0 0.28125211357195179 0.28868343586208051 0 0.26185531842249993 0.2787869231154117 0 0.27103688063193948 0.26427270241964718 0 0.25404003316197471 0.25208422786308371 0 0.27103688063193948 0.26427270241964718 0 0.27355486584907379 0.24364475180805101 0 0.27103688063193948 0.26427270241964718 0 0.29692855903906679 0.25537037528416417 0 0.27355486584907379 0.24364475180805101 0 0.27103688063193948 0.26427270241964718 0 0.29803417524575498 0.27809430922643119 0 0.29692855903906679 0.25537037528416417 0 0.28125211357195179 0.28868343586208051 0 0.27103688063193948 0.26427270241964718 0 0.29803417524575498 0.27809430922643119 0 0.29803417524575498 0.27809430922643119 0 0.29692855903906679 0.25537037528416417 0 0.32239972953691409 0.26902358330948362 0 0.29692855903906679 0.25537037528416417 0 0.32239972953691409 0.26902358330948362 0 0.32448256229391081 0.244023600812113 0 0.34859232732963041 0.2656914204712259 0 0.32448256229391081 0.244023600812113 0 0.35052125483258301 0.2434514759103418 0 0.32239972953691409 0.26902358330948362 0 0.34859232732963041 0.2656914204712259 0 0.32448256229391081 0.244023600812113 0 0.32239972953691409 0.26902358330948362 0 0.34580587121379802 0.29027056413174801 0 0.34859232732963041 0.2656914204712259 0 0.32239972953691409 0.26902358330948362 0 0.34859232732963041 0.2656914204712259 0 0.29803417524575498 0.27809430922643119 0 0.32239972953691409 0.26902358330948362 0 0.31975384086217118 0.29390073052843008 0 0.32122702449841589 0.32177081607522939 0 0.30469828435187041 0.30776762192148471 0 0.31975384086217118 0.29390073052843008 0 0.32122702449841589 0.32177081607522939 0 0.31975384086217118 0.29390073052843008 0 0.33644502425256478 0.30910566618648461 0 0.31975384086217118 0.29390073052843008 0 0.33644502425256478 0.30910566618648461 0 0.34580587121379802 0.29027056413174801 0 0.32239972953691409 0.26902358330948362 0 0.31975384086217118 0.29390073052843008 0 0.34580587121379802 0.29027056413174801 0 0.34580587121379802 0.29027056413174801 0 0.35183379698966949 0.31056891257481539 0 0.36606901625265492 0.30223218437601618 0 0.33644502425256478 0.30910566618648461 0 0.34580587121379802 0.29027056413174801 0 0.35183379698966949 0.31056891257481539 0 0.36562923609293069 0.32366592916769399 0 0.35183379698966949 0.31056891257481539 0 0.36606901625265492 0.30223218437601618 0 0.36606901625265492 0.30223218437601618 0 0.37288852905391068 0.28307277276217568 0 0.38313639778678782 0.29894980138166888 0 0.34580587121379802 0.29027056413174801 0 0.36606901625265492 0.30223218437601618 0 0.37288852905391068 0.28307277276217568 0 0.37288852905391068 0.28307277276217568 0 0.37478492512234668 0.26235925763296819 0 0.34859232732963041 0.2656914204712259 0 0.37478492512234668 0.26235925763296819 0 0.34859232732963041 0.2656914204712259 0 0.37478492512234668 0.26235925763296819 0 0.34859232732963041 0.2656914204712259 0 0.35052125483258301 0.2434514759103418 0 0.34580587121379802 0.29027056413174801 0 0.37288852905391068 0.28307277276217568 0 0.34859232732963041 0.2656914204712259 0 0.40237095019481112 0.27711100542787093 0 0.40097752291506289 0.25902709479471048 0 0.38795285511664351 0.27501277358291848 0 0.40237095019481112 0.27711100542787093 0 0.38795285511664351 0.27501277358291848 0 0.39245341439736259 0.28869000139839213 0 0.37478492512234668 0.26235925763296819 0 0.40097752291506289 0.25902709479471048 0 0.37478492512234668 0.26235925763296819 0 0.40097752291506289 0.25902709479471048 0 0.38795285511664351 0.27501277358291848 0 0.37478492512234668 0.26235925763296819 0 0.40097752291506289 0.25902709479471048 0 0.39333580902427501 0.24081282939082621 0 0.37288852905391068 0.28307277276217568 0 0.37478492512234668 0.26235925763296819 0 0.38795285511664351 0.27501277358291848 0 0.37288852905391068 0.28307277276217568 0 0.38795285511664351 0.27501277358291848 0 0.39245341439736259 0.28869000139839213 0 0.37288852905391068 0.28307277276217568 0 0.38313639778678782 0.29894980138166888 0 0.39245341439736259 0.28869000139839213 0 0.38313639778678782 0.29894980138166888 0 0.40184121301557668 0.30678024061641418 0 0.38242981621443428 0.31397380775534678 0 0.36606901625265492 0.30223218437601618 0 0.38313639778678782 0.29894980138166888 0 0.38242981621443428 0.31397380775534678 0 0.38313639778678782 0.29894980138166888 0 0.40184121301557668 0.30678024061641418 0 0.39245341439736259 0.28869000139839213 0 0.40184121301557668 0.30678024061641418 0 0.39245341439736259 0.28869000139839213 0 0.4080647950624654 0.29173952990842672 0 0.40237095019481112 0.27711100542787093 0 0.39245341439736259 0.28869000139839213 0 0.4080647950624654 0.29173952990842672 0 0.4080647950624654 0.29173952990842672 0 0.42111158276914429 0.29961990628964941 0 0.41801819212357011 0.2740782959756311 0 0.42111158276914429 0.29961990628964941 0 0.41801819212357011 0.2740782959756311 0 0.42111158276914429 0.29961990628964941 0 0.41431845905081632 0.31211616404088999 0 0.42420497341471841 0.32516151660366771 0 0.40184121301557668 0.30678024061641418 0 0.41169384258873692 0.3030193229363472 0 0.41431845905081632 0.31211616404088999 0 0.4080647950624654 0.29173952990842672 0 0.41169384258873692 0.3030193229363472 0 0.42111158276914429 0.29961990628964941 0 0.40184121301557668 0.30678024061641418 0 0.4080647950624654 0.29173952990842672 0 0.41169384258873692 0.3030193229363472 0 0.41169384258873692 0.3030193229363472 0 0.42111158276914429 0.29961990628964941 0 0.41431845905081632 0.31211616404088999 0 0.42111158276914429 0.29961990628964941 0 0.42420497341471841 0.32516151660366771 0 0.42111158276914429 0.29961990628964941 0 0.42968026012840121 0.30115694743242971 0 0.43130474666914309 0.31304161877190062 0 0.42968026012840121 0.30115694743242971 0 0.44258646999382029 0.30990113159980692 0 0.42968026012840121 0.30115694743242971 0 0.44258646999382029 0.30990113159980692 0 0.43130474666914309 0.31304161877190062 0 0.42111158276914429 0.29961990628964941 0 0.42800801910193731 0.28582653817902792 0 0.41801819212357011 0.2740782959756311 0 0.42968026012840121 0.30115694743242971 0 0.42800801910193731 0.28582653817902792 0 0.44797459424715858 0.28113195035900113 0 0.42111158276914429 0.29961990628964941 0 0.42968026012840121 0.30115694743242971 0 0.42800801910193731 0.28582653817902792 0 0.4349067289361882 0.26981889711766149 0 0.41801819212357011 0.2740782959756311 0 0.42717012070777932 0.25569493195645271 0 0.42800801910193731 0.28582653817902792 0 0.4349067289361882 0.26981889711766149 0 0.44797459424715858 0.28113195035900113 0 0.42800801910193731 0.28582653817902792 0 0.4349067289361882 0.26981889711766149 0 0.41801819212357011 0.2740782959756311 0 0.40237095019481112 0.27711100542787093 0 0.4080647950624654 0.29173952990842672 0 0.41801819212357011 0.2740782959756311 0 0.40237095019481112 0.27711100542787093 0 0.40097752291506289 0.25902709479471048 0 0.41801819212357011 0.2740782959756311 0 0.40097752291506289 0.25902709479471048 0 0.42717012070777932 0.25569493195645271 0 0.40097752291506289 0.25902709479471048 0 0.41801819212357011 0.2740782959756311 0 0.42717012070777932 0.25569493195645271 0 0.40097752291506289 0.25902709479471048 0 0.42717012070777932 0.25569493195645271 0 0.41286841049430861 0.24788583003777651 0 0.42717012070777932 0.25569493195645271 0 0.45336271850049548 0.25236276911819511 0 0.42717012070777932 0.25569493195645271 0 0.45336271850049548 0.25236276911819511 0 0.44134696414428898 0.24814556957704689 0 0.4349067289361882 0.26981889711766149 0 0.42717012070777932 0.25569493195645271 0 0.45336271850049548 0.25236276911819511 0 0.44797459424715858 0.28113195035900113 0 0.45336271850049548 0.25236276911819511 0 0.4349067289361882 0.26981889711766149 0 0.44797459424715858 0.28113195035900113 0 0.45336271850049548 0.25236276911819511 0 0.44797459424715858 0.28113195035900113 0 0.46860043072286323 0.26090172283992602 0 0.47518926652314969 0.27560515809727743 0 0.44797459424715858 0.28113195035900113 0 0.45336271850049548 0.25236276911819511 0 0.46860043072286323 0.26090172283992602 0 0.45336271850049548 0.25236276911819511 0 0.46860043072286323 0.26090172283992602 0 0.48180965237011408 0.2487438147612096 0 0.45336271850049548 0.25236276911819511 0 0.48180965237011408 0.2487438147612096 0 0.46860043072286323 0.26090172283992602 0 0.48241006781490819 0.26268970127635521 0 0.48180965237011408 0.2487438147612096 0 0.46860043072286323 0.26090172283992602 0 0.48241006781490819 0.26268970127635521 0 0.47518926652314969 0.27560515809727743 0 0.48241006781490819 0.26268970127635521 0 0.47518926652314969 0.27560515809727743 0 0.48864569132575902 0.27555399191102209 0 0.48864569132575902 0.27555399191102209 0 0.5 0.25788891558126559 0 0.5 0.28784398070901179 0 0.48241006781490819 0.26268970127635521 0 0.5 0.25788891558126559 0 0.48180965237011408 0.2487438147612096 0 0.48241006781490819 0.26268970127635521 0 0.48864569132575902 0.27555399191102209 0 0.5 0.25788891558126559 0 0.49687855588093471 0.30562269631142192 0 0.5 0.28784398070901179 0 0.5 0.31779904583675789 0 0.48491490847636098 0.30901068293115042 0 0.49687855588093471 0.30562269631142192 0 0.48562912229073679 0.29374220389120048 0 0.48491490847636098 0.30901068293115042 0 0.49687855588093471 0.30562269631142192 0 0.48893996521802741 0.32077530068026477 0 0.48864569132575902 0.27555399191102209 0 0.5 0.28784398070901179 0 0.48562912229073679 0.29374220389120048 0 0.49687855588093471 0.30562269631142192 0 0.5 0.28784398070901179 0 0.48562912229073679 0.29374220389120048 0 0.47518926652314969 0.27560515809727743 0 0.48864569132575902 0.27555399191102209 0 0.48562912229073679 0.29374220389120048 0 0.47518926652314969 0.27560515809727743 0 0.48562912229073679 0.29374220389120048 0 0.46816558308298489 0.29083511245767268 0 0.48562912229073679 0.29374220389120048 0 0.47222103054853309 0.30536857664361422 0 0.46816558308298489 0.29083511245767268 0 0.48491490847636098 0.30901068293115042 0 0.48562912229073679 0.29374220389120048 0 0.47222103054853309 0.30536857664361422 0 0.48491490847636098 0.30901068293115042 0 0.47222103054853309 0.30536857664361422 0 0.47648252662976798 0.31886183994020412 0 0.47222103054853309 0.30536857664361422 0 0.45866337291811637 0.30169365927876157 0 0.46179392227446953 0.32291451832445861 0 0.45866337291811637 0.30169365927876157 0 0.44258646999382029 0.30990113159980692 0 0.46179392227446953 0.32291451832445861 0 0.47222103054853309 0.30536857664361422 0 0.45866337291811637 0.30169365927876157 0 0.46816558308298489 0.29083511245767268 0 0.44797459424715858 0.28113195035900113 0 0.45866337291811637 0.30169365927876157 0 0.46816558308298489 0.29083511245767268 0 0.44797459424715858 0.28113195035900113 0 0.47518926652314969 0.27560515809727743 0 0.46816558308298489 0.29083511245767268 0 0.44797459424715858 0.28113195035900113 0 0.44258646999382029 0.30990113159980692 0 0.42968026012840121 0.30115694743242971 0 0.44797459424715858 0.28113195035900113 0 0.44258646999382029 0.30990113159980692 0 0.44797459424715858 0.28113195035900113 0 0.45866337291811637 0.30169365927876157 0 0.44258646999382029 0.30990113159980692 0 0.44258646999382029 0.30990113159980692 0 0.46179392227446953 0.32291451832445861 0 0.44258646999382029 0.30990113159980692 0 0.43894044703962998 0.32936859193394902 0 0.46179392227446953 0.32291451832445861 0 0.44258646999382029 0.30990113159980692 0 0.43894044703962998 0.32936859193394902 0 0.44258646999382029 0.30990113159980692 0 0.43894044703962998 0.32936859193394902 0 0.43130474666914309 0.31304161877190062 0 0.43894044703962998 0.32936859193394902 0 0.45181909328986353 0.33594590439129729 0 0.43529442408543872 0.34883605226809089 0 0.43894044703962998 0.32936859193394902 0 0.45181909328986353 0.33594590439129729 0 0.46179392227446953 0.32291451832445861 0 0.45181909328986353 0.33594590439129729 0 0.46495921083649527 0.33796731498031379 0 0.45493863887308472 0.34850758154427958 0 0.45181909328986353 0.33594590439129729 0 0.46495921083649527 0.33796731498031379 0 0.46179392227446953 0.32291451832445861 0 0.47648252662976798 0.31886183994020412 0 0.48100137455512032 0.33592790504910791 0 0.48893996521802741 0.32077530068026477 0 0.46179392227446953 0.32291451832445861 0 0.47648252662976798 0.31886183994020412 0 0.48100137455512032 0.33592790504910791 0 0.47222103054853309 0.30536857664361422 0 0.46179392227446953 0.32291451832445861 0 0.47648252662976798 0.31886183994020412 0 0.48491490847636098 0.30901068293115042 0 0.47648252662976798 0.31886183994020412 0 0.48893996521802741 0.32077530068026477 0 0.46179392227446953 0.32291451832445861 0 0.48100137455512032 0.33592790504910791 0 0.46495921083649527 0.33796731498031379 0 0.48100137455512032 0.33592790504910791 0 0.47458285366073072 0.34817911082046721 0 0.46495921083649527 0.33796731498031379 0 0.46179392227446953 0.32291451832445861 0 0.48100137455512032 0.33592790504910791 0 0.48100137455512032 0.33592790504910791 0 0.47458285366073072 0.34817911082046721 0 0.48100137455512032 0.33592790504910791 0 0.48893996521802741 0.32077530068026477 0 0.48100137455512032 0.33592790504910791 0 0.4984937498586452 0.34777929695842291 0 0.5 0.31779904583675789 0 0.48893996521802741 0.32077530068026477 0 0.4984937498586452 0.34777929695842291 0 0.5 0.31779904583675789 0 0.4984937498586452 0.34777929695842291 0 0.50000000000000433 0.34775411096450393 0 0.48100137455512032 0.33592790504910791 0 0.48893996521802741 0.32077530068026477 0 0.4984937498586452 0.34777929695842291 0 0.49687855588093471 0.30562269631142192 0 0.48893996521802741 0.32077530068026477 0 0.49687855588093471 0.30562269631142192 0 0.5 0.31779904583675789 0 0.48893996521802741 0.32077530068026477 0 0.5 0.37175840028027313 0 0.48688174284785979 0.35971936811564431 0 0.50000000000000433 0.34775411096450393 0 0.5 0.37175840028027313 0 0.48688174284785979 0.35971936811564431 0 0.48177296974371542 0.3780796821533936 0 0.48100137455512032 0.33592790504910791 0 0.4984937498586452 0.34777929695842291 0 0.47458285366073072 0.34817911082046721 0 0.48688174284785979 0.35971936811564431 0 0.4984937498586452 0.34777929695842291 0 0.47458285366073072 0.34817911082046721 0 0.48688174284785979 0.35971936811564431 0 0.4984937498586452 0.34777929695842291 0 0.50000000000000433 0.34775411096450393 0 0.4984937498586452 0.34777929695842291 0 0.47458285366073072 0.34817911082046721 0 0.4984937498586452 0.34777929695842291 0 0.50000000000000433 0.34775411096450393 0 0.48688174284785979 0.35971936811564431 0 0.47458285366073072 0.34817911082046721 0 0.46644088382406917 0.36371991056145853 0 0.47458285366073072 0.34817911082046721 0 0.46644088382406917 0.36371991056145853 0 0.46644088382406917 0.36371991056145853 0 0.45829891398740957 0.37926071030245079 0 0.48177296974371542 0.3780796821533936 0 0.48688174284785979 0.35971936811564431 0 0.46644088382406917 0.36371991056145853 0 0.48177296974371542 0.3780796821533936 0 0.46644088382406917 0.36371991056145853 0 0.45829891398740957 0.37926071030245079 0 0.46644088382406917 0.36371991056145853 0 0.45450488254489102 0.36219879314378839 0 0.45829891398740957 0.37926071030245079 0 0.46495921083649527 0.33796731498031379 0 0.47458285366073072 0.34817911082046721 0 0.45493863887308472 0.34850758154427958 0 0.47458285366073072 0.34817911082046721 0 0.45493863887308472 0.34850758154427958 0 0.47458285366073072 0.34817911082046721 0 0.46644088382406917 0.36371991056145853 0 0.45493863887308472 0.34850758154427958 0 0.46644088382406917 0.36371991056145853 0 0.45450488254489102 0.36219879314378839 0 0.45493863887308472 0.34850758154427958 0 0.45181909328986353 0.33594590439129729 0 0.45493863887308472 0.34850758154427958 0 0.43529442408543872 0.34883605226809089 0 0.45493863887308472 0.34850758154427958 0 0.44448268479035308 0.35511800724889642 0 0.43529442408543872 0.34883605226809089 0 0.45493863887308472 0.34850758154427958 0 0.43529442408543872 0.34883605226809089 0 0.45450488254489102 0.36219879314378839 0 0.45493863887308472 0.34850758154427958 0 0.44448268479035308 0.35511800724889642 0 0.44448268479035308 0.35511800724889642 0 0.44279863902385319 0.36498191861006751 0 0.43487683942449812 0.35106569067825599 0 0.44448268479035308 0.35511800724889642 0 0.43529442408543872 0.34883605226809089 0 0.43487683942449812 0.35106569067825599 0 0.45450488254489102 0.36219879314378839 0 0.44279863902385319 0.36498191861006751 0 0.45829891398740957 0.37926071030245079 0 0.44279863902385319 0.36498191861006751 0 0.45829891398740957 0.37926071030245079 0 0.45450488254489102 0.36219879314378839 0 0.44448268479035308 0.35511800724889642 0 0.44279863902385319 0.36498191861006751 0 0.42892444364691579 0.3641293946929936 0 0.42225433889660879 0.37545697575276449 0 0.43605286711449009 0.38080977408974359 0 0.44279863902385319 0.36498191861006751 0 0.42892444364691579 0.3641293946929936 0 0.43605286711449009 0.38080977408974359 0 0.44279863902385319 0.36498191861006751 0 0.42892444364691579 0.3641293946929936 0 0.42729836406029548 0.35070312691768563 0 0.42892444364691579 0.3641293946929936 0 0.41660844069210962 0.35988002802349189 0 0.42225433889660879 0.37545697575276449 0 0.41660844069210962 0.35988002802349189 0 0.40918213701441342 0.3736144609854074 0 0.42225433889660879 0.37545697575276449 0 0.41660844069210962 0.35988002802349189 0 0.40918213701441342 0.3736144609854074 0 0.40205795884979889 0.36380219258680641 0 0.40642652845595439 0.35168475710611302 0 0.41593005466970517 0.35003896004439389 0 0.41338688547046137 0.33788792813028518 0 0.41660844069210962 0.35988002802349189 0 0.40642652845595439 0.35168475710611302 0 0.40205795884979889 0.36380219258680641 0 0.41660844069210962 0.35988002802349189 0 0.40642652845595439 0.35168475710611302 0 0.41593005466970517 0.35003896004439389 0 0.41660844069210962 0.35988002802349189 0 0.41593005466970517 0.35003896004439389 0 0.42729836406029548 0.35070312691768563 0 0.42729836406029548 0.35070312691768563 0 0.41338688547046137 0.33788792813028518 0 0.41593005466970517 0.35003896004439389 0 0.42729836406029548 0.35070312691768563 0 0.41338688547046137 0.33788792813028518 0 0.42892444364691579 0.3641293946929936 0 0.41660844069210962 0.35988002802349189 0 0.42729836406029548 0.35070312691768563 0 0.42892444364691579 0.3641293946929936 0 0.42729836406029548 0.35070312691768563 0 0.44279863902385319 0.36498191861006751 0 0.42729836406029548 0.35070312691768563 0 0.43487683942449812 0.35106569067825599 0 0.44279863902385319 0.36498191861006751 0 0.42729836406029548 0.35070312691768563 0 0.43109136567724748 0.3489063315667284 0 0.43529442408543872 0.34883605226809089 0 0.42729836406029548 0.35070312691768563 0 0.43109136567724748 0.3489063315667284 0 0.43487683942449812 0.35106569067825599 0 0.43109136567724748 0.3489063315667284 0 0.43529442408543872 0.34883605226809089 0 0.43487683942449812 0.35106569067825599 0 0.43529442408543872 0.34883605226809089 0 0.43487683942449812 0.35106569067825599 0 0.42729836406029548 0.35070312691768563 0 0.42420497341471841 0.32516151660366771 0 0.43894044703962998 0.32936859193394902 0 0.43529442408543872 0.34883605226809089 0 0.43894044703962998 0.32936859193394902 0 0.43109136567724748 0.3489063315667284 0 0.43529442408543872 0.34883605226809089 0 0.42729836406029548 0.35070312691768563 0 0.43109136567724748 0.3489063315667284 0 0.42420497341471841 0.32516151660366771 0 0.43894044703962998 0.32936859193394902 0 0.43109136567724748 0.3489063315667284 0 0.42420497341471841 0.32516151660366771 0 0.43894044703962998 0.32936859193394902 0 0.43130474666914309 0.31304161877190062 0 0.42420497341471841 0.32516151660366771 0 0.42111158276914429 0.29961990628964941 0 0.43130474666914309 0.31304161877190062 0 0.42420497341471841 0.32516151660366771 0 0.40184121301557668 0.30678024061641418 0 0.41431845905081632 0.31211616404088999 0 0.41140534993910638 0.32360132811636988 0 0.41431845905081632 0.31211616404088999 0 0.42420497341471841 0.32516151660366771 0 0.41140534993910638 0.32360132811636988 0 0.42729836406029548 0.35070312691768563 0 0.42420497341471841 0.32516151660366771 0 0.41338688547046137 0.33788792813028518 0 0.42420497341471841 0.32516151660366771 0 0.41140534993910638 0.32360132811636988 0 0.41338688547046137 0.33788792813028518 0 0.41140534993910638 0.32360132811636988 0 0.41338688547046137 0.33788792813028518 0 0.39947540688062583 0.32507272934288628 0 0.41338688547046137 0.33788792813028518 0 0.39947540688062583 0.32507272934288628 0 0.40642652845595439 0.35168475710611302 0 0.41338688547046137 0.33788792813028518 0 0.39105145014164849 0.3414869239971704 0 0.41338688547046137 0.33788792813028518 0 0.39105145014164849 0.3414869239971704 0 0.39947540688062583 0.32507272934288628 0 0.40184121301557668 0.30678024061641418 0 0.41140534993910638 0.32360132811636988 0 0.39947540688062583 0.32507272934288628 0 0.40184121301557668 0.30678024061641418 0 0.39947540688062583 0.32507272934288628 0 0.38242981621443428 0.31397380775534678 0 0.36562923609293069 0.32366592916769399 0 0.38242981621443428 0.31397380775534678 0 0.38128435600444488 0.32837669887387311 0 0.39947540688062583 0.32507272934288628 0 0.38242981621443428 0.31397380775534678 0 0.38128435600444488 0.32837669887387311 0 0.39105145014164849 0.3414869239971704 0 0.39947540688062583 0.32507272934288628 0 0.38128435600444488 0.32837669887387311 0 0.36518945593320651 0.34509967395937191 0 0.39105145014164849 0.3414869239971704 0 0.38128435600444488 0.32837669887387311 0 0.36518945593320651 0.34509967395937191 0 0.39105145014164849 0.3414869239971704 0 0.3855881021147175 0.35910908792858098 0 0.36474967577348072 0.36653341875104961 0 0.3855881021147175 0.35910908792858098 0 0.3855881021147175 0.35910908792858098 0 0.39248458597179969 0.37472262889043839 0 0.3773824667175657 0.37546563606013739 0 0.36474967577348072 0.36653341875104961 0 0.3855881021147175 0.35910908792858098 0 0.3773824667175657 0.37546563606013739 0 0.40918213701441342 0.3736144609854074 0 0.39248458597179969 0.37472262889043839 0 0.40205795884979889 0.36380219258680641 0 0.3855881021147175 0.35910908792858098 0 0.39248458597179969 0.37472262889043839 0 0.40205795884979889 0.36380219258680641 0 0.40642652845595439 0.35168475710611302 0 0.39105145014164849 0.3414869239971704 0 0.3855881021147175 0.35910908792858098 0 0.40642652845595439 0.35168475710611302 0 0.3855881021147175 0.35910908792858098 0 0.40642652845595439 0.35168475710611302 0 0.3855881021147175 0.35910908792858098 0 0.40205795884979889 0.36380219258680641 0 0.39221066862400811 0.40518894945558848 0 0.39940032860097008 0.38986983405391068 0 0.41033309730305728 0.40785957742124029 0 0.40918213701441342 0.3736144609854074 0 0.39248458597179969 0.37472262889043839 0 0.39940032860097008 0.38986983405391068 0 0.39248458597179969 0.37472262889043839 0 0.39940032860097008 0.38986983405391068 0 0.38026367080056678 0.39066664182047522 0 0.39248458597179969 0.37472262889043839 0 0.3773824667175657 0.37546563606013739 0 0.38026367080056678 0.39066664182047522 0 0.39221066862400811 0.40518894945558848 0 0.39940032860097008 0.38986983405391068 0 0.38026367080056678 0.39066664182047522 0 0.39221066862400811 0.40518894945558848 0 0.38026367080056678 0.39066664182047522 0 0.37744029411777058 0.41252948965876268 0 0.39221066862400811 0.40518894945558848 0 0.37744029411777058 0.41252948965876268 0 0.39361595229767549 0.42501920432355378 0 0.365542703577178 0.42914551292816783 0 0.39361595229767549 0.42501920432355378 0 0.37809165231809289 0.44568724501072521 0 0.365542703577178 0.42914551292816783 0 0.37744029411777058 0.41252948965876268 0 0.39361595229767549 0.42501920432355378 0 0.365542703577178 0.42914551292816783 0 0.39361595229767549 0.42501920432355378 0 0.39361595229767549 0.42501920432355378 0 0.41035062152962531 0.4256058815429955 0 0.40092741287151468 0.44093224530230651 0 0.39361595229767549 0.42501920432355378 0 0.40092741287151468 0.44093224530230651 0 0.37809165231809289 0.44568724501072521 0 0.39361595229767549 0.42501920432355378 0 0.41033309730305728 0.40785957742124029 0 0.41035062152962531 0.4256058815429955 0 0.39221066862400811 0.40518894945558848 0 0.39361595229767549 0.42501920432355378 0 0.41033309730305728 0.40785957742124029 0 0.41033309730305728 0.40785957742124029 0 0.41035062152962531 0.4256058815429955 0 0.42646345733135449 0.42088686527347441 0 0.41035062152962531 0.4256058815429955 0 0.4216403136361262 0.43569606407888728 0 0.42646345733135449 0.42088686527347441 0 0.41035062152962531 0.4256058815429955 0 0.4216403136361262 0.43569606407888728 0 0.40092741287151468 0.44093224530230651 0 0.43504649219903713 0.43385430946487219 0 0.42646345733135449 0.42088686527347441 0 0.44292677264660579 0.42392515796168401 0 0.4216403136361262 0.43569606407888728 0 0.43504649219903713 0.43385430946487219 0 0.42646345733135449 0.42088686527347441 0 0.4216403136361262 0.43569606407888728 0 0.43504649219903713 0.43385430946487219 0 0.4309855774719657 0.44262377444488737 0 0.41033309730305728 0.40785957742124029 0 0.42646345733135449 0.42088686527347441 0 0.43473852811684172 0.40482082561786309 0 0.42646345733135449 0.42088686527347441 0 0.43473852811684172 0.40482082561786309 0 0.44292677264660579 0.42392515796168401 0 0.43473852811684172 0.40482082561786309 0 0.42003555557297712 0.38799376876492359 0 0.43605286711449009 0.38080977408974359 0 0.41033309730305728 0.40785957742124029 0 0.43473852811684172 0.40482082561786309 0 0.42003555557297712 0.38799376876492359 0 0.39940032860097008 0.38986983405391068 0 0.41033309730305728 0.40785957742124029 0 0.42003555557297712 0.38799376876492359 0 0.40918213701441342 0.3736144609854074 0 0.39940032860097008 0.38986983405391068 0 0.42003555557297712 0.38799376876492359 0 0.40918213701441342 0.3736144609854074 0 0.42003555557297712 0.38799376876492359 0 0.42225433889660879 0.37545697575276449 0 0.42003555557297712 0.38799376876492359 0 0.42225433889660879 0.37545697575276449 0 0.43605286711449009 0.38080977408974359 0 0.44279863902385319 0.36498191861006751 0 0.43605286711449009 0.38080977408974359 0 0.45829891398740957 0.37926071030245079 0 0.43605286711449009 0.38080977408974359 0 0.44916269767969552 0.39669925538146661 0 0.45829891398740957 0.37926071030245079 0 0.43473852811684172 0.40482082561786309 0 0.43605286711449009 0.38080977408974359 0 0.44916269767969552 0.39669925538146661 0 0.43473852811684172 0.40482082561786309 0 0.44916269767969552 0.39669925538146661 0 0.45819524916971172 0.41557138043250991 0 0.44916269767969552 0.39669925538146661 0 0.47914945699370431 0.3984681476517854 0 0.45819524916971172 0.41557138043250991 0 0.44916269767969552 0.39669925538146661 0 0.45829891398740957 0.37926071030245079 0 0.47914945699370431 0.3984681476517854 0 0.45829891398740957 0.37926071030245079 0 0.47914945699370431 0.3984681476517854 0 0.44916269767969552 0.39669925538146661 0 0.45829891398740957 0.37926071030245079 0 0.45829891398740957 0.37926071030245079 0 0.48177296974371542 0.3780796821533936 0 0.47914945699370431 0.3984681476517854 0 0.47914945699370431 0.3984681476517854 0 0.5 0.39471699264069632 0 0.49999999999999928 0.41767558500111929 0 0.48177296974371542 0.3780796821533936 0 0.47914945699370431 0.3984681476517854 0 0.5 0.39471699264069632 0 0.5 0.37175840028027313 0 0.48177296974371542 0.3780796821533936 0 0.5 0.39471699264069632 0 0.48950419912568011 0.43203648207583117 0 0.49999999999999928 0.41767558500111929 0 0.47941257652712138 0.42859526255965119 0 0.48950419912568011 0.43203648207583117 0 0.49999999999999928 0.41767558500111929 0 0.50000000000000022 0.44212157098762489 0 0.49999999999999928 0.41767558500111929 0 0.47638758820359789 0.4177788365799131 0 0.47941257652712138 0.42859526255965119 0 0.47914945699370431 0.3984681476517854 0 0.49999999999999928 0.41767558500111929 0 0.47638758820359789 0.4177788365799131 0 0.47914945699370431 0.3984681476517854 0 0.49999999999999928 0.41767558500111929 0 0.47914945699370431 0.3984681476517854 0 0.47638758820359789 0.4177788365799131 0 0.45819524916971172 0.41557138043250991 0 0.47638758820359789 0.4177788365799131 0 0.46959145424244531 0.42892785421681912 0 0.47941257652712138 0.42859526255965119 0 0.48950419912568011 0.43203648207583117 0 0.47941257652712138 0.42859526255965119 0 0.47860421997559988 0.43975350975492877 0 0.46959145424244531 0.42892785421681912 0 0.47941257652712138 0.42859526255965119 0 0.47860421997559988 0.43975350975492877 0 0.46959145424244531 0.42892785421681912 0 0.45720843995119947 0.43738544852223271 0 0.45819524916971172 0.41557138043250991 0 0.46959145424244531 0.42892785421681912 0 0.45720843995119947 0.43738544852223271 0 0.47860421997559988 0.43975350975492877 0 0.47638758820359789 0.4177788365799131 0 0.46959145424244531 0.42892785421681912 0 0.45819524916971172 0.41557138043250991 0 0.43473852811684172 0.40482082561786309 0 0.45819524916971172 0.41557138043250991 0 0.44292677264660579 0.42392515796168401 0 0.45720843995119947 0.43738544852223271 0 0.45819524916971172 0.41557138043250991 0 0.44292677264660579 0.42392515796168401 0 0.45720843995119947 0.43738544852223271 0 0.44292677264660579 0.42392515796168401 0 0.44501475256406542 0.43710487641451851 0 0.43504649219903713 0.43385430946487219 0 0.44292677264660579 0.42392515796168401 0 0.44501475256406542 0.43710487641451851 0 0.44501475256406542 0.43710487641451851 0 0.44086930591740259 0.443703986550611 0 0.44426520485267701 0.44828521544284999 0 0.43504649219903713 0.43385430946487219 0 0.44501475256406542 0.43710487641451851 0 0.44086930591740259 0.443703986550611 0 0.44576605402647751 0.45131382091928901 0 0.43097115028835131 0.45382894378787952 0 0.4371491165808723 0.44919465112914592 0 0.44086930591740259 0.443703986550611 0 0.44106718496795649 0.44783878756079798 0 0.4371491165808723 0.44919465112914592 0 0.44106718496795649 0.44783878756079798 0 0.44576605402647751 0.45131382091928901 0 0.4371491165808723 0.44919465112914592 0 0.44086930591740259 0.443703986550611 0 0.44426520485267701 0.44828521544284999 0 0.44106718496795649 0.44783878756079798 0 0.44426520485267701 0.44828521544284999 0 0.44576605402647751 0.45131382091928901 0 0.44086930591740259 0.443703986550611 0 0.44106718496795649 0.44783878756079798 0 0.44426520485267701 0.44828521544284999 0 0.45720843995119947 0.43738544852223271 0 0.44501475256406542 0.43710487641451851 0 0.44426520485267701 0.44828521544284999 0 0.44576605402647751 0.45131382091928901 0 0.44334270512280699 0.46695283516179431 0 0.45751300038554987 0.46615712058798953 0 0.44426520485267701 0.44828521544284999 0 0.45751300038554987 0.46615712058798953 0 0.44576605402647751 0.45131382091928901 0 0.44334270512280699 0.46695283516179431 0 0.42744619309891668 0.4675425472795256 0 0.44426520485267701 0.44828521544284999 0 0.44576605402647751 0.45131382091928901 0 0.45751300038554987 0.46615712058798953 0 0.44426520485267701 0.44828521544284999 0 0.45751300038554987 0.46615712058798953 0 0.47213260242633898 0.44992772785007767 0 0.44426520485267701 0.44828521544284999 0 0.47213260242633898 0.44992772785007767 0 0.45720843995119947 0.43738544852223271 0 0.47860421997559988 0.43975350975492877 0 0.45720843995119947 0.43738544852223271 0 0.44426520485267701 0.44828521544284999 0 0.47213260242633898 0.44992772785007767 0 0.47213260242633898 0.44992772785007767 0 0.47860421997559988 0.43975350975492877 0 0.50000000000000067 0.45157024025730719 0 0.45720843995119947 0.43738544852223271 0 0.47213260242633898 0.44992772785007767 0 0.47860421997559988 0.43975350975492877 0 0.47213260242633898 0.44992772785007767 0 0.48064266697128027 0.4673483066551633 0 0.50000000000000067 0.45157024025730719 0 0.45751300038554987 0.46615712058798953 0 0.47213260242633898 0.44992772785007767 0 0.48064266697128027 0.4673483066551633 0 0.48064266697128027 0.4673483066551633 0 0.5 0.46843982966384828 0 0.50000000000000067 0.45157024025730719 0 0.47860421997559988 0.43975350975492877 0 0.50000000000000022 0.44212157098762489 0 0.47860421997559988 0.43975350975492877 0 0.50000000000000067 0.45157024025730719 0 0.50000000000000022 0.44212157098762489 0 0.47213260242633898 0.44992772785007767 0 0.50000000000000067 0.45157024025730719 0 0.48950419912568011 0.43203648207583117 0 0.47860421997559988 0.43975350975492877 0 0.50000000000000022 0.44212157098762489 0 0.48834007405180069 0.49233461120087918 0 0.50000000000000222 0.48530941907038949 0 0.47076079591842229 0.48402902573312923 0 0.48834007405180069 0.49233461120087918 0 0.5 0.5 0 0.48259950028877657 0.49999999999999922 0 0.50000000000000222 0.48530941907038949 0 0.47076079591842229 0.48402902573312923 0 0.48834007405180069 0.49233461120087918 0 0.5 0.5 0 0.50000000000000222 0.48530941907038949 0 0.50000000000000222 0.48530941907038949 0 0.48785086572242647 0.47628164528063233 0 0.47076079591842229 0.48402902573312923 0 0.48064266697128027 0.4673483066551633 0 0.5 0.46843982966384828 0 0.48785086572242647 0.47628164528063233 0 0.5 0.46843982966384828 0 0.50000000000000222 0.48530941907038949 0 0.48785086572242647 0.47628164528063233 0 0.45751300038554987 0.46615712058798953 0 0.48064266697128027 0.4673483066551633 0 0.47076079591842229 0.48402902573312923 0 0.48064266697128027 0.4673483066551633 0 0.48785086572242647 0.47628164528063233 0 0.47076079591842229 0.48402902573312923 0 0.47076079591842229 0.48402902573312923 0 0.48259950028877657 0.49999999999999922 0 0.45965124302753141 0.5 0 0.48834007405180069 0.49233461120087918 0 0.47076079591842229 0.48402902573312923 0 0.48259950028877657 0.49999999999999922 0 0.47076079591842229 0.48402902573312923 0 0.48259950028877657 0.49999999999999922 0 0.47076079591842229 0.48402902573312923 0 0.45965124302753141 0.5 0 0.44264557298028417 0.48279785186037327 0 0.45751300038554987 0.46615712058798953 0 0.47076079591842229 0.48402902573312923 0 0.47076079591842229 0.48402902573312923 0 0.44264557298028417 0.48279785186037327 0 0.45751300038554987 0.46615712058798953 0 0.47076079591842229 0.48402902573312923 0 0.44264557298028417 0.48279785186037327 0 0.44334270512280699 0.46695283516179431 0 0.44264557298028417 0.48279785186037327 0 0.42744619309891668 0.4675425472795256 0 0.44334270512280699 0.46695283516179431 0 0.45751300038554987 0.46615712058798953 0 0.44264557298028417 0.48279785186037327 0 0.45965124302753141 0.5 0 0.44264557298028417 0.48279785186037327 0 0.43670298576628619 0.5 0 0.44264557298028417 0.48279785186037327 0 0.42814010978677508 0.48883471415535268 0 0.41453035004214622 0.48156667798761449 0 0.43670298576628619 0.5 0 0.42814010978677508 0.48883471415535268 0 0.41868153035838401 0.49097432677342312 0 0.44264557298028417 0.48279785186037327 0 0.43670298576628619 0.5 0 0.42814010978677508 0.48883471415535268 0 0.43670298576628619 0.5 0 0.41375472850504103 0.5 0 0.41868153035838401 0.49097432677342312 0 0.41375472850504103 0.5 0 0.41868153035838401 0.49097432677342312 0 0.40912633217135602 0.48377127363976219 0 0.42814010978677508 0.48883471415535268 0 0.41868153035838401 0.49097432677342312 0 0.41453035004214622 0.48156667798761449 0 0.41868153035838401 0.49097432677342312 0 0.40912633217135602 0.48377127363976219 0 0.41453035004214622 0.48156667798761449 0 0.40882198151684829 0.470458307354371 0 0.40912633217135602 0.48377127363976219 0 0.42744619309891668 0.4675425472795256 0 0.40912633217135602 0.48377127363976219 0 0.42744619309891668 0.4675425472795256 0 0.40912633217135602 0.48377127363976219 0 0.41453035004214622 0.48156667798761449 0 0.42744619309891668 0.4675425472795256 0 0.40882198151684829 0.470458307354371 0 0.40912633217135602 0.48377127363976219 0 0.40257181831080802 0.47789339995616598 0 0.44264557298028417 0.48279785186037327 0 0.41453035004214622 0.48156667798761449 0 0.44264557298028417 0.48279785186037327 0 0.41453035004214622 0.48156667798761449 0 0.42744619309891668 0.4675425472795256 0 0.44576605402647751 0.45131382091928901 0 0.42744619309891668 0.4675425472795256 0 0.44576605402647751 0.45131382091928901 0 0.43097115028835131 0.45382894378787952 0 0.42744619309891668 0.4675425472795256 0 0.43097115028835131 0.45382894378787952 0 0.42744619309891668 0.4675425472795256 0 0.41709851720120961 0.46055572465752248 0 0.44086930591740259 0.443703986550611 0 0.4309855774719657 0.44262377444488737 0 0.4371491165808723 0.44919465112914592 0 0.43504649219903713 0.43385430946487219 0 0.44086930591740259 0.443703986550611 0 0.4309855774719657 0.44262377444488737 0 0.43097115028835131 0.45382894378787952 0 0.4309855774719657 0.44262377444488737 0 0.4371491165808723 0.44919465112914592 0 0.43097115028835131 0.45382894378787952 0 0.4309855774719657 0.44262377444488737 0 0.41665312800777271 0.44940921386284588 0 0.4216403136361262 0.43569606407888728 0 0.4309855774719657 0.44262377444488737 0 0.41665312800777271 0.44940921386284588 0 0.41665312800777271 0.44940921386284588 0 0.4029362549212489 0.45832899449672349 0 0.40092741287151468 0.44093224530230651 0 0.4216403136361262 0.43569606407888728 0 0.41665312800777271 0.44940921386284588 0 0.40092741287151468 0.44093224530230651 0 0.40882198151684829 0.470458307354371 0 0.42744619309891668 0.4675425472795256 0 0.41709851720120961 0.46055572465752248 0 0.43097115028835131 0.45382894378787952 0 0.41665312800777271 0.44940921386284588 0 0.41709851720120961 0.46055572465752248 0 0.41665312800777271 0.44940921386284588 0 0.41709851720120961 0.46055572465752248 0 0.4029362549212489 0.45832899449672349 0 0.40882198151684829 0.470458307354371 0 0.41709851720120961 0.46055572465752248 0 0.4029362549212489 0.45832899449672349 0 0.40882198151684829 0.470458307354371 0 0.4029362549212489 0.45832899449672349 0 0.3944208343110962 0.47305259584339332 0 0.4029362549212489 0.45832899449672349 0 0.38943508825963058 0.45629052964312111 0 0.3944208343110962 0.47305259584339332 0 0.4029362549212489 0.45832899449672349 0 0.40092741287151468 0.44093224530230651 0 0.38943508825963058 0.45629052964312111 0 0.40092741287151468 0.44093224530230651 0 0.37809165231809289 0.44568724501072521 0 0.38943508825963058 0.45629052964312111 0 0.37809165231809289 0.44568724501072521 0 0.38943508825963058 0.45629052964312111 0 0.37844435483634198 0.4675903904274426 0 0.38943508825963058 0.45629052964312111 0 0.37844435483634198 0.4675903904274426 0 0.3944208343110962 0.47305259584339332 0 0.37844435483634198 0.4675903904274426 0 0.38120033573297152 0.48442634992442057 0 0.3944208343110962 0.47305259584339332 0 0.38120033573297152 0.48442634992442057 0 0.3944208343110962 0.47305259584339332 0 0.39562515835400552 0.48382872387274839 0 0.36196284501337178 0.5 0 0.38120033573297152 0.48442634992442057 0 0.39080647124379558 0.49999999999999922 0 0.38120033573297152 0.48442634992442057 0 0.39080647124379558 0.49999999999999922 0 0.39562515835400552 0.48382872387274839 0 0.40912633217135602 0.48377127363976219 0 0.39080647124379558 0.49999999999999922 0 0.40912633217135602 0.48377127363976219 0 0.39080647124379558 0.49999999999999922 0 0.39562515835400552 0.48382872387274839 0 0.41375472850504103 0.5 0 0.40912633217135602 0.48377127363976219 0 0.39080647124379558 0.49999999999999922 0 0.40912633217135602 0.48377127363976219 0 0.40257181831080802 0.47789339995616598 0 0.39562515835400552 0.48382872387274839 0 0.40882198151684829 0.470458307354371 0 0.40257181831080802 0.47789339995616598 0 0.3944208343110962 0.47305259584339332 0 0.40257181831080802 0.47789339995616598 0 0.3944208343110962 0.47305259584339332 0 0.39562515835400552 0.48382872387274839 0 0.34137977846588119 0.091947059702449957 0 0.3184977734976509 0.082531855017860187 0 0.34137977846588119 0.091947059702449957 0 0.33853514524224232 0.092154422351098803 0 0.3184977734976509 0.082531855017860187 0 0.33853514524224232 0.092154422351098803 0 0.3184977734976509 0.082531855017860187 0 0.3305269393921435 0.093893314460775035 0 0.34137977846588119 0.091947059702449957 0 0.33488127772135701 0.070909675734900868 0 0.3184977734976509 0.082531855017860187 0 0.33488127772135701 0.070909675734900868 0 0.35624300874513559 0.071190975121652081 0 0.33828509493208109 0.051113002016081502 0 0.3184977734976509 0.082531855017860187 0 0.31750720709783492 0.060828210965220328 0 0.30506359630307739 0.067813250175554993 0 0.33488127772135701 0.070909675734900868 0 0.32846421329825382 0.059059627678852658 0 0.31750720709783492 0.060828210965220328 0 0.33488127772135701 0.070909675734900868 0 0.3184977734976509 0.082531855017860187 0 0.31750720709783492 0.060828210965220328 0 0.3184977734976509 0.082531855017860187 0 0.3254096333834442 0.096971455496547829 0 0.3305269393921435 0.093893314460775035 0 0.3184977734976509 0.082531855017860187 0 0.3254096333834442 0.096971455496547829 0 0.31111548734401751 0.094174984339189319 0 0.3254096333834442 0.096971455496547829 0 0.33219394353324039 0.1121017755840282 0 0.31111548734401751 0.094174984339189319 0 0.33219394353324039 0.1121017755840282 0 0.31111548734401751 0.094174984339189319 0 0.33219394353324039 0.1121017755840282 0 0.31151194808720201 0.1150643222194616 0 0.31111548734401751 0.094174984339189319 0 0.33219394353324039 0.1121017755840282 0 0.31151194808720201 0.1150643222194616 0 0.32387679174541939 0.1297141718462434 0 0.33219394353324039 0.1121017755840282 0 0.32387679174541939 0.1297141718462434 0 0.35327239972246333 0.1300285668288671 0 0.33219394353324039 0.1121017755840282 0 0.35327239972246333 0.1300285668288671 0 0.33219394353324039 0.1121017755840282 0 0.34279585490336462 0.1026082003979065 0 0.35159211237321392 0.11222190062690381 0 0.33853514524224232 0.092154422351098803 0 0.3305269393921435 0.093893314460775035 0 0.33650548478629722 0.09727411407467923 0 0.3254096333834442 0.096971455496547829 0 0.33351858274250701 0.1005678965871936 0 0.3305269393921435 0.093893314460775035 0 0.33351858274250701 0.1005678965871936 0 0.3305269393921435 0.093893314460775035 0 0.33650548478629722 0.09727411407467923 0 0.3254096333834442 0.096971455496547829 0 0.33219394353324039 0.1121017755840282 0 0.33351858274250701 0.1005678965871936 0 0.33219394353324039 0.1121017755840282 0 0.33351858274250701 0.1005678965871936 0 0.34279585490336462 0.1026082003979065 0 0.33351858274250701 0.1005678965871936 0 0.34279585490336462 0.1026082003979065 0 0.33650548478629722 0.09727411407467923 0 0.33853514524224232 0.092154422351098803 0 0.34279585490336462 0.1026082003979065 0 0.33650548478629722 0.09727411407467923 0 0.34279585490336462 0.1026082003979065 0 0.35159211237321392 0.11222190062690381 0 0.36426178343411147 0.1013622643870397 0 0.33853514524224232 0.092154422351098803 0 0.34279585490336462 0.1026082003979065 0 0.36426178343411147 0.1013622643870397 0 0.34137977846588119 0.091947059702449957 0 0.33853514524224232 0.092154422351098803 0 0.36426178343411147 0.1013622643870397 0 0.33853514524224232 0.092154422351098803 0 0.36426178343411147 0.1013622643870397 0 0.34137977846588119 0.091947059702449957 0 0.36426178343411147 0.1013622643870397 0 0.33219394353324039 0.1121017755840282 0 0.35159211237321392 0.11222190062690381 0 0.35327239972246333 0.1300285668288671 0 0.35159211237321392 0.11222190062690381 0 0.36649271172908648 0.1176987398754743 0 0.35327239972246333 0.1300285668288671 0 0.35159211237321392 0.11222190062690381 0 0.36649271172908648 0.1176987398754743 0 0.36426178343411147 0.1013622643870397 0 0.36649271172908648 0.1176987398754743 0 0.36938385952287339 0.13266757129752671 0 0.38138511069115272 0.12353481432135879 0 0.36649271172908648 0.1176987398754743 0 0.36426178343411147 0.1013622643870397 0 0.3795225325030368 0.1068242515199407 0 0.36426178343411147 0.1013622643870397 0 0.3795225325030368 0.1068242515199407 0 0.36426178343411147 0.1013622643870397 0 0.3742009225581896 0.091268948227223284 0 0.3795225325030368 0.1068242515199407 0 0.3742009225581896 0.091268948227223284 0 0.35754778501084228 0.087847667021068221 0 0.35624300874513559 0.071190975121652081 0 0.36426178343411147 0.1013622643870397 0 0.3742009225581896 0.091268948227223284 0 0.35754778501084228 0.087847667021068221 0 0.3742009225581896 0.091268948227223284 0 0.35624300874513559 0.071190975121652081 0 0.34137977846588119 0.091947059702449957 0 0.35754778501084228 0.087847667021068221 0 0.35624300874513559 0.071190975121652081 0 0.34137977846588119 0.091947059702449957 0 0.36426178343411147 0.1013622643870397 0 0.35754778501084228 0.087847667021068221 0 0.34137977846588119 0.091947059702449957 0 0.33488127772135701 0.070909675734900868 0 0.35624300874513559 0.071190975121652081 0 0.3742009225581896 0.091268948227223284 0 0.35624300874513559 0.071190975121652081 0 0.37575225644292037 0.071709270247263784 0 0.35624300874513559 0.071190975121652081 0 0.36737709041569239 0.056764699852256018 0 0.37575225644292037 0.071709270247263784 0 0.36737709041569239 0.056764699852256018 0 0.36443667806580698 0.054513224756226962 0 0.39058826119953283 0.057913447496371839 0 0.36443667806580698 0.054513224756226962 0 0.36984281421283938 0.03924660656396721 0 0.37608467898805159 0.048096788967416412 0 0.36984281421283938 0.03924660656396721 0 0.35576481933353549 0.041718099984820838 0 0.3798040161112804 0.028996110171619349 0 0.35576481933353549 0.041718099984820838 0 0.36136411866671431 0.026161729739540451 0 0.37786156531075732 0.02725125369877367 0 0.35576481933353549 0.041718099984820838 0 0.3798040161112804 0.028996110171619349 0 0.37786156531075732 0.02725125369877367 0 0.35576481933353549 0.041718099984820838 0 0.3798040161112804 0.028996110171619349 0 0.36984281421283938 0.03924660656396721 0 0.37726993283737248 0.041439113600633092 0 0.37608467898805159 0.048096788967416412 0 0.36984281421283938 0.03924660656396721 0 0.37675727284589372 0.036323400775862158 0 0.37726993283737248 0.041439113600633092 0 0.36443667806580698 0.054513224756226962 0 0.36984281421283938 0.03924660656396721 0 0.35576481933353549 0.041718099984820838 0 0.35576481933353549 0.041718099984820838 0 0.36136411866671431 0.026161729739540451 0 0.34099279295720591 0.031691385536231111 0 0.35576481933353549 0.041718099984820838 0 0.34539840685914608 0.044617690611648012 0 0.34099279295720591 0.031691385536231111 0 0.35624300874513559 0.071190975121652081 0 0.34416591963185211 0.055615952208139578 0 0.33828509493208109 0.051113002016081502 0 0.36443667806580698 0.054513224756226962 0 0.34416591963185211 0.055615952208139578 0 0.33828509493208109 0.051113002016081502 0 0.36737709041569239 0.056764699852256018 0 0.34416591963185211 0.055615952208139578 0 0.35624300874513559 0.071190975121652081 0 0.33828509493208109 0.051113002016081502 0 0.35624300874513559 0.071190975121652081 0 0.36737709041569239 0.056764699852256018 0 0.34416591963185211 0.055615952208139578 0 0.36443667806580698 0.054513224756226962 0 0.33828509493208109 0.051113002016081502 0 0.36443667806580698 0.054513224756226962 0 0.34539840685914608 0.044617690611648012 0 0.33828509493208109 0.051113002016081502 0 0.36443667806580698 0.054513224756226962 0 0.35576481933353549 0.041718099984820838 0 0.34539840685914608 0.044617690611648012 0 0.36737709041569239 0.056764699852256018 0 0.36443667806580698 0.054513224756226962 0 0.34416591963185211 0.055615952208139578 0 0.35686418876597309 0.010252504770385159 0 0.37537418671591988 0.012891754799621079 0 0.3700201466167648 -0.002195575246397889 0 0.35686418876597309 0.010252504770385159 0 0.37786156531075732 0.02725125369877367 0 0.36136411866671431 0.026161729739540451 0 0.35686418876597309 0.010252504770385159 0 0.37786156531075732 0.02725125369877367 0 0.35686418876597309 0.010252504770385159 0 0.37537418671591988 0.012891754799621079 0 0.37786156531075732 0.02725125369877367 0 0.36136411866671431 0.026161729739540451 0 0.35686418876597309 0.010252504770385159 0 0.34167945108238768 0.015605415956853899 0 0.36136411866671431 0.026161729739540451 0 0.34167945108238768 0.015605415956853899 0 0.34099279295720591 0.031691385536231111 0 0.35686418876597309 0.010252504770385159 0 0.34167945108238768 0.015605415956853899 0 0.33586681222118892 -0.0067462441580033658 0 0.35686418876597309 0.010252504770385159 0 0.33586681222118892 -0.0067462441580033658 0 0.34167945108238768 0.015605415956853899 0 0.32490055802469708 0.021190940670656921 0 0.33586681222118892 -0.0067462441580033658 0 0.34167945108238768 0.015605415956853899 0 0.32490055802469708 0.021190940670656921 0 0.34099279295720591 0.031691385536231111 0 0.32490055802469708 0.021190940670656921 0 0.34099279295720591 0.031691385536231111 0 0.32801258046435111 0.036170166979635328 0 0.32490055802469708 0.021190940670656921 0 0.31497710433926901 0.036033128519756527 0 0.30595588987094691 0.026092456194660541 0 0.32490055802469708 0.021190940670656921 0 0.31046320235639918 0.0067575729804437252 0 0.30595588987094691 0.026092456194660541 0 0.32490055802469708 0.021190940670656921 0 0.32801258046435111 0.036170166979635328 0 0.31497710433926901 0.036033128519756527 0 0.32490055802469708 0.021190940670656921 0 0.31046320235639918 0.0067575729804437252 0 0.33586681222118892 -0.0067462441580033658 0 0.33488127772135701 0.070909675734900868 0 0.32846421329825382 0.059059627678852658 0 0.33828509493208109 0.051113002016081502 0 0.33828509493208109 0.051113002016081502 0 0.33632782521092219 0.048924662700562782 0 0.31456469921871788 0.048028881697348168 0 0.34539840685914608 0.044617690611648012 0 0.33828509493208109 0.051113002016081502 0 0.33632782521092219 0.048924662700562782 0 0.33828509493208109 0.051113002016081502 0 0.33632782521092219 0.048924662700562782 0 0.34539840685914608 0.044617690611648012 0 0.33609782728063148 0.04111054955314445 0 0.34099279295720591 0.031691385536231111 0 0.34539840685914608 0.044617690611648012 0 0.33632782521092219 0.048924662700562782 0 0.33609782728063148 0.04111054955314445 0 0.33609782728063148 0.04111054955314445 0 0.34099279295720591 0.031691385536231111 0 0.32801258046435111 0.036170166979635328 0 0.33632782521092219 0.048924662700562782 0 0.33609782728063148 0.04111054955314445 0 0.33051084790212298 0.042529329228536181 0 0.33632782521092219 0.048924662700562782 0 0.33051084790212298 0.042529329228536181 0 0.32327528761916352 0.043108517346294839 0 0.33609782728063148 0.04111054955314445 0 0.33051084790212298 0.042529329228536181 0 0.32801258046435111 0.036170166979635328 0 0.33632782521092219 0.048924662700562782 0 0.32327528761916352 0.043108517346294839 0 0.31456469921871788 0.048028881697348168 0 0.33051084790212298 0.042529329228536181 0 0.32327528761916352 0.043108517346294839 0 0.32801258046435111 0.036170166979635328 0 0.32327528761916352 0.043108517346294839 0 0.32801258046435111 0.036170166979635328 0 0.31497710433926901 0.036033128519756527 0 0.32327528761916352 0.043108517346294839 0 0.31497710433926901 0.036033128519756527 0 0.31456469921871788 0.048028881697348168 0 0.33828509493208109 0.051113002016081502 0 0.31456469921871788 0.048028881697348168 0 0.32846421329825382 0.059059627678852658 0 0.33828509493208109 0.051113002016081502 0 0.31456469921871788 0.048028881697348168 0 0.32846421329825382 0.059059627678852658 0 0.31456469921871788 0.048028881697348168 0 0.31750720709783492 0.060828210965220328 0 0.31456469921871788 0.048028881697348168 0 0.31750720709783492 0.060828210965220328 0 0.30386903740065402 0.05697431224277244 0 0.31750720709783492 0.060828210965220328 0 0.30386903740065402 0.05697431224277244 0 0.30506359630307739 0.067813250175554993 0 0.31456469921871788 0.048028881697348168 0 0.30386903740065402 0.05697431224277244 0 0.29084430350535467 0.044944761378613682 0 0.30386903740065402 0.05697431224277244 0 0.29325963230024937 0.057606978803657879 0 0.29690158384745241 0.06457818982176422 0 0.31456469921871788 0.048028881697348168 0 0.30257644158749403 0.037675663858353942 0 0.29084430350535467 0.044944761378613682 0 0.31456469921871788 0.048028881697348168 0 0.29084430350535467 0.044944761378613682 0 0.30257644158749403 0.037675663858353942 0 0.28728110375769011 0.032980092644635972 0 0.30595588987094691 0.026092456194660541 0 0.31497710433926901 0.036033128519756527 0 0.31456469921871788 0.048028881697348168 0 0.30257644158749403 0.037675663858353942 0 0.31497710433926901 0.036033128519756527 0 0.30257644158749403 0.037675663858353942 0 0.30595588987094691 0.026092456194660541 0 0.28728110375769011 0.032980092644635972 0 0.28354425329012439 0.021068516806879451 0 0.27754771987688809 0.040797440569893019 0 0.30257644158749403 0.037675663858353942 0 0.29084430350535467 0.044944761378613682 0 0.28728110375769011 0.032980092644635972 0 0.28728110375769011 0.032980092644635972 0 0.2844924432277231 0.043204628682168907 0 0.27754771987688809 0.040797440569893019 0 0.29084430350535467 0.044944761378613682 0 0.28728110375769011 0.032980092644635972 0 0.2844924432277231 0.043204628682168907 0 0.2844924432277231 0.043204628682168907 0 0.28229664577095948 0.054096220135532967 0 0.27754771987688809 0.040797440569893019 0 0.29084430350535467 0.044944761378613682 0 0.2844924432277231 0.043204628682168907 0 0.28229664577095948 0.054096220135532967 0 0.29084430350535467 0.044944761378613682 0 0.28229664577095948 0.054096220135532967 0 0.29325963230024937 0.057606978803657879 0 0.28229664577095948 0.054096220135532967 0 0.28695696052130792 0.062426000594819037 0 0.29325963230024937 0.057606978803657879 0 0.28229664577095948 0.054096220135532967 0 0.28695696052130792 0.062426000594819037 0 0.27961998430175328 0.060695812266760227 0 0.28695696052130792 0.062426000594819037 0 0.29325963230024937 0.057606978803657879 0 0.29690158384745241 0.06457818982176422 0 0.30386903740065402 0.05697431224277244 0 0.29084430350535467 0.044944761378613682 0 0.29325963230024937 0.057606978803657879 0 0.31046320235639918 0.0067575729804437252 0 0.29633736445586178 0.016145334388179639 0 0.2895407867033607 0.0013395930438658619 0 0.31046320235639918 0.0067575729804437252 0 0.30595588987094691 0.026092456194660541 0 0.29633736445586178 0.016145334388179639 0 0.28728110375769011 0.032980092644635972 0 0.29633736445586178 0.016145334388179639 0 0.28354425329012439 0.021068516806879451 0 0.28728110375769011 0.032980092644635972 0 0.30595588987094691 0.026092456194660541 0 0.29633736445586178 0.016145334388179639 0 0.29633736445586178 0.016145334388179639 0 0.28354425329012439 0.021068516806879451 0 0.2895407867033607 0.0013395930438658619 0 0.28354425329012439 0.021068516806879451 0 0.2895407867033607 0.0013395930438658619 0 0.27605408581287011 0.0090157940159830471 0 0.28354425329012439 0.021068516806879451 0 0.2895407867033607 0.0013395930438658619 0 0.2895407867033607 0.0013395930438658619 0 0.27605408581287011 0.0090157940159830471 0 0.26778398551549509 -0.0036893303100333872 0 0.27605408581287011 0.0090157940159830471 0 0.26417056773795178 0.0090152440179189393 0 0.26778398551549509 -0.0036893303100333872 0 0.27605408581287011 0.0090157940159830471 0 0.26936383070045983 0.02007531215695801 0 0.26417056773795178 0.0090152440179189393 0 0.28354425329012439 0.021068516806879451 0 0.27754771987688809 0.040797440569893019 0 0.28354425329012439 0.021068516806879451 0 0.27605408581287011 0.0090157940159830471 0 0.26936383070045983 0.02007531215695801 0 0.28354425329012439 0.021068516806879451 0 0.26936383070045983 0.02007531215695801 0 0.27332262009486957 0.033728107725222278 0 0.26936383070045983 0.02007531215695801 0 0.26667678125960848 0.028969541142501901 0 0.27332262009486957 0.033728107725222278 0 0.26936383070045983 0.02007531215695801 0 0.26667678125960848 0.028969541142501901 0 0.25978705670837199 0.02772172808684556 0 0.26667678125960848 0.028969541142501901 0 0.25978705670837199 0.02772172808684556 0 0.26423361753473251 0.034353016600981737 0 0.24818833723327199 0.02644705719899533 0 0.25978705670837199 0.02772172808684556 0 0.25442723867738032 0.016379625870619269 0 0.24818833723327199 0.02644705719899533 0 0.25978705670837199 0.02772172808684556 0 0.25704478259505842 0.035809011079610743 0 0.26936383070045983 0.02007531215695801 0 0.25978705670837199 0.02772172808684556 0 0.25442723867738032 0.016379625870619269 0 0.26936383070045983 0.02007531215695801 0 0.25442723867738032 0.016379625870619269 0 0.26417056773795178 0.0090152440179189393 0 0.25442723867738032 0.016379625870619269 0 0.26417056773795178 0.0090152440179189393 0 0.25322369798355371 0.0032948183560677501 0 0.26417056773795178 0.0090152440179189393 0 0.25322369798355371 0.0032948183560677501 0 0.26778398551549509 -0.0036893303100333872 0 0.28229664577095948 0.054096220135532967 0 0.27155118646365262 0.060526364332906778 0 0.27754771987688809 0.040797440569893019 0 0.26803735397675288 0.057537922442449492 0 0.27155118646365262 0.060526364332906778 0 0.27754771987688809 0.040797440569893019 0 0.27155118646365262 0.060526364332906778 0 0.27754771987688809 0.040797440569893019 0 0.26803735397675288 0.057537922442449492 0 0.26717674565759131 0.061414912581717808 0 0.27155118646365262 0.060526364332906778 0 0.26803735397675288 0.057537922442449492 0 0.26717674565759131 0.061414912581717808 0 0.26717674565759131 0.061414912581717808 0 0.27082486665434358 0.062915996334918609 0 0.26717674565759131 0.061414912581717808 0 0.27155118646365262 0.060526364332906778 0 0.27082486665434358 0.062915996334918609 0 0.27155118646365262 0.060526364332906778 0 0.27082486665434358 0.062915996334918609 0 0.26803735397675288 0.057537922442449492 0 0.27155118646365262 0.060526364332906778 0 0.27155118646365262 0.060526364332906778 0 0.27961998430175328 0.060695812266760227 0 0.27767514445109232 0.065734664003783444 0 0.28229664577095948 0.054096220135532967 0 0.27155118646365262 0.060526364332906778 0 0.27961998430175328 0.060695812266760227 0 0.28354425329012439 0.021068516806879451 0 0.27754771987688809 0.040797440569893019 0 0.27332262009486957 0.033728107725222278 0 0.26803735397675288 0.057537922442449492 0 0.27754771987688809 0.040797440569893019 0 0.27332262009486957 0.033728107725222278 0 0.26803735397675288 0.057537922442449492 0 0.27332262009486957 0.033728107725222278 0 0.26337349528673171 0.044011131262296957 0 0.26803735397675288 0.057537922442449492 0 0.27332262009486957 0.033728107725222278 0 0.26667678125960848 0.028969541142501901 0 0.27332262009486957 0.033728107725222278 0 0.26423361753473251 0.034353016600981737 0 0.27332262009486957 0.033728107725222278 0 0.26337349528673171 0.044011131262296957 0 0.26423361753473251 0.034353016600981737 0 0.25978705670837199 0.02772172808684556 0 0.26423361753473251 0.034353016600981737 0 0.25704478259505842 0.035809011079610743 0 0.26337349528673171 0.044011131262296957 0 0.26423361753473251 0.034353016600981737 0 0.25704478259505842 0.035809011079610743 0 0.2492733855269578 0.041579555173777823 0 0.24818833723327199 0.02644705719899533 0 0.25704478259505842 0.035809011079610743 0 0.2492733855269578 0.041579555173777823 0 0.26337349528673171 0.044011131262296957 0 0.25704478259505842 0.035809011079610743 0 0.2492733855269578 0.041579555173777823 0 0.26803735397675288 0.057537922442449492 0 0.26337349528673171 0.044011131262296957 0 0.2492733855269578 0.041579555173777823 0 0.26803735397675288 0.057537922442449492 0 0.24629062771517271 0.052820950830226497 0 0.2492733855269578 0.041579555173777823 0 0.26803735397675288 0.057537922442449492 0 0.24874122334595 0.07170785510379532 0 0.24629062771517271 0.052820950830226497 0 0.26717674565759131 0.061414912581717808 0 0.24629062771517271 0.052820950830226497 0 0.26717674565759131 0.061414912581717808 0 0.24629062771517271 0.052820950830226497 0 0.26803735397675288 0.057537922442449492 0 0.26717674565759131 0.061414912581717808 0 0.24874122334595 0.07170785510379532 0 0.26717674565759131 0.061414912581717808 0 0.26207170159221099 0.084412837492877896 0 0.26717674565759131 0.061414912581717808 0 0.26207170159221099 0.084412837492877896 0 0.26717674565759131 0.061414912581717808 0 0.26459661937193729 0.083407271434054076 0 0.26207170159221099 0.084412837492877896 0 0.24736227196270541 0.090270970101712061 0 0.24874122334595 0.07170785510379532 0 0.26207170159221099 0.084412837492877896 0 0.24736227196270541 0.090270970101712061 0 0.26207170159221099 0.084412837492877896 0 0.24736227196270541 0.090270970101712061 0 0.26016144869860108 0.09301841504440217 0 0.25459763100830068 0.096141582858552177 0 0.24736227196270541 0.090270970101712061 0 0.26207170159221099 0.084412837492877896 0 0.26016144869860108 0.09301841504440217 0 0.24736227196270541 0.090270970101712061 0 0.25459763100830068 0.096141582858552177 0 0.26459661937193729 0.083407271434054076 0 0.26207170159221099 0.084412837492877896 0 0.26207170159221099 0.084412837492877896 0 0.26016144869860108 0.09301841504440217 0 0.26459661937193729 0.083407271434054076 0 0.2619867778419176 0.09199379318438361 0 0.26207170159221099 0.084412837492877896 0 0.2619867778419176 0.09199379318438361 0 0.26016144869860108 0.09301841504440217 0 0.26459661937193729 0.083407271434054076 0 0.26207170159221099 0.084412837492877896 0 0.2619867778419176 0.09199379318438361 0 0.2619867778419176 0.09199379318438361 0 0.26016144869860108 0.09301841504440217 0 0.26459661937193729 0.083407271434054076 0 0.28765643041333783 0.074223541376674432 0 0.26459661937193729 0.083407271434054076 0 0.27601190449835611 0.084120993139366301 0 0.28765643041333783 0.074223541376674432 0 0.2619867778419176 0.09199379318438361 0 0.27601190449835611 0.084120993139366301 0 0.27597760534302263 0.093816081557894046 0 0.2619867778419176 0.09199379318438361 0 0.27601190449835611 0.084120993139366301 0 0.26459661937193729 0.083407271434054076 0 0.2619867778419176 0.09199379318438361 0 0.27601190449835611 0.084120993139366301 0 0.27601190449835611 0.084120993139366301 0 0.28527214605629803 0.093542631019163408 0 0.27597760534302263 0.093816081557894046 0 0.26459661937193729 0.083407271434054076 0 0.27082486665434358 0.062915996334918609 0 0.26717674565759131 0.061414912581717808 0 0.26459661937193729 0.083407271434054076 0 0.27082486665434358 0.062915996334918609 0 0.26459661937193729 0.083407271434054076 0 0.27082486665434358 0.062915996334918609 0 0.27767514445109232 0.065734664003783444 0 0.26459661937193729 0.083407271434054076 0 0.27767514445109232 0.065734664003783444 0 0.28765643041333783 0.074223541376674432 0 0.27155118646365262 0.060526364332906778 0 0.27082486665434358 0.062915996334918609 0 0.27767514445109232 0.065734664003783444 0 0.27082486665434358 0.062915996334918609 0 0.27767514445109232 0.065734664003783444 0 0.27155118646365262 0.060526364332906778 0 0.27767514445109232 0.065734664003783444 0 0.27767514445109232 0.065734664003783444 0 0.28765643041333783 0.074223541376674432 0 0.27767514445109232 0.065734664003783444 0 0.29306802488508721 0.072068336257275281 0 0.28695696052130792 0.062426000594819037 0 0.27961998430175328 0.060695812266760227 0 0.27767514445109232 0.065734664003783444 0 0.28695696052130792 0.062426000594819037 0 0.27767514445109232 0.065734664003783444 0 0.29306802488508721 0.072068336257275281 0 0.28695696052130792 0.062426000594819037 0 0.29306802488508721 0.072068336257275281 0 0.29690158384745241 0.06457818982176422 0 0.29561576852942001 0.073116650333272012 0 0.29306802488508721 0.072068336257275281 0 0.29561576852942001 0.073116650333272012 0 0.29306802488508721 0.072068336257275281 0 0.29003703115479512 0.076248193094349867 0 0.29306802488508721 0.072068336257275281 0 0.28765643041333783 0.074223541376674432 0 0.29306802488508721 0.072068336257275281 0 0.29003703115479512 0.076248193094349867 0 0.28765643041333783 0.074223541376674432 0 0.29561576852942001 0.073116650333272012 0 0.29003703115479512 0.076248193094349867 0 0.27767514445109232 0.065734664003783444 0 0.29306802488508721 0.072068336257275281 0 0.28765643041333783 0.074223541376674432 0 0.29003703115479512 0.076248193094349867 0 0.28765643041333783 0.074223541376674432 0 0.27601190449835611 0.084120993139366301 0 0.29003703115479512 0.076248193094349867 0 0.27601190449835611 0.084120993139366301 0 0.29003703115479512 0.076248193094349867 0 0.28765643041333783 0.074223541376674432 0 0.27601190449835611 0.084120993139366301 0 0.29003703115479512 0.076248193094349867 0 0.28870857493654689 0.086239244916881869 0 0.27601190449835611 0.084120993139366301 0 0.28870857493654689 0.086239244916881869 0 0.28527214605629803 0.093542631019163408 0 0.28870857493654689 0.086239244916881869 0 0.28527214605629803 0.093542631019163408 0 0.29246213629446111 0.095768124011444758 0 0.28870857493654689 0.086239244916881869 0 0.29698271976236568 0.089899813846382556 0 0.29246213629446111 0.095768124011444758 0 0.29003703115479512 0.076248193094349867 0 0.28870857493654689 0.086239244916881869 0 0.29698271976236568 0.089899813846382556 0 0.29561576852942001 0.073116650333272012 0 0.29003703115479512 0.076248193094349867 0 0.31111548734401751 0.094174984339189319 0 0.29003703115479512 0.076248193094349867 0 0.31111548734401751 0.094174984339189319 0 0.29003703115479512 0.076248193094349867 0 0.29698271976236568 0.089899813846382556 0 0.31111548734401751 0.094174984339189319 0 0.3184977734976509 0.082531855017860187 0 0.29561576852942001 0.073116650333272012 0 0.31111548734401751 0.094174984339189319 0 0.3184977734976509 0.082531855017860187 0 0.29561576852942001 0.073116650333272012 0 0.3184977734976509 0.082531855017860187 0 0.29561576852942001 0.073116650333272012 0 0.30506359630307739 0.067813250175554993 0 0.31750720709783492 0.060828210965220328 0 0.30506359630307739 0.067813250175554993 0 0.29306802488508721 0.072068336257275281 0 0.30506359630307739 0.067813250175554993 0 0.29690158384745241 0.06457818982176422 0 0.30386903740065402 0.05697431224277244 0 0.30506359630307739 0.067813250175554993 0 0.29690158384745241 0.06457818982176422 0 0.29306802488508721 0.072068336257275281 0 0.30506359630307739 0.067813250175554993 0 0.29561576852942001 0.073116650333272012 0 0.30506359630307739 0.067813250175554993 0 0.29561576852942001 0.073116650333272012 0 0.29306802488508721 0.072068336257275281 0 0.30506359630307739 0.067813250175554993 0 0.31151194808720201 0.1150643222194616 0 0.30247500772594699 0.1071381656543656 0 0.29129275041579278 0.1172303442398579 0 0.31151194808720201 0.1150643222194616 0 0.29622008012258699 0.12991313160987961 0 0.32387679174541939 0.1297141718462434 0 0.31151194808720201 0.1150643222194616 0 0.29129275041579278 0.1172303442398579 0 0.29622008012258699 0.12991313160987961 0 0.31151194808720201 0.1150643222194616 0 0.31111548734401751 0.094174984339189319 0 0.30247500772594699 0.1071381656543656 0 0.31111548734401751 0.094174984339189319 0 0.30128354362195031 0.098124169066782854 0 0.30247500772594699 0.1071381656543656 0 0.29698271976236568 0.089899813846382556 0 0.30128354362195031 0.098124169066782854 0 0.29246213629446111 0.095768124011444758 0 0.29698271976236568 0.089899813846382556 0 0.31111548734401751 0.094174984339189319 0 0.30128354362195031 0.098124169066782854 0 0.30128354362195031 0.098124169066782854 0 0.30247500772594699 0.1071381656543656 0 0.29260899031297011 0.10538418601464609 0 0.29260899031297011 0.10538418601464609 0 0.29246213629446111 0.095768124011444758 0 0.28702757351663483 0.1001100210532227 0 0.30128354362195031 0.098124169066782854 0 0.29260899031297011 0.10538418601464609 0 0.29246213629446111 0.095768124011444758 0 0.28527214605629803 0.093542631019163408 0 0.29246213629446111 0.095768124011444758 0 0.28702757351663483 0.1001100210532227 0 0.28527214605629803 0.093542631019163408 0 0.28702757351663483 0.1001100210532227 0 0.28108272677848523 0.099874609951530163 0 0.29260899031297011 0.10538418601464609 0 0.28356239405763972 0.106033323917978 0 0.28664880997705461 0.11131452551203889 0 0.29260899031297011 0.10538418601464609 0 0.28702757351663483 0.1001100210532227 0 0.28356239405763972 0.106033323917978 0 0.28702757351663483 0.1001100210532227 0 0.28356239405763972 0.106033323917978 0 0.28108272677848523 0.099874609951530163 0 0.28356239405763972 0.106033323917978 0 0.2814598539497668 0.10990299155730229 0 0.28664880997705461 0.11131452551203889 0 0.27786688771157569 0.1150217509861922 0 0.29622008012258699 0.12991313160987961 0 0.28664880997705461 0.11131452551203889 0 0.29129275041579278 0.1172303442398579 0 0.27786688771157569 0.1150217509861922 0 0.27786688771157569 0.1150217509861922 0 0.27913813953766042 0.12972245958528131 0 0.29622008012258699 0.12991313160987961 0 0.29129275041579278 0.1172303442398579 0 0.27786688771157569 0.1150217509861922 0 0.29622008012258699 0.12991313160987961 0 0.2814598539497668 0.10990299155730229 0 0.28664880997705461 0.11131452551203889 0 0.27786688771157569 0.1150217509861922 0 0.30247500772594699 0.1071381656543656 0 0.29260899031297011 0.10538418601464609 0 0.29129275041579278 0.1172303442398579 0 0.29260899031297011 0.10538418601464609 0 0.28664880997705461 0.11131452551203889 0 0.29129275041579278 0.1172303442398579 0 0.27418517611644572 0.1163335826691398 0 0.26638390190257438 0.1102685147937751 0 0.25655208948606423 0.10927836717886751 0 0.27786688771157569 0.1150217509861922 0 0.27418517611644572 0.1163335826691398 0 0.27913813953766042 0.12972245958528131 0 0.27418517611644572 0.1163335826691398 0 0.27248198541775659 0.12784311929978001 0 0.27913813953766042 0.12972245958528131 0 0.2814598539497668 0.10990299155730229 0 0.27786688771157569 0.1150217509861922 0 0.27702128122739278 0.10689832557857171 0 0.27786688771157569 0.1150217509861922 0 0.27418517611644572 0.1163335826691398 0 0.26638390190257438 0.1102685147937751 0 0.27418517611644572 0.1163335826691398 0 0.26888095198589312 0.11979825388229511 0 0.26487973471170051 0.1148861259760711 0 0.27418517611644572 0.1163335826691398 0 0.26888095198589312 0.11979825388229511 0 0.27248198541775659 0.12784311929978001 0 0.26888095198589312 0.11979825388229511 0 0.26519442307348812 0.1188177922564181 0 0.26487973471170051 0.1148861259760711 0 0.26888095198589312 0.11979825388229511 0 0.26562400985315288 0.1251654340079911 0 0.27248198541775659 0.12784311929978001 0 0.26888095198589312 0.11979825388229511 0 0.26519442307348812 0.1188177922564181 0 0.26562400985315288 0.1251654340079911 0 0.27786688771157569 0.1150217509861922 0 0.26638390190257438 0.1102685147937751 0 0.25872482925013801 0.09949030162923457 0 0.27786688771157569 0.1150217509861922 0 0.25872482925013801 0.09949030162923457 0 0.27786688771157569 0.1150217509861922 0 0.27150352658480642 0.1040925172930806 0 0.25872482925013801 0.09949030162923457 0 0.28527214605629803 0.093542631019163408 0 0.27597760534302263 0.093816081557894046 0 0.28108272677848523 0.099874609951530163 0 0.27597760534302263 0.093816081557894046 0 0.28108272677848523 0.099874609951530163 0 0.27461357126647679 0.10027579108255071 0 0.27786688771157569 0.1150217509861922 0 0.27702128122739278 0.10689832557857171 0 0.27150352658480642 0.1040925172930806 0 0.27461357126647679 0.10027579108255071 0 0.27702128122739278 0.10689832557857171 0 0.27150352658480642 0.1040925172930806 0 0.28356239405763972 0.106033323917978 0 0.28108272677848523 0.099874609951530163 0 0.27702128122739278 0.10689832557857171 0 0.28108272677848523 0.099874609951530163 0 0.27461357126647679 0.10027579108255071 0 0.27702128122739278 0.10689832557857171 0 0.28356239405763972 0.106033323917978 0 0.2814598539497668 0.10990299155730229 0 0.27702128122739278 0.10689832557857171 0 0.2619867778419176 0.09199379318438361 0 0.27597760534302263 0.093816081557894046 0 0.26850219741802223 0.0981363484555835 0 0.27150352658480642 0.1040925172930806 0 0.26850219741802223 0.0981363484555835 0 0.25872482925013801 0.09949030162923457 0 0.27461357126647679 0.10027579108255071 0 0.27150352658480642 0.1040925172930806 0 0.26850219741802223 0.0981363484555835 0 0.27597760534302263 0.093816081557894046 0 0.27461357126647679 0.10027579108255071 0 0.26850219741802223 0.0981363484555835 0 0.2619867778419176 0.09199379318438361 0 0.26850219741802223 0.0981363484555835 0 0.25872482925013801 0.09949030162923457 0 0.2619867778419176 0.09199379318438361 0 0.26016144869860108 0.09301841504440217 0 0.25872482925013801 0.09949030162923457 0 0.2619867778419176 0.09199379318438361 0 0.25872482925013801 0.09949030162923457 0 0.26016144869860108 0.09301841504440217 0 0.25872482925013801 0.09949030162923457 0 0.26016144869860108 0.09301841504440217 0 0.25872482925013801 0.09949030162923457 0 0.25459763100830068 0.096141582858552177 0 0.26638390190257438 0.1102685147937751 0 0.25872482925013801 0.09949030162923457 0 0.26054083413963042 0.1068609537315081 0 0.26638390190257438 0.1102685147937751 0 0.26054083413963042 0.1068609537315081 0 0.25655208948606423 0.10927836717886751 0 0.25872482925013801 0.09949030162923457 0 0.258042440935632 0.10497087790269199 0 0.26054083413963042 0.1068609537315081 0 0.25872482925013801 0.09949030162923457 0 0.258042440935632 0.10497087790269199 0 0.258042440935632 0.10497087790269199 0 0.26054083413963042 0.1068609537315081 0 0.25655208948606423 0.10927836717886751 0 0.25872482925013801 0.09949030162923457 0 0.25655208948606423 0.10927836717886751 0 0.25872482925013801 0.09949030162923457 0 0.25655208948606423 0.10927836717886751 0 0.25459763100830068 0.096141582858552177 0 0.24174744587836799 0.1033548466348798 0 0.25655208948606423 0.10927836717886751 0 0.25459763100830068 0.096141582858552177 0 0.25872482925013801 0.09949030162923457 0 0.258042440935632 0.10497087790269199 0 0.25655208948606423 0.10927836717886751 0 0.25872482925013801 0.09949030162923457 0 0.25459763100830068 0.096141582858552177 0 0.26016144869860108 0.09301841504440217 0 0.25459763100830068 0.096141582858552177 0 0.27418517611644572 0.1163335826691398 0 0.25655208948606423 0.10927836717886751 0 0.26487973471170051 0.1148861259760711 0 0.27418517611644572 0.1163335826691398 0 0.25655208948606423 0.10927836717886751 0 0.2613903323121034 0.11972876860365821 0 0.25824300399834771 0.11754386918627879 0 0.25813574029091341 0.12532111527980791 0 0.2613903323121034 0.11972876860365821 0 0.25824300399834771 0.11754386918627879 0 0.26064106818342869 0.11649387083006101 0 0.2613903323121034 0.11972876860365821 0 0.26303182906276251 0.1167652494283456 0 0.26064106818342869 0.11649387083006101 0 0.2613903323121034 0.11972876860365821 0 0.25813574029091341 0.12532111527980791 0 0.26562400985315288 0.1251654340079911 0 0.2613903323121034 0.11972876860365821 0 0.26519442307348812 0.1188177922564181 0 0.26562400985315288 0.1251654340079911 0 0.2613903323121034 0.11972876860365821 0 0.26519442307348812 0.1188177922564181 0 0.26303182906276251 0.1167652494283456 0 0.26487973471170051 0.1148861259760711 0 0.2618287337373767 0.1148464313763837 0 0.2589676606418963 0.1122376160430168 0 0.25655208948606423 0.10927836717886751 0 0.26487973471170051 0.1148861259760711 0 0.2589676606418963 0.1122376160430168 0 0.26519442307348812 0.1188177922564181 0 0.26487973471170051 0.1148861259760711 0 0.26303182906276251 0.1167652494283456 0 0.26487973471170051 0.1148861259760711 0 0.2618287337373767 0.1148464313763837 0 0.26303182906276251 0.1167652494283456 0 0.2618287337373767 0.1148464313763837 0 0.26303182906276251 0.1167652494283456 0 0.26064106818342869 0.11649387083006101 0 0.2618287337373767 0.1148464313763837 0 0.26064106818342869 0.11649387083006101 0 0.26015078570541528 0.1146524558252945 0 0.2618287337373767 0.1148464313763837 0 0.2589676606418963 0.1122376160430168 0 0.26015078570541528 0.1146524558252945 0 0.2589676606418963 0.1122376160430168 0 0.26015078570541528 0.1146524558252945 0 0.25777400528710798 0.1147846643059361 0 0.25824300399834771 0.11754386918627879 0 0.26015078570541528 0.1146524558252945 0 0.25777400528710798 0.1147846643059361 0 0.25824300399834771 0.11754386918627879 0 0.26064106818342869 0.11649387083006101 0 0.26015078570541528 0.1146524558252945 0 0.24646482385440791 0.1109165710353929 0 0.25655208948606423 0.10927836717886751 0 0.255186127323073 0.11543194682551421 0 0.25824300399834771 0.11754386918627879 0 0.25777400528710798 0.1147846643059361 0 0.255186127323073 0.11543194682551421 0 0.2589676606418963 0.1122376160430168 0 0.25777400528710798 0.1147846643059361 0 0.255186127323073 0.11543194682551421 0 0.25655208948606423 0.10927836717886751 0 0.255186127323073 0.11543194682551421 0 0.25655208948606423 0.10927836717886751 0 0.2589676606418963 0.1122376160430168 0 0.255186127323073 0.11543194682551421 0 0.255186127323073 0.11543194682551421 0 0.25238596385504641 0.12804651946228041 0 0.24420216851797599 0.1292372680552665 0 0.255186127323073 0.11543194682551421 0 0.25238596385504641 0.12804651946228041 0 0.255186127323073 0.11543194682551421 0 0.25238596385504641 0.12804651946228041 0 0.25813574029091341 0.12532111527980791 0 0.25824300399834771 0.11754386918627879 0 0.255186127323073 0.11543194682551421 0 0.25813574029091341 0.12532111527980791 0 0.25238596385504641 0.12804651946228041 0 0.25813574029091341 0.12532111527980791 0 0.26818611498992623 0.1403022215883418 0 0.24420216851797599 0.1292372680552665 0 0.26818611498992623 0.1403022215883418 0 0.24301228879775941 0.13939302681245261 0 0.24420216851797599 0.1292372680552665 0 0.26818611498992623 0.1403022215883418 0 0.24420216851797599 0.1292372680552665 0 0.25238596385504641 0.12804651946228041 0 0.26818611498992623 0.1403022215883418 0 0.25813574029091341 0.12532111527980791 0 0.26562400985315288 0.1251654340079911 0 0.26818611498992623 0.1403022215883418 0 0.27248198541775659 0.12784311929978001 0 0.26818611498992623 0.1403022215883418 0 0.27913813953766042 0.12972245958528131 0 0.26562400985315288 0.1251654340079911 0 0.27248198541775659 0.12784311929978001 0 0.26818611498992623 0.1403022215883418 0 0.26818611498992623 0.1403022215883418 0 0.27913813953766042 0.12972245958528131 0 0.28414721419066807 0.1482284927670183 0 0.26818611498992623 0.1403022215883418 0 0.26583546295036609 0.16369396270660089 0 0.28414721419066807 0.1482284927670183 0 0.26818611498992623 0.1403022215883418 0 0.25486404381895789 0.1523024957907583 0 0.26583546295036609 0.16369396270660089 0 0.24301228879775941 0.13939302681245261 0 0.26818611498992623 0.1403022215883418 0 0.25486404381895789 0.1523024957907583 0 0.2424223085377801 0.16582077205563811 0 0.25486404381895789 0.1523024957907583 0 0.26583546295036609 0.16369396270660089 0 0.2424223085377801 0.16582077205563811 0 0.26032431562704572 0.18342712708893841 0 0.26583546295036609 0.16369396270660089 0 0.26032431562704572 0.18342712708893841 0 0.27712404590978218 0.18082877805207789 0 0.26583546295036609 0.16369396270660089 0 0.27712404590978218 0.18082877805207789 0 0.26583546295036609 0.16369396270660089 0 0.28977860037431658 0.16805367250728201 0 0.26583546295036609 0.16369396270660089 0 0.28977860037431658 0.16805367250728201 0 0.28414721419066807 0.1482284927670183 0 0.27712404590978218 0.18082877805207789 0 0.28977860037431658 0.16805367250728201 0 0.29478084704188562 0.18627619782702401 0 0.28977860037431658 0.16805367250728201 0 0.29478084704188562 0.18627619782702401 0 0.31259037162619269 0.16725562300018509 0 0.29478084704188562 0.18627619782702401 0 0.31732062797233113 0.1926592597090995 0 0.31259037162619269 0.16725562300018509 0 0.28977860037431658 0.16805367250728201 0 0.29946190776947251 0.15165108642358641 0 0.31259037162619269 0.16725562300018509 0 0.29946190776947251 0.15165108642358641 0 0.31457327253359829 0.14480451223356691 0 0.31259037162619269 0.16725562300018509 0 0.29946190776947251 0.15165108642358641 0 0.29622008012258699 0.12991313160987961 0 0.31457327253359829 0.14480451223356691 0 0.29622008012258699 0.12991313160987961 0 0.31457327253359829 0.14480451223356691 0 0.29622008012258699 0.12991313160987961 0 0.32387679174541939 0.1297141718462434 0 0.31457327253359829 0.14480451223356691 0 0.27913813953766042 0.12972245958528131 0 0.29622008012258699 0.12991313160987961 0 0.28414721419066807 0.1482284927670183 0 0.29946190776947251 0.15165108642358641 0 0.29622008012258699 0.12991313160987961 0 0.28414721419066807 0.1482284927670183 0 0.28977860037431658 0.16805367250728201 0 0.29946190776947251 0.15165108642358641 0 0.28414721419066807 0.1482284927670183 0 0.27355486584907379 0.24364475180805101 0 0.25452501640087027 0.2374112721999547 0 0.26408278890255732 0.22479217687295791 0 0.25404003316197471 0.25208422786308371 0 0.27355486584907379 0.24364475180805101 0 0.25452501640087027 0.2374112721999547 0 0.24523436150048811 0.24199469982198529 0 0.25404003316197471 0.25208422786308371 0 0.25452501640087027 0.2374112721999547 0 0.24868260911088891 0.2303107595792985 0 0.2471090749199483 0.2357199094212839 0 0.25452501640087027 0.2374112721999547 0 0.24868260911088891 0.2303107595792985 0 0.25452501640087027 0.2374112721999547 0 0.26408278890255732 0.22479217687295791 0 0.24868260911088891 0.2303107595792985 0 0.26408278890255732 0.22479217687295791 0 0.25357276657721323 0.21641202867955539 0 0.27355486584907379 0.24364475180805101 0 0.26408278890255732 0.22479217687295791 0 0.28109637724199782 0.22150209212538899 0 0.26408278890255732 0.22479217687295791 0 0.28109637724199782 0.22150209212538899 0 0.27306509823529962 0.19947215684549871 0 0.26408278890255732 0.22479217687295791 0 0.25357276657721323 0.21641202867955539 0 0.27306509823529962 0.19947215684549871 0 0.25357276657721323 0.21641202867955539 0 0.25471258750952741 0.20148162901819469 0 0.27306509823529962 0.19947215684549871 0 0.25357276657721323 0.21641202867955539 0 0.27306509823529962 0.19947215684549871 0 0.2418323282778008 0.1922485172988235 0 0.26032431562704572 0.18342712708893841 0 0.25471258750952741 0.20148162901819469 0 0.26032431562704572 0.18342712708893841 0 0.25471258750952741 0.20148162901819469 0 0.27306509823529962 0.19947215684549871 0 0.26032431562704572 0.18342712708893841 0 0.27712404590978218 0.18082877805207789 0 0.27306509823529962 0.19947215684549871 0 0.29478084704188562 0.18627619782702401 0 0.27306509823529962 0.19947215684549871 0 0.29788838547339219 0.20777731020547871 0 0.27712404590978218 0.18082877805207789 0 0.29478084704188562 0.18627619782702401 0 0.27306509823529962 0.19947215684549871 0 0.29478084704188562 0.18627619782702401 0 0.29788838547339219 0.20777731020547871 0 0.31732062797233113 0.1926592597090995 0 0.29788838547339219 0.20777731020547871 0 0.31916040529159301 0.2166328624030785 0 0.31732062797233113 0.1926592597090995 0 0.28109637724199782 0.22150209212538899 0 0.27306509823529962 0.19947215684549871 0 0.29788838547339219 0.20777731020547871 0 0.28109637724199782 0.22150209212538899 0 0.29788838547339219 0.20777731020547871 0 0.29668368374297521 0.23238313674276659 0 0.27355486584907379 0.24364475180805101 0 0.28109637724199782 0.22150209212538899 0 0.29668368374297521 0.23238313674276659 0 0.29788838547339219 0.20777731020547871 0 0.29668368374297521 0.23238313674276659 0 0.31916040529159301 0.2166328624030785 0 0.29692855903906679 0.25537037528416417 0 0.29668368374297521 0.23238313674276659 0 0.32448256229391081 0.244023600812113 0 0.29692855903906679 0.25537037528416417 0 0.27355486584907379 0.24364475180805101 0 0.29668368374297521 0.23238313674276659 0 0.32448256229391081 0.244023600812113 0 0.33724611662768478 0.226971671205 0 0.35052125483258301 0.2434514759103418 0 0.32448256229391081 0.244023600812113 0 0.33724611662768478 0.226971671205 0 0.31916040529159301 0.2166328624030785 0 0.29668368374297521 0.23238313674276659 0 0.32448256229391081 0.244023600812113 0 0.31916040529159301 0.2166328624030785 0 0.33724611662768478 0.226971671205 0 0.31916040529159301 0.2166328624030785 0 0.34036716376080012 0.20191553243135291 0 0.31916040529159301 0.2166328624030785 0 0.31732062797233113 0.1926592597090995 0 0.34036716376080012 0.20191553243135291 0 0.31732062797233113 0.1926592597090995 0 0.34036716376080012 0.20191553243135291 0 0.33327910971122948 0.1769249887409369 0 0.34036716376080012 0.20191553243135291 0 0.33327910971122948 0.1769249887409369 0 0.35363051640006049 0.1838751638919715 0 0.34036716376080012 0.20191553243135291 0 0.36940151407566268 0.20038014978660379 0 0.35363051640006049 0.1838751638919715 0 0.36940151407566268 0.20038014978660379 0 0.35418005050780299 0.2186338278764331 0 0.36970064025412291 0.2313836502337521 0 0.34036716376080012 0.20191553243135291 0 0.36940151407566268 0.20038014978660379 0 0.35418005050780299 0.2186338278764331 0 0.33724611662768478 0.226971671205 0 0.34036716376080012 0.20191553243135291 0 0.35418005050780299 0.2186338278764331 0 0.33724611662768478 0.226971671205 0 0.35418005050780299 0.2186338278764331 0 0.35052125483258301 0.2434514759103418 0 0.35418005050780299 0.2186338278764331 0 0.36970064025412291 0.2313836502337521 0 0.35052125483258301 0.2434514759103418 0 0.37478492512234668 0.26235925763296819 0 0.36970064025412291 0.2313836502337521 0 0.35052125483258301 0.2434514759103418 0 0.33497932682518311 0.1519205034936916 0 0.32387679174541939 0.1297141718462434 0 0.35327239972246333 0.1300285668288671 0 0.33497932682518311 0.1519205034936916 0 0.31457327253359829 0.14480451223356691 0 0.31259037162619269 0.16725562300018509 0 0.33497932682518311 0.1519205034936916 0 0.32387679174541939 0.1297141718462434 0 0.31457327253359829 0.14480451223356691 0 0.33497932682518311 0.1519205034936916 0 0.31259037162619269 0.16725562300018509 0 0.33327910971122948 0.1769249887409369 0 0.31732062797233113 0.1926592597090995 0 0.31259037162619269 0.16725562300018509 0 0.33327910971122948 0.1769249887409369 0 0.33497932682518311 0.1519205034936916 0 0.33327910971122948 0.1769249887409369 0 0.34907151432127381 0.16521020144779211 0 0.34907151432127381 0.16521020144779211 0 0.35363051640006049 0.1838751638919715 0 0.37277469716236061 0.17385369407461371 0 0.33327910971122948 0.1769249887409369 0 0.34907151432127381 0.16521020144779211 0 0.35363051640006049 0.1838751638919715 0 0.36940151407566268 0.20038014978660379 0 0.35363051640006049 0.1838751638919715 0 0.37277469716236061 0.17385369407461371 0 0.37277469716236061 0.17385369407461371 0 0.36285879787080821 0.15032831482926681 0 0.3843829660287168 0.1587008111838667 0 0.34907151432127381 0.16521020144779211 0 0.37277469716236061 0.17385369407461371 0 0.36285879787080821 0.15032831482926681 0 0.36285879787080821 0.15032831482926681 0 0.36938385952287339 0.13266757129752671 0 0.38232915319187621 0.14145147187989651 0 0.33497932682518311 0.1519205034936916 0 0.36285879787080821 0.15032831482926681 0 0.35327239972246333 0.1300285668288671 0 0.33497932682518311 0.1519205034936916 0 0.34907151432127381 0.16521020144779211 0 0.36285879787080821 0.15032831482926681 0 0.36649271172908648 0.1176987398754743 0 0.35327239972246333 0.1300285668288671 0 0.36938385952287339 0.13266757129752671 0 0.36285879787080821 0.15032831482926681 0 0.35327239972246333 0.1300285668288671 0 0.36938385952287339 0.13266757129752671 0 0.39421974672685411 0.13240309148155921 0 0.38232915319187621 0.14145147187989651 0 0.38138511069115272 0.12353481432135879 0 0.36938385952287339 0.13266757129752671 0 0.38232915319187621 0.14145147187989651 0 0.38138511069115272 0.12353481432135879 0 0.39421974672685411 0.13240309148155921 0 0.41199731756477831 0.13352747615702071 0 0.3942733283070321 0.11371104406223111 0 0.39421974672685411 0.13240309148155921 0 0.40120830104283178 0.15077536395034899 0 0.41199731756477831 0.13352747615702071 0 0.39421974672685411 0.13240309148155921 0 0.40120830104283178 0.15077536395034899 0 0.38232915319187621 0.14145147187989651 0 0.36285879787080821 0.15032831482926681 0 0.38232915319187621 0.14145147187989651 0 0.3843829660287168 0.1587008111838667 0 0.40120830104283178 0.15077536395034899 0 0.38232915319187621 0.14145147187989651 0 0.3843829660287168 0.1587008111838667 0 0.37277469716236061 0.17385369407461371 0 0.3843829660287168 0.1587008111838667 0 0.39936082591505218 0.176604797209717 0 0.37277469716236061 0.17385369407461371 0 0.39936082591505218 0.176604797209717 0 0.38992891259608609 0.19548318162929729 0 0.40120830104283178 0.15077536395034899 0 0.39936082591505218 0.176604797209717 0 0.41410660213767347 0.1652382216241598 0 0.40120830104283178 0.15077536395034899 0 0.3843829660287168 0.1587008111838667 0 0.39936082591505218 0.176604797209717 0 0.40120830104283178 0.15077536395034899 0 0.41410660213767347 0.1652382216241598 0 0.42972130682252457 0.1533439082518103 0 0.39936082591505218 0.176604797209717 0 0.41410660213767347 0.1652382216241598 0 0.42626679864566441 0.18172907206941921 0 0.42626679864566441 0.18172907206941921 0 0.42972130682252457 0.1533439082518103 0 0.45055708181009879 0.1690731760043504 0 0.41410660213767347 0.1652382216241598 0 0.42626679864566441 0.18172907206941921 0 0.42972130682252457 0.1533439082518103 0 0.42972130682252457 0.1533439082518103 0 0.43054248402473921 0.1250848439374013 0 0.44904083753606949 0.1441389705362057 0 0.42972130682252457 0.1533439082518103 0 0.43054248402473921 0.1250848439374013 0 0.41199731756477831 0.13352747615702071 0 0.43054248402473921 0.1250848439374013 0 0.41199731756477831 0.13352747615702071 0 0.41135066019799099 0.1182158826350982 0 0.40120830104283178 0.15077536395034899 0 0.42972130682252457 0.1533439082518103 0 0.41199731756477831 0.13352747615702071 0 0.42972130682252457 0.1533439082518103 0 0.41199731756477831 0.13352747615702071 0 0.40097752291506289 0.25902709479471048 0 0.39333580902427501 0.24081282939082621 0 0.41286841049430861 0.24788583003777651 0 0.37478492512234668 0.26235925763296819 0 0.36970064025412291 0.2313836502337521 0 0.39333580902427501 0.24081282939082621 0 0.36970064025412291 0.2313836502337521 0 0.39333580902427501 0.24081282939082621 0 0.39338333076520482 0.2163019563834182 0 0.39338333076520482 0.2163019563834182 0 0.41736514745474701 0.23222376298023259 0 0.39333580902427501 0.24081282939082621 0 0.39338333076520482 0.2163019563834182 0 0.41736514745474701 0.23222376298023259 0 0.39338333076520482 0.2163019563834182 0 0.38992891259608609 0.19548318162929729 0 0.41508715600771068 0.20488700545500521 0 0.36940151407566268 0.20038014978660379 0 0.39338333076520482 0.2163019563834182 0 0.36940151407566268 0.20038014978660379 0 0.39338333076520482 0.2163019563834182 0 0.38992891259608609 0.19548318162929729 0 0.36940151407566268 0.20038014978660379 0 0.36970064025412291 0.2313836502337521 0 0.39338333076520482 0.2163019563834182 0 0.36940151407566268 0.20038014978660379 0 0.37277469716236061 0.17385369407461371 0 0.38992891259608609 0.19548318162929729 0 0.39936082591505218 0.176604797209717 0 0.38992891259608609 0.19548318162929729 0 0.41508715600771068 0.20488700545500521 0 0.39936082591505218 0.176604797209717 0 0.42626679864566441 0.18172907206941921 0 0.41508715600771068 0.20488700545500521 0 0.42626679864566441 0.18172907206941921 0 0.44140000057487638 0.20455834627575151 0 0.44473765559285833 0.18692520255949671 0 0.42626679864566441 0.18172907206941921 0 0.41508715600771068 0.20488700545500521 0 0.44140000057487638 0.20455834627575151 0 0.41508715600771068 0.20488700545500521 0 0.43790507610234408 0.2273079216372012 0 0.44140000057487638 0.20455834627575151 0 0.39338333076520482 0.2163019563834182 0 0.41508715600771068 0.20488700545500521 0 0.41736514745474701 0.23222376298023259 0 0.41508715600771068 0.20488700545500521 0 0.41736514745474701 0.23222376298023259 0 0.43790507610234408 0.2273079216372012 0 0.42717012070777932 0.25569493195645271 0 0.41736514745474701 0.23222376298023259 0 0.44134696414428898 0.24814556957704689 0 0.41736514745474701 0.23222376298023259 0 0.44134696414428898 0.24814556957704689 0 0.41736514745474701 0.23222376298023259 0 0.44134696414428898 0.24814556957704689 0 0.43790507610234408 0.2273079216372012 0 0.39333580902427501 0.24081282939082621 0 0.41736514745474701 0.23222376298023259 0 0.41286841049430861 0.24788583003777651 0 0.42717012070777932 0.25569493195645271 0 0.41736514745474701 0.23222376298023259 0 0.41286841049430861 0.24788583003777651 0 0.45336271850049548 0.25236276911819511 0 0.45602225988021539 0.23816249748875179 0 0.48180965237011408 0.2487438147612096 0 0.45336271850049548 0.25236276911819511 0 0.45602225988021539 0.23816249748875179 0 0.44134696414428898 0.24814556957704689 0 0.44600400848591359 0.23698591979390529 0 0.43790507610234408 0.2273079216372012 0 0.45336271850049548 0.25236276911819511 0 0.44134696414428898 0.24814556957704689 0 0.44600400848591359 0.23698591979390529 0 0.45336271850049548 0.25236276911819511 0 0.45602225988021539 0.23816249748875179 0 0.44600400848591359 0.23698591979390529 0 0.45602225988021539 0.23816249748875179 0 0.44600400848591359 0.23698591979390529 0 0.45492939023952461 0.2194397610932603 0 0.44600400848591359 0.23698591979390529 0 0.43790507610234408 0.2273079216372012 0 0.45492939023952461 0.2194397610932603 0 0.45602225988021539 0.23816249748875179 0 0.45492939023952461 0.2194397610932603 0 0.47419086539053962 0.2296972043723752 0 0.45492939023952461 0.2194397610932603 0 0.46072674134079361 0.19234021588846559 0 0.47847088324409548 0.2092058758105422 0 0.45492939023952461 0.2194397610932603 0 0.44140000057487638 0.20455834627575151 0 0.46072674134079361 0.19234021588846559 0 0.43790507610234408 0.2273079216372012 0 0.45492939023952461 0.2194397610932603 0 0.44140000057487638 0.20455834627575151 0 0.44140000057487638 0.20455834627575151 0 0.46072674134079361 0.19234021588846559 0 0.44473765559285833 0.18692520255949671 0 0.46072674134079361 0.19234021588846559 0 0.4812983336831132 0.1885899983914231 0 0.47847088324409548 0.2092058758105422 0 0.4812983336831132 0.1885899983914231 0 0.5 0.19797878532577309 0 0.47847088324409548 0.2092058758105422 0 0.5 0.19797878532577309 0 0.47847088324409548 0.2092058758105422 0 0.5 0.22793385045351919 0 0.47847088324409548 0.2092058758105422 0 0.47419086539053962 0.2296972043723752 0 0.5 0.22793385045351919 0 0.45492939023952461 0.2194397610932603 0 0.47847088324409548 0.2092058758105422 0 0.47419086539053962 0.2296972043723752 0 0.5 0.25788891558126559 0 0.5 0.22793385045351919 0 0.48180965237011408 0.2487438147612096 0 0.47419086539053962 0.2296972043723752 0 0.5 0.22793385045351919 0 0.48180965237011408 0.2487438147612096 0 0.45602225988021539 0.23816249748875179 0 0.47419086539053962 0.2296972043723752 0 0.48180965237011408 0.2487438147612096 0 0.46287167922105149 0.15545842773829099 0 0.44904083753606949 0.1441389705362057 0 0.45055708181009879 0.1690731760043504 0 0.46287167922105149 0.15545842773829099 0 0.46355845200513762 0.13850516077978961 0 0.47909635670674228 0.14767892477560191 0 0.46287167922105149 0.15545842773829099 0 0.46355845200513762 0.13850516077978961 0 0.44904083753606949 0.1441389705362057 0 0.46355845200513762 0.13850516077978961 0 0.47795750643906171 0.12649365297180731 0 0.4559740449914913 0.1245921335342187 0 0.46355845200513762 0.13850516077978961 0 0.44904083753606949 0.1441389705362057 0 0.4559740449914913 0.1245921335342187 0 0.43054248402473921 0.1250848439374013 0 0.44904083753606949 0.1441389705362057 0 0.4559740449914913 0.1245921335342187 0 0.42972130682252457 0.1533439082518103 0 0.44904083753606949 0.1441389705362057 0 0.45055708181009879 0.1690731760043504 0 0.42626679864566441 0.18172907206941921 0 0.45055708181009879 0.1690731760043504 0 0.44473765559285833 0.18692520255949671 0 0.46072674134079361 0.19234021588846559 0 0.45055708181009879 0.1690731760043504 0 0.44473765559285833 0.18692520255949671 0 0.46072674134079361 0.19234021588846559 0 0.45055708181009879 0.1690731760043504 0 0.4752785409050499 0.1685484481011886 0 0.46287167922105149 0.15545842773829099 0 0.45055708181009879 0.1690731760043504 0 0.4752785409050499 0.1685484481011886 0 0.45055708181009879 0.1690731760043504 0 0.4752785409050499 0.1685484481011886 0 0.46287167922105149 0.15545842773829099 0 0.4752785409050499 0.1685484481011886 0 0.47909635670674228 0.14767892477560191 0 0.46072674134079361 0.19234021588846559 0 0.4812983336831132 0.1885899983914231 0 0.4752785409050499 0.1685484481011886 0 0.4812983336831132 0.1885899983914231 0 0.4752785409050499 0.1685484481011886 0 0.50000000000000111 0.1680237201980268 0 0.4812983336831132 0.1885899983914231 0 0.5 0.19797878532577309 0 0.50000000000000111 0.1680237201980268 0 0.4752785409050499 0.1685484481011886 0 0.50000000000000111 0.1680237201980268 0 0.4752785409050499 0.1685484481011886 0 0.50000000000000111 0.1680237201980268 0 0.47909635670674228 0.14767892477560191 0 0.50000000000000111 0.1680237201980268 0 0.5 0.14405257421324749 0 0.47909635670674228 0.14767892477560191 0 0.46355845200513762 0.13850516077978961 0 0.47909635670674228 0.14767892477560191 0 0.47795750643906171 0.12649365297180731 0 0.5 0.14405257421324749 0 0.47795750643906171 0.12649365297180731 0 0.5 0.12008142822846821 0 0.5 0.14405257421324749 0 0.47909635670674228 0.14767892477560191 0 0.47795750643906171 0.12649365297180731 0 0.47795750643906171 0.12649365297180731 0 0.5 0.12008142822846821 0 0.48437617198066579 0.1083096126220475 0 0.48437617198066579 0.1083096126220475 0 0.5 0.096110282243688894 0 0.4787628640296252 0.09057766153942011 0 0.5 0.12008142822846821 0 0.48437617198066579 0.1083096126220475 0 0.5 0.096110282243688894 0 0.48437617198066579 0.1083096126220475 0 0.4787628640296252 0.09057766153942011 0 0.46516048943464161 0.10828503812685281 0 0.47795750643906171 0.12649365297180731 0 0.48437617198066579 0.1083096126220475 0 0.46516048943464161 0.10828503812685281 0 0.49999999999999389 0.072139136258909636 0 0.47264706529987838 0.068582714068275596 0 0.5 0.096110282243688894 0 0.49999999999999389 0.072139136258909636 0 0.4787628640296252 0.09057766153942011 0 0.49999999999999389 0.072139136258909636 0 0.4787628640296252 0.09057766153942011 0 0.47264706529987838 0.068582714068275596 0 0.47264706529987838 0.068582714068275596 0 0.44529413059976319 0.065026291877640793 0 0.47264706529987838 0.068582714068275596 0 0.45009241250792742 0.089848104882156193 0 0.44529413059976319 0.065026291877640793 0 0.4787628640296252 0.09057766153942011 0 0.47264706529987838 0.068582714068275596 0 0.45009241250792742 0.089848104882156193 0 0.45009241250792742 0.089848104882156193 0 0.44529413059976319 0.065026291877640793 0 0.42710943965072512 0.080764761008918995 0 0.4559740449914913 0.1245921335342187 0 0.46516048943464161 0.10828503812685281 0 0.44660059903698529 0.1095612823054605 0 0.47795750643906171 0.12649365297180731 0 0.4559740449914913 0.1245921335342187 0 0.46516048943464161 0.10828503812685281 0 0.45009241250792742 0.089848104882156193 0 0.46516048943464161 0.10828503812685281 0 0.44660059903698529 0.1095612823054605 0 0.4787628640296252 0.09057766153942011 0 0.45009241250792742 0.089848104882156193 0 0.46516048943464161 0.10828503812685281 0 0.45009241250792742 0.089848104882156193 0 0.44660059903698529 0.1095612823054605 0 0.42999027194599682 0.1018780191517587 0 0.43054248402473921 0.1250848439374013 0 0.4559740449914913 0.1245921335342187 0 0.44660059903698529 0.1095612823054605 0 0.43054248402473921 0.1250848439374013 0 0.44660059903698529 0.1095612823054605 0 0.42999027194599682 0.1018780191517587 0 0.43054248402473921 0.1250848439374013 0 0.41661501870526302 0.10782610780512 0 0.42999027194599682 0.1018780191517587 0 0.43054248402473921 0.1250848439374013 0 0.41135066019799099 0.1182158826350982 0 0.41661501870526302 0.10782610780512 0 0.43054248402473921 0.1250848439374013 0 0.41135066019799099 0.1182158826350982 0 0.41135066019799099 0.1182158826350982 0 0.41661501870526302 0.10782610780512 0 0.40605193543095291 0.1101899923625959 0 0.41199731756477831 0.13352747615702071 0 0.40856435551682457 0.1195913393650266 0 0.41135066019799099 0.1182158826350982 0 0.41661501870526302 0.10782610780512 0 0.42999027194599682 0.1018780191517587 0 0.41050144950628809 0.092342992232264526 0 0.41661501870526302 0.10782610780512 0 0.41050144950628809 0.092342992232264526 0 0.40408322644931421 0.10337105767737099 0 0.41661501870526302 0.10782610780512 0 0.40605193543095291 0.1101899923625959 0 0.40408322644931421 0.10337105767737099 0 0.45009241250792742 0.089848104882156193 0 0.42999027194599682 0.1018780191517587 0 0.42710943965072512 0.080764761008918995 0 0.42999027194599682 0.1018780191517587 0 0.42710943965072512 0.080764761008918995 0 0.41050144950628809 0.092342992232264526 0 0.44529413059976319 0.065026291877640793 0 0.42710943965072512 0.080764761008918995 0 0.41794119589964812 0.061469869687005997 0 0.44529413059976319 0.065026291877640793 0 0.41794119589964812 0.061469869687005997 0 0.42710943965072512 0.080764761008918995 0 0.40780427562880051 0.074340584248736047 0 0.41794119589964812 0.061469869687005997 0 0.42710943965072512 0.080764761008918995 0 0.40780427562880051 0.074340584248736047 0 0.41050144950628809 0.092342992232264526 0 0.41050144950628809 0.092342992232264526 0 0.39288103188780799 0.079211850819119467 0 0.39173805803946632 0.094638931286680023 0 0.40780427562880051 0.074340584248736047 0 0.41050144950628809 0.092342992232264526 0 0.39288103188780799 0.079211850819119467 0 0.40780427562880051 0.074340584248736047 0 0.39058826119953283 0.057913447496371839 0 0.41794119589964812 0.061469869687005997 0 0.40780427562880051 0.074340584248736047 0 0.39288103188780799 0.079211850819119467 0 0.39058826119953283 0.057913447496371839 0 0.39288103188780799 0.079211850819119467 0 0.37575225644292037 0.071709270247263784 0 0.39058826119953283 0.057913447496371839 0 0.3742009225581896 0.091268948227223284 0 0.39288103188780799 0.079211850819119467 0 0.39173805803946632 0.094638931286680023 0 0.3742009225581896 0.091268948227223284 0 0.39288103188780799 0.079211850819119467 0 0.37575225644292037 0.071709270247263784 0 0.3742009225581896 0.091268948227223284 0 0.39215883637124299 0.11134692133279479 0 0.39173805803946632 0.094638931286680023 0 0.3742009225581896 0.091268948227223284 0 0.39215883637124299 0.11134692133279479 0 0.3742009225581896 0.091268948227223284 0 0.3795225325030368 0.1068242515199407 0 0.39215883637124299 0.11134692133279479 0 0.3795225325030368 0.1068242515199407 0 0.39215883637124299 0.11134692133279479 0 0.3795225325030368 0.1068242515199407 0 0.38138511069115272 0.12353481432135879 0 0.3942733283070321 0.11371104406223111 0 0.36649271172908648 0.1176987398754743 0 0.3795225325030368 0.1068242515199407 0 0.38138511069115272 0.12353481432135879 0 0.39421974672685411 0.13240309148155921 0 0.38138511069115272 0.12353481432135879 0 0.3942733283070321 0.11371104406223111 0 0.3795225325030368 0.1068242515199407 0 0.3942733283070321 0.11371104406223111 0 0.3795225325030368 0.1068242515199407 0 0.39215883637124299 0.11134692133279479 0 0.3942733283070321 0.11371104406223111 0 0.41135066019799099 0.1182158826350982 0 0.39215883637124299 0.11134692133279479 0 0.40605193543095291 0.1101899923625959 0 0.41135066019799099 0.1182158826350982 0 0.39215883637124299 0.11134692133279479 0 0.3942733283070321 0.11371104406223111 0 0.41135066019799099 0.1182158826350982 0 0.39215883637124299 0.11134692133279479 0 0.41199731756477831 0.13352747615702071 0 0.40856435551682457 0.1195913393650266 0 0.3942733283070321 0.11371104406223111 0 0.41199731756477831 0.13352747615702071 0 0.3942733283070321 0.11371104406223111 0 0.40856435551682457 0.1195913393650266 0 0.41135066019799099 0.1182158826350982 0 0.3942733283070321 0.11371104406223111 0 0.39215883637124299 0.11134692133279479 0 0.3942733283070321 0.11371104406223111 0 0.40856435551682457 0.1195913393650266 0 0.3942733283070321 0.11371104406223111 0 0.39215883637124299 0.11134692133279479 0 0.40408322644931421 0.10337105767737099 0 0.39173805803946632 0.094638931286680023 0 0.39215883637124299 0.11134692133279479 0 0.40605193543095291 0.1101899923625959 0 0.40408322644931421 0.10337105767737099 0 0.41050144950628809 0.092342992232264526 0 0.40408322644931421 0.10337105767737099 0 0.39173805803946632 0.094638931286680023 0 0.4038432128890253 0.016274120358417851 0 0.39452024459155199 0.029629145094844 0 0.3798040161112804 0.028996110171619349 0 0.4038432128890253 0.016274120358417851 0 0.39452024459155199 0.029629145094844 0 0.40714332068978548 0.032011032787191827 0 0.4038432128890253 0.016274120358417851 0 0.3798040161112804 0.028996110171619349 0 0.4038432128890253 0.016274120358417851 0 0.39390920682105918 0.0040204267233196643 0 0.38813729234829519 0.016219836643301819 0 0.4038432128890253 0.016274120358417851 0 0.39390920682105918 0.0040204267233196643 0 0.40369857438468087 -0.0060371637805465179 0 0.39390920682105918 0.0040204267233196643 0 0.38212023564171321 0.001094655884648786 0 0.38813729234829519 0.016219836643301819 0 0.38212023564171321 0.001094655884648786 0 0.37537418671591988 0.012891754799621079 0 0.3700201466167648 -0.002195575246397889 0 0.38212023564171321 0.001094655884648786 0 0.37537418671591988 0.012891754799621079 0 0.38813729234829519 0.016219836643301819 0 0.38029426512156322 0.021339738828328979 0 0.38813729234829519 0.016219836643301819 0 0.3798040161112804 0.028996110171619349 0 0.4038432128890253 0.016274120358417851 0 0.38813729234829519 0.016219836643301819 0 0.3798040161112804 0.028996110171619349 0 0.37537418671591988 0.012891754799621079 0 0.38029426512156322 0.021339738828328979 0 0.37786156531075732 0.02725125369877367 0 0.37537418671591988 0.012891754799621079 0 0.38029426512156322 0.021339738828328979 0 0.38813729234829519 0.016219836643301819 0 0.39452024459155199 0.029629145094844 0 0.3798040161112804 0.028996110171619349 0 0.384792923869274 0.033192425096464057 0 0.38029426512156322 0.021339738828328979 0 0.3798040161112804 0.028996110171619349 0 0.37786156531075732 0.02725125369877367 0 0.36984281421283938 0.03924660656396721 0 0.3798040161112804 0.028996110171619349 0 0.37675727284589372 0.036323400775862158 0 0.3798040161112804 0.028996110171619349 0 0.38012370578730592 0.033949837724153123 0 0.37675727284589372 0.036323400775862158 0 0.3798040161112804 0.028996110171619349 0 0.38012370578730592 0.033949837724153123 0 0.384792923869274 0.033192425096464057 0 0.38012370578730592 0.033949837724153123 0 0.38115894465086869 0.037510150111343843 0 0.384792923869274 0.033192425096464057 0 0.38012370578730592 0.033949837724153123 0 0.38115894465086869 0.037510150111343843 0 0.37675727284589372 0.036323400775862158 0 0.38115894465086869 0.037510150111343843 0 0.37675727284589372 0.036323400775862158 0 0.37726993283737248 0.041439113600633092 0 0.37726993283737248 0.041439113600633092 0 0.38325871491723518 0.0441773091346798 0 0.37608467898805159 0.048096788967416412 0 0.38115894465086869 0.037510150111343843 0 0.37726993283737248 0.041439113600633092 0 0.38325871491723518 0.0441773091346798 0 0.38115894465086869 0.037510150111343843 0 0.38325871491723518 0.0441773091346798 0 0.38884635116990662 0.036871995634108659 0 0.38325871491723518 0.0441773091346798 0 0.38884635116990662 0.036871995634108659 0 0.39118926401298038 0.043344116461786472 0 0.39452024459155199 0.029629145094844 0 0.38884635116990662 0.036871995634108659 0 0.384792923869274 0.033192425096464057 0 0.38115894465086869 0.037510150111343843 0 0.38884635116990662 0.036871995634108659 0 0.384792923869274 0.033192425096464057 0 0.36737709041569239 0.056764699852256018 0 0.39058826119953283 0.057913447496371839 0 0.36443667806580698 0.054513224756226962 0 0.37608467898805159 0.048096788967416412 0 0.39058826119953283 0.057913447496371839 0 0.36737709041569239 0.056764699852256018 0 0.37575225644292037 0.071709270247263784 0 0.39058826119953283 0.057913447496371839 0 0.36443667806580698 0.054513224756226962 0 0.39058826119953283 0.057913447496371839 0 0.38325871491723518 0.0441773091346798 0 0.37608467898805159 0.048096788967416412 0 0.39058826119953283 0.057913447496371839 0 0.38325871491723518 0.0441773091346798 0 0.39058826119953283 0.057913447496371839 0 0.39118926401298038 0.043344116461786472 0 0.39058826119953283 0.057913447496371839 0 0.39917917489280202 0.048669550515315511 0 0.40824027372044169 0.058787065978875973 0 0.39058826119953283 0.057913447496371839 0 0.40824027372044169 0.058787065978875973 0 0.39058826119953283 0.057913447496371839 0 0.41794119589964812 0.061469869687005997 0 0.40824027372044169 0.058787065978875973 0 0.39058826119953283 0.057913447496371839 0 0.41794119589964812 0.061469869687005997 0 0.39058826119953283 0.057913447496371839 0 0.39917917489280202 0.048669550515315511 0 0.39118926401298038 0.043344116461786472 0 0.39917917489280202 0.048669550515315511 0 0.40803146459590139 0.044566129264659721 0 0.40824027372044169 0.058787065978875973 0 0.39452024459155199 0.029629145094844 0 0.38884635116990662 0.036871995634108659 0 0.39784661093515339 0.038736993374884177 0 0.39917917489280202 0.048669550515315511 0 0.39784661093515339 0.038736993374884177 0 0.39118926401298038 0.043344116461786472 0 0.38884635116990662 0.036871995634108659 0 0.39784661093515339 0.038736993374884177 0 0.39118926401298038 0.043344116461786472 0 0.39917917489280202 0.048669550515315511 0 0.39784661093515339 0.038736993374884177 0 0.40803146459590139 0.044566129264659721 0 0.39452024459155199 0.029629145094844 0 0.39784661093515339 0.038736993374884177 0 0.40714332068978548 0.032011032787191827 0 0.39784661093515339 0.038736993374884177 0 0.40714332068978548 0.032011032787191827 0 0.40803146459590139 0.044566129264659721 0 0.40714332068978548 0.032011032787191827 0 0.40803146459590139 0.044566129264659721 0 0.41964440497126981 0.040250358009145122 0 0.40803146459590139 0.044566129264659721 0 0.41964440497126981 0.040250358009145122 0 0.41733432138732551 0.050785193364838402 0 0.40714332068978548 0.032011032787191827 0 0.41964440497126981 0.040250358009145122 0 0.41891932927970088 0.026081136014491389 0 0.40824027372044169 0.058787065978875973 0 0.41733432138732551 0.050785193364838402 0 0.42589228624135061 0.059660684461379461 0 0.40824027372044169 0.058787065978875973 0 0.42589228624135061 0.059660684461379461 0 0.41794119589964812 0.061469869687005997 0 0.40824027372044169 0.058787065978875973 0 0.42589228624135061 0.059660684461379461 0 0.40803146459590139 0.044566129264659721 0 0.40824027372044169 0.058787065978875973 0 0.41733432138732551 0.050785193364838402 0 0.41964440497126981 0.040250358009145122 0 0.41733432138732551 0.050785193364838402 0 0.42647272639553008 0.050672874727357403 0 0.44529413059976319 0.065026291877640793 0 0.42589228624135061 0.059660684461379461 0 0.43583307009461808 0.053135938561971199 0 0.44529413059976319 0.065026291877640793 0 0.41794119589964812 0.061469869687005997 0 0.42589228624135061 0.059660684461379461 0 0.42589228624135061 0.059660684461379461 0 0.42647272639553008 0.050672874727357403 0 0.43583307009461808 0.053135938561971199 0 0.41733432138732551 0.050785193364838402 0 0.42589228624135061 0.059660684461379461 0 0.42647272639553008 0.050672874727357403 0 0.42647272639553008 0.050672874727357403 0 0.43583307009461808 0.053135938561971199 0 0.4340740022190257 0.043822740937536728 0 0.41964440497126981 0.040250358009145122 0 0.42987588244635011 0.033334548906864728 0 0.41891932927970088 0.026081136014491389 0 0.41964440497126981 0.040250358009145122 0 0.4340740022190257 0.043822740937536728 0 0.42987588244635011 0.033334548906864728 0 0.41964440497126981 0.040250358009145122 0 0.42647272639553008 0.050672874727357403 0 0.4340740022190257 0.043822740937536728 0 0.4340740022190257 0.043822740937536728 0 0.42987588244635011 0.033334548906864728 0 0.44528176508543132 0.032905620831071007 0 0.42987588244635011 0.033334548906864728 0 0.43184963590009789 0.021236349906575389 0 0.44528176508543132 0.032905620831071007 0 0.43184963590009789 0.021236349906575389 0 0.42259879527057942 0.015927249454054739 0 0.43188165484739188 0.01287087804949661 0 0.43184963590009789 0.021236349906575389 0 0.42259879527057942 0.015927249454054739 0 0.41891932927970088 0.026081136014491389 0 0.42987588244635011 0.033334548906864728 0 0.43184963590009789 0.021236349906575389 0 0.41891932927970088 0.026081136014491389 0 0.4038432128890253 0.016274120358417851 0 0.42259879527057942 0.015927249454054739 0 0.41891932927970088 0.026081136014491389 0 0.4038432128890253 0.016274120358417851 0 0.40714332068978548 0.032011032787191827 0 0.41891932927970088 0.026081136014491389 0 0.4038432128890253 0.016274120358417851 0 0.41402040698134779 -0.0025911497673051101 0 0.40369857438468087 -0.0060371637805465179 0 0.4038432128890253 0.016274120358417851 0 0.42788240966677021 0.003552130545216341 0 0.4038432128890253 0.016274120358417851 0 0.42101935538117791 0.0050386314779034547 0 0.41402040698134779 -0.0025911497673051101 0 0.4038432128890253 0.016274120358417851 0 0.42259879527057942 0.015927249454054739 0 0.42788240966677021 0.003552130545216341 0 0.4038432128890253 0.016274120358417851 0 0.42101935538117791 0.0050386314779034547 0 0.42788240966677021 0.003552130545216341 0 0.42788240966677021 0.003552130545216341 0 0.43188165484739188 0.01287087804949661 0 0.44740740452026229 0.01137317045841814 0 0.42259879527057942 0.015927249454054739 0 0.42788240966677021 0.003552130545216341 0 0.43188165484739188 0.01287087804949661 0 0.43184963590009789 0.021236349906575389 0 0.43188165484739188 0.01287087804949661 0 0.44740740452026229 0.01137317045841814 0 0.42788240966677021 0.003552130545216341 0 0.44740740452026229 0.01137317045841814 0 0.45192160644451512 -0.0091698592679851504 0 0.43184963590009789 0.021236349906575389 0 0.44740740452026229 0.01137317045841814 0 0.44528176508543132 0.032905620831071007 0 0.44740740452026229 0.01137317045841814 0 0.44528176508543132 0.032905620831071007 0 0.46875558315454652 0.02621282055229885 0 0.44740740452026229 0.01137317045841814 0 0.4740075662235973 0.0028935560396234419 0 0.46875558315454652 0.02621282055229885 0 0.44740740452026229 0.01137317045841814 0 0.4740075662235973 0.0028935560396234419 0 0.45192160644451512 -0.0091698592679851504 0 0.44529413059976319 0.065026291877640793 0 0.44587589901867808 0.047550444472131762 0 0.4614262583005877 0.04791767975015173 0 0.44529413059976319 0.065026291877640793 0 0.43583307009461808 0.053135938561971199 0 0.44587589901867808 0.047550444472131762 0 0.43583307009461808 0.053135938561971199 0 0.4340740022190257 0.043822740937536728 0 0.44587589901867808 0.047550444472131762 0 0.44587589901867808 0.047550444472131762 0 0.44528176508543132 0.032905620831071007 0 0.4614262583005877 0.04791767975015173 0 0.4340740022190257 0.043822740937536728 0 0.44587589901867808 0.047550444472131762 0 0.44528176508543132 0.032905620831071007 0 0.44528176508543132 0.032905620831071007 0 0.4614262583005877 0.04791767975015173 0 0.46875558315454652 0.02621282055229885 0 0.47264706529987838 0.068582714068275596 0 0.44529413059976319 0.065026291877640793 0 0.4614262583005877 0.04791767975015173 0 0.47264706529987838 0.068582714068275596 0 0.4614262583005877 0.04791767975015173 0 0.48053199367993171 0.043851827509569327 0 0.4614262583005877 0.04791767975015173 0 0.48053199367993171 0.043851827509569327 0 0.46875558315454652 0.02621282055229885 0 0.48053199367993171 0.043851827509569327 0 0.5 0.04545089247058498 0 0.5 0.018762648682260189 0 0.49999999999999389 0.072139136258909636 0 0.47264706529987838 0.068582714068275596 0 0.48053199367993171 0.043851827509569327 0 0.49999999999999389 0.072139136258909636 0 0.48053199367993171 0.043851827509569327 0 0.5 0.04545089247058498 0 0.48053199367993171 0.043851827509569327 0 0.46875558315454652 0.02621282055229885 0 0.5 0.018762648682260189 0 0.4740075662235973 0.0028935560396234419 0 0.46875558315454652 0.02621282055229885 0 0.5 0.018762648682260189 0 0.4740075662235973 0.0028935560396234419 0 0.5 0.018762648682260189 0 0.5 -0.0079255951060647756 0 0.4740075662235973 0.0028935560396234419 0 0.5 -0.0079255951060647756 0 0.47596080322225992 -0.02189184908118659 0 0.47596080322225992 -0.02189184908118659 0 0.50000000000000377 -0.034613838894389633 0 0.5 -0.0079255951060647756 0 0.47596080322225992 -0.02189184908118659 0 0.50000000000000377 -0.034613838894389633 0 0.47596080322225992 -0.02189184908118659 0 0.50000000000000377 -0.034613838894389633 0 0.48339532061042467 -0.042675677639817791 0 0.50000000000000377 -0.034613838894389633 0 0.5 -0.052291970509826757 0 0.48339532061042467 -0.042675677639817791 0 0.5 -0.052291970509826757 0 0.48378938215607542 -0.060491629721736481 0 0.49999999999999678 -0.069970102125263903 0 0.5 -0.052291970509826757 0 0.48378938215607542 -0.060491629721736481 0 0.48339532061042467 -0.042675677639817791 0 0.48378938215607542 -0.060491629721736481 0 0.47035919737641452 -0.05083356829212015 0 0.48339532061042467 -0.042675677639817791 0 0.48378938215607542 -0.060491629721736481 0 0.47035919737641452 -0.05083356829212015 0 0.46263532094350251 -0.0655193079319734 0 0.47596080322225992 -0.02189184908118659 0 0.48339532061042467 -0.042675677639817791 0 0.46122373864745198 -0.034064038759572521 0 0.47035919737641452 -0.05083356829212015 0 0.48339532061042467 -0.042675677639817791 0 0.46122373864745198 -0.034064038759572521 0 0.46122373864745198 -0.034064038759572521 0 0.45641225836005789 -0.05051217933658872 0 0.44483042593949818 -0.041063070916932051 0 0.47035919737641452 -0.05083356829212015 0 0.46122373864745198 -0.034064038759572521 0 0.45641225836005789 -0.05051217933658872 0 0.45641225836005789 -0.05051217933658872 0 0.44526353314296241 -0.062107813217869068 0 0.46263532094350251 -0.0655193079319734 0 0.47035919737641452 -0.05083356829212015 0 0.45641225836005789 -0.05051217933658872 0 0.46263532094350251 -0.0655193079319734 0 0.45641225836005789 -0.05051217933658872 0 0.44526353314296241 -0.062107813217869068 0 0.44483042593949818 -0.041063070916932051 0 0.44526353314296241 -0.062107813217869068 0 0.44483042593949818 -0.041063070916932051 0 0.42768193525564641 -0.052738548234870043 0 0.46122373864745198 -0.034064038759572521 0 0.44483042593949818 -0.041063070916932051 0 0.44260817666721519 -0.025216613737701819 0 0.44483042593949818 -0.041063070916932051 0 0.44260817666721519 -0.025216613737701819 0 0.43454865465473302 -0.032105158367880783 0 0.46122373864745198 -0.034064038759572521 0 0.44260817666721519 -0.025216613737701819 0 0.45192160644451512 -0.0091698592679851504 0 0.42788240966677021 0.003552130545216341 0 0.45192160644451512 -0.0091698592679851504 0 0.44260817666721519 -0.025216613737701819 0 0.45192160644451512 -0.0091698592679851504 0 0.43543049063324413 -0.012350052332502739 0 0.42788240966677021 0.003552130545216341 0 0.45192160644451512 -0.0091698592679851504 0 0.43543049063324413 -0.012350052332502739 0 0.4740075662235973 0.0028935560396234419 0 0.47596080322225992 -0.02189184908118659 0 0.45192160644451512 -0.0091698592679851504 0 0.47596080322225992 -0.02189184908118659 0 0.45192160644451512 -0.0091698592679851504 0 0.47596080322225992 -0.02189184908118659 0 0.46122373864745198 -0.034064038759572521 0 0.45192160644451512 -0.0091698592679851504 0 0.47621403880257929 -0.099362679963144546 0 0.45825176112352212 -0.1171944005084963 0 0.47461064769812122 -0.12772964805397971 0 0.50000000000000433 -0.1143432737178363 0 0.47621403880257929 -0.099362679963144546 0 0.47461064769812122 -0.12772964805397971 0 0.50000000000000433 -0.1143432737178363 0 0.47461064769812122 -0.12772964805397971 0 0.49999999999998102 -0.1000967699598443 0 0.47621403880257929 -0.099362679963144546 0 0.49999999999998102 -0.1000967699598443 0 0.47621403880257929 -0.099362679963144546 0 0.48785951469139027 -0.086657123706384981 0 0.50000000000000433 -0.1143432737178363 0 0.49999999999998102 -0.1000967699598443 0 0.47621403880257929 -0.099362679963144546 0 0.47621403880257929 -0.099362679963144546 0 0.48785951469139027 -0.086657123706384981 0 0.47522401996300467 -0.077198942777287505 0 0.47621403880257929 -0.099362679963144546 0 0.47522401996300467 -0.077198942777287505 0 0.46460819440086443 -0.0896918568577834 0 0.49999999999998102 -0.1000967699598443 0 0.48785951469139027 -0.086657123706384981 0 0.49999999999999678 -0.069970102125263903 0 0.49999999999999678 -0.069970102125263903 0 0.47522401996300467 -0.077198942777287505 0 0.48785951469139027 -0.086657123706384981 0 0.49999999999999678 -0.069970102125263903 0 0.47522401996300467 -0.077198942777287505 0 0.48378938215607542 -0.060491629721736481 0 0.49999999999999678 -0.069970102125263903 0 0.47522401996300467 -0.077198942777287505 0 0.48378938215607542 -0.060491629721736481 0 0.47522401996300467 -0.077198942777287505 0 0.46263532094350251 -0.0655193079319734 0 0.47522401996300467 -0.077198942777287505 0 0.46263532094350251 -0.0655193079319734 0 0.4504480399260129 -0.084427783429311939 0 0.44526353314296241 -0.062107813217869068 0 0.46263532094350251 -0.0655193079319734 0 0.4504480399260129 -0.084427783429311939 0 0.44526353314296241 -0.062107813217869068 0 0.4504480399260129 -0.084427783429311939 0 0.43069868055782679 -0.078899440675300136 0 0.4504480399260129 -0.084427783429311939 0 0.45242807760517778 -0.098628589966444233 0 0.42864211640777627 -0.097894499969741214 0 0.4504480399260129 -0.084427783429311939 0 0.42567205988902129 -0.091656624081337568 0 0.47522401996300467 -0.077198942777287505 0 0.4504480399260129 -0.084427783429311939 0 0.47522401996300467 -0.077198942777287505 0 0.4504480399260129 -0.084427783429311939 0 0.46460819440086443 -0.0896918568577834 0 0.4504480399260129 -0.084427783429311939 0 0.46460819440086443 -0.0896918568577834 0 0.45242807760517778 -0.098628589966444233 0 0.47621403880257929 -0.099362679963144546 0 0.45242807760517778 -0.098628589966444233 0 0.45825176112352212 -0.1171944005084963 0 0.47621403880257929 -0.099362679963144546 0 0.45242807760517778 -0.098628589966444233 0 0.47621403880257929 -0.099362679963144546 0 0.46460819440086443 -0.0896918568577834 0 0.45242807760517778 -0.098628589966444233 0 0.45242807760517778 -0.098628589966444233 0 0.42864211640777627 -0.097894499969741214 0 0.45242807760517778 -0.098628589966444233 0 0.43893170590200609 -0.1195052611799315 0 0.42864211640777627 -0.097894499969741214 0 0.45242807760517778 -0.098628589966444233 0 0.43893170590200609 -0.1195052611799315 0 0.45825176112352212 -0.1171944005084963 0 0.42080162445294911 -0.1170697999396166 0 0.40604313277712428 -0.1171380761358455 0 0.41368108829086198 -0.13554811058748131 0 0.42080162445294911 -0.1170697999396166 0 0.40662173914453831 -0.097214899993173481 0 0.40604313277712428 -0.1171380761358455 0 0.43893170590200609 -0.1195052611799315 0 0.42080162445294911 -0.1170697999396166 0 0.430889964195386 -0.135117951771525 0 0.43893170590200609 -0.1195052611799315 0 0.42080162445294911 -0.1170697999396166 0 0.42864211640777627 -0.097894499969741214 0 0.43893170590200609 -0.1195052611799315 0 0.42864211640777627 -0.097894499969741214 0 0.42864211640777627 -0.097894499969741214 0 0.42567205988902129 -0.091656624081337568 0 0.42864211640777627 -0.097894499969741214 0 0.40662173914453831 -0.097214899993173481 0 0.42567205988902129 -0.091656624081337568 0 0.42080162445294911 -0.1170697999396166 0 0.42864211640777627 -0.097894499969741214 0 0.40662173914453831 -0.097214899993173481 0 0.42864211640777627 -0.097894499969741214 0 0.40662173914453831 -0.097214899993173481 0 0.40662173914453831 -0.097214899993173481 0 0.42567205988902129 -0.091656624081337568 0 0.40662173914453831 -0.097214899993173481 0 0.41829766411352998 -0.087706900461061957 0 0.42567205988902129 -0.091656624081337568 0 0.40662173914453831 -0.097214899993173481 0 0.41020628866808312 -0.08357079425946129 0 0.41829766411352998 -0.087706900461061957 0 0.41020628866808312 -0.08357079425946129 0 0.42012861486432151 -0.07981881462850364 0 0.41094109939792961 -0.074512111623280808 0 0.41020628866808312 -0.08357079425946129 0 0.41094109939792961 -0.074512111623280808 0 0.40556094342569721 -0.078918860306745137 0 0.41020628866808312 -0.08357079425946129 0 0.42012861486432151 -0.07981881462850364 0 0.41829766411352998 -0.087706900461061957 0 0.42012861486432151 -0.07981881462850364 0 0.41829766411352998 -0.087706900461061957 0 0.42254342745458301 -0.084546146485576762 0 0.41829766411352998 -0.087706900461061957 0 0.42461385466063262 -0.08943412331831832 0 0.42254342745458301 -0.084546146485576762 0 0.42567205988902129 -0.091656624081337568 0 0.42461385466063262 -0.08943412331831832 0 0.43069868055782679 -0.078899440675300136 0 0.4504480399260129 -0.084427783429311939 0 0.42567205988902129 -0.091656624081337568 0 0.43069868055782679 -0.078899440675300136 0 0.4504480399260129 -0.084427783429311939 0 0.42864211640777627 -0.097894499969741214 0 0.42567205988902129 -0.091656624081337568 0 0.42567205988902129 -0.091656624081337568 0 0.42461385466063262 -0.08943412331831832 0 0.41829766411352998 -0.087706900461061957 0 0.42567205988902129 -0.091656624081337568 0 0.42461385466063262 -0.08943412331831832 0 0.42012861486432151 -0.07981881462850364 0 0.43069868055782679 -0.078899440675300136 0 0.42254342745458301 -0.084546146485576762 0 0.42461385466063262 -0.08943412331831832 0 0.43069868055782679 -0.078899440675300136 0 0.42254342745458301 -0.084546146485576762 0 0.43069868055782679 -0.078899440675300136 0 0.42085386234523608 -0.065266903626460593 0 0.41911482919747139 -0.073234494934215744 0 0.43069868055782679 -0.078899440675300136 0 0.42085386234523608 -0.065266903626460593 0 0.42768193525564641 -0.052738548234870043 0 0.44526353314296241 -0.062107813217869068 0 0.43069868055782679 -0.078899440675300136 0 0.42768193525564641 -0.052738548234870043 0 0.43069868055782679 -0.078899440675300136 0 0.42768193525564641 -0.052738548234870043 0 0.42012861486432151 -0.07981881462850364 0 0.43069868055782679 -0.078899440675300136 0 0.41911482919747139 -0.073234494934215744 0 0.42085386234523608 -0.065266903626460593 0 0.41911482919747139 -0.073234494934215744 0 0.41247118756252621 -0.068972059658544485 0 0.41911482919747139 -0.073234494934215744 0 0.41094109939792961 -0.074512111623280808 0 0.41247118756252621 -0.068972059658544485 0 0.42012861486432151 -0.07981881462850364 0 0.41911482919747139 -0.073234494934215744 0 0.41094109939792961 -0.074512111623280808 0 0.41094109939792961 -0.074512111623280808 0 0.41247118756252621 -0.068972059658544485 0 0.40519344017519737 -0.069697512887539489 0 0.42085386234523608 -0.065266903626460593 0 0.41247118756252621 -0.068972059658544485 0 0.40625270669679608 -0.06214927522122575 0 0.41247118756252621 -0.068972059658544485 0 0.40519344017519737 -0.069697512887539489 0 0.40625270669679608 -0.06214927522122575 0 0.40519344017519737 -0.069697512887539489 0 0.3909339432522656 -0.07145852807871525 0 0.40625270669679608 -0.06214927522122575 0 0.41094109939792961 -0.074512111623280808 0 0.40094221169150912 -0.074554002884685597 0 0.40556094342569721 -0.078918860306745137 0 0.40519344017519737 -0.069697512887539489 0 0.40094221169150912 -0.074554002884685597 0 0.3909339432522656 -0.07145852807871525 0 0.41094109939792961 -0.074512111623280808 0 0.40519344017519737 -0.069697512887539489 0 0.40094221169150912 -0.074554002884685597 0 0.40094221169150912 -0.074554002884685597 0 0.3909339432522656 -0.07145852807871525 0 0.39616481607021642 -0.077435810443283751 0 0.3909339432522656 -0.07145852807871525 0 0.39616481607021642 -0.077435810443283751 0 0.39262893539182381 -0.080692178350181262 0 0.39181446083091098 -0.066763706552935329 0 0.38421934743036401 -0.068446750892908373 0 0.38398729378694407 -0.058429379279077209 0 0.38421934743036401 -0.068446750892908373 0 0.37813424473731178 -0.068262582352726586 0 0.38398729378694407 -0.058429379279077209 0 0.37813424473731178 -0.068262582352726586 0 0.38294139036628899 -0.080331335386894381 0 0.37353404377441052 -0.075370636612477671 0 0.38421934743036401 -0.068446750892908373 0 0.37813424473731178 -0.068262582352726586 0 0.38294139036628899 -0.080331335386894381 0 0.39181446083091098 -0.066763706552935329 0 0.38294139036628899 -0.080331335386894381 0 0.39181446083091098 -0.066763706552935329 0 0.38421934743036401 -0.068446750892908373 0 0.38294139036628899 -0.080331335386894381 0 0.3909339432522656 -0.07145852807871525 0 0.39181446083091098 -0.066763706552935329 0 0.38294139036628899 -0.080331335386894381 0 0.38598565568847482 -0.085166122563822014 0 0.39289996883908601 -0.089154852807517448 0 0.39262893539182381 -0.080692178350181262 0 0.3909339432522656 -0.07145852807871525 0 0.38598565568847482 -0.085166122563822014 0 0.39262893539182381 -0.080692178350181262 0 0.3909339432522656 -0.07145852807871525 0 0.37406831990166722 -0.093898964220853504 0 0.3909339432522656 -0.07145852807871525 0 0.38598565568847482 -0.085166122563822014 0 0.37406831990166722 -0.093898964220853504 0 0.3909339432522656 -0.07145852807871525 0 0.38294139036628899 -0.080331335386894381 0 0.37406831990166722 -0.093898964220853504 0 0.38294139036628899 -0.080331335386894381 0 0.37406831990166722 -0.093898964220853504 0 0.38598565568847482 -0.085166122563822014 0 0.38240509603332101 -0.092127683864182172 0 0.37406831990166722 -0.093898964220853504 0 0.38240509603332101 -0.092127683864182172 0 0.39289996883908601 -0.089154852807517448 0 0.38960421283109031 -0.096689699614190994 0 0.38598565568847482 -0.085166122563822014 0 0.38240509603332101 -0.092127683864182172 0 0.39289996883908601 -0.089154852807517448 0 0.39289996883908601 -0.089154852807517448 0 0.39262893539182381 -0.080692178350181262 0 0.40015417394526698 -0.083038532459552866 0 0.39616481607021642 -0.077435810443283751 0 0.39262893539182381 -0.080692178350181262 0 0.40015417394526698 -0.083038532459552866 0 0.40094221169150912 -0.074554002884685597 0 0.40556094342569721 -0.078918860306745137 0 0.40015417394526698 -0.083038532459552866 0 0.40094221169150912 -0.074554002884685597 0 0.39616481607021642 -0.077435810443283751 0 0.40015417394526698 -0.083038532459552866 0 0.41020628866808312 -0.08357079425946129 0 0.40556094342569721 -0.078918860306745137 0 0.40015417394526698 -0.083038532459552866 0 0.40662173914453831 -0.097214899993173481 0 0.39289996883908601 -0.089154852807517448 0 0.40015417394526698 -0.083038532459552866 0 0.40662173914453831 -0.097214899993173481 0 0.41020628866808312 -0.08357079425946129 0 0.40015417394526698 -0.083038532459552866 0 0.40662173914453831 -0.097214899993173481 0 0.3851668720105898 -0.10347474583943909 0 0.38960421283109031 -0.096689699614190994 0 0.40662173914453831 -0.097214899993173481 0 0.3851668720105898 -0.10347474583943909 0 0.40662173914453831 -0.097214899993173481 0 0.39289996883908601 -0.089154852807517448 0 0.38960421283109031 -0.096689699614190994 0 0.40662173914453831 -0.097214899993173481 0 0.38960421283109031 -0.096689699614190994 0 0.40662173914453831 -0.097214899993173481 0 0.3851668720105898 -0.10347474583943909 0 0.39374350655696688 -0.1137959578468639 0 0.38960421283109031 -0.096689699614190994 0 0.37237061700676077 -0.09615783082836224 0 0.3851668720105898 -0.10347474583943909 0 0.38960421283109031 -0.096689699614190994 0 0.37237061700676077 -0.09615783082836224 0 0.38240509603332101 -0.092127683864182172 0 0.38960421283109031 -0.096689699614190994 0 0.37237061700676077 -0.09615783082836224 0 0.38240509603332101 -0.092127683864182172 0 0.37406831990166722 -0.093898964220853504 0 0.37237061700676077 -0.09615783082836224 0 0.3785150876385216 -0.1195111518185689 0 0.39374350655696688 -0.1137959578468639 0 0.39237070121405998 -0.13164091544729051 0 0.3851668720105898 -0.10347474583943909 0 0.3785150876385216 -0.1195111518185689 0 0.36371200487664068 -0.10973459168570281 0 0.3851668720105898 -0.10347474583943909 0 0.3785150876385216 -0.1195111518185689 0 0.39374350655696688 -0.1137959578468639 0 0.40662173914453831 -0.097214899993173481 0 0.39374350655696688 -0.1137959578468639 0 0.40604313277712428 -0.1171380761358455 0 0.39374350655696688 -0.1137959578468639 0 0.40604313277712428 -0.1171380761358455 0 0.39237070121405998 -0.13164091544729051 0 0.41728163952739061 -0.019334187549187701 0 0.42284227266732188 -0.010769512158268201 0 0.42466518995346408 -0.026577655794440151 0 0.41728163952739061 -0.019334187549187701 0 0.41227128108974659 -0.029924501558089681 0 0.42466518995346408 -0.026577655794440151 0 0.41227128108974659 -0.029924501558089681 0 0.40863720631140932 -0.019892986955346081 0 0.40014031603924488 -0.033106741091830219 0 0.41728163952739061 -0.019334187549187701 0 0.41227128108974659 -0.029924501558089681 0 0.40863720631140932 -0.019892986955346081 0 0.41728163952739061 -0.019334187549187701 0 0.40863720631140932 -0.019892986955346081 0 0.41436166681859882 -0.01226683791037885 0 0.40863720631140932 -0.019892986955346081 0 0.41436166681859882 -0.01226683791037885 0 0.40369857438468087 -0.0060371637805465179 0 0.42101935538117791 0.0050386314779034547 0 0.41402040698134779 -0.0025911497673051101 0 0.42284227266732188 -0.010769512158268201 0 0.41402040698134779 -0.0025911497673051101 0 0.41436166681859882 -0.01226683791037885 0 0.40369857438468087 -0.0060371637805465179 0 0.41402040698134779 -0.0025911497673051101 0 0.41436166681859882 -0.01226683791037885 0 0.42284227266732188 -0.010769512158268201 0 0.41728163952739061 -0.019334187549187701 0 0.41436166681859882 -0.01226683791037885 0 0.42284227266732188 -0.010769512158268201 0 0.42284227266732188 -0.010769512158268201 0 0.43543049063324413 -0.012350052332502739 0 0.42769414368384923 -0.02254750278133769 0 0.42101935538117791 0.0050386314779034547 0 0.42284227266732188 -0.010769512158268201 0 0.42101935538117791 0.0050386314779034547 0 0.42788240966677021 0.003552130545216341 0 0.42284227266732188 -0.010769512158268201 0 0.42788240966677021 0.003552130545216341 0 0.42284227266732188 -0.010769512158268201 0 0.43543049063324413 -0.012350052332502739 0 0.42284227266732188 -0.010769512158268201 0 0.42466518995346408 -0.026577655794440151 0 0.42284227266732188 -0.010769512158268201 0 0.42769414368384923 -0.02254750278133769 0 0.42466518995346408 -0.026577655794440151 0 0.44260817666721519 -0.025216613737701819 0 0.43543049063324413 -0.012350052332502739 0 0.42769414368384923 -0.02254750278133769 0 0.42769414368384923 -0.02254750278133769 0 0.42466518995346408 -0.026577655794440151 0 0.43454865465473302 -0.032105158367880783 0 0.42769414368384923 -0.02254750278133769 0 0.42466518995346408 -0.026577655794440151 0 0.44260817666721519 -0.025216613737701819 0 0.42769414368384923 -0.02254750278133769 0 0.43454865465473302 -0.032105158367880783 0 0.42466518995346408 -0.026577655794440151 0 0.43454865465473302 -0.032105158367880783 0 0.42768193525564641 -0.052738548234870043 0 0.42466518995346408 -0.026577655794440151 0 0.42768193525564641 -0.052738548234870043 0 0.44483042593949818 -0.041063070916932051 0 0.43454865465473302 -0.032105158367880783 0 0.42768193525564641 -0.052738548234870043 0 0.42085386234523608 -0.065266903626460593 0 0.42768193525564641 -0.052738548234870043 0 0.40779956660286398 -0.049018091936576927 0 0.42085386234523608 -0.065266903626460593 0 0.40779956660286398 -0.049018091936576927 0 0.40625270669679608 -0.06214927522122575 0 0.42466518995346408 -0.026577655794440151 0 0.42768193525564641 -0.052738548234870043 0 0.40779956660286398 -0.049018091936576927 0 0.42466518995346408 -0.026577655794440151 0 0.40779956660286398 -0.049018091936576927 0 0.41227128108974659 -0.029924501558089681 0 0.42466518995346408 -0.026577655794440151 0 0.40779956660286398 -0.049018091936576927 0 0.41227128108974659 -0.029924501558089681 0 0.40779956660286398 -0.049018091936576927 0 0.40014031603924488 -0.033106741091830219 0 0.40779956660286398 -0.049018091936576927 0 0.40014031603924488 -0.033106741091830219 0 0.3912967176308087 -0.04756724484766426 0 0.40014031603924488 -0.033106741091830219 0 0.3912967176308087 -0.04756724484766426 0 0.38547037370043469 -0.032308846426106139 0 0.3909339432522656 -0.07145852807871525 0 0.40779956660286398 -0.049018091936576927 0 0.40625270669679608 -0.06214927522122575 0 0.3909339432522656 -0.07145852807871525 0 0.39181446083091098 -0.066763706552935329 0 0.40779956660286398 -0.049018091936576927 0 0.39181446083091098 -0.066763706552935329 0 0.40779956660286398 -0.049018091936576927 0 0.3912967176308087 -0.04756724484766426 0 0.3909339432522656 -0.07145852807871525 0 0.40779956660286398 -0.049018091936576927 0 0.3912967176308087 -0.04756724484766426 0 0.38398729378694407 -0.058429379279077209 0 0.37514153202862571 -0.045861082966856079 0 0.39181446083091098 -0.066763706552935329 0 0.3912967176308087 -0.04756724484766426 0 0.38398729378694407 -0.058429379279077209 0 0.38398729378694407 -0.058429379279077209 0 0.37514153202862571 -0.045861082966856079 0 0.37192531576168952 -0.05914395824800911 0 0.37813424473731178 -0.068262582352726586 0 0.38398729378694407 -0.058429379279077209 0 0.37192531576168952 -0.05914395824800911 0 0.3912967176308087 -0.04756724484766426 0 0.38547037370043469 -0.032308846426106139 0 0.37514153202862571 -0.045861082966856079 0 0.38547037370043469 -0.032308846426106139 0 0.37514153202862571 -0.045861082966856079 0 0.36877413775607049 -0.02995327657106206 0 0.38547037370043469 -0.032308846426106139 0 0.37927030083329177 -0.015743113788958679 0 0.36877413775607049 -0.02995327657106206 0 0.38547037370043469 -0.032308846426106139 0 0.37927030083329177 -0.015743113788958679 0 0.39536675090020662 -0.019928774827198261 0 0.40014031603924488 -0.033106741091830219 0 0.38547037370043469 -0.032308846426106139 0 0.39536675090020662 -0.019928774827198261 0 0.40863720631140932 -0.019892986955346081 0 0.40014031603924488 -0.033106741091830219 0 0.39536675090020662 -0.019928774827198261 0 0.40863720631140932 -0.019892986955346081 0 0.39536675090020662 -0.019928774827198261 0 0.40369857438468087 -0.0060371637805465179 0 0.39536675090020662 -0.019928774827198261 0 0.40369857438468087 -0.0060371637805465179 0 0.39174671884158141 -0.0074493154892236006 0 0.39390920682105918 0.0040204267233196643 0 0.40369857438468087 -0.0060371637805465179 0 0.39174671884158141 -0.0074493154892236006 0 0.38212023564171321 0.001094655884648786 0 0.37927030083329177 -0.015743113788958679 0 0.39174671884158141 -0.0074493154892236006 0 0.38212023564171321 0.001094655884648786 0 0.37927030083329177 -0.015743113788958679 0 0.3700201466167648 -0.002195575246397889 0 0.37927030083329177 -0.015743113788958679 0 0.39536675090020662 -0.019928774827198261 0 0.39174671884158141 -0.0074493154892236006 0 0.39390920682105918 0.0040204267233196643 0 0.38212023564171321 0.001094655884648786 0 0.39174671884158141 -0.0074493154892236006 0 0.35686418876597309 0.010252504770385159 0 0.3700201466167648 -0.002195575246397889 0 0.35727920934793722 -0.0129667368589869 0 0.37927030083329177 -0.015743113788958679 0 0.3700201466167648 -0.002195575246397889 0 0.35727920934793722 -0.0129667368589869 0 0.36877413775607049 -0.02995327657106206 0 0.35727920934793722 -0.0129667368589869 0 0.35227314840285812 -0.03152257084722427 0 0.37927030083329177 -0.015743113788958679 0 0.36877413775607049 -0.02995327657106206 0 0.35727920934793722 -0.0129667368589869 0 0.35727920934793722 -0.0129667368589869 0 0.33875503928457851 -0.02222753562310531 0 0.35227314840285812 -0.03152257084722427 0 0.35727920934793722 -0.0129667368589869 0 0.33586681222118892 -0.0067462441580033658 0 0.33875503928457851 -0.02222753562310531 0 0.35686418876597309 0.010252504770385159 0 0.35727920934793722 -0.0129667368589869 0 0.33586681222118892 -0.0067462441580033658 0 0.33586681222118892 -0.0067462441580033658 0 0.33875503928457851 -0.02222753562310531 0 0.31486943567640469 -0.023744993086391868 0 0.33875503928457851 -0.02222753562310531 0 0.31486943567640469 -0.023744993086391868 0 0.33348659077450338 -0.036157133164920148 0 0.33875503928457851 -0.02222753562310531 0 0.33348659077450338 -0.036157133164920148 0 0.35227314840285812 -0.03152257084722427 0 0.31046320235639918 0.0067575729804437252 0 0.33586681222118892 -0.0067462441580033658 0 0.3153830815233527 -0.0087530987426132929 0 0.33586681222118892 -0.0067462441580033658 0 0.31486943567640469 -0.023744993086391868 0 0.3153830815233527 -0.0087530987426132929 0 0.33586681222118892 -0.0067462441580033658 0 0.31486943567640469 -0.023744993086391868 0 0.32115491610998381 -0.052976688016941227 0 0.32092150739102382 -0.073097043805500014 0 0.30601744289912669 -0.055409131432484229 0 0.32115491610998381 -0.052976688016941227 0 0.31197137499350902 -0.041008225260955711 0 0.30601744289912669 -0.055409131432484229 0 0.31486943567640469 -0.023744993086391868 0 0.33348659077450338 -0.036157133164920148 0 0.31197137499350902 -0.041008225260955711 0 0.32115491610998381 -0.052976688016941227 0 0.33348659077450338 -0.036157133164920148 0 0.31197137499350902 -0.041008225260955711 0 0.33348659077450338 -0.036157133164920148 0 0.3363568723602065 -0.050864743298462772 0 0.35116628403686417 -0.048621598638038131 0 0.32115491610998381 -0.052976688016941227 0 0.33348659077450338 -0.036157133164920148 0 0.3363568723602065 -0.050864743298462772 0 0.32115491610998381 -0.052976688016941227 0 0.3363568723602065 -0.050864743298462772 0 0.33388625794764348 -0.064812423232177271 0 0.3363568723602065 -0.050864743298462772 0 0.34794047334546518 -0.063974584280765273 0 0.33388625794764348 -0.064812423232177271 0 0.3363568723602065 -0.050864743298462772 0 0.35116628403686417 -0.048621598638038131 0 0.34794047334546518 -0.063974584280765273 0 0.35116628403686417 -0.048621598638038131 0 0.35914505774559541 -0.060409417065886872 0 0.36392372675137458 -0.051574144679805103 0 0.35116628403686417 -0.048621598638038131 0 0.36240463436463582 -0.041692596330413237 0 0.36392372675137458 -0.051574144679805103 0 0.35116628403686417 -0.048621598638038131 0 0.35914505774559541 -0.060409417065886872 0 0.34794047334546518 -0.063974584280765273 0 0.35116628403686417 -0.048621598638038131 0 0.35227314840285812 -0.03152257084722427 0 0.36240463436463582 -0.041692596330413237 0 0.33348659077450338 -0.036157133164920148 0 0.35116628403686417 -0.048621598638038131 0 0.35227314840285812 -0.03152257084722427 0 0.37514153202862571 -0.045861082966856079 0 0.36877413775607049 -0.02995327657106206 0 0.36240463436463582 -0.041692596330413237 0 0.36877413775607049 -0.02995327657106206 0 0.35227314840285812 -0.03152257084722427 0 0.36240463436463582 -0.041692596330413237 0 0.37514153202862571 -0.045861082966856079 0 0.36240463436463582 -0.041692596330413237 0 0.36392372675137458 -0.051574144679805103 0 0.35914505774559541 -0.060409417065886872 0 0.36392372675137458 -0.051574144679805103 0 0.37192531576168952 -0.05914395824800911 0 0.37514153202862571 -0.045861082966856079 0 0.36392372675137458 -0.051574144679805103 0 0.37192531576168952 -0.05914395824800911 0 0.37813424473731178 -0.068262582352726586 0 0.37192531576168952 -0.05914395824800911 0 0.3680772617285144 -0.06977757947088653 0 0.35914505774559541 -0.060409417065886872 0 0.37192531576168952 -0.05914395824800911 0 0.3680772617285144 -0.06977757947088653 0 0.35914505774559541 -0.060409417065886872 0 0.3680772617285144 -0.06977757947088653 0 0.35837286676988928 -0.071968688592424085 0 0.3680772617285144 -0.06977757947088653 0 0.36498327826552668 -0.083111049239403226 0 0.35837286676988928 -0.071968688592424085 0 0.3680772617285144 -0.06977757947088653 0 0.37353404377441052 -0.075370636612477671 0 0.36498327826552668 -0.083111049239403226 0 0.37813424473731178 -0.068262582352726586 0 0.3680772617285144 -0.06977757947088653 0 0.37353404377441052 -0.075370636612477671 0 0.38294139036628899 -0.080331335386894381 0 0.37353404377441052 -0.075370636612477671 0 0.36498327826552668 -0.083111049239403226 0 0.36498327826552668 -0.083111049239403226 0 0.37237061700676077 -0.09615783082836224 0 0.34241852099989789 -0.095233439592861846 0 0.38294139036628899 -0.080331335386894381 0 0.36498327826552668 -0.083111049239403226 0 0.37406831990166722 -0.093898964220853504 0 0.36498327826552668 -0.083111049239403226 0 0.37406831990166722 -0.093898964220853504 0 0.37237061700676077 -0.09615783082836224 0 0.36498327826552668 -0.083111049239403226 0 0.3449175019875389 -0.076917716904771144 0 0.34241852099989789 -0.095233439592861846 0 0.36498327826552668 -0.083111049239403226 0 0.3449175019875389 -0.076917716904771144 0 0.35837286676988928 -0.071968688592424085 0 0.3449175019875389 -0.076917716904771144 0 0.34794047334546518 -0.063974584280765273 0 0.35837286676988928 -0.071968688592424085 0 0.35914505774559541 -0.060409417065886872 0 0.34794047334546518 -0.063974584280765273 0 0.35837286676988928 -0.071968688592424085 0 0.36371200487664068 -0.10973459168570281 0 0.35664352332635268 -0.13060513793896061 0 0.36779594019891898 -0.12729788290040461 0 0.3785150876385216 -0.1195111518185689 0 0.36371200487664068 -0.10973459168570281 0 0.36779594019891898 -0.12729788290040461 0 0.36371200487664068 -0.10973459168570281 0 0.37237061700676077 -0.09615783082836224 0 0.34241852099989789 -0.095233439592861846 0 0.3851668720105898 -0.10347474583943909 0 0.36371200487664068 -0.10973459168570281 0 0.37237061700676077 -0.09615783082836224 0 0.3851668720105898 -0.10347474583943909 0 0.36371200487664068 -0.10973459168570281 0 0.36371200487664068 -0.10973459168570281 0 0.37237061700676077 -0.09615783082836224 0 0.37406831990166722 -0.093898964220853504 0 0.37237061700676077 -0.09615783082836224 0 0.36371200487664068 -0.10973459168570281 0 0.34332012240242971 -0.1020930362129598 0 0.34241852099989789 -0.095233439592861846 0 0.36371200487664068 -0.10973459168570281 0 0.35002252173753962 -0.112446561286345 0 0.34332012240242971 -0.1020930362129598 0 0.37237061700676077 -0.09615783082836224 0 0.34241852099989789 -0.095233439592861846 0 0.35002252173753962 -0.112446561286345 0 0.34025414842832208 -0.11782241666052221 0 0.34332012240242971 -0.1020930362129598 0 0.36371200487664068 -0.10973459168570281 0 0.35355367174401742 -0.1211945845718113 0 0.34779048707731292 -0.1340798558009649 0 0.36371200487664068 -0.10973459168570281 0 0.35664352332635268 -0.13060513793896061 0 0.34779048707731292 -0.1340798558009649 0 0.36371200487664068 -0.10973459168570281 0 0.34779048707731292 -0.1340798558009649 0 0.36371200487664068 -0.10973459168570281 0 0.35002252173753962 -0.112446561286345 0 0.35355367174401742 -0.1211945845718113 0 0.36371200487664068 -0.10973459168570281 0 0.35355367174401742 -0.1211945845718113 0 0.35002252173753962 -0.112446561286345 0 0.35355367174401742 -0.1211945845718113 0 0.34025414842832208 -0.11782241666052221 0 0.35355367174401742 -0.1211945845718113 0 0.34025414842832208 -0.11782241666052221 0 0.34381162934489939 -0.12854128697128539 0 0.33094534805706732 -0.1177437606496905 0 0.31854024801571379 -0.1183964408803808 0 0.33718817445421712 -0.13355179710808501 0 0.34025414842832208 -0.11782241666052221 0 0.33378984816934337 -0.1086297847084315 0 0.34332012240242971 -0.1020930362129598 0 0.33094534805706732 -0.1177437606496905 0 0.34025414842832208 -0.11782241666052221 0 0.33718817445421712 -0.13355179710808501 0 0.34025414842832208 -0.11782241666052221 0 0.34332012240242971 -0.1020930362129598 0 0.33094534805706732 -0.1177437606496905 0 0.33378984816934337 -0.1086297847084315 0 0.32495432121773932 -0.110318363891034 0 0.33094534805706732 -0.1177437606496905 0 0.34025414842832208 -0.11782241666052221 0 0.33378984816934337 -0.1086297847084315 0 0.33378984816934337 -0.1086297847084315 0 0.32725903490077729 -0.10071499943534749 0 0.32495432121773932 -0.110318363891034 0 0.33378984816934337 -0.1086297847084315 0 0.33669688161811212 -0.1016678149874002 0 0.32725903490077729 -0.10071499943534749 0 0.33378984816934337 -0.1086297847084315 0 0.34332012240242971 -0.1020930362129598 0 0.33669688161811212 -0.1016678149874002 0 0.34332012240242971 -0.1020930362129598 0 0.33669688161811212 -0.1016678149874002 0 0.34241852099989789 -0.095233439592861846 0 0.33669688161811212 -0.1016678149874002 0 0.34241852099989789 -0.095233439592861846 0 0.32725903490077729 -0.10071499943534749 0 0.34241852099989789 -0.095233439592861846 0 0.31246642499303512 -0.0943090483573608 0 0.34241852099989789 -0.095233439592861846 0 0.32725903490077729 -0.10071499943534749 0 0.31246642499303512 -0.0943090483573608 0 0.32725903490077729 -0.10071499943534749 0 0.31716114910448651 -0.10565591717263 0 0.31246642499303512 -0.0943090483573608 0 0.32725903490077729 -0.10071499943534749 0 0.31716114910448651 -0.10565591717263 0 0.32495432121773932 -0.110318363891034 0 0.33094534805706732 -0.1177437606496905 0 0.32495432121773932 -0.110318363891034 0 0.31854024801571379 -0.1183964408803808 0 0.31716114910448651 -0.10565591717263 0 0.32495432121773932 -0.110318363891034 0 0.31854024801571379 -0.1183964408803808 0 0.31716114910448651 -0.10565591717263 0 0.31854024801571379 -0.1183964408803808 0 0.30531265091832138 -0.10738965970164049 0 0.3449175019875389 -0.076917716904771144 0 0.33388625794764348 -0.064812423232177271 0 0.32092150739102382 -0.073097043805500014 0 0.3449175019875389 -0.076917716904771144 0 0.34794047334546518 -0.063974584280765273 0 0.33388625794764348 -0.064812423232177271 0 0.3449175019875389 -0.076917716904771144 0 0.34241852099989789 -0.095233439592861846 0 0.32092150739102382 -0.073097043805500014 0 0.34241852099989789 -0.095233439592861846 0 0.32092150739102382 -0.073097043805500014 0 0.31246642499303512 -0.0943090483573608 0 0.32115491610998381 -0.052976688016941227 0 0.33388625794764348 -0.064812423232177271 0 0.32092150739102382 -0.073097043805500014 0 0.32092150739102382 -0.073097043805500014 0 0.28819319405889499 -0.06706419956831737 0 0.31246642499303512 -0.0943090483573608 0 0.32092150739102382 -0.073097043805500014 0 0.28819319405889499 -0.06706419956831737 0 0.30601744289912669 -0.055409131432484229 0 0.28251432898617262 -0.093384657121855619 0 0.28819319405889499 -0.06706419956831737 0 0.31246642499303512 -0.0943090483573608 0 0.28251432898617262 -0.093384657121855619 0 0.28819319405889499 -0.06706419956831737 0 0.28251432898617262 -0.093384657121855619 0 0.28819319405889499 -0.06706419956831737 0 0.2788070763813692 -0.075616481315712358 0 0.30531265091832138 -0.10738965970164049 0 0.29209333803684512 -0.1204183792118467 0 0.30316218715013699 -0.13585617877411299 0 0.31854024801571379 -0.1183964408803808 0 0.30531265091832138 -0.10738965970164049 0 0.30316218715013699 -0.13585617877411299 0 0.30531265091832138 -0.10738965970164049 0 0.30316218715013699 -0.13585617877411299 0 0.30531265091832138 -0.10738965970164049 0 0.31246642499303512 -0.0943090483573608 0 0.2913954051317153 -0.1063448066268642 0 0.28251432898617262 -0.093384657121855619 0 0.31246642499303512 -0.0943090483573608 0 0.31716114910448651 -0.10565591717263 0 0.30531265091832138 -0.10738965970164049 0 0.31246642499303512 -0.0943090483573608 0 0.28251432898617262 -0.093384657121855619 0 0.31246642499303512 -0.0943090483573608 0 0.2913954051317153 -0.1063448066268642 0 0.28251432898617262 -0.093384657121855619 0 0.2913954051317153 -0.1063448066268642 0 0.27794998204403759 -0.11453953550188679 0 0.30531265091832138 -0.10738965970164049 0 0.2913954051317153 -0.1063448066268642 0 0.29209333803684512 -0.1204183792118467 0 0.2913954051317153 -0.1063448066268642 0 0.29209333803684512 -0.1204183792118467 0 0.27794998204403759 -0.11453953550188679 0 0.27794998204403759 -0.11453953550188679 0 0.25915390151091949 -0.11811210275817149 0 0.27338563510190422 -0.1356944138819183 0 0.29209333803684512 -0.1204183792118467 0 0.27794998204403759 -0.11453953550188679 0 0.27338563510190422 -0.1356944138819183 0 0.28251432898617262 -0.093384657121855619 0 0.27794998204403759 -0.11453953550188679 0 0.25666672159796139 -0.092586939936295867 0 0.28251432898617262 -0.093384657121855619 0 0.27794998204403759 -0.11453953550188679 0 0.25915390151091949 -0.11811210275817149 0 0.25666672159796139 -0.092586939936295867 0 0.23839025179526999 -0.1151992729885977 0 0.27794998204403759 -0.11453953550188679 0 0.25915390151091949 -0.11811210275817149 0 0.25666672159796139 -0.092586939936295867 0 0.28819319405889499 -0.06706419956831737 0 0.27512965144911827 -0.070681904186227995 0 0.27783686619476677 -0.05372527893061739 0 0.26897876163713708 -0.070467118147906876 0 0.27512965144911827 -0.070681904186227995 0 0.27783686619476677 -0.05372527893061739 0 0.26897876163713708 -0.070467118147906876 0 0.26180167325791431 -0.066706815846455908 0 0.27783686619476677 -0.05372527893061739 0 0.27067132333055188 -0.076788874412469815 0 0.26897876163713708 -0.070467118147906876 0 0.26145119023330071 -0.079000043976386408 0 0.27067132333055188 -0.076788874412469815 0 0.26897876163713708 -0.070467118147906876 0 0.2788070763813692 -0.075616481315712358 0 0.26897876163713708 -0.070467118147906876 0 0.27512965144911827 -0.070681904186227995 0 0.28819319405889499 -0.06706419956831737 0 0.2788070763813692 -0.075616481315712358 0 0.27512965144911827 -0.070681904186227995 0 0.26897876163713708 -0.070467118147906876 0 0.2788070763813692 -0.075616481315712358 0 0.26897876163713708 -0.070467118147906876 0 0.2788070763813692 -0.075616481315712358 0 0.27512965144911827 -0.070681904186227995 0 0.28251432898617262 -0.093384657121855619 0 0.25666672159796139 -0.092586939936295867 0 0.28251432898617262 -0.093384657121855619 0 0.27051227275229911 -0.08315566172012806 0 0.25666672159796139 -0.092586939936295867 0 0.28251432898617262 -0.093384657121855619 0 0.2788070763813692 -0.075616481315712358 0 0.27051227275229911 -0.08315566172012806 0 0.27067132333055188 -0.076788874412469815 0 0.27051227275229911 -0.08315566172012806 0 0.26145119023330071 -0.079000043976386408 0 0.27067132333055188 -0.076788874412469815 0 0.2788070763813692 -0.075616481315712358 0 0.27051227275229911 -0.08315566172012806 0 0.26145119023330071 -0.079000043976386408 0 0.25666672159796139 -0.092586939936295867 0 0.24423239209720191 -0.080930297464084477 0 0.27051227275229911 -0.08315566172012806 0 0.26145119023330071 -0.079000043976386408 0 0.25666672159796139 -0.092586939936295867 0 0.26180167325791431 -0.066706815846455908 0 0.25764566998465072 -0.070071372177431313 0 0.24120587699226881 -0.055916030502087773 0 0.26145119023330071 -0.079000043976386408 0 0.25764566998465072 -0.070071372177431313 0 0.24423239209720191 -0.080930297464084477 0 0.25764566998465072 -0.070071372177431313 0 0.24423239209720191 -0.080930297464084477 0 0.26897876163713708 -0.070467118147906876 0 0.26145119023330071 -0.079000043976386408 0 0.25764566998465072 -0.070071372177431313 0 0.26897876163713708 -0.070467118147906876 0 0.26180167325791431 -0.066706815846455908 0 0.25764566998465072 -0.070071372177431313 0 0.26897876163713708 -0.070467118147906876 0 0.25764566998465072 -0.070071372177431313 0 0.26897876163713708 -0.070467118147906876 0 0.26180167325791431 -0.066706815846455908 0 0.26180167325791431 -0.066706815846455908 0 0.25764566998465072 -0.070071372177431313 0 0.26180167325791431 -0.066706815846455908 0 0.26029261894245981 -0.048826031507571623 0 0.24120587699226881 -0.055916030502087773 0 0.26180167325791431 -0.066706815846455908 0 0.24120587699226881 -0.055916030502087773 0 0.26180167325791431 -0.066706815846455908 0 0.26029261894245981 -0.048826031507571623 0 0.27783686619476677 -0.05372527893061739 0 0.26180167325791431 -0.066706815846455908 0 0.27783686619476677 -0.05372527893061739 0 0.26029261894245981 -0.048826031507571623 0 0.27783686619476677 -0.05372527893061739 0 0.27031708646619812 -0.033638605470610219 0 0.27783686619476677 -0.05372527893061739 0 0.27031708646619812 -0.033638605470610219 0 0.28437966209514692 -0.033534114227583768 0 0.26029261894245981 -0.048826031507571623 0 0.27031708646619812 -0.033638605470610219 0 0.25030159180115191 -0.034143426788088307 0 0.26029261894245981 -0.048826031507571623 0 0.25030159180115191 -0.034143426788088307 0 0.24120587699226881 -0.055916030502087773 0 0.25030159180115191 -0.034143426788088307 0 0.26299580833271302 -0.019789195105520681 0 0.2464198669495459 -0.012097030270161889 0 0.27031708646619812 -0.033638605470610219 0 0.25030159180115191 -0.034143426788088307 0 0.26299580833271302 -0.019789195105520681 0 0.25322369798355371 0.0032948183560677501 0 0.26778398551549509 -0.0036893303100333872 0 0.2464198669495459 -0.012097030270161889 0 0.26299580833271302 -0.019789195105520681 0 0.26778398551549509 -0.0036893303100333872 0 0.2464198669495459 -0.012097030270161889 0 0.26299580833271302 -0.019789195105520681 0 0.26778398551549509 -0.0036893303100333872 0 0.28231604015163769 -0.018351258625531171 0 0.2895407867033607 0.0013395930438658619 0 0.26778398551549509 -0.0036893303100333872 0 0.28231604015163769 -0.018351258625531171 0 0.27031708646619812 -0.033638605470610219 0 0.26299580833271302 -0.019789195105520681 0 0.28231604015163769 -0.018351258625531171 0 0.27031708646619812 -0.033638605470610219 0 0.28231604015163769 -0.018351258625531171 0 0.28437966209514692 -0.033534114227583768 0 0.28231604015163769 -0.018351258625531171 0 0.29600028882747859 -0.03087980289019443 0 0.28437966209514692 -0.033534114227583768 0 0.28231604015163769 -0.018351258625531171 0 0.29600028882747859 -0.03087980289019443 0 0.30132541624728598 -0.01217829343577128 0 0.2895407867033607 0.0013395930438658619 0 0.28231604015163769 -0.018351258625531171 0 0.30132541624728598 -0.01217829343577128 0 0.31046320235639918 0.0067575729804437252 0 0.2895407867033607 0.0013395930438658619 0 0.30132541624728598 -0.01217829343577128 0 0.31046320235639918 0.0067575729804437252 0 0.3153830815233527 -0.0087530987426132929 0 0.30132541624728598 -0.01217829343577128 0 0.31486943567640469 -0.023744993086391868 0 0.3153830815233527 -0.0087530987426132929 0 0.30132541624728598 -0.01217829343577128 0 0.31486943567640469 -0.023744993086391868 0 0.29600028882747859 -0.03087980289019443 0 0.30132541624728598 -0.01217829343577128 0 0.31486943567640469 -0.023744993086391868 0 0.31197137499350902 -0.041008225260955711 0 0.29387205913161968 -0.04074374201477949 0 0.31486943567640469 -0.023744993086391868 0 0.29600028882747859 -0.03087980289019443 0 0.29387205913161968 -0.04074374201477949 0 0.31486943567640469 -0.023744993086391868 0 0.29387205913161968 -0.04074374201477949 0 0.31197137499350902 -0.041008225260955711 0 0.30601744289912669 -0.055409131432484229 0 0.29387205913161968 -0.04074374201477949 0 0.28819319405889499 -0.06706419956831737 0 0.27783686619476677 -0.05372527893061739 0 0.29387205913161968 -0.04074374201477949 0 0.28819319405889499 -0.06706419956831737 0 0.29387205913161968 -0.04074374201477949 0 0.27783686619476677 -0.05372527893061739 0 0.29387205913161968 -0.04074374201477949 0 0.28819319405889499 -0.06706419956831737 0 0.30601744289912669 -0.055409131432484229 0 0.29387205913161968 -0.04074374201477949 0 0.27783686619476677 -0.05372527893061739 0 0.28437966209514692 -0.033534114227583768 0 0.29387205913161968 -0.04074374201477949 0 0.29600028882747859 -0.03087980289019443 0 0.28437966209514692 -0.033534114227583768 0 0.29387205913161968 -0.04074374201477949 0 0.29600028882747859 -0.03087980289019443 0 0.29387205913161968 -0.04074374201477949 0 0.28925369461552242 -0.21547475378801551 0 0.29798535605087828 -0.20438389051808681 0 0.27851755886665591 -0.20371457102860641 0 0.28925369461552242 -0.21547475378801551 0 0.28465086540799672 -0.2254021489655588 0 0.27851755886665591 -0.20371457102860641 0 0.28925369461552242 -0.21547475378801551 0 0.29798535605087828 -0.20438389051808681 0 0.29625974568445868 -0.22722646109941139 0 0.28994099481116897 -0.19128490440727269 0 0.29798535605087828 -0.20438389051808681 0 0.29971096641729777 -0.18154131993676231 0 0.28994099481116897 -0.19128490440727269 0 0.27851755886665591 -0.20371457102860641 0 0.28355009790984409 -0.17549983614563519 0 0.28994099481116897 -0.19128490440727269 0 0.29798535605087828 -0.20438389051808681 0 0.27851755886665591 -0.20371457102860641 0 0.30866677822314281 -0.19370433905286669 0 0.29798535605087828 -0.20438389051808681 0 0.29971096641729777 -0.18154131993676231 0 0.29798535605087828 -0.20438389051808681 0 0.29971096641729777 -0.18154131993676231 0 0.30866677822314281 -0.19370433905286669 0 0.30817512199612251 -0.208018461664154 0 0.29798535605087828 -0.20438389051808681 0 0.29798535605087828 -0.20438389051808681 0 0.29625974568445868 -0.22722646109941139 0 0.30367267472900389 -0.2178556058656746 0 0.31200739898088131 -0.22851072207886541 0 0.31883562653249692 -0.20986103607638071 0 0.29798535605087828 -0.20438389051808681 0 0.30367267472900389 -0.2178556058656746 0 0.29625974568445868 -0.22722646109941139 0 0.30817512199612251 -0.208018461664154 0 0.29798535605087828 -0.20438389051808681 0 0.30367267472900389 -0.2178556058656746 0 0.30817512199612251 -0.208018461664154 0 0.30367267472900389 -0.2178556058656746 0 0.31883562653249692 -0.20986103607638071 0 0.30367267472900389 -0.2178556058656746 0 0.31883562653249692 -0.20986103607638071 0 0.31200739898088131 -0.22851072207886541 0 0.30517917142926537 -0.24716040808135001 0 0.29625974568445868 -0.22722646109941139 0 0.30367267472900389 -0.2178556058656746 0 0.31200739898088131 -0.22851072207886541 0 0.29625974568445868 -0.22722646109941139 0 0.31200739898088131 -0.22851072207886541 0 0.30517917142926537 -0.24716040808135001 0 0.30517917142926537 -0.24716040808135001 0 0.28765229627979871 -0.24304032400626949 0 0.29625974568445868 -0.22722646109941139 0 0.28765229627979871 -0.24304032400626949 0 0.29625974568445868 -0.22722646109941139 0 0.28465086540799672 -0.2254021489655588 0 0.28765229627979871 -0.24304032400626949 0 0.28465086540799672 -0.2254021489655588 0 0.27348501982346762 -0.23192930591157759 0 0.28925369461552242 -0.21547475378801551 0 0.29625974568445868 -0.22722646109941139 0 0.28465086540799672 -0.2254021489655588 0 0.28465086540799672 -0.2254021489655588 0 0.27348501982346762 -0.23192930591157759 0 0.27851755886665591 -0.20371457102860641 0 0.27348501982346762 -0.23192930591157759 0 0.25787859859726192 -0.24372773219337371 0 0.26845248078028039 -0.26014404079454911 0 0.28765229627979871 -0.24304032400626949 0 0.27348501982346762 -0.23192930591157759 0 0.26845248078028039 -0.26014404079454911 0 0.27348501982346762 -0.23192930591157759 0 0.26845248078028039 -0.26014404079454911 0 0.27348501982346762 -0.23192930591157759 0 0.25787859859726192 -0.24372773219337371 0 0.2485278721491469 -0.22983386195931649 0 0.27348501982346762 -0.23192930591157759 0 0.25806059678156651 -0.21160485628964759 0 0.2485278721491469 -0.22983386195931649 0 0.27348501982346762 -0.23192930591157759 0 0.27851755886665591 -0.20371457102860641 0 0.27348501982346762 -0.23192930591157759 0 0.25806059678156651 -0.21160485628964759 0 0.27851755886665591 -0.20371457102860641 0 0.27851755886665591 -0.20371457102860641 0 0.26140201073716351 -0.19316186481753209 0 0.27335445324682811 -0.1824409541049711 0 0.25806059678156651 -0.21160485628964759 0 0.27851755886665591 -0.20371457102860641 0 0.26140201073716351 -0.19316186481753209 0 0.27851755886665591 -0.20371457102860641 0 0.28355009790984409 -0.17549983614563519 0 0.25806059678156651 -0.21160485628964759 0 0.26140201073716351 -0.19316186481753209 0 0.24624710011957149 -0.19756578472926509 0 0.26140201073716351 -0.19316186481753209 0 0.25030889548151403 -0.1837077448593728 0 0.24624710011957149 -0.19756578472926509 0 0.25969225384889538 -0.18295045636353721 0 0.2550208565069661 -0.17514012483034949 0 0.27335445324682811 -0.1824409541049711 0 0.26140201073716351 -0.19316186481753209 0 0.25030889548151403 -0.1837077448593728 0 0.25969225384889538 -0.18295045636353721 0 0.25030889548151403 -0.1837077448593728 0 0.25969225384889538 -0.18295045636353721 0 0.2550208565069661 -0.17514012483034949 0 0.2550208565069661 -0.17514012483034949 0 0.2530488896403309 -0.16079061319898569 0 0.27335445324682811 -0.1824409541049711 0 0.26140201073716351 -0.19316186481753209 0 0.25969225384889538 -0.18295045636353721 0 0.27335445324682811 -0.1824409541049711 0 0.2530488896403309 -0.16079061319898569 0 0.272260185211738 -0.168331689764908 0 0.26878477807763418 -0.16016356734556891 0 0.2530488896403309 -0.16079061319898569 0 0.26878477807763418 -0.16016356734556891 0 0.26293682869207591 -0.15391070786642169 0 0.2530488896403309 -0.16079061319898569 0 0.27335445324682811 -0.1824409541049711 0 0.272260185211738 -0.168331689764908 0 0.27899515764395177 -0.15443660918041571 0 0.28355009790984409 -0.17549983614563519 0 0.2530488896403309 -0.16079061319898569 0 0.272260185211738 -0.168331689764908 0 0.27335445324682811 -0.1824409541049711 0 0.272260185211738 -0.168331689764908 0 0.26878477807763418 -0.16016356734556891 0 0.27899515764395177 -0.15443660918041571 0 0.272260185211738 -0.168331689764908 0 0.27335445324682811 -0.1824409541049711 0 0.28355009790984409 -0.17549983614563519 0 0.27851755886665591 -0.20371457102860641 0 0.27335445324682811 -0.1824409541049711 0 0.28355009790984409 -0.17549983614563519 0 0.25915390151091949 -0.11811210275817149 0 0.25133622254172122 -0.13557462765415079 0 0.27338563510190422 -0.1356944138819183 0 0.25133622254172122 -0.13557462765415079 0 0.27338563510190422 -0.1356944138819183 0 0.25133622254172122 -0.13557462765415079 0 0.25208407187516418 -0.1419613505697605 0 0.27338563510190422 -0.1356944138819183 0 0.26557247671991108 -0.14774187414890411 0 0.25208407187516418 -0.1419613505697605 0 0.27142481771649529 -0.14478242884651979 0 0.25208407187516418 -0.1419613505697605 0 0.27142481771649529 -0.14478242884651979 0 0.2530488896403309 -0.16079061319898569 0 0.25208407187516418 -0.1419613505697605 0 0.26293682869207591 -0.15391070786642169 0 0.26557247671991108 -0.14774187414890411 0 0.25208407187516418 -0.1419613505697605 0 0.26293682869207591 -0.15391070786642169 0 0.27899515764395177 -0.15443660918041571 0 0.27142481771649529 -0.14478242884651979 0 0.28858263695303038 -0.1472851012626637 0 0.25208407187516418 -0.1419613505697605 0 0.27142481771649529 -0.14478242884651979 0 0.27338563510190422 -0.1356944138819183 0 0.27142481771649529 -0.14478242884651979 0 0.28858263695303038 -0.1472851012626637 0 0.27142481771649529 -0.14478242884651979 0 0.27338563510190422 -0.1356944138819183 0 0.28952553314766588 -0.14199879033185039 0 0.26878477807763418 -0.16016356734556891 0 0.27009527632936597 -0.15279308215900331 0 0.27899515764395177 -0.15443660918041571 0 0.26557247671991108 -0.14774187414890411 0 0.27009527632936597 -0.15279308215900331 0 0.27142481771649529 -0.14478242884651979 0 0.26878477807763418 -0.16016356734556891 0 0.26293682869207591 -0.15391070786642169 0 0.27009527632936597 -0.15279308215900331 0 0.26557247671991108 -0.14774187414890411 0 0.26293682869207591 -0.15391070786642169 0 0.27009527632936597 -0.15279308215900331 0 0.27009527632936597 -0.15279308215900331 0 0.27899515764395177 -0.15443660918041571 0 0.27142481771649529 -0.14478242884651979 0 0.27794998204403759 -0.11453953550188679 0 0.27338563510190422 -0.1356944138819183 0 0.27142481771649529 -0.14478242884651979 0 0.27338563510190422 -0.1356944138819183 0 0.27338563510190422 -0.1356944138819183 0 0.30316218715013699 -0.13585617877411299 0 0.29209333803684512 -0.1204183792118467 0 0.27338563510190422 -0.1356944138819183 0 0.30316218715013699 -0.13585617877411299 0 0.27338563510190422 -0.1356944138819183 0 0.28952553314766588 -0.14199879033185039 0 0.30316218715013699 -0.13585617877411299 0 0.27142481771649529 -0.14478242884651979 0 0.28952553314766588 -0.14199879033185039 0 0.28858263695303038 -0.1472851012626637 0 0.28858263695303038 -0.1472851012626637 0 0.30013596324633868 -0.14897029159077979 0 0.28952553314766588 -0.14199879033185039 0 0.28858263695303038 -0.1472851012626637 0 0.30013596324633868 -0.14897029159077979 0 0.28952553314766588 -0.14199879033185039 0 0.28858263695303038 -0.1472851012626637 0 0.28858263695303038 -0.1472851012626637 0 0.30013596324633868 -0.14897029159077979 0 0.29372711844303928 -0.1600295372122347 0 0.30316218715013699 -0.13585617877411299 0 0.30143657678371732 -0.15869874935543771 0 0.30013596324633868 -0.14897029159077979 0 0.30316218715013699 -0.13585617877411299 0 0.30143657678371732 -0.15869874935543771 0 0.30316218715013699 -0.13585617877411299 0 0.30143657678371732 -0.15869874935543771 0 0.31253980123811259 -0.14771969478669131 0 0.30013596324633868 -0.14897029159077979 0 0.29372711844303928 -0.1600295372122347 0 0.30143657678371732 -0.15869874935543771 0 0.30143657678371732 -0.15869874935543771 0 0.31557079919726838 -0.1590044961535387 0 0.31253980123811259 -0.14771969478669131 0 0.28952553314766588 -0.14199879033185039 0 0.30013596324633868 -0.14897029159077979 0 0.30316218715013699 -0.13585617877411299 0 0.30316218715013699 -0.13585617877411299 0 0.31993283661344418 -0.13594728745244961 0 0.31253980123811259 -0.14771969478669131 0 0.30316218715013699 -0.13585617877411299 0 0.31993283661344418 -0.13594728745244961 0 0.28994099481116897 -0.19128490440727269 0 0.28355009790984409 -0.17549983614563519 0 0.29971096641729777 -0.18154131993676231 0 0.28355009790984409 -0.17549983614563519 0 0.29493031732226571 -0.16969370770665679 0 0.29971096641729777 -0.18154131993676231 0 0.27899515764395177 -0.15443660918041571 0 0.28858263695303038 -0.1472851012626637 0 0.28355009790984409 -0.17549983614563519 0 0.28858263695303038 -0.1472851012626637 0 0.28355009790984409 -0.17549983614563519 0 0.28858263695303038 -0.1472851012626637 0 0.28355009790984409 -0.17549983614563519 0 0.29372711844303928 -0.1600295372122347 0 0.29372711844303928 -0.1600295372122347 0 0.29493031732226571 -0.16969370770665679 0 0.30143657678371732 -0.15869874935543771 0 0.28355009790984409 -0.17549983614563519 0 0.29372711844303928 -0.1600295372122347 0 0.29493031732226571 -0.16969370770665679 0 0.30143657678371732 -0.15869874935543771 0 0.29971096641729777 -0.18154131993676231 0 0.30143657678371732 -0.15869874935543771 0 0.30809610970482848 -0.16795036279156811 0 0.29971096641729777 -0.18154131993676231 0 0.29493031732226571 -0.16969370770665679 0 0.30143657678371732 -0.15869874935543771 0 0.29971096641729777 -0.18154131993676231 0 0.30143657678371732 -0.15869874935543771 0 0.30809610970482848 -0.16795036279156811 0 0.31557079919726838 -0.1590044961535387 0 0.29971096641729777 -0.18154131993676231 0 0.31498869866721663 -0.1848028620899877 0 0.3156660964210305 -0.17255688572053399 0 0.30809610970482848 -0.16795036279156811 0 0.29971096641729777 -0.18154131993676231 0 0.3156660964210305 -0.17255688572053399 0 0.30866677822314281 -0.19370433905286669 0 0.29971096641729777 -0.18154131993676231 0 0.31498869866721663 -0.1848028620899877 0 0.32729102930978993 -0.18432716657830939 0 0.3156660964210305 -0.17255688572053399 0 0.33199725769327038 -0.160182781354547 0 0.31498869866721663 -0.1848028620899877 0 0.32729102930978993 -0.18432716657830939 0 0.3156660964210305 -0.17255688572053399 0 0.3156660964210305 -0.17255688572053399 0 0.31557079919726838 -0.1590044961535387 0 0.33199725769327038 -0.160182781354547 0 0.30809610970482848 -0.16795036279156811 0 0.3156660964210305 -0.17255688572053399 0 0.31557079919726838 -0.1590044961535387 0 0.32729102930978993 -0.18432716657830939 0 0.34572674800851178 -0.17666980330527179 0 0.34152908302092871 -0.19789605564194099 0 0.32729102930978993 -0.18432716657830939 0 0.33199725769327038 -0.160182781354547 0 0.34572674800851178 -0.17666980330527179 0 0.32729102930978993 -0.18432716657830939 0 0.33199725769327038 -0.160182781354547 0 0.31854024801571379 -0.1183964408803808 0 0.30316218715013699 -0.13585617877411299 0 0.31993283661344418 -0.13594728745244961 0 0.31993283661344418 -0.13594728745244961 0 0.32334883616376942 -0.1477785311756023 0 0.33670348607675138 -0.13603839613078461 0 0.31854024801571379 -0.1183964408803808 0 0.31993283661344418 -0.13594728745244961 0 0.33718817445421712 -0.13355179710808501 0 0.31854024801571379 -0.1183964408803808 0 0.33718817445421712 -0.13355179710808501 0 0.31557079919726838 -0.1590044961535387 0 0.33199725769327038 -0.160182781354547 0 0.32334883616376942 -0.1477785311756023 0 0.31993283661344418 -0.13594728745244961 0 0.32334883616376942 -0.1477785311756023 0 0.31253980123811259 -0.14771969478669131 0 0.31557079919726838 -0.1590044961535387 0 0.32334883616376942 -0.1477785311756023 0 0.31253980123811259 -0.14771969478669131 0 0.33199725769327038 -0.160182781354547 0 0.34027166502062639 -0.13605778071504529 0 0.33670348607675138 -0.13603839613078461 0 0.33199725769327038 -0.160182781354547 0 0.32334883616376942 -0.1477785311756023 0 0.33670348607675138 -0.13603839613078461 0 0.33199725769327038 -0.160182781354547 0 0.33670348607675138 -0.13603839613078461 0 0.31993283661344418 -0.13594728745244961 0 0.33670348607675138 -0.13603839613078461 0 0.31993283661344418 -0.13594728745244961 0 0.33670348607675138 -0.13603839613078461 0 0.33718817445421712 -0.13355179710808501 0 0.34025414842832208 -0.11782241666052221 0 0.33718817445421712 -0.13355179710808501 0 0.34381162934489939 -0.12854128697128539 0 0.34025414842832208 -0.11782241666052221 0 0.33718817445421712 -0.13355179710808501 0 0.34027166502062639 -0.13605778071504529 0 0.33670348607675138 -0.13603839613078461 0 0.33718817445421712 -0.13355179710808501 0 0.34027166502062639 -0.13605778071504529 0 0.33718817445421712 -0.13355179710808501 0 0.34027166502062639 -0.13605778071504529 0 0.33670348607675138 -0.13603839613078461 0 0.33670348607675138 -0.13603839613078461 0 0.33718817445421712 -0.13355179710808501 0 0.34027166502062639 -0.13605778071504529 0 0.33718817445421712 -0.13355179710808501 0 0.34381162934489939 -0.12854128697128539 0 0.33199725769327038 -0.160182781354547 0 0.34027166502062639 -0.13605778071504529 0 0.36359383050920879 -0.15501193774405861 0 0.35355367174401742 -0.1211945845718113 0 0.34381162934489939 -0.12854128697128539 0 0.34779048707731292 -0.1340798558009649 0 0.34027166502062639 -0.13605778071504529 0 0.34884821061351562 -0.13610437388577321 0 0.35664352332635268 -0.13060513793896061 0 0.34779048707731292 -0.1340798558009649 0 0.34884821061351562 -0.13610437388577321 0 0.34027166502062639 -0.13605778071504529 0 0.34779048707731292 -0.1340798558009649 0 0.34884821061351562 -0.13610437388577321 0 0.34027166502062639 -0.13605778071504529 0 0.34381162934489939 -0.12854128697128539 0 0.34779048707731292 -0.1340798558009649 0 0.35664352332635268 -0.13060513793896061 0 0.34884821061351562 -0.13610437388577321 0 0.36374720336072303 -0.13810563056468389 0 0.34884821061351562 -0.13610437388577321 0 0.36359383050920879 -0.15501193774405861 0 0.36374720336072303 -0.13810563056468389 0 0.34027166502062639 -0.13605778071504529 0 0.36359383050920879 -0.15501193774405861 0 0.34027166502062639 -0.13605778071504529 0 0.34884821061351562 -0.13610437388577321 0 0.36359383050920879 -0.15501193774405861 0 0.36359383050920879 -0.15501193774405861 0 0.36374720336072303 -0.13810563056468389 0 0.37656812491251679 -0.13846106794218549 0 0.3785150876385216 -0.1195111518185689 0 0.36779594019891898 -0.12729788290040461 0 0.37656812491251679 -0.13846106794218549 0 0.36374720336072303 -0.13810563056468389 0 0.36779594019891898 -0.12729788290040461 0 0.37656812491251679 -0.13846106794218549 0 0.35664352332635268 -0.13060513793896061 0 0.36374720336072303 -0.13810563056468389 0 0.36779594019891898 -0.12729788290040461 0 0.33199725769327038 -0.160182781354547 0 0.36359383050920879 -0.15501193774405861 0 0.34572674800851178 -0.17666980330527179 0 0.34572674800851178 -0.17666980330527179 0 0.36422253950936112 -0.1859310752075029 0 0.34152908302092871 -0.19789605564194099 0 0.36359383050920879 -0.15501193774405861 0 0.34572674800851178 -0.17666980330527179 0 0.36422253950936112 -0.1859310752075029 0 0.36359383050920879 -0.15501193774405861 0 0.36422253950936112 -0.1859310752075029 0 0.38691599599779503 -0.1739660947730671 0 0.36422253950936112 -0.1859310752075029 0 0.37220629557919183 -0.19612338441269381 0 0.37910290544765168 -0.18685571494790659 0 0.36422253950936112 -0.1859310752075029 0 0.37220629557919183 -0.19612338441269381 0 0.35685044422528578 -0.20027094664828951 0 0.37220629557919183 -0.19612338441269381 0 0.3556522221671049 -0.2162457527497984 0 0.35685044422528578 -0.20027094664828951 0 0.37220629557919183 -0.19612338441269381 0 0.3556522221671049 -0.2162457527497984 0 0.37273333868611941 -0.2093978965492076 0 0.3556522221671049 -0.2162457527497984 0 0.3731990688381891 -0.2228302363117915 0 0.37220629557919183 -0.19612338441269381 0 0.37273333868611941 -0.2093978965492076 0 0.3556522221671049 -0.2162457527497984 0 0.34913249600123192 -0.20719712371303781 0 0.34152908302092871 -0.19789605564194099 0 0.34144894007629428 -0.2139395960038605 0 0.3556522221671049 -0.2162457527497984 0 0.34913249600123192 -0.20719712371303781 0 0.35685044422528578 -0.20027094664828951 0 0.3556522221671049 -0.2162457527497984 0 0.34913249600123192 -0.20719712371303781 0 0.34144894007629428 -0.2139395960038605 0 0.36422253950936112 -0.1859310752075029 0 0.35685044422528578 -0.20027094664828951 0 0.34152908302092871 -0.19789605564194099 0 0.36422253950936112 -0.1859310752075029 0 0.34152908302092871 -0.19789605564194099 0 0.34913249600123192 -0.20719712371303781 0 0.35685044422528578 -0.20027094664828951 0 0.34152908302092871 -0.19789605564194099 0 0.32729102930978993 -0.18432716657830939 0 0.34152908302092871 -0.19789605564194099 0 0.32289957828838461 -0.19876131457419149 0 0.34152908302092871 -0.19789605564194099 0 0.31883562653249692 -0.20986103607638071 0 0.34152908302092871 -0.19789605564194099 0 0.34144894007629428 -0.2139395960038605 0 0.31883562653249692 -0.20986103607638071 0 0.34144894007629428 -0.2139395960038605 0 0.31883562653249692 -0.20986103607638071 0 0.32331405575278033 -0.23055000204260581 0 0.31883562653249692 -0.20986103607638071 0 0.32289957828838461 -0.19876131457419149 0 0.30817512199612251 -0.208018461664154 0 0.31883562653249692 -0.20986103607638071 0 0.32289957828838461 -0.19876131457419149 0 0.30866677822314281 -0.19370433905286669 0 0.30817512199612251 -0.208018461664154 0 0.32289957828838461 -0.19876131457419149 0 0.34152908302092871 -0.19789605564194099 0 0.31883562653249692 -0.20986103607638071 0 0.32289957828838461 -0.19876131457419149 0 0.30866677822314281 -0.19370433905286669 0 0.31498869866721663 -0.1848028620899877 0 0.32289957828838461 -0.19876131457419149 0 0.31498869866721663 -0.1848028620899877 0 0.32729102930978993 -0.18432716657830939 0 0.32289957828838461 -0.19876131457419149 0 0.30517917142926537 -0.24716040808135001 0 0.32331405575278033 -0.23055000204260581 0 0.30517917142926537 -0.24716040808135001 0 0.32331405575278033 -0.23055000204260581 0 0.322544075342931 -0.25649048942400782 0 0.31200739898088131 -0.22851072207886541 0 0.30517917142926537 -0.24716040808135001 0 0.32331405575278033 -0.23055000204260581 0 0.31200739898088131 -0.22851072207886541 0 0.31883562653249692 -0.20986103607638071 0 0.31200739898088131 -0.22851072207886541 0 0.31883562653249692 -0.20986103607638071 0 0.32331405575278033 -0.23055000204260581 0 0.34144894007629428 -0.2139395960038605 0 0.32331405575278033 -0.23055000204260581 0 0.34144894007629428 -0.2139395960038605 0 0.32331405575278033 -0.23055000204260581 0 0.33909814875501798 -0.23636812108690311 0 0.33909814875501798 -0.23636812108690311 0 0.322544075342931 -0.25649048942400782 0 0.32331405575278033 -0.23055000204260581 0 0.33909814875501798 -0.23636812108690311 0 0.322544075342931 -0.25649048942400782 0 0.33909814875501798 -0.23636812108690311 0 0.35007299243335749 -0.24785688602667111 0 0.33700232267718733 -0.25494009872172468 0 0.33909814875501798 -0.23636812108690311 0 0.322544075342931 -0.25649048942400782 0 0.33700232267718733 -0.25494009872172468 0 0.33909814875501798 -0.23636812108690311 0 0.35007299243335749 -0.24785688602667111 0 0.35471840821638012 -0.232162972911199 0 0.35007299243335749 -0.24785688602667111 0 0.35471840821638012 -0.232162972911199 0 0.36225179838031341 -0.2439392928582107 0 0.35007299243335749 -0.24785688602667111 0 0.36225179838031341 -0.2439392928582107 0 0.36124693131331159 -0.25807728632712912 0 0.3556522221671049 -0.2162457527497984 0 0.33909814875501798 -0.23636812108690311 0 0.3556522221671049 -0.2162457527497984 0 0.33909814875501798 -0.23636812108690311 0 0.35471840821638012 -0.232162972911199 0 0.3556522221671049 -0.2162457527497984 0 0.34144894007629428 -0.2139395960038605 0 0.33909814875501798 -0.23636812108690311 0 0.35471840821638012 -0.232162972911199 0 0.3731990688381891 -0.2228302363117915 0 0.36225179838031341 -0.2439392928582107 0 0.3556522221671049 -0.2162457527497984 0 0.35471840821638012 -0.232162972911199 0 0.3731990688381891 -0.2228302363117915 0 0.3731990688381891 -0.2228302363117915 0 0.36225179838031341 -0.2439392928582107 0 0.3731990688381891 -0.2228302363117915 0 0.36225179838031341 -0.2439392928582107 0 0.38186963046980549 -0.2367879359972051 0 0.36225179838031341 -0.2439392928582107 0 0.38186963046980549 -0.2367879359972051 0 0.37510228513818711 -0.25237727586059511 0 0.38186963046980549 -0.2367879359972051 0 0.39206528024080278 -0.24921397013056479 0 0.37510228513818711 -0.25237727586059511 0 0.39206528024080278 -0.24921397013056479 0 0.40137725565661481 -0.22692044649349019 0 0.4148006158986044 -0.24103970595398019 0 0.39206528024080278 -0.24921397013056479 0 0.4148006158986044 -0.24103970595398019 0 0.40884184876520419 -0.25890250189124958 0 0.38186963046980549 -0.2367879359972051 0 0.39206528024080278 -0.24921397013056479 0 0.40137725565661481 -0.22692044649349019 0 0.40137725565661481 -0.22692044649349019 0 0.39915185452682361 -0.21610044156742811 0 0.41396763236883027 -0.21470461273584779 0 0.40137725565661481 -0.22692044649349019 0 0.38700545273377529 -0.2233412248148075 0 0.39915185452682361 -0.21610044156742811 0 0.38186963046980549 -0.2367879359972051 0 0.40137725565661481 -0.22692044649349019 0 0.38700545273377529 -0.2233412248148075 0 0.3731990688381891 -0.2228302363117915 0 0.38186963046980549 -0.2367879359972051 0 0.38700545273377529 -0.2233412248148075 0 0.3731990688381891 -0.2228302363117915 0 0.38414633929606479 -0.2017211797653724 0 0.37273333868611941 -0.2093978965492076 0 0.3731990688381891 -0.2228302363117915 0 0.38414633929606479 -0.2017211797653724 0 0.3731990688381891 -0.2228302363117915 0 0.38675328488958288 -0.2095276895359276 0 0.38414633929606479 -0.2017211797653724 0 0.3731990688381891 -0.2228302363117915 0 0.38700545273377529 -0.2233412248148075 0 0.38675328488958288 -0.2095276895359276 0 0.38675328488958288 -0.2095276895359276 0 0.38414633929606479 -0.2017211797653724 0 0.39287005569986072 -0.20314648074516001 0 0.38414633929606479 -0.2017211797653724 0 0.38373621375160438 -0.1885238144486111 0 0.39509360975394031 -0.18061212321895309 0 0.38414633929606479 -0.2017211797653724 0 0.39509360975394031 -0.18061212321895309 0 0.37999921147615667 -0.19503406661491049 0 0.38373621375160438 -0.1885238144486111 0 0.37910290544765168 -0.18685571494790659 0 0.37999921147615667 -0.19503406661491049 0 0.38414633929606479 -0.2017211797653724 0 0.38373621375160438 -0.1885238144486111 0 0.37220629557919183 -0.19612338441269381 0 0.37999921147615667 -0.19503406661491049 0 0.37910290544765168 -0.18685571494790659 0 0.37220629557919183 -0.19612338441269381 0 0.37273333868611941 -0.2093978965492076 0 0.38414633929606479 -0.2017211797653724 0 0.37220629557919183 -0.19612338441269381 0 0.37999921147615667 -0.19503406661491049 0 0.38414633929606479 -0.2017211797653724 0 0.38414633929606479 -0.2017211797653724 0 0.39694758591794982 -0.18886739411602391 0 0.39509360975394031 -0.18061212321895309 0 0.39694758591794982 -0.18886739411602391 0 0.3969424320709618 -0.1972324897541754 0 0.40101572763622523 -0.19231380306325679 0 0.38414633929606479 -0.2017211797653724 0 0.39694758591794982 -0.18886739411602391 0 0.3969424320709618 -0.1972324897541754 0 0.38414633929606479 -0.2017211797653724 0 0.3969424320709618 -0.1972324897541754 0 0.39287005569986072 -0.20314648074516001 0 0.3969424320709618 -0.1972324897541754 0 0.400612395600416 -0.20053006859666331 0 0.39287005569986072 -0.20314648074516001 0 0.3969424320709618 -0.1972324897541754 0 0.4059814476455269 -0.19573306963025069 0 0.400612395600416 -0.20053006859666331 0 0.4059814476455269 -0.19573306963025069 0 0.400612395600416 -0.20053006859666331 0 0.40665564698531481 -0.2060082342570673 0 0.3969424320709618 -0.1972324897541754 0 0.4059814476455269 -0.19573306963025069 0 0.40101572763622523 -0.19231380306325679 0 0.4059814476455269 -0.19573306963025069 0 0.40101572763622523 -0.19231380306325679 0 0.40419144491046238 -0.1874222587525772 0 0.39694758591794982 -0.18886739411602391 0 0.40101572763622523 -0.19231380306325679 0 0.40419144491046238 -0.1874222587525772 0 0.38675328488958288 -0.2095276895359276 0 0.40665564698531481 -0.2060082342570673 0 0.38675328488958288 -0.2095276895359276 0 0.39915185452682361 -0.21610044156742811 0 0.40665564698531481 -0.2060082342570673 0 0.38675328488958288 -0.2095276895359276 0 0.39287005569986072 -0.20314648074516001 0 0.40665564698531481 -0.2060082342570673 0 0.38700545273377529 -0.2233412248148075 0 0.38675328488958288 -0.2095276895359276 0 0.39915185452682361 -0.21610044156742811 0 0.400612395600416 -0.20053006859666331 0 0.39287005569986072 -0.20314648074516001 0 0.40665564698531481 -0.2060082342570673 0 0.41396763236883027 -0.21470461273584779 0 0.40665564698531481 -0.2060082342570673 0 0.42655800908104652 -0.20248877897820619 0 0.40665564698531481 -0.2060082342570673 0 0.42655800908104652 -0.20248877897820619 0 0.39915185452682361 -0.21610044156742811 0 0.41396763236883027 -0.21470461273584779 0 0.40665564698531481 -0.2060082342570673 0 0.41396763236883027 -0.21470461273584779 0 0.42655800908104652 -0.20248877897820619 0 0.40665564698531481 -0.2060082342570673 0 0.41640017291144837 -0.19588579121564459 0 0.42655800908104652 -0.20248877897820619 0 0.4059814476455269 -0.19573306963025069 0 0.41640017291144837 -0.19588579121564459 0 0.41453364601533049 -0.1862870086825022 0 0.4059814476455269 -0.19573306963025069 0 0.40419144491046238 -0.1874222587525772 0 0.41453364601533049 -0.1862870086825022 0 0.4059814476455269 -0.19573306963025069 0 0.40665564698531481 -0.2060082342570673 0 0.41640017291144837 -0.19588579121564459 0 0.41640017291144837 -0.19588579121564459 0 0.42581299264578848 -0.18832250896932939 0 0.41453364601533049 -0.1862870086825022 0 0.42655800908104652 -0.20248877897820619 0 0.444302871767289 -0.18527179670816579 0 0.42581299264578848 -0.18832250896932939 0 0.42655800908104652 -0.20248877897820619 0 0.444302871767289 -0.18527179670816579 0 0.41640017291144837 -0.19588579121564459 0 0.42581299264578848 -0.18832250896932939 0 0.42655800908104652 -0.20248877897820619 0 0.42655800908104652 -0.20248877897820619 0 0.43237997939727391 -0.21969514264188619 0 0.44995934289594253 -0.19835057932979169 0 0.41396763236883027 -0.21470461273584779 0 0.42655800908104652 -0.20248877897820619 0 0.43237997939727391 -0.21969514264188619 0 0.43237997939727391 -0.21969514264188619 0 0.43199948472716282 -0.23703470349933331 0 0.4148006158986044 -0.24103970595398019 0 0.43237997939727391 -0.21969514264188619 0 0.4148006158986044 -0.24103970595398019 0 0.43199948472716282 -0.23703470349933331 0 0.4148006158986044 -0.24103970595398019 0 0.42892204251950339 -0.2594807324876427 0 0.43199948472716282 -0.23703470349933331 0 0.44338493428344739 -0.24574379201886831 0 0.42892204251950339 -0.2594807324876427 0 0.43237997939727391 -0.21969514264188619 0 0.4148006158986044 -0.24103970595398019 0 0.41563137083033092 -0.22558997695630109 0 0.41396763236883027 -0.21470461273584779 0 0.43237997939727391 -0.21969514264188619 0 0.41563137083033092 -0.22558997695630109 0 0.40137725565661481 -0.22692044649349019 0 0.4148006158986044 -0.24103970595398019 0 0.41563137083033092 -0.22558997695630109 0 0.40137725565661481 -0.22692044649349019 0 0.41396763236883027 -0.21470461273584779 0 0.40137725565661481 -0.22692044649349019 0 0.41396763236883027 -0.21470461273584779 0 0.41563137083033092 -0.22558997695630109 0 0.39237070121405998 -0.13164091544729051 0 0.39988799210863701 -0.14408364481314989 0 0.41368108829086198 -0.13554811058748131 0 0.40604313277712428 -0.1171380761358455 0 0.39237070121405998 -0.13164091544729051 0 0.41368108829086198 -0.13554811058748131 0 0.39237070121405998 -0.13164091544729051 0 0.37656812491251679 -0.13846106794218549 0 0.38605620033535121 -0.1499684147877679 0 0.3785150876385216 -0.1195111518185689 0 0.39237070121405998 -0.13164091544729051 0 0.37656812491251679 -0.13846106794218549 0 0.36359383050920879 -0.15501193774405861 0 0.37656812491251679 -0.13846106794218549 0 0.38605620033535121 -0.1499684147877679 0 0.39237070121405998 -0.13164091544729051 0 0.38605620033535121 -0.1499684147877679 0 0.39988799210863701 -0.14408364481314989 0 0.38605620033535121 -0.1499684147877679 0 0.39988799210863701 -0.14408364481314989 0 0.39700055726989097 -0.15664682800685811 0 0.39988799210863701 -0.14408364481314989 0 0.39700055726989097 -0.15664682800685811 0 0.40766935758353628 -0.1563629578155839 0 0.40291487034120532 -0.16553079014728059 0 0.39700055726989097 -0.15664682800685811 0 0.38691599599779503 -0.1739660947730671 0 0.40291487034120532 -0.16553079014728059 0 0.38691599599779503 -0.1739660947730671 0 0.40291487034120532 -0.16553079014728059 0 0.39700055726989097 -0.15664682800685811 0 0.40766935758353628 -0.1563629578155839 0 0.40291487034120532 -0.16553079014728059 0 0.40766935758353628 -0.1563629578155839 0 0.38605620033535121 -0.1499684147877679 0 0.39700055726989097 -0.15664682800685811 0 0.38691599599779503 -0.1739660947730671 0 0.36359383050920879 -0.15501193774405861 0 0.38691599599779503 -0.1739660947730671 0 0.36359383050920879 -0.15501193774405861 0 0.38605620033535121 -0.1499684147877679 0 0.38691599599779503 -0.1739660947730671 0 0.36422253950936112 -0.1859310752075029 0 0.38691599599779503 -0.1739660947730671 0 0.37910290544765168 -0.18685571494790659 0 0.36422253950936112 -0.1859310752075029 0 0.38691599599779503 -0.1739660947730671 0 0.38691599599779503 -0.1739660947730671 0 0.38753717637180268 -0.18155585423065651 0 0.39509360975394031 -0.18061212321895309 0 0.38373621375160438 -0.1885238144486111 0 0.38753717637180268 -0.18155585423065651 0 0.39509360975394031 -0.18061212321895309 0 0.38691599599779503 -0.1739660947730671 0 0.37910290544765168 -0.18685571494790659 0 0.38753717637180268 -0.18155585423065651 0 0.38373621375160438 -0.1885238144486111 0 0.37910290544765168 -0.18685571494790659 0 0.38753717637180268 -0.18155585423065651 0 0.40291487034120532 -0.16553079014728059 0 0.38691599599779503 -0.1739660947730671 0 0.39509360975394031 -0.18061212321895309 0 0.39694758591794982 -0.18886739411602391 0 0.39665445354372708 -0.18451779314135289 0 0.39509360975394031 -0.18061212321895309 0 0.39694758591794982 -0.18886739411602391 0 0.39665445354372708 -0.18451779314135289 0 0.40021252966215071 -0.18382207331845951 0 0.39665445354372708 -0.18451779314135289 0 0.39509360975394031 -0.18061212321895309 0 0.40021252966215071 -0.18382207331845951 0 0.38691599599779503 -0.1739660947730671 0 0.39509360975394031 -0.18061212321895309 0 0.40291487034120532 -0.16553079014728059 0 0.39509360975394031 -0.18061212321895309 0 0.40549068313545528 -0.17742909809594989 0 0.40291487034120532 -0.16553079014728059 0 0.39509360975394031 -0.18061212321895309 0 0.40549068313545528 -0.17742909809594989 0 0.40419144491046238 -0.1874222587525772 0 0.40021252966215071 -0.18382207331845951 0 0.39509360975394031 -0.18061212321895309 0 0.40549068313545528 -0.17742909809594989 0 0.40021252966215071 -0.18382207331845951 0 0.39694758591794982 -0.18886739411602391 0 0.40419144491046238 -0.1874222587525772 0 0.40021252966215071 -0.18382207331845951 0 0.42581299264578848 -0.18832250896932939 0 0.41453364601533049 -0.1862870086825022 0 0.42235201908535791 -0.17050045814039369 0 0.40549068313545528 -0.17742909809594989 0 0.41453364601533049 -0.1862870086825022 0 0.42235201908535791 -0.17050045814039369 0 0.40549068313545528 -0.17742909809594989 0 0.40419144491046238 -0.1874222587525772 0 0.41453364601533049 -0.1862870086825022 0 0.42235201908535791 -0.17050045814039369 0 0.44127751826325029 -0.16493106072254701 0 0.444302871767289 -0.18527179670816579 0 0.42581299264578848 -0.18832250896932939 0 0.42235201908535791 -0.17050045814039369 0 0.444302871767289 -0.18527179670816579 0 0.42235201908535791 -0.17050045814039369 0 0.42606808286872072 -0.1533234062687002 0 0.44127751826325029 -0.16493106072254701 0 0.40291487034120532 -0.16553079014728059 0 0.40766935758353628 -0.1563629578155839 0 0.42606808286872072 -0.1533234062687002 0 0.40291487034120532 -0.16553079014728059 0 0.42606808286872072 -0.1533234062687002 0 0.40291487034120532 -0.16553079014728059 0 0.42235201908535791 -0.17050045814039369 0 0.42606808286872072 -0.1533234062687002 0 0.40291487034120532 -0.16553079014728059 0 0.40549068313545528 -0.17742909809594989 0 0.42235201908535791 -0.17050045814039369 0 0.41182663021293903 -0.1473295298712288 0 0.42606808286872072 -0.1533234062687002 0 0.41368108829086198 -0.13554811058748131 0 0.40766935758353628 -0.1563629578155839 0 0.41182663021293903 -0.1473295298712288 0 0.42606808286872072 -0.1533234062687002 0 0.39988799210863701 -0.14408364481314989 0 0.40766935758353628 -0.1563629578155839 0 0.41182663021293903 -0.1473295298712288 0 0.39988799210863701 -0.14408364481314989 0 0.41182663021293903 -0.1473295298712288 0 0.41368108829086198 -0.13554811058748131 0 0.42606808286872072 -0.1533234062687002 0 0.430889964195386 -0.135117951771525 0 0.44922129539623712 -0.14111602239012119 0 0.42606808286872072 -0.1533234062687002 0 0.430889964195386 -0.135117951771525 0 0.41368108829086198 -0.13554811058748131 0 0.42080162445294911 -0.1170697999396166 0 0.430889964195386 -0.135117951771525 0 0.41368108829086198 -0.13554811058748131 0 0.45825176112352212 -0.1171944005084963 0 0.44922129539623712 -0.14111602239012119 0 0.47461064769812122 -0.12772964805397971 0 0.44922129539623712 -0.14111602239012119 0 0.47461064769812122 -0.12772964805397971 0 0.44922129539623712 -0.14111602239012119 0 0.47041229806123103 -0.14236165737458781 0 0.47461064769812122 -0.12772964805397971 0 0.43893170590200609 -0.1195052611799315 0 0.430889964195386 -0.135117951771525 0 0.44922129539623712 -0.14111602239012119 0 0.43893170590200609 -0.1195052611799315 0 0.45825176112352212 -0.1171944005084963 0 0.44922129539623712 -0.14111602239012119 0 0.43893170590200609 -0.1195052611799315 0 0.44922129539623712 -0.14111602239012119 0 0.42606808286872072 -0.1533234062687002 0 0.44922129539623712 -0.14111602239012119 0 0.44127751826325029 -0.16493106072254701 0 0.42606808286872072 -0.1533234062687002 0 0.44922129539623712 -0.14111602239012119 0 0.44922129539623712 -0.14111602239012119 0 0.46204773445353348 -0.16805481443812731 0 0.44922129539623712 -0.14111602239012119 0 0.46204773445353348 -0.16805481443812731 0 0.47041229806123103 -0.14236165737458781 0 0.44922129539623712 -0.14111602239012119 0 0.46204773445353348 -0.16805481443812731 0 0.44127751826325029 -0.16493106072254701 0 0.46204773445353348 -0.16805481443812731 0 0.44127751826325029 -0.16493106072254701 0 0.444302871767289 -0.18527179670816579 0 0.46204773445353348 -0.16805481443812731 0 0.444302871767289 -0.18527179670816579 0 0.46675991992270621 -0.1779516052682695 0 0.47013600328087812 -0.185042241033678 0 0.44995934289594253 -0.19835057932979169 0 0.444302871767289 -0.18527179670816579 0 0.46675991992270621 -0.1779516052682695 0 0.44995934289594253 -0.19835057932979169 0 0.46204773445353348 -0.16805481443812731 0 0.444302871767289 -0.18527179670816579 0 0.46675991992270621 -0.1779516052682695 0 0.46204773445353348 -0.16805481443812731 0 0.46675991992270621 -0.1779516052682695 0 0.46675991992270621 -0.1779516052682695 0 0.47013600328087812 -0.185042241033678 0 0.46675991992270621 -0.1779516052682695 0 0.48388214138120561 -0.17390417728894431 0 0.47927416581767118 -0.18397687174081401 0 0.46675991992270621 -0.1779516052682695 0 0.47013600328087812 -0.185042241033678 0 0.47927416581767118 -0.18397687174081401 0 0.48388214138120561 -0.17390417728894431 0 0.47927416581767118 -0.18397687174081401 0 0.48987334582395858 -0.18140433091368091 0 0.48987334582395858 -0.18140433091368091 0 0.5 -0.16492372169971509 0 0.5 -0.19225537639104809 0 0.48388214138120561 -0.17390417728894431 0 0.48987334582395858 -0.18140433091368091 0 0.5 -0.16492372169971509 0 0.47927416581767118 -0.18397687174081401 0 0.48987334582395858 -0.18140433091368091 0 0.48552241192915191 -0.19206174635411891 0 0.48388214138120561 -0.17390417728894431 0 0.5 -0.16492372169971509 0 0.48337995996135552 -0.1577718361383266 0 0.46675991992270621 -0.1779516052682695 0 0.48388214138120561 -0.17390417728894431 0 0.48337995996135552 -0.1577718361383266 0 0.46204773445353348 -0.16805481443812731 0 0.46675991992270621 -0.1779516052682695 0 0.48337995996135552 -0.1577718361383266 0 0.46204773445353348 -0.16805481443812731 0 0.48337995996135552 -0.1577718361383266 0 0.47713463147989749 -0.15341672773068571 0 0.46675991992270621 -0.1779516052682695 0 0.48337995996135552 -0.1577718361383266 0 0.46204773445353348 -0.16805481443812731 0 0.47713463147989749 -0.15341672773068571 0 0.46204773445353348 -0.16805481443812731 0 0.47041229806123103 -0.14236165737458781 0 0.47713463147989749 -0.15341672773068571 0 0.48337995996135552 -0.1577718361383266 0 0.47713463147989749 -0.15341672773068571 0 0.48456351921585428 -0.1397192317593817 0 0.47041229806123103 -0.14236165737458781 0 0.47713463147989749 -0.15341672773068571 0 0.48456351921585428 -0.1397192317593817 0 0.48337995996135552 -0.1577718361383266 0 0.50000000000000311 -0.1375920670083822 0 0.48456351921585428 -0.1397192317593817 0 0.5 -0.16492372169971509 0 0.48337995996135552 -0.1577718361383266 0 0.50000000000000311 -0.1375920670083822 0 0.48337995996135552 -0.1577718361383266 0 0.50000000000000311 -0.1375920670083822 0 0.50000000000000433 -0.1143432737178363 0 0.50000000000000311 -0.1375920670083822 0 0.48456351921585428 -0.1397192317593817 0 0.50000000000000433 -0.1143432737178363 0 0.48456351921585428 -0.1397192317593817 0 0.47461064769812122 -0.12772964805397971 0 0.47041229806123103 -0.14236165737458781 0 0.48456351921585428 -0.1397192317593817 0 0.47461064769812122 -0.12772964805397971 0 0.46695018322910392 -0.22473955239466681 0 0.44975785303280541 -0.2255898949688982 0 0.46528918090086291 -0.2095084705765255 0 0.46695018322910392 -0.22473955239466681 0 0.46086119099944728 -0.24298014516654151 0 0.44975785303280541 -0.2255898949688982 0 0.46086119099944728 -0.24298014516654151 0 0.44338493428344739 -0.24574379201886831 0 0.44975785303280541 -0.2255898949688982 0 0.43199948472716282 -0.23703470349933331 0 0.44338493428344739 -0.24574379201886831 0 0.44975785303280541 -0.2255898949688982 0 0.46086119099944728 -0.24298014516654151 0 0.44338493428344739 -0.24574379201886831 0 0.45165913482636821 -0.26068325523694041 0 0.43237997939727391 -0.21969514264188619 0 0.43199948472716282 -0.23703470349933331 0 0.44975785303280541 -0.2255898949688982 0 0.43237997939727391 -0.21969514264188619 0 0.44975785303280541 -0.2255898949688982 0 0.44995934289594253 -0.19835057932979169 0 0.43237997939727391 -0.21969514264188619 0 0.44995934289594253 -0.19835057932979169 0 0.42655800908104652 -0.20248877897820619 0 0.444302871767289 -0.18527179670816579 0 0.44995934289594253 -0.19835057932979169 0 0.42655800908104652 -0.20248877897820619 0 0.44995934289594253 -0.19835057932979169 0 0.46675991992270621 -0.1779516052682695 0 0.44995934289594253 -0.19835057932979169 0 0.44995934289594253 -0.19835057932979169 0 0.46774087741254722 -0.19520616284195491 0 0.47013600328087812 -0.185042241033678 0 0.44995934289594253 -0.19835057932979169 0 0.46774087741254722 -0.19520616284195491 0 0.44995934289594253 -0.19835057932979169 0 0.46774087741254722 -0.19520616284195491 0 0.46528918090086291 -0.2095084705765255 0 0.44975785303280541 -0.2255898949688982 0 0.44995934289594253 -0.19835057932979169 0 0.46528918090086291 -0.2095084705765255 0 0.46695018322910392 -0.22473955239466681 0 0.46528918090086291 -0.2095084705765255 0 0.48029579162163721 -0.21558854579597769 0 0.46528918090086291 -0.2095084705765255 0 0.47801733861628259 -0.20339364304417529 0 0.48029579162163721 -0.21558854579597769 0 0.47801733861628259 -0.20339364304417529 0 0.48029579162163721 -0.21558854579597769 0 0.48876710843341442 -0.20457726853354019 0 0.46774087741254722 -0.19520616284195491 0 0.47801733861628259 -0.20339364304417529 0 0.48552241192915191 -0.19206174635411891 0 0.47927416581767118 -0.18397687174081401 0 0.46774087741254722 -0.19520616284195491 0 0.48552241192915191 -0.19206174635411891 0 0.46774087741254722 -0.19520616284195491 0 0.48552241192915191 -0.19206174635411891 0 0.47013600328087812 -0.185042241033678 0 0.47927416581767118 -0.18397687174081401 0 0.46774087741254722 -0.19520616284195491 0 0.46774087741254722 -0.19520616284195491 0 0.46528918090086291 -0.2095084705765255 0 0.47801733861628259 -0.20339364304417529 0 0.47801733861628259 -0.20339364304417529 0 0.48552241192915191 -0.19206174635411891 0 0.48876710843341442 -0.20457726853354019 0 0.48987334582395858 -0.18140433091368091 0 0.48552241192915191 -0.19206174635411891 0 0.5 -0.19225537639104809 0 0.48552241192915191 -0.19206174635411891 0 0.5 -0.19225537639104809 0 0.48876710843341442 -0.20457726853354019 0 0.5 -0.19225537639104809 0 0.48876710843341442 -0.20457726853354019 0 0.5 -0.21958703108238101 0 0.48029579162163721 -0.21558854579597769 0 0.48876710843341442 -0.20457726853354019 0 0.5 -0.21958703108238101 0 0.5 -0.21958703108238101 0 0.48033598971293961 -0.23536730169414519 0 0.5 -0.24691868577371379 0 0.48029579162163721 -0.21558854579597769 0 0.5 -0.21958703108238101 0 0.48033598971293961 -0.23536730169414519 0 0.46695018322910392 -0.22473955239466681 0 0.46086119099944728 -0.24298014516654151 0 0.48033598971293961 -0.23536730169414519 0 0.46695018322910392 -0.22473955239466681 0 0.48029579162163721 -0.21558854579597769 0 0.48033598971293961 -0.23536730169414519 0 0.46086119099944728 -0.24298014516654151 0 0.48033598971293961 -0.23536730169414519 0 0.47450143065275591 -0.2599846894272051 0 0.48033598971293961 -0.23536730169414519 0 0.5 -0.24691868577371379 0 0.47450143065275591 -0.2599846894272051 0 0.5 -0.24691868577371379 0 0.50000000000000222 -0.27425034046504659 0 0.47450143065275591 -0.2599846894272051 0 0.50000000000000222 -0.27425034046504659 0 0.47605513413645029 -0.28008102786359129 0 0.47450143065275591 -0.2599846894272051 0 0.47605513413645029 -0.28008102786359129 0 0.47450143065275591 -0.2599846894272051 0 0.45931845050930209 -0.27772900618102819 0 0.46086119099944728 -0.24298014516654151 0 0.47450143065275591 -0.2599846894272051 0 0.45165913482636821 -0.26068325523694041 0 0.47450143065275591 -0.2599846894272051 0 0.45931845050930209 -0.27772900618102819 0 0.45165913482636821 -0.26068325523694041 0 0.45931845050930209 -0.27772900618102819 0 0.44355941821905998 -0.27577600561597132 0 0.45165913482636821 -0.26068325523694041 0 0.44338493428344739 -0.24574379201886831 0 0.45165913482636821 -0.26068325523694041 0 0.42892204251950339 -0.2594807324876427 0 0.44355941821905998 -0.27577600561597132 0 0.45165913482636821 -0.26068325523694041 0 0.42892204251950339 -0.2594807324876427 0 0.44743457629936911 -0.29125199491084608 0 0.45088585771739531 -0.31517042999936162 0 0.43686388954492023 -0.30206384222820981 0 0.45088585771739531 -0.31517042999936162 0 0.43602078127065758 -0.31524868357114688 0 0.43686388954492023 -0.30206384222820981 0 0.45931845050930209 -0.27772900618102819 0 0.44355941821905998 -0.27577600561597132 0 0.44743457629936911 -0.29125199491084608 0 0.44355941821905998 -0.27577600561597132 0 0.44743457629936911 -0.29125199491084608 0 0.42611848489587972 -0.28658767974219163 0 0.47605513413645029 -0.28008102786359129 0 0.45931845050930209 -0.27772900618102819 0 0.46516191830632447 -0.295844547827811 0 0.45931845050930209 -0.27772900618102819 0 0.44743457629936911 -0.29125199491084608 0 0.46516191830632447 -0.295844547827811 0 0.44743457629936911 -0.29125199491084608 0 0.46516191830632447 -0.295844547827811 0 0.45088585771739531 -0.31517042999936162 0 0.46516191830632447 -0.295844547827811 0 0.47218478901913252 -0.31616939882945228 0 0.45088585771739531 -0.31517042999936162 0 0.4860923945095682 -0.29520986964724988 0 0.47218478901913252 -0.31616939882945228 0 0.50000000000000222 -0.27425034046504659 0 0.4860923945095682 -0.29520986964724988 0 0.5 -0.307151228172029 0 0.46516191830632447 -0.295844547827811 0 0.4860923945095682 -0.29520986964724988 0 0.47218478901913252 -0.31616939882945228 0 0.47605513413645029 -0.28008102786359129 0 0.46516191830632447 -0.295844547827811 0 0.4860923945095682 -0.29520986964724988 0 0.50000000000000222 -0.27425034046504659 0 0.47605513413645029 -0.28008102786359129 0 0.4860923945095682 -0.29520986964724988 0 0.50000000000000222 -0.27425034046504659 0 0.4860923945095682 -0.29520986964724988 0 0.4860923945095682 -0.29520986964724988 0 0.5 -0.307151228172029 0 0.47218478901913252 -0.31616939882945228 0 0.5 -0.307151228172029 0 0.47500442815187882 -0.33618410333150461 0 0.5 -0.35237408365171952 0 0.5 -0.307151228172029 0 0.47500442815187882 -0.33618410333150461 0 0.47218478901913252 -0.31616939882945228 0 0.47500442815187882 -0.33618410333150461 0 0.5 -0.35237408365171952 0 0.46252966193221051 -0.36479181955861489 0 0.5 -0.35237408365171952 0 0.46252966193221051 -0.36479181955861489 0 0.4680243894331878 -0.39009447735167219 0 0.46252966193221051 -0.36479181955861489 0 0.44439653888602387 -0.37108278870097211 0 0.45518384933885458 -0.37953704158418422 0 0.46252966193221051 -0.36479181955861489 0 0.4490308344886651 -0.35295870566956811 0 0.45703493443123322 -0.33948916176555749 0 0.47500442815187882 -0.33618410333150461 0 0.46252966193221051 -0.36479181955861489 0 0.45703493443123322 -0.33948916176555749 0 0.46252966193221051 -0.36479181955861489 0 0.45703493443123322 -0.33948916176555749 0 0.4490308344886651 -0.35295870566956811 0 0.44439653888602387 -0.37108278870097211 0 0.43547581015886039 -0.35374612963373181 0 0.44432011104097457 -0.34600420025309703 0 0.4490308344886651 -0.35295870566956811 0 0.45042795048268808 -0.34263813410543531 0 0.4490308344886651 -0.35295870566956811 0 0.45703493443123322 -0.33948916176555749 0 0.45042795048268808 -0.34263813410543531 0 0.44432011104097457 -0.34600420025309703 0 0.4490308344886651 -0.35295870566956811 0 0.43547581015886039 -0.35374612963373181 0 0.44432011104097457 -0.34600420025309703 0 0.43877314986606192 -0.33818418946214152 0 0.43547581015886039 -0.35374612963373181 0 0.46252966193221051 -0.36479181955861489 0 0.4490308344886651 -0.35295870566956811 0 0.44439653888602387 -0.37108278870097211 0 0.47218478901913252 -0.31616939882945228 0 0.45845081404400378 -0.32484725803309861 0 0.45088585771739531 -0.31517042999936162 0 0.47218478901913252 -0.31616939882945228 0 0.45845081404400378 -0.32484725803309861 0 0.45827718352869679 -0.33712892801165451 0 0.47218478901913252 -0.31616939882945228 0 0.45827718352869679 -0.33712892801165451 0 0.45845081404400378 -0.32484725803309861 0 0.45465012105844921 -0.33200612518688721 0 0.44755831468875862 -0.32470483606049327 0 0.47500442815187882 -0.33618410333150461 0 0.45703493443123322 -0.33948916176555749 0 0.45827718352869679 -0.33712892801165451 0 0.47500442815187882 -0.33618410333150461 0 0.47218478901913252 -0.31616939882945228 0 0.45827718352869679 -0.33712892801165451 0 0.45703493443123322 -0.33948916176555749 0 0.4547926195999189 -0.33699511694280199 0 0.45042795048268808 -0.34263813410543531 0 0.45703493443123322 -0.33948916176555749 0 0.45827718352869679 -0.33712892801165451 0 0.4547926195999189 -0.33699511694280199 0 0.45845081404400378 -0.32484725803309861 0 0.45827718352869679 -0.33712892801165451 0 0.45465012105844921 -0.33200612518688721 0 0.4547926195999189 -0.33699511694280199 0 0.45465012105844921 -0.33200612518688721 0 0.45190540097192972 -0.33615439765103378 0 0.45827718352869679 -0.33712892801165451 0 0.4547926195999189 -0.33699511694280199 0 0.45465012105844921 -0.33200612518688721 0 0.45465012105844921 -0.33200612518688721 0 0.44749393872662357 -0.33307274595813069 0 0.44755831468875862 -0.32470483606049327 0 0.45465012105844921 -0.33200612518688721 0 0.44749393872662357 -0.33307274595813069 0 0.45190540097192972 -0.33615439765103378 0 0.4547926195999189 -0.33699511694280199 0 0.45042795048268808 -0.34263813410543531 0 0.45190540097192972 -0.33615439765103378 0 0.45042795048268808 -0.34263813410543531 0 0.45190540097192972 -0.33615439765103378 0 0.44691761172297523 -0.33872250108465612 0 0.44749393872662357 -0.33307274595813069 0 0.45190540097192972 -0.33615439765103378 0 0.44691761172297523 -0.33872250108465612 0 0.44432011104097457 -0.34600420025309703 0 0.45042795048268808 -0.34263813410543531 0 0.44691761172297523 -0.33872250108465612 0 0.44432011104097457 -0.34600420025309703 0 0.44691761172297523 -0.33872250108465612 0 0.43877314986606192 -0.33818418946214152 0 0.44749393872662357 -0.33307274595813069 0 0.44691761172297523 -0.33872250108465612 0 0.43877314986606192 -0.33818418946214152 0 0.44749393872662357 -0.33307274595813069 0 0.43877314986606192 -0.33818418946214152 0 0.43784837531542259 -0.32788377361433518 0 0.44749393872662357 -0.33307274595813069 0 0.43784837531542259 -0.32788377361433518 0 0.44755831468875862 -0.32470483606049327 0 0.43784837531542259 -0.32788377361433518 0 0.44755831468875862 -0.32470483606049327 0 0.43602078127065758 -0.31524868357114688 0 0.45845081404400378 -0.32484725803309861 0 0.44755831468875862 -0.32470483606049327 0 0.45088585771739531 -0.31517042999936162 0 0.44755831468875862 -0.32470483606049327 0 0.45088585771739531 -0.31517042999936162 0 0.43602078127065758 -0.31524868357114688 0 0.43784837531542259 -0.32788377361433518 0 0.42583518759170652 -0.33528639298719382 0 0.41775460495295358 -0.31793141321765611 0 0.43784837531542259 -0.32788377361433518 0 0.43602078127065758 -0.31524868357114688 0 0.41775460495295358 -0.31793141321765611 0 0.43877314986606192 -0.33818418946214152 0 0.43784837531542259 -0.32788377361433518 0 0.42583518759170652 -0.33528639298719382 0 0.43877314986606192 -0.33818418946214152 0 0.42583518759170652 -0.33528639298719382 0 0.43547581015886039 -0.35374612963373181 0 0.41250416259223432 -0.33960725990233392 0 0.41775460495295358 -0.31793141321765611 0 0.39805431729583179 -0.33510365622952631 0 0.41250416259223432 -0.33960725990233392 0 0.41775460495295358 -0.31793141321765611 0 0.42583518759170652 -0.33528639298719382 0 0.41250416259223432 -0.33960725990233392 0 0.41775460495295358 -0.31793141321765611 0 0.42583518759170652 -0.33528639298719382 0 0.41250416259223432 -0.33960725990233392 0 0.42034794007649889 -0.35298104146800569 0 0.43547581015886039 -0.35374612963373181 0 0.42034794007649889 -0.35298104146800569 0 0.42578668388574042 -0.37577956855813549 0 0.44439653888602387 -0.37108278870097211 0 0.43547581015886039 -0.35374612963373181 0 0.42578668388574042 -0.37577956855813549 0 0.42583518759170652 -0.33528639298719382 0 0.43547581015886039 -0.35374612963373181 0 0.42034794007649889 -0.35298104146800569 0 0.41250416259223432 -0.33960725990233392 0 0.42034794007649889 -0.35298104146800569 0 0.40725372023151529 -0.36128310658701179 0 0.41250416259223432 -0.33960725990233392 0 0.40725372023151529 -0.36128310658701179 0 0.40725372023151529 -0.36128310658701179 0 0.42578668388574042 -0.37577956855813549 0 0.40193856510946419 -0.3832261124550107 0 0.40725372023151529 -0.36128310658701179 0 0.42578668388574042 -0.37577956855813549 0 0.42034794007649889 -0.35298104146800569 0 0.40725372023151529 -0.36128310658701179 0 0.42578668388574042 -0.37577956855813549 0 0.40725372023151529 -0.36128310658701179 0 0.39425043507280438 -0.36432915978129837 0 0.40193856510946419 -0.3832261124550107 0 0.40725372023151529 -0.36128310658701179 0 0.40193856510946419 -0.3832261124550107 0 0.39425043507280438 -0.36432915978129837 0 0.38081427771294768 -0.36737052156009248 0 0.40193856510946419 -0.3832261124550107 0 0.40725372023151529 -0.36128310658701179 0 0.38699517723729038 -0.34543689852307891 0 0.39805431729583179 -0.33510365622952631 0 0.40725372023151529 -0.36128310658701179 0 0.39425043507280438 -0.36432915978129837 0 0.38699517723729038 -0.34543689852307891 0 0.40725372023151529 -0.36128310658701179 0 0.38699517723729038 -0.34543689852307891 0 0.41250416259223432 -0.33960725990233392 0 0.40725372023151529 -0.36128310658701179 0 0.39805431729583179 -0.33510365622952631 0 0.38699517723729038 -0.34543689852307891 0 0.38081427771294768 -0.36737052156009248 0 0.37640125955739012 -0.35149107478397351 0 0.38465179156333151 -0.34360390505586791 0 0.36805061276354478 -0.3427907498460791 0 0.39425043507280438 -0.36432915978129837 0 0.38699517723729038 -0.34543689852307891 0 0.38081427771294768 -0.36737052156009248 0 0.38699517723729038 -0.34543689852307891 0 0.37640125955739012 -0.35149107478397351 0 0.38081427771294768 -0.36737052156009248 0 0.38699517723729038 -0.34543689852307891 0 0.38465179156333151 -0.34360390505586791 0 0.38699517723729038 -0.34543689852307891 0 0.37640125955739012 -0.35149107478397351 0 0.38465179156333151 -0.34360390505586791 0 0.41775460495295358 -0.31793141321765611 0 0.39401776620237461 -0.32051644503610022 0 0.39805431729583179 -0.33510365622952631 0 0.38699517723729038 -0.34543689852307891 0 0.39401776620237461 -0.32051644503610022 0 0.39805431729583179 -0.33510365622952631 0 0.38699517723729038 -0.34543689852307891 0 0.39401776620237461 -0.32051644503610022 0 0.38465179156333151 -0.34360390505586791 0 0.37858644206980091 -0.32769985780377792 0 0.36805061276354478 -0.3427907498460791 0 0.38699517723729038 -0.34543689852307891 0 0.39401776620237461 -0.32051644503610022 0 0.38465179156333151 -0.34360390505586791 0 0.39401776620237461 -0.32051644503610022 0 0.38465179156333151 -0.34360390505586791 0 0.37858644206980091 -0.32769985780377792 0 0.39401776620237461 -0.32051644503610022 0 0.37858644206980091 -0.32769985780377792 0 0.37861767820969228 -0.30691821554646831 0 0.41775460495295358 -0.31793141321765611 0 0.39401776620237461 -0.32051644503610022 0 0.40104035516745928 -0.29559599154912142 0 0.39401776620237461 -0.32051644503610022 0 0.37861767820969228 -0.30691821554646831 0 0.40104035516745928 -0.29559599154912142 0 0.39401776620237461 -0.32051644503610022 0 0.40104035516745928 -0.29559599154912142 0 0.40104035516745928 -0.29559599154912142 0 0.38498320530945151 -0.287592927137584 0 0.39655653748852282 -0.27284147297554762 0 0.38498320530945151 -0.287592927137584 0 0.37764450162479901 -0.26965755496232408 0 0.36873774536035581 -0.28861226174546889 0 0.37861767820969228 -0.30691821554646831 0 0.40104035516745928 -0.29559599154912142 0 0.38498320530945151 -0.287592927137584 0 0.37861767820969228 -0.30691821554646831 0 0.38498320530945151 -0.287592927137584 0 0.36873774536035581 -0.28861226174546889 0 0.38498320530945151 -0.287592927137584 0 0.37764450162479901 -0.26965755496232408 0 0.39655653748852282 -0.27284147297554762 0 0.39206528024080278 -0.24921397013056479 0 0.37764450162479901 -0.26965755496232408 0 0.39655653748852282 -0.27284147297554762 0 0.39206528024080278 -0.24921397013056479 0 0.37764450162479901 -0.26965755496232408 0 0.37510228513818711 -0.25237727586059511 0 0.39206528024080278 -0.24921397013056479 0 0.39655653748852282 -0.27284147297554762 0 0.40884184876520419 -0.25890250189124958 0 0.40104035516745928 -0.29559599154912142 0 0.39655653748852282 -0.27284147297554762 0 0.4136044294752057 -0.2739163227279473 0 0.39655653748852282 -0.27284147297554762 0 0.4136044294752057 -0.2739163227279473 0 0.40884184876520419 -0.25890250189124958 0 0.4148006158986044 -0.24103970595398019 0 0.40884184876520419 -0.25890250189124958 0 0.42892204251950339 -0.2594807324876427 0 0.4136044294752057 -0.2739163227279473 0 0.40884184876520419 -0.25890250189124958 0 0.42892204251950339 -0.2594807324876427 0 0.4136044294752057 -0.2739163227279473 0 0.42892204251950339 -0.2594807324876427 0 0.42611848489587972 -0.28658767974219163 0 0.44355941821905998 -0.27577600561597132 0 0.42892204251950339 -0.2594807324876427 0 0.42611848489587972 -0.28658767974219163 0 0.44743457629936911 -0.29125199491084608 0 0.42611848489587972 -0.28658767974219163 0 0.43686388954492023 -0.30206384222820981 0 0.43602078127065758 -0.31524868357114688 0 0.41775460495295358 -0.31793141321765611 0 0.42179240152309172 -0.30222108271158582 0 0.42611848489587972 -0.28658767974219163 0 0.43686388954492023 -0.30206384222820981 0 0.42179240152309172 -0.30222108271158582 0 0.43602078127065758 -0.31524868357114688 0 0.43686388954492023 -0.30206384222820981 0 0.42179240152309172 -0.30222108271158582 0 0.41775460495295358 -0.31793141321765611 0 0.40104035516745928 -0.29559599154912142 0 0.42179240152309172 -0.30222108271158582 0 0.40104035516745928 -0.29559599154912142 0 0.4136044294752057 -0.2739163227279473 0 0.42611848489587972 -0.28658767974219163 0 0.40104035516745928 -0.29559599154912142 0 0.42611848489587972 -0.28658767974219163 0 0.42179240152309172 -0.30222108271158582 0 0.5 -0.5 0 0.478892924595126 -0.45923392689990328 0 0.5 -0.41454166856117469 0 0.5 -0.5 0 0.47943423265092072 -0.49342116463239621 0 0.40014079662082208 -0.5 0 0.43983937115661631 -0.46972557693384148 0 0.47943423265092072 -0.49342116463239621 0 0.40014079662082208 -0.5 0 0.43983937115661631 -0.46972557693384148 0 0.46715606132834708 -0.47012790102379598 0 0.47943423265092072 -0.49342116463239621 0 0.5 -0.5 0 0.47943423265092072 -0.49342116463239621 0 0.478892924595126 -0.45923392689990328 0 0.46715606132834708 -0.47012790102379598 0 0.47943423265092072 -0.49342116463239621 0 0.478892924595126 -0.45923392689990328 0 0.46715606132834708 -0.47012790102379598 0 0.47943423265092072 -0.49342116463239621 0 0.478892924595126 -0.45923392689990328 0 0.45487789000577361 -0.44683463741519602 0 0.47188936358571532 -0.4304781897668572 0 0.46715606132834708 -0.47012790102379598 0 0.45487789000577361 -0.44683463741519602 0 0.46715606132834708 -0.47012790102379598 0 0.478892924595126 -0.45923392689990328 0 0.45487789000577361 -0.44683463741519602 0 0.43983937115661631 -0.46972557693384148 0 0.46715606132834708 -0.47012790102379598 0 0.45487789000577361 -0.44683463741519602 0 0.43983937115661631 -0.46972557693384148 0 0.45487789000577361 -0.44683463741519602 0 0.43095981599733307 -0.44753658110846528 0 0.45487789000577361 -0.44683463741519602 0 0.43408281430989271 -0.43319973453275151 0 0.43095981599733307 -0.44753658110846528 0 0.45487789000577361 -0.44683463741519602 0 0.44259971868320003 -0.42354137380659601 0 0.45487789000577361 -0.44683463741519602 0 0.44259971868320003 -0.42354137380659601 0 0.43408281430989271 -0.43319973453275151 0 0.45487789000577361 -0.44683463741519602 0 0.44259971868320003 -0.42354137380659601 0 0.45959372781066021 -0.42263882295877442 0 0.44259971868320003 -0.42354137380659601 0 0.45186952978880229 -0.40983589673226128 0 0.45959372781066021 -0.42263882295877442 0 0.44259971868320003 -0.42354137380659601 0 0.45186952978880229 -0.40983589673226128 0 0.44161148704613862 -0.40579593671517361 0 0.44259971868320003 -0.42354137380659601 0 0.44161148704613862 -0.40579593671517361 0 0.43098246877755192 -0.41858878846052949 0 0.45186952978880229 -0.40983589673226128 0 0.45959372781066021 -0.42263882295877442 0 0.46285261119418991 -0.40477249250038388 0 0.45959372781066021 -0.42263882295877442 0 0.4735191169341651 -0.41539713514472942 0 0.46285261119418991 -0.40477249250038388 0 0.45959372781066021 -0.42263882295877442 0 0.47188936358571532 -0.4304781897668572 0 0.4735191169341651 -0.41539713514472942 0 0.45487789000577361 -0.44683463741519602 0 0.45959372781066021 -0.42263882295877442 0 0.47188936358571532 -0.4304781897668572 0 0.5 -0.41454166856117469 0 0.4735191169341651 -0.41539713514472942 0 0.4680243894331878 -0.39009447735167219 0 0.478892924595126 -0.45923392689990328 0 0.47188936358571532 -0.4304781897668572 0 0.5 -0.41454166856117469 0 0.47188936358571532 -0.4304781897668572 0 0.5 -0.41454166856117469 0 0.4735191169341651 -0.41539713514472942 0 0.5 -0.35237408365171952 0 0.5 -0.41454166856117469 0 0.4680243894331878 -0.39009447735167219 0 0.4735191169341651 -0.41539713514472942 0 0.4680243894331878 -0.39009447735167219 0 0.46252966193221051 -0.36479181955861489 0 0.45518384933885458 -0.37953704158418422 0 0.4680243894331878 -0.39009447735167219 0 0.45518384933885458 -0.37953704158418422 0 0.4680243894331878 -0.39009447735167219 0 0.44431964753996511 -0.39027603052925969 0 0.46252966193221051 -0.36479181955861489 0 0.4680243894331878 -0.39009447735167219 0 0.4735191169341651 -0.41539713514472942 0 0.4680243894331878 -0.39009447735167219 0 0.46285261119418991 -0.40477249250038388 0 0.4680243894331878 -0.39009447735167219 0 0.46285261119418991 -0.40477249250038388 0 0.44431964753996511 -0.39027603052925969 0 0.46285261119418991 -0.40477249250038388 0 0.44431964753996511 -0.39027603052925969 0 0.45186952978880229 -0.40983589673226128 0 0.44161148704613862 -0.40579593671517361 0 0.44431964753996511 -0.39027603052925969 0 0.45186952978880229 -0.40983589673226128 0 0.46285261119418991 -0.40477249250038388 0 0.44431964753996511 -0.39027603052925969 0 0.44439653888602387 -0.37108278870097211 0 0.44431964753996511 -0.39027603052925969 0 0.42578668388574042 -0.37577956855813549 0 0.44439653888602387 -0.37108278870097211 0 0.45518384933885458 -0.37953704158418422 0 0.44431964753996511 -0.39027603052925969 0 0.44431964753996511 -0.39027603052925969 0 0.42578668388574042 -0.37577956855813549 0 0.42627525148907153 -0.39512359141131242 0 0.44431964753996511 -0.39027603052925969 0 0.42578668388574042 -0.37577956855813549 0 0.44161148704613862 -0.40579593671517361 0 0.44431964753996511 -0.39027603052925969 0 0.42627525148907153 -0.39512359141131242 0 0.44161148704613862 -0.40579593671517361 0 0.42627525148907153 -0.39512359141131242 0 0.41380476734409732 -0.40903711363024231 0 0.41288573556315727 -0.39366710087554208 0 0.39662340998741341 -0.40516911832300972 0 0.41380476734409732 -0.40903711363024231 0 0.42627525148907153 -0.39512359141131242 0 0.41288573556315727 -0.39366710087554208 0 0.41380476734409732 -0.40903711363024231 0 0.42578668388574042 -0.37577956855813549 0 0.41288573556315727 -0.39366710087554208 0 0.40193856510946419 -0.3832261124550107 0 0.42578668388574042 -0.37577956855813549 0 0.42627525148907153 -0.39512359141131242 0 0.41288573556315727 -0.39366710087554208 0 0.38081427771294768 -0.36737052156009248 0 0.37463337818860382 -0.38930414459710588 0 0.3737028077843495 -0.38742295831448542 0 0.38081427771294768 -0.36737052156009248 0 0.38897026210220897 -0.39170162293651239 0 0.37463337818860382 -0.38930414459710588 0 0.38081427771294768 -0.36737052156009248 0 0.37463337818860382 -0.38930414459710588 0 0.38081427771294768 -0.36737052156009248 0 0.40193856510946419 -0.3832261124550107 0 0.38897026210220897 -0.39170162293651239 0 0.38599804764205609 -0.41227829054531151 0 0.37463337818860382 -0.38930414459710588 0 0.38897026210220897 -0.39170162293651239 0 0.39662340998741341 -0.40516911832300972 0 0.38599804764205609 -0.41227829054531151 0 0.38599804764205609 -0.41227829054531151 0 0.36755341006792419 -0.41442821452601158 0 0.37463337818860382 -0.38930414459710588 0 0.38897026210220897 -0.39170162293651239 0 0.38599804764205609 -0.41227829054531151 0 0.37463337818860382 -0.38930414459710588 0 0.40193856510946419 -0.3832261124550107 0 0.38897026210220897 -0.39170162293651239 0 0.39662340998741341 -0.40516911832300972 0 0.41288573556315727 -0.39366710087554208 0 0.40193856510946419 -0.3832261124550107 0 0.39662340998741341 -0.40516911832300972 0 0.40193856510946419 -0.3832261124550107 0 0.39662340998741341 -0.40516911832300972 0 0.38599804764205609 -0.41227829054531151 0 0.41380476734409732 -0.40903711363024231 0 0.39662340998741341 -0.40516911832300972 0 0.38599804764205609 -0.41227829054531151 0 0.41380476734409732 -0.40903711363024231 0 0.40147331832312588 -0.42054231308375889 0 0.38599804764205609 -0.41227829054531151 0 0.41380476734409732 -0.40903711363024231 0 0.38599804764205609 -0.41227829054531151 0 0.36755341006792419 -0.41442821452601158 0 0.38599804764205609 -0.41227829054531151 0 0.37837193070639508 -0.43074191130029282 0 0.36755341006792419 -0.41442821452601158 0 0.38599804764205609 -0.41227829054531151 0 0.37837193070639508 -0.43074191130029282 0 0.39716653888589531 -0.43485585418744782 0 0.37837193070639508 -0.43074191130029282 0 0.39716653888589531 -0.43485585418744782 0 0.38455236834147782 -0.44235831893697952 0 0.38599804764205609 -0.41227829054531151 0 0.39716653888589531 -0.43485585418744782 0 0.40147331832312588 -0.42054231308375889 0 0.38599804764205609 -0.41227829054531151 0 0.39716653888589531 -0.43485585418744782 0 0.40147331832312588 -0.42054231308375889 0 0.39716653888589531 -0.43485585418744782 0 0.40988830344794153 -0.42850982814637428 0 0.39716653888589531 -0.43485585418744782 0 0.40988830344794153 -0.42850982814637428 0 0.41424956646142452 -0.44145335337101582 0 0.40988830344794153 -0.42850982814637428 0 0.42255857874347952 -0.42798536962106742 0 0.41424956646142452 -0.44145335337101582 0 0.40147331832312588 -0.42054231308375889 0 0.40988830344794153 -0.42850982814637428 0 0.41380476734409732 -0.40903711363024231 0 0.40988830344794153 -0.42850982814637428 0 0.41380476734409732 -0.40903711363024231 0 0.42255857874347952 -0.42798536962106742 0 0.44161148704613862 -0.40579593671517361 0 0.41380476734409732 -0.40903711363024231 0 0.43098246877755192 -0.41858878846052949 0 0.44161148704613862 -0.40579593671517361 0 0.41380476734409732 -0.40903711363024231 0 0.41380476734409732 -0.40903711363024231 0 0.43098246877755192 -0.41858878846052949 0 0.42255857874347952 -0.42798536962106742 0 0.43408281430989271 -0.43319973453275151 0 0.42255857874347952 -0.42798536962106742 0 0.43095981599733307 -0.44753658110846528 0 0.44259971868320003 -0.42354137380659601 0 0.43098246877755192 -0.41858878846052949 0 0.43408281430989271 -0.43319973453275151 0 0.43098246877755192 -0.41858878846052949 0 0.43408281430989271 -0.43319973453275151 0 0.42255857874347952 -0.42798536962106742 0 0.42255857874347952 -0.42798536962106742 0 0.43095981599733307 -0.44753658110846528 0 0.41424956646142452 -0.44145335337101582 0 0.43983937115661631 -0.46972557693384148 0 0.42706067288056998 -0.45966910190407051 0 0.41707216494033877 -0.46659444091922031 0 0.43983937115661631 -0.46972557693384148 0 0.43095981599733307 -0.44753658110846528 0 0.42706067288056998 -0.45966910190407051 0 0.43095981599733307 -0.44753658110846528 0 0.42706067288056998 -0.45966910190407051 0 0.42037133942799187 -0.45481980865475502 0 0.42037133942799187 -0.45481980865475502 0 0.41707216494033877 -0.46659444091922031 0 0.40833503012973449 -0.45743341782958391 0 0.42706067288056998 -0.45966910190407051 0 0.42037133942799187 -0.45481980865475502 0 0.41707216494033877 -0.46659444091922031 0 0.41707216494033877 -0.46659444091922031 0 0.40833503012973449 -0.45743341782958391 0 0.39424227281986102 -0.46676003377889269 0 0.43095981599733307 -0.44753658110846528 0 0.42037133942799187 -0.45481980865475502 0 0.41424956646142452 -0.44145335337101582 0 0.42037133942799187 -0.45481980865475502 0 0.40833503012973449 -0.45743341782958391 0 0.41424956646142452 -0.44145335337101582 0 0.39716653888589531 -0.43485585418744782 0 0.40833503012973449 -0.45743341782958391 0 0.41424956646142452 -0.44145335337101582 0 0.39716653888589531 -0.43485585418744782 0 0.39345157537004599 -0.45057062730194619 0 0.38455236834147782 -0.44235831893697952 0 0.39716653888589531 -0.43485585418744782 0 0.40833503012973449 -0.45743341782958391 0 0.39345157537004599 -0.45057062730194619 0 0.39716653888589531 -0.43485585418744782 0 0.40833503012973449 -0.45743341782958391 0 0.39345157537004599 -0.45057062730194619 0 0.38455236834147782 -0.44235831893697952 0 0.38182359321740972 -0.45292134106576409 0 0.38455236834147782 -0.44235831893697952 0 0.38182359321740972 -0.45292134106576409 0 0.37194820352764257 -0.4427018608294464 0 0.37837193070639508 -0.43074191130029282 0 0.38455236834147782 -0.44235831893697952 0 0.37194820352764257 -0.4427018608294464 0 0.38182359321740972 -0.45292134106576409 0 0.39424227281986102 -0.46676003377889269 0 0.37141238069938332 -0.46692562663856529 0 0.39345157537004599 -0.45057062730194619 0 0.38182359321740972 -0.45292134106576409 0 0.39424227281986102 -0.46676003377889269 0 0.39424227281986102 -0.46676003377889269 0 0.37141238069938332 -0.46692562663856529 0 0.40833503012973449 -0.45743341782958391 0 0.39345157537004599 -0.45057062730194619 0 0.39424227281986102 -0.46676003377889269 0 0.41707216494033877 -0.46659444091922031 0 0.39424227281986102 -0.46676003377889269 0 0.41707216494033877 -0.46659444091922031 0 0.39424227281986102 -0.46676003377889269 0 0.40014079662082208 -0.5 0 0.39424227281986102 -0.46676003377889269 0 0.40014079662082208 -0.5 0 0.37141238069938332 -0.46692562663856529 0 0.43983937115661631 -0.46972557693384148 0 0.41707216494033877 -0.46659444091922031 0 0.40014079662082208 -0.5 0 0.40014079662082208 -0.5 0 0.32546065004022617 -0.5 0 0.3462765218470546 -0.48033279556006703 0 0.32546065004022617 -0.5 0 0.3462765218470546 -0.48033279556006703 0 0.30631021868456298 -0.48072311486568892 0 0.3462765218470546 -0.48033279556006703 0 0.32575259645842791 -0.46725681235791028 0 0.30631021868456298 -0.48072311486568892 0 0.3462765218470546 -0.48033279556006703 0 0.3485824885789055 -0.46709121949823779 0 0.32575259645842791 -0.46725681235791028 0 0.40014079662082208 -0.5 0 0.3462765218470546 -0.48033279556006703 0 0.37141238069938332 -0.46692562663856529 0 0.3462765218470546 -0.48033279556006703 0 0.3485824885789055 -0.46709121949823779 0 0.37141238069938332 -0.46692562663856529 0 0.3485824885789055 -0.46709121949823779 0 0.37141238069938332 -0.46692562663856529 0 0.35324569388809701 -0.44989359131069062 0 0.3485824885789055 -0.46709121949823779 0 0.35324569388809701 -0.44989359131069062 0 0.33806214337105372 -0.45777686618061397 0 0.38182359321740972 -0.45292134106576409 0 0.37141238069938332 -0.46692562663856529 0 0.35324569388809701 -0.44989359131069062 0 0.3485824885789055 -0.46709121949823779 0 0.37141238069938332 -0.46692562663856529 0 0.36060935802898147 -0.43906997082244181 0 0.37194820352764257 -0.4427018608294464 0 0.35324569388809701 -0.44989359131069062 0 0.38182359321740972 -0.45292134106576409 0 0.35324569388809701 -0.44989359131069062 0 0.37837193070639508 -0.43074191130029282 0 0.36060935802898147 -0.43906997082244181 0 0.37194820352764257 -0.4427018608294464 0 0.38182359321740972 -0.45292134106576409 0 0.37194820352764257 -0.4427018608294464 0 0.35324569388809701 -0.44989359131069062 0 0.36060935802898147 -0.43906997082244181 0 0.35324569388809701 -0.44989359131069062 0 0.34315104194743368 -0.43483422324315929 0 0.32466779455878442 -0.44686584155561709 0 0.32761501992215097 -0.43116249501185328 0 0.34315104194743368 -0.43483422324315929 0 0.35324569388809701 -0.44989359131069062 0 0.33806214337105372 -0.45777686618061397 0 0.32466779455878442 -0.44686584155561709 0 0.35324569388809701 -0.44989359131069062 0 0.32466779455878442 -0.44686584155561709 0 0.34315104194743368 -0.43483422324315929 0 0.35324569388809701 -0.44989359131069062 0 0.32466779455878442 -0.44686584155561709 0 0.3485824885789055 -0.46709121949823779 0 0.32575259645842791 -0.46725681235791028 0 0.3485824885789055 -0.46709121949823779 0 0.33806214337105372 -0.45777686618061397 0 0.32575259645842791 -0.46725681235791028 0 0.33806214337105372 -0.45777686618061397 0 0.32575259645842791 -0.46725681235791028 0 0.32466779455878442 -0.44686584155561709 0 0.32575259645842791 -0.46725681235791028 0 0.30904716904302271 -0.45792120175055678 0 0.30631021868456298 -0.48072311486568892 0 0.32575259645842791 -0.46725681235791028 0 0.32466779455878442 -0.44686584155561709 0 0.30904716904302271 -0.45792120175055678 0 0.32466779455878442 -0.44686584155561709 0 0.31800868577585262 -0.43516031519895321 0 0.30735360635596409 -0.43632211706289747 0 0.32466779455878442 -0.44686584155561709 0 0.32761501992215097 -0.43116249501185328 0 0.31800868577585262 -0.43516031519895321 0 0.32761501992215097 -0.43116249501185328 0 0.32339131420283213 -0.41656724990055422 0 0.31239832226651099 -0.42629080716544471 0 0.32761501992215097 -0.43116249501185328 0 0.31800868577585262 -0.43516031519895321 0 0.31239832226651099 -0.42629080716544471 0 0.31800868577585262 -0.43516031519895321 0 0.31239832226651099 -0.42629080716544471 0 0.30735360635596409 -0.43632211706289747 0 0.32339131420283213 -0.41656724990055422 0 0.31120060169272079 -0.4133373498197 0 0.31239832226651099 -0.42629080716544471 0 0.32339131420283213 -0.41656724990055422 0 0.319673984964159 -0.40346676889879052 0 0.31120060169272079 -0.4133373498197 0 0.319673984964159 -0.40346676889879052 0 0.30884060304287331 -0.40229515593698711 0 0.31120060169272079 -0.4133373498197 0 0.32339131420283213 -0.41656724990055422 0 0.33281994217864741 -0.40778505865636938 0 0.319673984964159 -0.40346676889879052 0 0.32761501992215097 -0.43116249501185328 0 0.32339131420283213 -0.41656724990055422 0 0.33796042338316851 -0.41787760036937549 0 0.32339131420283213 -0.41656724990055422 0 0.33281994217864741 -0.40778505865636938 0 0.33796042338316851 -0.41787760036937549 0 0.33281994217864741 -0.40778505865636938 0 0.33796042338316851 -0.41787760036937549 0 0.34601675315157321 -0.40486547886918423 0 0.32761501992215097 -0.43116249501185328 0 0.33796042338316851 -0.41787760036937549 0 0.34315104194743368 -0.43483422324315929 0 0.33796042338316851 -0.41787760036937549 0 0.34315104194743368 -0.43483422324315929 0 0.35231855835687692 -0.42655250224024699 0 0.36060935802898147 -0.43906997082244181 0 0.34315104194743368 -0.43483422324315929 0 0.35231855835687692 -0.42655250224024699 0 0.37837193070639508 -0.43074191130029282 0 0.36060935802898147 -0.43906997082244181 0 0.36755341006792419 -0.41442821452601158 0 0.36060935802898147 -0.43906997082244181 0 0.35231855835687692 -0.42655250224024699 0 0.36755341006792419 -0.41442821452601158 0 0.36060935802898147 -0.43906997082244181 0 0.36755341006792419 -0.41442821452601158 0 0.33796042338316851 -0.41787760036937549 0 0.35231855835687692 -0.42655250224024699 0 0.36755341006792419 -0.41442821452601158 0 0.33796042338316851 -0.41787760036937549 0 0.36755341006792419 -0.41442821452601158 0 0.34601675315157321 -0.40486547886918423 0 0.33796042338316851 -0.41787760036937549 0 0.36755341006792419 -0.41442821452601158 0 0.36755341006792419 -0.41442821452601158 0 0.34601675315157321 -0.40486547886918423 0 0.35566250251704978 -0.3975177511027051 0 0.34601675315157321 -0.40486547886918423 0 0.34667365318154342 -0.39629832909528578 0 0.35566250251704978 -0.3975177511027051 0 0.34667365318154342 -0.39629832909528578 0 0.34795812186604658 -0.38666189116531141 0 0.33705723519150399 -0.3961481952439429 0 0.34667365318154342 -0.39629832909528578 0 0.35566250251704978 -0.3975177511027051 0 0.34795812186604658 -0.38666189116531141 0 0.36755341006792419 -0.41442821452601158 0 0.35566250251704978 -0.3975177511027051 0 0.36706103815962848 -0.39187921332532882 0 0.36755341006792419 -0.41442821452601158 0 0.37463337818860382 -0.38930414459710588 0 0.36755341006792419 -0.41442821452601158 0 0.36706103815962848 -0.39187921332532882 0 0.37463337818860382 -0.38930414459710588 0 0.35566250251704978 -0.3975177511027051 0 0.36706103815962848 -0.39187921332532882 0 0.35924801608749379 -0.38543857686598643 0 0.38081427771294768 -0.36737052156009248 0 0.36848073339739068 -0.37517807712711049 0 0.3737028077843495 -0.38742295831448542 0 0.36848073339739068 -0.37517807712711049 0 0.3737028077843495 -0.38742295831448542 0 0.36599997940964812 -0.38379980358563692 0 0.36706103815962848 -0.39187921332532882 0 0.3737028077843495 -0.38742295831448542 0 0.36599997940964812 -0.38379980358563692 0 0.36706103815962848 -0.39187921332532882 0 0.37463337818860382 -0.38930414459710588 0 0.3737028077843495 -0.38742295831448542 0 0.37463337818860382 -0.38930414459710588 0 0.3737028077843495 -0.38742295831448542 0 0.36706103815962848 -0.39187921332532882 0 0.36599997940964812 -0.38379980358563692 0 0.35924801608749379 -0.38543857686598643 0 0.36599997940964812 -0.38379980358563692 0 0.36207090148421361 -0.37959838259465167 0 0.35924801608749379 -0.38543857686598643 0 0.36848073339739068 -0.37517807712711049 0 0.36599997940964812 -0.38379980358563692 0 0.36207090148421361 -0.37959838259465167 0 0.36848073339739068 -0.37517807712711049 0 0.36207090148421361 -0.37959838259465167 0 0.3554566368260581 -0.37480617727887811 0 0.36207090148421361 -0.37959838259465167 0 0.35924801608749379 -0.38543857686598643 0 0.3554566368260581 -0.37480617727887811 0 0.35924801608749379 -0.38543857686598643 0 0.34795812186604658 -0.38666189116531141 0 0.3554566368260581 -0.37480617727887811 0 0.35566250251704978 -0.3975177511027051 0 0.35924801608749379 -0.38543857686598643 0 0.34795812186604658 -0.38666189116531141 0 0.34795812186604658 -0.38666189116531141 0 0.34537995690420659 -0.3737828605913362 0 0.3554566368260581 -0.37480617727887811 0 0.34795812186604658 -0.38666189116531141 0 0.33323562740676532 -0.37769939737979058 0 0.34537995690420659 -0.3737828605913362 0 0.34795812186604658 -0.38666189116531141 0 0.33323562740676532 -0.37769939737979058 0 0.33705723519150399 -0.3961481952439429 0 0.33323562740676532 -0.37769939737979058 0 0.33705723519150399 -0.3961481952439429 0 0.319673984964159 -0.40346676889879052 0 0.33281994217864741 -0.40778505865636938 0 0.33705723519150399 -0.3961481952439429 0 0.319673984964159 -0.40346676889879052 0 0.33281994217864741 -0.40778505865636938 0 0.34601675315157321 -0.40486547886918423 0 0.33705723519150399 -0.3961481952439429 0 0.34601675315157321 -0.40486547886918423 0 0.34667365318154342 -0.39629832909528578 0 0.33705723519150399 -0.3961481952439429 0 0.33323562740676532 -0.37769939737979058 0 0.319673984964159 -0.40346676889879052 0 0.31422368515007948 -0.393427126581603 0 0.319673984964159 -0.40346676889879052 0 0.31422368515007948 -0.393427126581603 0 0.30884060304287331 -0.40229515593698711 0 0.33323562740676532 -0.37769939737979058 0 0.319673984964159 -0.40346676889879052 0 0.31422368515007948 -0.393427126581603 0 0.30591552541026101 -0.37751124227982003 0 0.32002671755222051 -0.36641101040373808 0 0.33323562740676532 -0.37769939737979058 0 0.31422368515007948 -0.393427126581603 0 0.32002671755222051 -0.36641101040373808 0 0.31422368515007948 -0.393427126581603 0 0.32002671755222051 -0.36641101040373808 0 0.30591552541026101 -0.37751124227982003 0 0.29934269892459558 -0.39453707190143028 0 0.28871394442674109 -0.38265385864092483 0 0.31422368515007948 -0.393427126581603 0 0.30591552541026101 -0.37751124227982003 0 0.29934269892459558 -0.39453707190143028 0 0.31422368515007948 -0.393427126581603 0 0.30884060304287331 -0.40229515593698711 0 0.29934269892459558 -0.39453707190143028 0 0.30884060304287331 -0.40229515593698711 0 0.29934269892459558 -0.39453707190143028 0 0.29896657827583012 -0.40866065312134409 0 0.28871394442674109 -0.38265385864092483 0 0.27786210523133942 -0.40981541802129928 0 0.29934269892459558 -0.39453707190143028 0 0.27786210523133942 -0.40981541802129928 0 0.29896657827583012 -0.40866065312134409 0 0.29934269892459558 -0.39453707190143028 0 0.28871394442674109 -0.38265385864092483 0 0.27786210523133942 -0.40981541802129928 0 0.28871394442674109 -0.38265385864092483 0 0.26416245427686541 -0.38049931320234009 0 0.26125098829365018 -0.39969694482297641 0 0.28871394442674109 -0.38265385864092483 0 0.26416245427686541 -0.38049931320234009 0 0.27571190406721402 -0.36345127203525351 0 0.26416245427686541 -0.38049931320234009 0 0.24971336314328341 -0.36520417674804972 0 0.24502858373403441 -0.39146921073642488 0 0.26416245427686541 -0.38049931320234009 0 0.26125098829365018 -0.39969694482297641 0 0.24502858373403441 -0.39146921073642488 0 0.28871394442674109 -0.38265385864092483 0 0.26125098829365018 -0.39969694482297641 0 0.27786210523133942 -0.40981541802129928 0 0.26125098829365018 -0.39969694482297641 0 0.25610826383841628 -0.42120346698794331 0 0.2333640889907381 -0.41241884790723538 0 0.26125098829365018 -0.39969694482297641 0 0.27786210523133942 -0.40981541802129928 0 0.25610826383841628 -0.42120346698794331 0 0.25610826383841628 -0.42120346698794331 0 0.26701026603593758 -0.43697697740167368 0 0.2518592606704963 -0.43815060111373921 0 0.27786210523133942 -0.40981541802129928 0 0.26701026603593758 -0.43697697740167368 0 0.28078102790119369 -0.4274552938509788 0 0.27786210523133942 -0.40981541802129928 0 0.26701026603593758 -0.43697697740167368 0 0.27786210523133942 -0.40981541802129928 0 0.25610826383841628 -0.42120346698794331 0 0.26701026603593758 -0.43697697740167368 0 0.26701026603593758 -0.43697697740167368 0 0.28078102790119369 -0.4274552938509788 0 0.27712236562531017 -0.4375193999175232 0 0.28078102790119369 -0.4274552938509788 0 0.28865243891263809 -0.43215364344327012 0 0.27712236562531017 -0.4375193999175232 0 0.28865243891263809 -0.43215364344327012 0 0.28959476197880307 -0.44168956347039928 0 0.27712236562531017 -0.4375193999175232 0 0.28865243891263809 -0.43215364344327012 0 0.29503220707493127 -0.43614369036708622 0 0.29829711678041942 -0.42866378264525379 0 0.28865243891263809 -0.43215364344327012 0 0.29503220707493127 -0.43614369036708622 0 0.28959476197880307 -0.44168956347039928 0 0.28865243891263809 -0.43215364344327012 0 0.29108715411517122 -0.42145013040837909 0 0.29829711678041942 -0.42866378264525379 0 0.28078102790119369 -0.4274552938509788 0 0.28865243891263809 -0.43215364344327012 0 0.29108715411517122 -0.42145013040837909 0 0.27786210523133942 -0.40981541802129928 0 0.28078102790119369 -0.4274552938509788 0 0.29108715411517122 -0.42145013040837909 0 0.27786210523133942 -0.40981541802129928 0 0.29108715411517122 -0.42145013040837909 0 0.29896657827583012 -0.40866065312134409 0 0.29108715411517122 -0.42145013040837909 0 0.30377653118007591 -0.4205559058691733 0 0.29896657827583012 -0.40866065312134409 0 0.30377653118007591 -0.4205559058691733 0 0.29896657827583012 -0.40866065312134409 0 0.31120060169272079 -0.4133373498197 0 0.30884060304287331 -0.40229515593698711 0 0.29896657827583012 -0.40866065312134409 0 0.31120060169272079 -0.4133373498197 0 0.30377653118007591 -0.4205559058691733 0 0.31120060169272079 -0.4133373498197 0 0.31239832226651099 -0.42629080716544471 0 0.30377653118007591 -0.4205559058691733 0 0.31239832226651099 -0.42629080716544471 0 0.29829711678041942 -0.42866378264525379 0 0.31239832226651099 -0.42629080716544471 0 0.30735360635596409 -0.43632211706289747 0 0.29829711678041942 -0.42866378264525379 0 0.29503220707493127 -0.43614369036708622 0 0.30735360635596409 -0.43632211706289747 0 0.29829711678041942 -0.42866378264525379 0 0.29108715411517122 -0.42145013040837909 0 0.30377653118007591 -0.4205559058691733 0 0.29829711678041942 -0.42866378264525379 0 0.32466779455878442 -0.44686584155561709 0 0.30904716904302271 -0.45792120175055678 0 0.29608989522947149 -0.44383809180054362 0 0.32466779455878442 -0.44686584155561709 0 0.29608989522947149 -0.44383809180054362 0 0.32466779455878442 -0.44686584155561709 0 0.30735360635596409 -0.43632211706289747 0 0.29608989522947149 -0.44383809180054362 0 0.30904716904302271 -0.45792120175055678 0 0.29860320416278402 -0.45529674645956592 0 0.29608989522947149 -0.44383809180054362 0 0.29503220707493127 -0.43614369036708622 0 0.30735360635596409 -0.43632211706289747 0 0.29608989522947149 -0.44383809180054362 0 0.30904716904302271 -0.45792120175055678 0 0.29721119201091789 -0.46522563712477349 0 0.30631021868456298 -0.48072311486568892 0 0.30904716904302271 -0.45792120175055678 0 0.29721119201091789 -0.46522563712477349 0 0.29860320416278402 -0.45529674645956592 0 0.28932919617959602 -0.45338424297023883 0 0.27756010650442758 -0.45518222858252849 0 0.28072062580449653 -0.47155582870540619 0 0.29721119201091789 -0.46522563712477349 0 0.28932919617959602 -0.45338424297023883 0 0.28072062580449653 -0.47155582870540619 0 0.29721119201091789 -0.46522563712477349 0 0.29860320416278402 -0.45529674645956592 0 0.28932919617959602 -0.45338424297023883 0 0.28932919617959602 -0.45338424297023883 0 0.28959476197880307 -0.44168956347039928 0 0.27756010650442758 -0.45518222858252849 0 0.29860320416278402 -0.45529674645956592 0 0.28932919617959602 -0.45338424297023883 0 0.29608989522947149 -0.44383809180054362 0 0.28932919617959602 -0.45338424297023883 0 0.29608989522947149 -0.44383809180054362 0 0.28959476197880307 -0.44168956347039928 0 0.29503220707493127 -0.43614369036708622 0 0.29608989522947149 -0.44383809180054362 0 0.28959476197880307 -0.44168956347039928 0 0.28959476197880307 -0.44168956347039928 0 0.26138620688844749 -0.44792543592233808 0 0.26701026603593758 -0.43697697740167368 0 0.27712236562531017 -0.4375193999175232 0 0.26138620688844749 -0.44792543592233808 0 0.28959476197880307 -0.44168956347039928 0 0.26138620688844749 -0.44792543592233808 0 0.27756010650442758 -0.45518222858252849 0 0.28959476197880307 -0.44168956347039928 0 0.27712236562531017 -0.4375193999175232 0 0.26138620688844749 -0.44792543592233808 0 0.26701026603593758 -0.43697697740167368 0 0.26138620688844749 -0.44792543592233808 0 0.2518592606704963 -0.43815060111373921 0 0.26138620688844749 -0.44792543592233808 0 0.26339579246569877 -0.46312143350125029 0 0.23317765179809191 -0.45416130837427687 0 0.26138620688844749 -0.44792543592233808 0 0.26339579246569877 -0.46312143350125029 0 0.27756010650442758 -0.45518222858252849 0 0.26339579246569877 -0.46312143350125029 0 0.27756010650442758 -0.45518222858252849 0 0.28072062580449653 -0.47155582870540619 0 0.28072062580449653 -0.47155582870540619 0 0.2532296876789632 -0.47497352743918242 0 0.27004646425256568 -0.5 0 0.26339579246569877 -0.46312143350125029 0 0.28072062580449653 -0.47155582870540619 0 0.2532296876789632 -0.47497352743918242 0 0.32546065004022617 -0.5 0 0.27004646425256568 -0.5 0 0.30631021868456298 -0.48072311486568892 0 0.28072062580449653 -0.47155582870540619 0 0.27004646425256568 -0.5 0 0.30631021868456298 -0.48072311486568892 0 0.29721119201091789 -0.46522563712477349 0 0.28072062580449653 -0.47155582870540619 0 0.30631021868456298 -0.48072311486568892 0 0.33743581475864359 -0.28536266187014298 0 0.3388307833371127 -0.27886836189579028 0 0.34706744656536048 -0.28007479224216619 0 0.33743581475864359 -0.28536266187014298 0 0.3388307833371127 -0.27886836189579028 0 0.33743581475864359 -0.28536266187014298 0 0.33163278235650262 -0.31237877804800812 0 0.33743581475864359 -0.28536266187014298 0 0.33163278235650262 -0.31237877804800812 0 0.34308905326158867 -0.30070827197480321 0 0.33743581475864359 -0.28536266187014298 0 0.33163278235650262 -0.31237877804800812 0 0.32364365619397351 -0.29600562892690968 0 0.33163278235650262 -0.31237877804800812 0 0.32364365619397351 -0.29600562892690968 0 0.30954970221622308 -0.30462347215273478 0 0.31296692944630888 -0.29314018565426941 0 0.32364365619397351 -0.29600562892690968 0 0.30954970221622308 -0.30462347215273478 0 0.31296692944630888 -0.29314018565426941 0 0.32364365619397351 -0.29600562892690968 0 0.31569414790308259 -0.28159305760617132 0 0.33743581475864359 -0.28536266187014298 0 0.32364365619397351 -0.29600562892690968 0 0.31569414790308259 -0.28159305760617132 0 0.33743581475864359 -0.28536266187014298 0 0.31569414790308259 -0.28159305760617132 0 0.33743581475864359 -0.28536266187014298 0 0.31569414790308259 -0.28159305760617132 0 0.32852563272885182 -0.27784073863383552 0 0.31569414790308259 -0.28159305760617132 0 0.31275786215232049 -0.27168837282467972 0 0.32066228436037369 -0.27402337931129878 0 0.31275786215232049 -0.27168837282467972 0 0.32001527731196461 -0.26686042829596718 0 0.31054181011664339 -0.26140137874582919 0 0.31275786215232049 -0.27168837282467972 0 0.32001527731196461 -0.26686042829596718 0 0.32066228436037369 -0.27402337931129878 0 0.32001527731196461 -0.26686042829596718 0 0.32631850170564902 -0.27213429919584042 0 0.32066228436037369 -0.27402337931129878 0 0.32001527731196461 -0.26686042829596718 0 0.32631850170564902 -0.27213429919584042 0 0.32861545200372733 -0.26431566092564712 0 0.32631850170564902 -0.27213429919584042 0 0.32066228436037369 -0.27402337931129878 0 0.32852563272885182 -0.27784073863383552 0 0.31569414790308259 -0.28159305760617132 0 0.32066228436037369 -0.27402337931129878 0 0.32852563272885182 -0.27784073863383552 0 0.30517917142926537 -0.24716040808135001 0 0.322544075342931 -0.25649048942400782 0 0.31054181011664339 -0.26140137874582919 0 0.32001527731196461 -0.26686042829596718 0 0.322544075342931 -0.25649048942400782 0 0.31054181011664339 -0.26140137874582919 0 0.32001527731196461 -0.26686042829596718 0 0.322544075342931 -0.25649048942400782 0 0.32861545200372733 -0.26431566092564712 0 0.322544075342931 -0.25649048942400782 0 0.32861545200372733 -0.26431566092564712 0 0.33700232267718733 -0.25494009872172468 0 0.32861545200372733 -0.26431566092564712 0 0.33700232267718733 -0.25494009872172468 0 0.3370936559567923 -0.26597622971595652 0 0.33700232267718733 -0.25494009872172468 0 0.3370936559567923 -0.26597622971595652 0 0.34612034525793539 -0.26165354425485998 0 0.32852563272885182 -0.27784073863383552 0 0.33374486488877292 -0.2728357791174113 0 0.3388307833371127 -0.27886836189579028 0 0.33743581475864359 -0.28536266187014298 0 0.32852563272885182 -0.27784073863383552 0 0.3388307833371127 -0.27886836189579028 0 0.32631850170564902 -0.27213429919584042 0 0.32852563272885182 -0.27784073863383552 0 0.33374486488877292 -0.2728357791174113 0 0.32631850170564902 -0.27213429919584042 0 0.32861545200372733 -0.26431566092564712 0 0.33374486488877292 -0.2728357791174113 0 0.32861545200372733 -0.26431566092564712 0 0.33374486488877292 -0.2728357791174113 0 0.3370936559567923 -0.26597622971595652 0 0.34349817463331772 -0.27223575233246988 0 0.3370936559567923 -0.26597622971595652 0 0.34612034525793539 -0.26165354425485998 0 0.33374486488877292 -0.2728357791174113 0 0.34349817463331772 -0.27223575233246988 0 0.3370936559567923 -0.26597622971595652 0 0.33374486488877292 -0.2728357791174113 0 0.34349817463331772 -0.27223575233246988 0 0.3388307833371127 -0.27886836189579028 0 0.34349817463331772 -0.27223575233246988 0 0.3388307833371127 -0.27886836189579028 0 0.34706744656536048 -0.28007479224216619 0 0.34349817463331772 -0.27223575233246988 0 0.34706744656536048 -0.28007479224216619 0 0.35711558672006172 -0.27354793744083078 0 0.34349817463331772 -0.27223575233246988 0 0.35711558672006172 -0.27354793744083078 0 0.34612034525793539 -0.26165354425485998 0 0.34706744656536048 -0.28007479224216619 0 0.35711558672006172 -0.27354793744083078 0 0.35357832102308678 -0.28816147489813743 0 0.35007299243335749 -0.24785688602667111 0 0.33700232267718733 -0.25494009872172468 0 0.34612034525793539 -0.26165354425485998 0 0.35711558672006172 -0.27354793744083078 0 0.34612034525793539 -0.26165354425485998 0 0.36124693131331159 -0.25807728632712912 0 0.35007299243335749 -0.24785688602667111 0 0.34612034525793539 -0.26165354425485998 0 0.36124693131331159 -0.25807728632712912 0 0.37764450162479901 -0.26965755496232408 0 0.37510228513818711 -0.25237727586059511 0 0.36124693131331159 -0.25807728632712912 0 0.36225179838031341 -0.2439392928582107 0 0.37510228513818711 -0.25237727586059511 0 0.36124693131331159 -0.25807728632712912 0 0.37764450162479901 -0.26965755496232408 0 0.35711558672006172 -0.27354793744083078 0 0.36124693131331159 -0.25807728632712912 0 0.37764450162479901 -0.26965755496232408 0 0.35711558672006172 -0.27354793744083078 0 0.36873774536035581 -0.28861226174546889 0 0.36873774536035581 -0.28861226174546889 0 0.35357832102308678 -0.28816147489813743 0 0.36087634202934032 -0.30211297570133377 0 0.35711558672006172 -0.27354793744083078 0 0.36873774536035581 -0.28861226174546889 0 0.35357832102308678 -0.28816147489813743 0 0.33743581475864359 -0.28536266187014298 0 0.35357832102308678 -0.28816147489813743 0 0.33743581475864359 -0.28536266187014298 0 0.34706744656536048 -0.28007479224216619 0 0.35357832102308678 -0.28816147489813743 0 0.33743581475864359 -0.28536266187014298 0 0.34308905326158867 -0.30070827197480321 0 0.35357832102308678 -0.28816147489813743 0 0.34308905326158867 -0.30070827197480321 0 0.36087634202934032 -0.30211297570133377 0 0.3603589122919777 -0.32616465434179109 0 0.34308905326158867 -0.30070827197480321 0 0.35357832102308678 -0.28816147489813743 0 0.36087634202934032 -0.30211297570133377 0 0.37861767820969228 -0.30691821554646831 0 0.36873774536035581 -0.28861226174546889 0 0.36087634202934032 -0.30211297570133377 0 0.37861767820969228 -0.30691821554646831 0 0.36087634202934032 -0.30211297570133377 0 0.3603589122919777 -0.32616465434179109 0 0.37858644206980091 -0.32769985780377792 0 0.37861767820969228 -0.30691821554646831 0 0.3603589122919777 -0.32616465434179109 0 0.37858644206980091 -0.32769985780377792 0 0.3603589122919777 -0.32616465434179109 0 0.36805061276354478 -0.3427907498460791 0 0.3603589122919777 -0.32616465434179109 0 0.34679726984937148 -0.35193202586079081 0 0.3603589122919777 -0.32616465434179109 0 0.34679726984937148 -0.35193202586079081 0 0.3423644242317993 -0.33453707324987059 0 0.3603589122919777 -0.32616465434179109 0 0.36805061276354478 -0.3427907498460791 0 0.34679726984937148 -0.35193202586079081 0 0.33163278235650262 -0.31237877804800812 0 0.34308905326158867 -0.30070827197480321 0 0.3603589122919777 -0.32616465434179109 0 0.33163278235650262 -0.31237877804800812 0 0.3603589122919777 -0.32616465434179109 0 0.3423644242317993 -0.33453707324987059 0 0.37640125955739012 -0.35149107478397351 0 0.38081427771294768 -0.36737052156009248 0 0.36600013168445039 -0.36059477107615401 0 0.36848073339739068 -0.37517807712711049 0 0.36600013168445039 -0.36059477107615401 0 0.3554566368260581 -0.37480617727887811 0 0.38081427771294768 -0.36737052156009248 0 0.36848073339739068 -0.37517807712711049 0 0.36600013168445039 -0.36059477107615401 0 0.36805061276354478 -0.3427907498460791 0 0.36600013168445039 -0.36059477107615401 0 0.34679726984937148 -0.35193202586079081 0 0.37640125955739012 -0.35149107478397351 0 0.36805061276354478 -0.3427907498460791 0 0.36600013168445039 -0.36059477107615401 0 0.36600013168445039 -0.36059477107615401 0 0.34679726984937148 -0.35193202586079081 0 0.3554566368260581 -0.37480617727887811 0 0.34679726984937148 -0.35193202586079081 0 0.34537995690420659 -0.3737828605913362 0 0.3554566368260581 -0.37480617727887811 0 0.33323562740676532 -0.37769939737979058 0 0.33171275220581908 -0.35441984147836231 0 0.32002671755222051 -0.36641101040373808 0 0.33323562740676532 -0.37769939737979058 0 0.34679726984937148 -0.35193202586079081 0 0.33323562740676532 -0.37769939737979058 0 0.34679726984937148 -0.35193202586079081 0 0.34537995690420659 -0.3737828605913362 0 0.33323562740676532 -0.37769939737979058 0 0.34679726984937148 -0.35193202586079081 0 0.33171275220581908 -0.35441984147836231 0 0.34679726984937148 -0.35193202586079081 0 0.33171275220581908 -0.35441984147836231 0 0.3423644242317993 -0.33453707324987059 0 0.33171275220581908 -0.35441984147836231 0 0.32002671755222051 -0.36641101040373808 0 0.32582974995436148 -0.33939489422587321 0 0.32002671755222051 -0.36641101040373808 0 0.32582974995436148 -0.33939489422587321 0 0.31500009593534162 -0.35119999692538878 0 0.32002671755222051 -0.36641101040373808 0 0.32582974995436148 -0.33939489422587321 0 0.33163278235650262 -0.31237877804800812 0 0.32582974995436148 -0.33939489422587321 0 0.33163278235650262 -0.31237877804800812 0 0.3423644242317993 -0.33453707324987059 0 0.32582974995436148 -0.33939489422587321 0 0.33171275220581908 -0.35441984147836231 0 0.3423644242317993 -0.33453707324987059 0 0.32582974995436148 -0.33939489422587321 0 0.31500009593534162 -0.35119999692538878 0 0.32582974995436148 -0.33939489422587321 0 0.31041762281754448 -0.32833073988017608 0 0.33163278235650262 -0.31237877804800812 0 0.32582974995436148 -0.33939489422587321 0 0.31041762281754448 -0.32833073988017608 0 0.33163278235650262 -0.31237877804800812 0 0.31041762281754448 -0.32833073988017608 0 0.30954970221622308 -0.30462347215273478 0 0.31041762281754448 -0.32833073988017608 0 0.29592063247569211 -0.31558436997640987 0 0.30954970221622308 -0.30462347215273478 0 0.31041762281754448 -0.32833073988017608 0 0.29132656616613523 -0.33188180257029998 0 0.29592063247569211 -0.31558436997640987 0 0.31041762281754448 -0.32833073988017608 0 0.29132656616613523 -0.33188180257029998 0 0.29956578362214281 -0.35549229926055048 0 0.31041762281754448 -0.32833073988017608 0 0.29956578362214281 -0.35549229926055048 0 0.29132656616613523 -0.33188180257029998 0 0.28219501787468609 -0.34702129220438421 0 0.27282035448602859 -0.33554085100614839 0 0.29132656616613523 -0.33188180257029998 0 0.29592063247569211 -0.31558436997640987 0 0.27986439667319313 -0.31630171845149863 0 0.29132656616613523 -0.33188180257029998 0 0.27986439667319313 -0.31630171845149863 0 0.27282035448602859 -0.33554085100614839 0 0.30591552541026101 -0.37751124227982003 0 0.28871394442674109 -0.38265385864092483 0 0.29956578362214281 -0.35549229926055048 0 0.30591552541026101 -0.37751124227982003 0 0.32002671755222051 -0.36641101040373808 0 0.29956578362214281 -0.35549229926055048 0 0.31500009593534162 -0.35119999692538878 0 0.32002671755222051 -0.36641101040373808 0 0.29956578362214281 -0.35549229926055048 0 0.31500009593534162 -0.35119999692538878 0 0.31041762281754448 -0.32833073988017608 0 0.29956578362214281 -0.35549229926055048 0 0.29956578362214281 -0.35549229926055048 0 0.28219501787468609 -0.34702129220438421 0 0.27571190406721402 -0.36345127203525351 0 0.29132656616613523 -0.33188180257029998 0 0.29956578362214281 -0.35549229926055048 0 0.28219501787468609 -0.34702129220438421 0 0.28871394442674109 -0.38265385864092483 0 0.29956578362214281 -0.35549229926055048 0 0.27571190406721402 -0.36345127203525351 0 0.28871394442674109 -0.38265385864092483 0 0.29956578362214281 -0.35549229926055048 0 0.28219501787468609 -0.34702129220438421 0 0.27571190406721402 -0.36345127203525351 0 0.2669677564247489 -0.35003134695070198 0 0.28219501787468609 -0.34702129220438421 0 0.2669677564247489 -0.35003134695070198 0 0.27282035448602859 -0.33554085100614839 0 0.2669677564247489 -0.35003134695070198 0 0.2543981425525324 -0.33893914275967452 0 0.24971336314328341 -0.36520417674804972 0 0.2543981425525324 -0.33893914275967452 0 0.24971336314328341 -0.36520417674804972 0 0.26416245427686541 -0.38049931320234009 0 0.27571190406721402 -0.36345127203525351 0 0.24971336314328341 -0.36520417674804972 0 0.27571190406721402 -0.36345127203525351 0 0.2669677564247489 -0.35003134695070198 0 0.24971336314328341 -0.36520417674804972 0 0.27986439667319313 -0.31630171845149863 0 0.27282035448602859 -0.33554085100614839 0 0.27986439667319313 -0.31630171845149863 0 0.27282035448602859 -0.33554085100614839 0 0.2590829219617814 -0.31267410877129931 0 0.2669677564247489 -0.35003134695070198 0 0.27282035448602859 -0.33554085100614839 0 0.2543981425525324 -0.33893914275967452 0 0.27282035448602859 -0.33554085100614839 0 0.2543981425525324 -0.33893914275967452 0 0.2590829219617814 -0.31267410877129931 0 0.2543981425525324 -0.33893914275967452 0 0.2590829219617814 -0.31267410877129931 0 0.24087195768162309 -0.32614810142562012 0 0.2543981425525324 -0.33893914275967452 0 0.2590829219617814 -0.31267410877129931 0 0.2590829219617814 -0.31267410877129931 0 0.26376770137103039 -0.2864090747829241 0 0.27385105082646688 -0.29718155094811333 0 0.2590829219617814 -0.31267410877129931 0 0.26376770137103039 -0.2864090747829241 0 0.24821325608307901 -0.29522124281265988 0 0.2590829219617814 -0.31267410877129931 0 0.26376770137103039 -0.2864090747829241 0 0.26376770137103039 -0.2864090747829241 0 0.24785603391849151 -0.27709942466880599 0 0.24821325608307901 -0.29522124281265988 0 0.26376770137103039 -0.2864090747829241 0 0.27275834958840189 -0.28372268528309152 0 0.2724225943816766 -0.27409056785933389 0 0.26376770137103039 -0.2864090747829241 0 0.27275834958840189 -0.28372268528309152 0 0.27385105082646688 -0.29718155094811333 0 0.28072449650403741 -0.28691913250301798 0 0.27385105082646688 -0.29718155094811333 0 0.2869084388603575 -0.29706258589684881 0 0.27275834958840189 -0.28372268528309152 0 0.28072449650403741 -0.28691913250301798 0 0.27385105082646688 -0.29718155094811333 0 0.27275834958840189 -0.28372268528309152 0 0.28072449650403741 -0.28691913250301798 0 0.27996448038040939 -0.28063895974691061 0 0.27986439667319313 -0.31630171845149863 0 0.2590829219617814 -0.31267410877129931 0 0.27385105082646688 -0.29718155094811333 0 0.27986439667319313 -0.31630171845149863 0 0.27385105082646688 -0.29718155094811333 0 0.2869084388603575 -0.29706258589684881 0 0.27986439667319313 -0.31630171845149863 0 0.2869084388603575 -0.29706258589684881 0 0.29592063247569211 -0.31558436997640987 0 0.27986439667319313 -0.31630171845149863 0 0.2869084388603575 -0.29706258589684881 0 0.2869084388603575 -0.29706258589684881 0 0.30298021147195658 -0.29033858393126172 0 0.29395248104752192 -0.27782345334219888 0 0.28072449650403741 -0.28691913250301798 0 0.2869084388603575 -0.29706258589684881 0 0.29395248104752192 -0.27782345334219888 0 0.2869084388603575 -0.29706258589684881 0 0.29395248104752192 -0.27782345334219888 0 0.28072449650403741 -0.28691913250301798 0 0.29395248104752192 -0.27782345334219888 0 0.27996448038040939 -0.28063895974691061 0 0.31569414790308259 -0.28159305760617132 0 0.30298021147195658 -0.29033858393126172 0 0.29395248104752192 -0.27782345334219888 0 0.31296692944630888 -0.29314018565426941 0 0.31569414790308259 -0.28159305760617132 0 0.30298021147195658 -0.29033858393126172 0 0.31296692944630888 -0.29314018565426941 0 0.30298021147195658 -0.29033858393126172 0 0.30954970221622308 -0.30462347215273478 0 0.2869084388603575 -0.29706258589684881 0 0.30298021147195658 -0.29033858393126172 0 0.30954970221622308 -0.30462347215273478 0 0.29592063247569211 -0.31558436997640987 0 0.2869084388603575 -0.29706258589684881 0 0.30954970221622308 -0.30462347215273478 0 0.30517917142926537 -0.24716040808135001 0 0.31054181011664339 -0.26140137874582919 0 0.2976408850071105 -0.26774945168120262 0 0.30517917142926537 -0.24716040808135001 0 0.2976408850071105 -0.26774945168120262 0 0.31275786215232049 -0.27168837282467972 0 0.2976408850071105 -0.26774945168120262 0 0.29395248104752192 -0.27782345334219888 0 0.31275786215232049 -0.27168837282467972 0 0.2976408850071105 -0.26774945168120262 0 0.31275786215232049 -0.27168837282467972 0 0.31054181011664339 -0.26140137874582919 0 0.2976408850071105 -0.26774945168120262 0 0.31569414790308259 -0.28159305760617132 0 0.29395248104752192 -0.27782345334219888 0 0.31569414790308259 -0.28159305760617132 0 0.31275786215232049 -0.27168837282467972 0 0.29395248104752192 -0.27782345334219888 0 0.2976408850071105 -0.26774945168120262 0 0.28600938745522969 -0.26471871668720698 0 0.2976408850071105 -0.26774945168120262 0 0.29395248104752192 -0.27782345334219888 0 0.29395248104752192 -0.27782345334219888 0 0.27996448038040939 -0.28063895974691061 0 0.2724225943816766 -0.27409056785933389 0 0.29395248104752192 -0.27782345334219888 0 0.28600938745522969 -0.26471871668720698 0 0.27658132089261911 -0.27335422882897692 0 0.2976408850071105 -0.26774945168120262 0 0.29395248104752192 -0.27782345334219888 0 0.28600938745522969 -0.26471871668720698 0 0.29395248104752192 -0.27782345334219888 0 0.2724225943816766 -0.27409056785933389 0 0.28600938745522969 -0.26471871668720698 0 0.27658132089261911 -0.27335422882897692 0 0.30517917142926537 -0.24716040808135001 0 0.28600938745522969 -0.26471871668720698 0 0.30517917142926537 -0.24716040808135001 0 0.2976408850071105 -0.26774945168120262 0 0.28600938745522969 -0.26471871668720698 0 0.30517917142926537 -0.24716040808135001 0 0.28765229627979871 -0.24304032400626949 0 0.28600938745522969 -0.26471871668720698 0 0.28600938745522969 -0.26471871668720698 0 0.26845248078028039 -0.26014404079454911 0 0.28765229627979871 -0.24304032400626949 0 0.28600938745522969 -0.26471871668720698 0 0.26845248078028039 -0.26014404079454911 0 0.26376770137103039 -0.2864090747829241 0 0.26845248078028039 -0.26014404079454911 0 0.2724225943816766 -0.27409056785933389 0 0.28600938745522969 -0.26471871668720698 0 0.26845248078028039 -0.26014404079454911 0 0.27658132089261911 -0.27335422882897692 0 0.26376770137103039 -0.2864090747829241 0 0.26845248078028039 -0.26014404079454911 0 0.29395248104752192 -0.27782345334219888 0 0.27658132089261911 -0.27335422882897692 0 0.2724225943816766 -0.27409056785933389 0 0.27275834958840189 -0.28372268528309152 0 0.27996448038040939 -0.28063895974691061 0 0.2724225943816766 -0.27409056785933389 0 0.26845248078028039 -0.26014404079454911 0 0.27658132089261911 -0.27335422882897692 0 0.2724225943816766 -0.27409056785933389 0 0.26376770137103039 -0.2864090747829241 0 0.26845248078028039 -0.26014404079454911 0 0.24785603391849151 -0.27709942466880599 0 0.26845248078028039 -0.26014404079454911 0 0.2410490216361528 -0.25300372010805161 0 0.26845248078028039 -0.26014404079454911 0 0.2410490216361528 -0.25300372010805161 0 0.24785603391849151 -0.27709942466880599 0 0.25787859859726192 -0.24372773219337371 0 0.26845248078028039 -0.26014404079454911 0 0.2410490216361528 -0.25300372010805161 0 0.2410490216361528 -0.25300372010805161 0 0.24785603391849151 -0.27709942466880599 0 0.23139485578507429 -0.27647983237136509 0 0.23139485578507429 -0.27647983237136509 0 0.2171028506536257 -0.26700629366950379 0 0.21674952071488601 -0.28686299221921707 0 0.2410490216361528 -0.25300372010805161 0 0.23139485578507429 -0.27647983237136509 0 0.2171028506536257 -0.26700629366950379 0 0.2410490216361528 -0.25300372010805161 0 0.2171028506536257 -0.26700629366950379 0 0.2136455624920251 -0.24586339942155419 0 0.2171028506536257 -0.26700629366950379 0 0.1960217485778272 -0.26205501631648559 0 0.2136455624920251 -0.24586339942155419 0 0.2171028506536257 -0.26700629366950379 0 0.2037572178097509 -0.27803645254629672 0 0.1960217485778272 -0.26205501631648559 0 0.2171028506536257 -0.26700629366950379 0 0.2037572178097509 -0.27803645254629672 0 0.21674952071488601 -0.28686299221921707 0 0.2037572178097509 -0.27803645254629672 0 0.1960217485778272 -0.26205501631648559 0 0.18672217274589489 -0.28463667424064248 0 0.1960217485778272 -0.26205501631648559 0 0.2136455624920251 -0.24586339942155419 0 0.1970165427207646 -0.2431475676051908 0 0.1960217485778272 -0.26205501631648559 0 0.1970165427207646 -0.2431475676051908 0 0.18013525364959199 -0.24590787480667409 0 0.19163287831415901 -0.30538761534618902 0 0.20219697373587131 -0.29192032270869461 0 0.2153952098199983 -0.30425933719731207 0 0.2037572178097509 -0.27803645254629672 0 0.20219697373587131 -0.29192032270869461 0 0.18672217274589489 -0.28463667424064248 0 0.19163287831415901 -0.30538761534618902 0 0.20219697373587131 -0.29192032270869461 0 0.18672217274589489 -0.28463667424064248 0 0.20219697373587131 -0.29192032270869461 0 0.21674952071488601 -0.28686299221921707 0 0.2153952098199983 -0.30425933719731207 0 0.2037572178097509 -0.27803645254629672 0 0.20219697373587131 -0.29192032270869461 0 0.21674952071488601 -0.28686299221921707 0 0.19163287831415901 -0.30538761534618902 0 0.2153952098199983 -0.30425933719731207 0 0.20381788977078771 -0.32236963909420019 0 0.2153952098199983 -0.30425933719731207 0 0.2333373149176502 -0.29099433783704243 0 0.2370223082464416 -0.30892926800322767 0 0.2153952098199983 -0.30425933719731207 0 0.2370223082464416 -0.30892926800322767 0 0.22300958304019269 -0.32335118517261402 0 0.21674952071488601 -0.28686299221921707 0 0.2153952098199983 -0.30425933719731207 0 0.2333373149176502 -0.29099433783704243 0 0.23139485578507429 -0.27647983237136509 0 0.21674952071488601 -0.28686299221921707 0 0.2333373149176502 -0.29099433783704243 0 0.24785603391849151 -0.27709942466880599 0 0.2333373149176502 -0.29099433783704243 0 0.24821325608307901 -0.29522124281265988 0 0.24785603391849151 -0.27709942466880599 0 0.23139485578507429 -0.27647983237136509 0 0.2333373149176502 -0.29099433783704243 0 0.2333373149176502 -0.29099433783704243 0 0.24821325608307901 -0.29522124281265988 0 0.2370223082464416 -0.30892926800322767 0 0.2590829219617814 -0.31267410877129931 0 0.24821325608307901 -0.29522124281265988 0 0.2370223082464416 -0.30892926800322767 0 0.2590829219617814 -0.31267410877129931 0 0.2370223082464416 -0.30892926800322767 0 0.24087195768162309 -0.32614810142562012 0 0.2543981425525324 -0.33893914275967452 0 0.24087195768162309 -0.32614810142562012 0 0.2308468326071676 -0.34684680242128502 0 0.24087195768162309 -0.32614810142562012 0 0.22300958304019269 -0.32335118517261402 0 0.2308468326071676 -0.34684680242128502 0 0.22300958304019269 -0.32335118517261402 0 0.2308468326071676 -0.34684680242128502 0 0.21275128108028149 -0.33749920242868869 0 0.2370223082464416 -0.30892926800322767 0 0.24087195768162309 -0.32614810142562012 0 0.22300958304019269 -0.32335118517261402 0 0.24971336314328341 -0.36520417674804972 0 0.2308468326071676 -0.34684680242128502 0 0.229200177642885 -0.36995291413531828 0 0.2543981425525324 -0.33893914275967452 0 0.24971336314328341 -0.36520417674804972 0 0.2308468326071676 -0.34684680242128502 0 0.229200177642885 -0.36995291413531828 0 0.20725651587090471 -0.36571099534901208 0 0.22031030243082139 -0.38906492162812378 0 0.2308468326071676 -0.34684680242128502 0 0.229200177642885 -0.36995291413531828 0 0.20725651587090471 -0.36571099534901208 0 0.2308468326071676 -0.34684680242128502 0 0.20725651587090471 -0.36571099534901208 0 0.21275128108028149 -0.33749920242868869 0 0.20725651587090471 -0.36571099534901208 0 0.21275128108028149 -0.33749920242868869 0 0.194202729310988 -0.34235706906990038 0 0.20725651587090471 -0.36571099534901208 0 0.194202729310988 -0.34235706906990038 0 0.180238718969634 -0.3612454971324468 0 0.20725651587090471 -0.36571099534901208 0 0.194202729310988 -0.34235706906990038 0 0.20725651587090471 -0.36571099534901208 0 0.19261827162763251 -0.374541644607297 0 0.180238718969634 -0.3612454971324468 0 0.22300958304019269 -0.32335118517261402 0 0.20381788977078771 -0.32236963909420019 0 0.21275128108028149 -0.33749920242868869 0 0.2153952098199983 -0.30425933719731207 0 0.22300958304019269 -0.32335118517261402 0 0.20381788977078771 -0.32236963909420019 0 0.20381788977078771 -0.32236963909420019 0 0.21275128108028149 -0.33749920242868869 0 0.194202729310988 -0.34235706906990038 0 0.20381788977078771 -0.32236963909420019 0 0.194202729310988 -0.34235706906990038 0 0.18384400034678741 -0.32250280289756078 0 0.19163287831415901 -0.30538761534618902 0 0.20381788977078771 -0.32236963909420019 0 0.18384400034678741 -0.32250280289756078 0 0.18384400034678741 -0.32250280289756078 0 0.17702055828029431 -0.33666004199980942 0 0.15719449589681389 -0.32866913917705798 0 0.194202729310988 -0.34235706906990038 0 0.18384400034678741 -0.32250280289756078 0 0.17702055828029431 -0.33666004199980942 0 0.15719449589681389 -0.32866913917705798 0 0.16581699513551909 -0.35306125248096398 0 0.17702055828029431 -0.33666004199980942 0 0.15719449589681389 -0.32866913917705798 0 0.16581699513551909 -0.35306125248096398 0 0.18384400034678741 -0.32250280289756078 0 0.15719449589681389 -0.32866913917705798 0 0.17186855286937899 -0.30453082832045192 0 0.180238718969634 -0.3612454971324468 0 0.1834568796589737 -0.38583095226508418 0 0.17443949437422429 -0.37745336578486988 0 0.180238718969634 -0.3612454971324468 0 0.16581699513551909 -0.35306125248096398 0 0.17443949437422429 -0.37745336578486988 0 0.180238718969634 -0.3612454971324468 0 0.1834568796589737 -0.38583095226508418 0 0.19261827162763251 -0.374541644607297 0 0.180238718969634 -0.3612454971324468 0 0.1834568796589737 -0.38583095226508418 0 0.17702055828029431 -0.33666004199980942 0 0.180238718969634 -0.3612454971324468 0 0.16581699513551909 -0.35306125248096398 0 0.17702055828029431 -0.33666004199980942 0 0.180238718969634 -0.3612454971324468 0 0.194202729310988 -0.34235706906990038 0 0.17702055828029431 -0.33666004199980942 0 0.180238718969634 -0.3612454971324468 0 0.16581699513551909 -0.35306125248096398 0 0.1602354860011011 -0.36875954027416918 0 0.14952990885070691 -0.36034775620209553 0 0.16581699513551909 -0.35306125248096398 0 0.17443949437422429 -0.37745336578486988 0 0.16581699513551909 -0.35306125248096398 0 0.1602354860011011 -0.36875954027416918 0 0.17443949437422429 -0.37745336578486988 0 0.1602354860011011 -0.36875954027416918 0 0.14673951295096799 -0.37363029079717242 0 0.14952990885070691 -0.36034775620209553 0 0.16581699513551909 -0.35306125248096398 0 0.14952990885070691 -0.36034775620209553 0 0.144826286403443 -0.34676284914488159 0 0.14952990885070691 -0.36034775620209553 0 0.144826286403443 -0.34676284914488159 0 0.12334710111447229 -0.36406834251145731 0 0.144826286403443 -0.34676284914488159 0 0.12334710111447229 -0.36406834251145731 0 0.144826286403443 -0.34676284914488159 0 0.12334710111447229 -0.36406834251145731 0 0.11573058637367541 -0.34380091622275832 0 0.13273239812562251 -0.3803535413873157 0 0.1208593498238435 -0.38006314209191833 0 0.12334710111447229 -0.36406834251145731 0 0.14673951295096799 -0.37363029079717242 0 0.14952990885070691 -0.36034775620209553 0 0.12334710111447229 -0.36406834251145731 0 0.14673951295096799 -0.37363029079717242 0 0.13273239812562251 -0.3803535413873157 0 0.12334710111447229 -0.36406834251145731 0 0.15719449589681389 -0.32866913917705798 0 0.13978194378111039 -0.33004063130878142 0 0.14857199665810869 -0.30427702587315197 0 0.15719449589681389 -0.32866913917705798 0 0.14857199665810869 -0.30427702587315197 0 0.15719449589681389 -0.32866913917705798 0 0.144826286403443 -0.34676284914488159 0 0.13978194378111039 -0.33004063130878142 0 0.15719449589681389 -0.32866913917705798 0 0.16581699513551909 -0.35306125248096398 0 0.144826286403443 -0.34676284914488159 0 0.13978194378111039 -0.33004063130878142 0 0.1249111379911398 -0.32186001205002218 0 0.11573058637367541 -0.34380091622275832 0 0.144826286403443 -0.34676284914488159 0 0.13978194378111039 -0.33004063130878142 0 0.11573058637367541 -0.34380091622275832 0 0.13978194378111039 -0.33004063130878142 0 0.14857199665810869 -0.30427702587315197 0 0.1249111379911398 -0.32186001205002218 0 0.14857199665810869 -0.30427702587315197 0 0.13584279120622419 -0.29064916595208462 0 0.1212075847983899 -0.30357596212866123 0 0.14857199665810869 -0.30427702587315197 0 0.1212075847983899 -0.30357596212866123 0 0.1249111379911398 -0.32186001205002218 0 0.14857199665810869 -0.30427702587315197 0 0.14941647374314521 -0.28066083506566319 0 0.1659314811884508 -0.28303851802095531 0 0.14857199665810869 -0.30427702587315197 0 0.13584279120622419 -0.29064916595208462 0 0.14941647374314521 -0.28066083506566319 0 0.13554841089854469 -0.28148943716570812 0 0.13584279120622419 -0.29064916595208462 0 0.14941647374314521 -0.28066083506566319 0 0.13554841089854469 -0.28148943716570812 0 0.13584279120622419 -0.29064916595208462 0 0.1176113560141319 -0.2851589593963586 0 0.1376178273856396 -0.2676878026278281 0 0.13932302263067731 -0.26948878824872591 0 0.1176113560141319 -0.2851589593963586 0 0.13554841089854469 -0.28148943716570812 0 0.13932302263067731 -0.26948878824872591 0 0.1176113560141319 -0.2851589593963586 0 0.13932302263067731 -0.26948878824872591 0 0.1176113560141319 -0.2851589593963586 0 0.1376178273856396 -0.2676878026278281 0 0.1200034520355143 -0.24749468667538321 0 0.1376178273856396 -0.2676878026278281 0 0.1200034520355143 -0.24749468667538321 0 0.1412434604122122 -0.24631040783256791 0 0.1376178273856396 -0.2676878026278281 0 0.16103468924722281 -0.25381861710109321 0 0.1412434604122122 -0.24631040783256791 0 0.1376178273856396 -0.2676878026278281 0 0.13932302263067731 -0.26948878824872591 0 0.16103468924722281 -0.25381861710109321 0 0.13932302263067731 -0.26948878824872591 0 0.16103468924722281 -0.25381861710109321 0 0.13932302263067731 -0.26948878824872591 0 0.14941647374314521 -0.28066083506566319 0 0.16103468924722281 -0.25381861710109321 0 0.13554841089854469 -0.28148943716570812 0 0.13932302263067731 -0.26948878824872591 0 0.14941647374314521 -0.28066083506566319 0 0.14941647374314521 -0.28066083506566319 0 0.16103468924722281 -0.25381861710109321 0 0.1659314811884508 -0.28303851802095531 0 0.16103468924722281 -0.25381861710109321 0 0.1779690690817976 -0.26589134009717008 0 0.1659314811884508 -0.28303851802095531 0 0.16103468924722281 -0.25381861710109321 0 0.1779690690817976 -0.26589134009717008 0 0.18013525364959199 -0.24590787480667409 0 0.1960217485778272 -0.26205501631648559 0 0.1779690690817976 -0.26589134009717008 0 0.18013525364959199 -0.24590787480667409 0 0.1960217485778272 -0.26205501631648559 0 0.1779690690817976 -0.26589134009717008 0 0.18672217274589489 -0.28463667424064248 0 0.1779690690817976 -0.26589134009717008 0 0.18672217274589489 -0.28463667424064248 0 0.1659314811884508 -0.28303851802095531 0 0.18672217274589489 -0.28463667424064248 0 0.17186855286937899 -0.30453082832045192 0 0.1659314811884508 -0.28303851802095531 0 0.19163287831415901 -0.30538761534618902 0 0.18384400034678741 -0.32250280289756078 0 0.17186855286937899 -0.30453082832045192 0 0.19163287831415901 -0.30538761534618902 0 0.18672217274589489 -0.28463667424064248 0 0.17186855286937899 -0.30453082832045192 0 0.14857199665810869 -0.30427702587315197 0 0.17186855286937899 -0.30453082832045192 0 0.1659314811884508 -0.28303851802095531 0 0.15719449589681389 -0.32866913917705798 0 0.14857199665810869 -0.30427702587315197 0 0.17186855286937899 -0.30453082832045192 0 0.27004646425256568 -0.5 0 0.19840125792562099 -0.499999999999995 0 0.2258071254777905 -0.47806137695806639 0 0.19840125792562099 -0.499999999999995 0 0.1955652389629654 -0.47833395417678298 0 0.19840125792562099 -0.499999999999995 0 0.1955652389629654 -0.47833395417678298 0 0.1857239970351309 -0.48926605560099218 0 0.1955652389629654 -0.47833395417678298 0 0.2258071254777905 -0.47806137695806639 0 0.20496909670773639 -0.46039718082621561 0 0.19840125792562099 -0.499999999999995 0 0.1955652389629654 -0.47833395417678298 0 0.2258071254777905 -0.47806137695806639 0 0.2532296876789632 -0.47497352743918242 0 0.27004646425256568 -0.5 0 0.2258071254777905 -0.47806137695806639 0 0.2532296876789632 -0.47497352743918242 0 0.2258071254777905 -0.47806137695806639 0 0.23317765179809191 -0.45416130837427687 0 0.2258071254777905 -0.47806137695806639 0 0.23317765179809191 -0.45416130837427687 0 0.20496909670773639 -0.46039718082621561 0 0.23317765179809191 -0.45416130837427687 0 0.20496909670773639 -0.46039718082621561 0 0.26339579246569877 -0.46312143350125029 0 0.2532296876789632 -0.47497352743918242 0 0.23317765179809191 -0.45416130837427687 0 0.26138620688844749 -0.44792543592233808 0 0.2518592606704963 -0.43815060111373921 0 0.23317765179809191 -0.45416130837427687 0 0.26138620688844749 -0.44792543592233808 0 0.23317765179809191 -0.45416130837427687 0 0.2518592606704963 -0.43815060111373921 0 0.23317765179809191 -0.45416130837427687 0 0.24161391479158839 -0.43048581688246368 0 0.23317765179809191 -0.45416130837427687 0 0.21274467024756119 -0.44537306322652892 0 0.22596778666418391 -0.43195218695593612 0 0.23317765179809191 -0.45416130837427687 0 0.22596778666418391 -0.43195218695593612 0 0.24161391479158839 -0.43048581688246368 0 0.20738663592967541 -0.43977689630152639 0 0.21274467024756119 -0.44537306322652892 0 0.21231789143938981 -0.43260924517595267 0 0.20738663592967541 -0.43977689630152639 0 0.20306963394956029 -0.44528763306514119 0 0.2014143480821905 -0.43583764373848299 0 0.20738663592967541 -0.43977689630152639 0 0.21274467024756119 -0.44537306322652892 0 0.20306963394956029 -0.44528763306514119 0 0.21274467024756119 -0.44537306322652892 0 0.20306963394956029 -0.44528763306514119 0 0.20202636709778779 -0.45196992376671852 0 0.21274467024756119 -0.44537306322652892 0 0.20496909670773639 -0.46039718082621561 0 0.20202636709778779 -0.45196992376671852 0 0.23317765179809191 -0.45416130837427687 0 0.21274467024756119 -0.44537306322652892 0 0.20496909670773639 -0.46039718082621561 0 0.1955652389629654 -0.47833395417678298 0 0.20496909670773639 -0.46039718082621561 0 0.1927292200003092 -0.45666790835357102 0 0.1955652389629654 -0.47833395417678298 0 0.1927292200003092 -0.45666790835357102 0 0.1955652389629654 -0.47833395417678298 0 0.19047701204926121 -0.46094242075341862 0 0.1927292200003092 -0.45666790835357102 0 0.20496909670773639 -0.46039718082621561 0 0.1927292200003092 -0.45666790835357102 0 0.20202636709778779 -0.45196992376671852 0 0.19047701204926121 -0.46094242075341862 0 0.1927292200003092 -0.45666790835357102 0 0.1876592352144193 -0.45673372923780892 0 0.1927292200003092 -0.45666790835357102 0 0.1876592352144193 -0.45673372923780892 0 0.18777566972406101 -0.44981142861604279 0 0.1927292200003092 -0.45666790835357102 0 0.19595067699787469 -0.4453334870477933 0 0.18989320103765239 -0.43500186253035911 0 0.1927292200003092 -0.45666790835357102 0 0.18989320103765239 -0.43500186253035911 0 0.1927292200003092 -0.45666790835357102 0 0.18777566972406101 -0.44981142861604279 0 0.18989320103765239 -0.43500186253035911 0 0.19521760998379711 -0.43854214036159178 0 0.19595067699787469 -0.4453334870477933 0 0.1916906899727929 -0.43609695451772118 0 0.19595067699787469 -0.4453334870477933 0 0.1916906899727929 -0.43609695451772118 0 0.18989320103765239 -0.43500186253035911 0 0.19521760998379711 -0.43854214036159178 0 0.19821003569121751 -0.44088076654097252 0 0.19595067699787469 -0.4453334870477933 0 0.19821003569121751 -0.44088076654097252 0 0.20306963394956029 -0.44528763306514119 0 0.19595067699787469 -0.4453334870477933 0 0.19821003569121751 -0.44088076654097252 0 0.20306963394956029 -0.44528763306514119 0 0.2014143480821905 -0.43583764373848299 0 0.19521760998379711 -0.43854214036159178 0 0.19821003569121751 -0.44088076654097252 0 0.19632921389935129 -0.43529695882979857 0 0.20306963394956029 -0.44528763306514119 0 0.20202636709778779 -0.45196992376671852 0 0.19595067699787469 -0.4453334870477933 0 0.1927292200003092 -0.45666790835357102 0 0.20202636709778779 -0.45196992376671852 0 0.19595067699787469 -0.4453334870477933 0 0.18989320103765239 -0.43500186253035911 0 0.193210065479164 -0.42351508711829272 0 0.18667504034831339 -0.41041640739772162 0 0.18989320103765239 -0.43500186253035911 0 0.18667504034831339 -0.41041640739772162 0 0.1973860855611401 -0.42692030526330021 0 0.193210065479164 -0.42351508711829272 0 0.19846083006015189 -0.42045811652912207 0 0.1973860855611401 -0.42692030526330021 0 0.19846083006015189 -0.42045811652912207 0 0.20326441538295181 -0.42746054266679712 0 0.1973860855611401 -0.42692030526330021 0 0.19826447490927249 -0.43151164360587502 0 0.20326441538295181 -0.42746054266679712 0 0.2014143480821905 -0.43583764373848299 0 0.19826447490927249 -0.43151164360587502 0 0.20326441538295181 -0.42746054266679712 0 0.19821003569121751 -0.44088076654097252 0 0.2014143480821905 -0.43583764373848299 0 0.19632921389935129 -0.43529695882979857 0 0.2014143480821905 -0.43583764373848299 0 0.19632921389935129 -0.43529695882979857 0 0.19826447490927249 -0.43151164360587502 0 0.19632921389935129 -0.43529695882979857 0 0.19826447490927249 -0.43151164360587502 0 0.1929283116207289 -0.43204276753099607 0 0.1973860855611401 -0.42692030526330021 0 0.19826447490927249 -0.43151164360587502 0 0.1929283116207289 -0.43204276753099607 0 0.1929283116207289 -0.43204276753099607 0 0.18989320103765239 -0.43500186253035911 0 0.193210065479164 -0.42351508711829272 0 0.19521760998379711 -0.43854214036159178 0 0.19632921389935129 -0.43529695882979857 0 0.19377820557052011 -0.43520734882518619 0 0.19521760998379711 -0.43854214036159178 0 0.19377820557052011 -0.43520734882518619 0 0.1916906899727929 -0.43609695451772118 0 0.19632921389935129 -0.43529695882979857 0 0.1929283116207289 -0.43204276753099607 0 0.19377820557052011 -0.43520734882518619 0 0.1929283116207289 -0.43204276753099607 0 0.19210490899723079 -0.4345610298626873 0 0.18989320103765239 -0.43500186253035911 0 0.19377820557052011 -0.43520734882518619 0 0.19210490899723079 -0.4345610298626873 0 0.1916906899727929 -0.43609695451772118 0 0.1929283116207289 -0.43204276753099607 0 0.19377820557052011 -0.43520734882518619 0 0.19210490899723079 -0.4345610298626873 0 0.1916906899727929 -0.43609695451772118 0 0.18989320103765239 -0.43500186253035911 0 0.19210490899723079 -0.4345610298626873 0 0.1916906899727929 -0.43609695451772118 0 0.18989320103765239 -0.43500186253035911 0 0.1973860855611401 -0.42692030526330021 0 0.1929283116207289 -0.43204276753099607 0 0.193210065479164 -0.42351508711829272 0 0.193210065479164 -0.42351508711829272 0 0.1939169242469973 -0.41625106345825691 0 0.18667504034831339 -0.41041640739772162 0 0.193210065479164 -0.42351508711829272 0 0.1939169242469973 -0.41625106345825691 0 0.19846083006015189 -0.42045811652912207 0 0.1968341740193896 -0.41150644481021997 0 0.19418069224578771 -0.40518464808912641 0 0.18667504034831339 -0.41041640739772162 0 0.1939169242469973 -0.41625106345825691 0 0.1968341740193896 -0.41150644481021997 0 0.18667504034831339 -0.41041640739772162 0 0.1968341740193896 -0.41150644481021997 0 0.20469814770209749 -0.41520386531910081 0 0.20485234226760879 -0.40188257102108682 0 0.19846083006015189 -0.42045811652912207 0 0.20469814770209749 -0.41520386531910081 0 0.20326441538295181 -0.42746054266679712 0 0.1939169242469973 -0.41625106345825691 0 0.1968341740193896 -0.41150644481021997 0 0.19846083006015189 -0.42045811652912207 0 0.1968341740193896 -0.41150644481021997 0 0.19846083006015189 -0.42045811652912207 0 0.20469814770209749 -0.41520386531910081 0 0.20469814770209749 -0.41520386531910081 0 0.21626227209603979 -0.41615869782113413 0 0.20326441538295181 -0.42746054266679712 0 0.20469814770209749 -0.41520386531910081 0 0.21626227209603979 -0.41615869782113413 0 0.20485234226760879 -0.40188257102108682 0 0.21626227209603979 -0.41615869782113413 0 0.20326441538295181 -0.42746054266679712 0 0.21231789143938981 -0.43260924517595267 0 0.21626227209603979 -0.41615869782113413 0 0.21231789143938981 -0.43260924517595267 0 0.22596778666418391 -0.43195218695593612 0 0.20738663592967541 -0.43977689630152639 0 0.2014143480821905 -0.43583764373848299 0 0.21231789143938981 -0.43260924517595267 0 0.2014143480821905 -0.43583764373848299 0 0.20326441538295181 -0.42746054266679712 0 0.21231789143938981 -0.43260924517595267 0 0.21274467024756119 -0.44537306322652892 0 0.21231789143938981 -0.43260924517595267 0 0.22596778666418391 -0.43195218695593612 0 0.22596778666418391 -0.43195218695593612 0 0.24161391479158839 -0.43048581688246368 0 0.2333640889907381 -0.41241884790723538 0 0.25610826383841628 -0.42120346698794331 0 0.2518592606704963 -0.43815060111373921 0 0.24161391479158839 -0.43048581688246368 0 0.25610826383841628 -0.42120346698794331 0 0.24161391479158839 -0.43048581688246368 0 0.2333640889907381 -0.41241884790723538 0 0.21626227209603979 -0.41615869782113413 0 0.22596778666418391 -0.43195218695593612 0 0.2333640889907381 -0.41241884790723538 0 0.2333640889907381 -0.41241884790723538 0 0.24502858373403441 -0.39146921073642488 0 0.22031030243082139 -0.38906492162812378 0 0.21626227209603979 -0.41615869782113413 0 0.2333640889907381 -0.41241884790723538 0 0.22031030243082139 -0.38906492162812378 0 0.2333640889907381 -0.41241884790723538 0 0.22031030243082139 -0.38906492162812378 0 0.26125098829365018 -0.39969694482297641 0 0.2333640889907381 -0.41241884790723538 0 0.24502858373403441 -0.39146921073642488 0 0.24971336314328341 -0.36520417674804972 0 0.24502858373403441 -0.39146921073642488 0 0.24971336314328341 -0.36520417674804972 0 0.229200177642885 -0.36995291413531828 0 0.24502858373403441 -0.39146921073642488 0 0.229200177642885 -0.36995291413531828 0 0.24502858373403441 -0.39146921073642488 0 0.22031030243082139 -0.38906492162812378 0 0.20725651587090471 -0.36571099534901208 0 0.22031030243082139 -0.38906492162812378 0 0.19952097201101759 -0.38537913368264481 0 0.20725651587090471 -0.36571099534901208 0 0.22031030243082139 -0.38906492162812378 0 0.21626227209603979 -0.41615869782113413 0 0.22031030243082139 -0.38906492162812378 0 0.20485234226760879 -0.40188257102108682 0 0.22031030243082139 -0.38906492162812378 0 0.20485234226760879 -0.40188257102108682 0 0.19952097201101759 -0.38537913368264481 0 0.20485234226760879 -0.40188257102108682 0 0.19159455078491761 -0.39726910731705511 0 0.19952097201101759 -0.38537913368264481 0 0.1968341740193896 -0.41150644481021997 0 0.20485234226760879 -0.40188257102108682 0 0.19418069224578771 -0.40518464808912641 0 0.20485234226760879 -0.40188257102108682 0 0.19418069224578771 -0.40518464808912641 0 0.19159455078491761 -0.39726910731705511 0 0.19418069224578771 -0.40518464808912641 0 0.19159455078491761 -0.39726910731705511 0 0.18667504034831339 -0.41041640739772162 0 0.20725651587090471 -0.36571099534901208 0 0.19261827162763251 -0.374541644607297 0 0.19952097201101759 -0.38537913368264481 0 0.19261827162763251 -0.374541644607297 0 0.19952097201101759 -0.38537913368264481 0 0.1834568796589737 -0.38583095226508418 0 0.19159455078491761 -0.39726910731705511 0 0.19952097201101759 -0.38537913368264481 0 0.1834568796589737 -0.38583095226508418 0 0.17443949437422429 -0.37745336578486988 0 0.18306199361292941 -0.40184547908877583 0 0.1834568796589737 -0.38583095226508418 0 0.17443949437422429 -0.37745336578486988 0 0.18306199361292941 -0.40184547908877583 0 0.17443949437422429 -0.37745336578486988 0 0.18306199361292941 -0.40184547908877583 0 0.1699565165384864 -0.39219147373696051 0 0.19159455078491761 -0.39726910731705511 0 0.1834568796589737 -0.38583095226508418 0 0.18667504034831339 -0.41041640739772162 0 0.1834568796589737 -0.38583095226508418 0 0.18667504034831339 -0.41041640739772162 0 0.1834568796589737 -0.38583095226508418 0 0.18306199361292941 -0.40184547908877583 0 0.18667504034831339 -0.41041640739772162 0 0.18306199361292941 -0.40184547908877583 0 0.1699565165384864 -0.39219147373696051 0 0.17103987791038719 -0.40450309618882169 0 0.18306199361292941 -0.40184547908877583 0 0.17103987791038719 -0.40450309618882169 0 0.1814131781600461 -0.40758752999736902 0 0.1699565165384864 -0.39219147373696051 0 0.17103987791038719 -0.40450309618882169 0 0.15993177942481909 -0.39557864441750712 0 0.17103987791038719 -0.40450309618882169 0 0.15993177942481909 -0.39557864441750712 0 0.14638679418839309 -0.40849626541203388 0 0.1699565165384864 -0.39219147373696051 0 0.15993177942481909 -0.39557864441750712 0 0.1595700277473481 -0.38298567724053401 0 0.17443949437422429 -0.37745336578486988 0 0.1699565165384864 -0.39219147373696051 0 0.1595700277473481 -0.38298567724053401 0 0.1602354860011011 -0.36875954027416918 0 0.17443949437422429 -0.37745336578486988 0 0.1595700277473481 -0.38298567724053401 0 0.1602354860011011 -0.36875954027416918 0 0.14673951295096799 -0.37363029079717242 0 0.1595700277473481 -0.38298567724053401 0 0.14673951295096799 -0.37363029079717242 0 0.1595700277473481 -0.38298567724053401 0 0.14586341328622179 -0.39002728499933198 0 0.14673951295096799 -0.37363029079717242 0 0.14586341328622179 -0.39002728499933198 0 0.13273239812562251 -0.3803535413873157 0 0.15993177942481909 -0.39557864441750712 0 0.1595700277473481 -0.38298567724053401 0 0.14586341328622179 -0.39002728499933198 0 0.14586341328622179 -0.39002728499933198 0 0.13273239812562251 -0.3803535413873157 0 0.12412735500694751 -0.39493505064503392 0 0.13273239812562251 -0.3803535413873157 0 0.12412735500694751 -0.39493505064503392 0 0.1208593498238435 -0.38006314209191833 0 0.14586341328622179 -0.39002728499933198 0 0.14638679418839309 -0.40849626541203388 0 0.12412735500694751 -0.39493505064503392 0 0.14638679418839309 -0.40849626541203388 0 0.1185943653130178 -0.41089393958744808 0 0.12412735500694751 -0.39493505064503392 0 0.14638679418839309 -0.40849626541203388 0 0.12412735500694751 -0.39493505064503392 0 0.15993177942481909 -0.39557864441750712 0 0.14586341328622179 -0.39002728499933198 0 0.14638679418839309 -0.40849626541203388 0 0.14638679418839309 -0.40849626541203388 0 0.12945713117598301 -0.42527718494859718 0 0.1185943653130178 -0.41089393958744808 0 0.12945713117598301 -0.42527718494859718 0 0.1521605439778134 -0.43517333823265708 0 0.13567485458578729 -0.448289196286278 0 0.14638679418839309 -0.40849626541203388 0 0.12945713117598301 -0.42527718494859718 0 0.1521605439778134 -0.43517333823265708 0 0.14638679418839309 -0.40849626541203388 0 0.1521605439778134 -0.43517333823265708 0 0.16864623336983819 -0.42205748017903449 0 0.1521605439778134 -0.43517333823265708 0 0.16864623336983819 -0.42205748017903449 0 0.1521605439778134 -0.43517333823265708 0 0.16864623336983819 -0.42205748017903449 0 0.16573483381671769 -0.43911683261624462 0 0.16864623336983819 -0.42205748017903449 0 0.17670256027174869 -0.43608133600128551 0 0.16573483381671769 -0.43911683261624462 0 0.17103987791038719 -0.40450309618882169 0 0.14638679418839309 -0.40849626541203388 0 0.16962733287145829 -0.41306172809692981 0 0.14638679418839309 -0.40849626541203388 0 0.16864623336983819 -0.42205748017903449 0 0.14638679418839309 -0.40849626541203388 0 0.16864623336983819 -0.42205748017903449 0 0.16962733287145829 -0.41306172809692981 0 0.16864623336983819 -0.42205748017903449 0 0.17965678171287719 -0.41329759239238029 0 0.18989320103765239 -0.43500186253035911 0 0.17965678171287719 -0.41329759239238029 0 0.18667504034831339 -0.41041640739772162 0 0.16864623336983819 -0.42205748017903449 0 0.16962733287145829 -0.41306172809692981 0 0.17965678171287719 -0.41329759239238029 0 0.17103987791038719 -0.40450309618882169 0 0.16962733287145829 -0.41306172809692981 0 0.17965678171287719 -0.41329759239238029 0 0.17103987791038719 -0.40450309618882169 0 0.17965678171287719 -0.41329759239238029 0 0.1814131781600461 -0.40758752999736902 0 0.18306199361292941 -0.40184547908877583 0 0.1814131781600461 -0.40758752999736902 0 0.18667504034831339 -0.41041640739772162 0 0.17965678171287719 -0.41329759239238029 0 0.1814131781600461 -0.40758752999736902 0 0.18667504034831339 -0.41041640739772162 0 0.18989320103765239 -0.43500186253035911 0 0.16864623336983819 -0.42205748017903449 0 0.18989320103765239 -0.43500186253035911 0 0.16864623336983819 -0.42205748017903449 0 0.17965678171287719 -0.41329759239238029 0 0.18989320103765239 -0.43500186253035911 0 0.16864623336983819 -0.42205748017903449 0 0.17670256027174869 -0.43608133600128551 0 0.18989320103765239 -0.43500186253035911 0 0.17670256027174869 -0.43608133600128551 0 0.18208037526260021 -0.440172852945236 0 0.17851738694434799 -0.45081987712854771 0 0.17618275988476059 -0.44374183802639611 0 0.18401323307134959 -0.44581129240036288 0 0.17851738694434799 -0.45081987712854771 0 0.1776998484129505 -0.456552179461992 0 0.17120073938054131 -0.45123220200337888 0 0.17851738694434799 -0.45081987712854771 0 0.17618275988476059 -0.44374183802639611 0 0.17120073938054131 -0.45123220200337888 0 0.17670256027174869 -0.43608133600128551 0 0.17618275988476059 -0.44374183802639611 0 0.16573483381671769 -0.43911683261624462 0 0.17670256027174869 -0.43608133600128551 0 0.17618275988476059 -0.44374183802639611 0 0.18208037526260021 -0.440172852945236 0 0.18989320103765239 -0.43500186253035911 0 0.18208037526260021 -0.440172852945236 0 0.18401323307134959 -0.44581129240036288 0 0.18777566972406101 -0.44981142861604279 0 0.18989320103765239 -0.43500186253035911 0 0.18401323307134959 -0.44581129240036288 0 0.17618275988476059 -0.44374183802639611 0 0.18208037526260021 -0.440172852945236 0 0.18401323307134959 -0.44581129240036288 0 0.18777566972406101 -0.44981142861604279 0 0.18401323307134959 -0.44581129240036288 0 0.18385690407389799 -0.45446609953290928 0 0.17851738694434799 -0.45081987712854771 0 0.18401323307134959 -0.44581129240036288 0 0.18385690407389799 -0.45446609953290928 0 0.19047701204926121 -0.46094242075341862 0 0.1876592352144193 -0.45673372923780892 0 0.1806900259799068 -0.46227126151247672 0 0.1876592352144193 -0.45673372923780892 0 0.18777566972406101 -0.44981142861604279 0 0.18385690407389799 -0.45446609953290928 0 0.19047701204926121 -0.46094242075341862 0 0.1806900259799068 -0.46227126151247672 0 0.17298031468751371 -0.48047121037671059 0 0.1876592352144193 -0.45673372923780892 0 0.18385690407389799 -0.45446609953290928 0 0.1806900259799068 -0.46227126151247672 0 0.18385690407389799 -0.45446609953290928 0 0.1806900259799068 -0.46227126151247672 0 0.1776998484129505 -0.456552179461992 0 0.17851738694434799 -0.45081987712854771 0 0.18385690407389799 -0.45446609953290928 0 0.1776998484129505 -0.456552179461992 0 0.1806900259799068 -0.46227126151247672 0 0.1776998484129505 -0.456552179461992 0 0.17146684144139809 -0.46446192971202138 0 0.1776998484129505 -0.456552179461992 0 0.17146684144139809 -0.46446192971202138 0 0.17120073938054131 -0.45123220200337888 0 0.17146684144139809 -0.46446192971202138 0 0.15759213853868431 -0.45113306297151079 0 0.14900727366634989 -0.46501884712825781 0 0.17146684144139809 -0.46446192971202138 0 0.15759213853868431 -0.45113306297151079 0 0.17120073938054131 -0.45123220200337888 0 0.1521605439778134 -0.43517333823265708 0 0.15759213853868431 -0.45113306297151079 0 0.16573483381671769 -0.43911683261624462 0 0.15759213853868431 -0.45113306297151079 0 0.17120073938054131 -0.45123220200337888 0 0.16573483381671769 -0.43911683261624462 0 0.17618275988476059 -0.44374183802639611 0 0.17120073938054131 -0.45123220200337888 0 0.16573483381671769 -0.43911683261624462 0 0.1521605439778134 -0.43517333823265708 0 0.15759213853868431 -0.45113306297151079 0 0.13567485458578729 -0.448289196286278 0 0.1521605439778134 -0.43517333823265708 0 0.13567485458578729 -0.448289196286278 0 0.13567485458578729 -0.448289196286278 0 0.1191891651937612 -0.46140505433989892 0 0.12203304576274319 -0.43975504748265359 0 0.12945713117598301 -0.42527718494859718 0 0.13567485458578729 -0.448289196286278 0 0.12203304576274319 -0.43975504748265359 0 0.13567485458578729 -0.448289196286278 0 0.1191891651937612 -0.46140505433989892 0 0.13567485458578729 -0.448289196286278 0 0.13480127744719991 -0.46410976413563299 0 0.1191891651937612 -0.46140505433989892 0 0.13567485458578729 -0.448289196286278 0 0.13480127744719991 -0.46410976413563299 0 0.14900727366634989 -0.46501884712825781 0 0.15759213853868431 -0.45113306297151079 0 0.13567485458578729 -0.448289196286278 0 0.14900727366634989 -0.46501884712825781 0 0.14900727366634989 -0.46501884712825781 0 0.15577652408963519 -0.48266000469618581 0 0.13873200589539489 -0.47945912496791759 0 0.13480127744719991 -0.46410976413563299 0 0.14900727366634989 -0.46501884712825781 0 0.13873200589539489 -0.47945912496791759 0 0.13480127744719991 -0.46410976413563299 0 0.13873200589539489 -0.47945912496791759 0 0.11801755443736479 -0.48060781756800708 0 0.13873200589539489 -0.47945912496791759 0 0.13581988522262109 -0.50000000000000244 0 0.11801755443736479 -0.48060781756800708 0 0.13581988522262109 -0.50000000000000244 0 0.11801755443736479 -0.48060781756800708 0 0.15577652408963519 -0.48266000469618581 0 0.13873200589539489 -0.47945912496791759 0 0.13581988522262109 -0.50000000000000244 0 0.15577652408963519 -0.48266000469618581 0 0.13581988522262109 -0.50000000000000244 0 0.15548361732576529 -0.50000000000000178 0 0.15577652408963519 -0.48266000469618581 0 0.15548361732576529 -0.50000000000000178 0 0.17298031468751371 -0.48047121037671059 0 0.15548361732576529 -0.50000000000000178 0 0.17298031468751371 -0.48047121037671059 0 0.1769424376256932 -0.5 0 0.15548361732576529 -0.50000000000000178 0 0.17298031468751371 -0.48047121037671059 0 0.17146684144139809 -0.46446192971202138 0 0.15577652408963519 -0.48266000469618581 0 0.17298031468751371 -0.48047121037671059 0 0.17146684144139809 -0.46446192971202138 0 0.14900727366634989 -0.46501884712825781 0 0.15577652408963519 -0.48266000469618581 0 0.19047701204926121 -0.46094242075341862 0 0.17298031468751371 -0.48047121037671059 0 0.1806900259799068 -0.46227126151247672 0 0.17146684144139809 -0.46446192971202138 0 0.17298031468751371 -0.48047121037671059 0 0.1955652389629654 -0.47833395417678298 0 0.19047701204926121 -0.46094242075341862 0 0.17298031468751371 -0.48047121037671059 0 0.1955652389629654 -0.47833395417678298 0 0.17298031468751371 -0.48047121037671059 0 0.1857239970351309 -0.48926605560099218 0 0.19840125792562099 -0.499999999999995 0 0.1857239970351309 -0.48926605560099218 0 0.1769424376256932 -0.5 0 0.17298031468751371 -0.48047121037671059 0 0.1857239970351309 -0.48926605560099218 0 0.1769424376256932 -0.5 0 0.074737975103940479 -0.48487994098964171 0 0.071046826552429457 -0.50000000000000733 0 0.059434139084113012 -0.47963991399004141 0 0.071046826552429457 -0.50000000000000733 0 0.059434139084113012 -0.47963991399004141 0 0.074737975103940479 -0.48487994098964171 0 0.05802097188470097 -0.46975988197928431 0 0.059434139084113012 -0.47963991399004141 0 0.074737975103940479 -0.48487994098964171 0 0.071955909258469009 -0.46877079283141743 0 0.05802097188470097 -0.46975988197928431 0 0.074737975103940479 -0.48487994098964171 0 0.071955909258469009 -0.46877079283141743 0 0.082737354296077953 -0.47427357099325013 0 0.074737975103940479 -0.48487994098964171 0 0.05802097188470097 -0.46975988197928431 0 0.074737975103940479 -0.48487994098964171 0 0.082737354296077953 -0.47427357099325013 0 0.094811061721812542 -0.48112121468145302 0 0.082737354296077953 -0.47427357099325013 0 0.094811061721812542 -0.48112121468145302 0 0.1002152236521098 -0.46121563513601083 0 0.074737975103940479 -0.48487994098964171 0 0.091454978323179614 -0.49999999999999939 0 0.094811061721812542 -0.48112121468145302 0 0.074737975103940479 -0.48487994098964171 0 0.091454978323179614 -0.49999999999999939 0 0.074737975103940479 -0.48487994098964171 0 0.071046826552429457 -0.50000000000000733 0 0.091454978323179614 -0.49999999999999939 0 0.1136374317729003 -0.5 0 0.11801755443736479 -0.48060781756800708 0 0.094811061721812542 -0.48112121468145302 0 0.091454978323179614 -0.49999999999999939 0 0.1136374317729003 -0.5 0 0.094811061721812542 -0.48112121468145302 0 0.13581988522262109 -0.50000000000000244 0 0.1136374317729003 -0.5 0 0.11801755443736479 -0.48060781756800708 0 0.11801755443736479 -0.48060781756800708 0 0.094811061721812542 -0.48112121468145302 0 0.1002152236521098 -0.46121563513601083 0 0.11801755443736479 -0.48060781756800708 0 0.1002152236521098 -0.46121563513601083 0 0.1002152236521098 -0.46121563513601083 0 0.1191891651937612 -0.46140505433989892 0 0.1082504500781146 -0.44478934181291102 0 0.11801755443736479 -0.48060781756800708 0 0.1002152236521098 -0.46121563513601083 0 0.1191891651937612 -0.46140505433989892 0 0.13480127744719991 -0.46410976413563299 0 0.11801755443736479 -0.48060781756800708 0 0.1191891651937612 -0.46140505433989892 0 0.1191891651937612 -0.46140505433989892 0 0.12203304576274319 -0.43975504748265359 0 0.1082504500781146 -0.44478934181291102 0 0.1002152236521098 -0.46121563513601083 0 0.1082504500781146 -0.44478934181291102 0 0.082412892866854714 -0.44182345270401441 0 0.1002152236521098 -0.46121563513601083 0 0.082412892866854714 -0.44182345270401441 0 0.082737354296077953 -0.47427357099325013 0 0.1002152236521098 -0.46121563513601083 0 0.07989865607697158 -0.46093656822545309 0 0.1002152236521098 -0.46121563513601083 0 0.082412892866854714 -0.44182345270401441 0 0.07989865607697158 -0.46093656822545309 0 0.071955909258469009 -0.46877079283141743 0 0.082737354296077953 -0.47427357099325013 0 0.07989865607697158 -0.46093656822545309 0 0.071955909258469009 -0.46877079283141743 0 0.07989865607697158 -0.46093656822545309 0 0.064942869781788204 -0.45298741250561531 0 0.071955909258469009 -0.46877079283141743 0 0.064942869781788204 -0.45298741250561531 0 0.05802097188470097 -0.46975988197928431 0 0.082412892866854714 -0.44182345270401441 0 0.07989865607697158 -0.46093656822545309 0 0.064942869781788204 -0.45298741250561531 0 0.082412892866854714 -0.44182345270401441 0 0.064942869781788204 -0.45298741250561531 0 0.064610562081599654 -0.42243127027201799 0 0.082412892866854714 -0.44182345270401441 0 0.064610562081599654 -0.42243127027201799 0 0.085410796704641828 -0.41553833344022301 0 0.082412892866854714 -0.44182345270401441 0 0.064610562081599654 -0.42243127027201799 0 0.064610562081599654 -0.42243127027201799 0 0.085410796704641828 -0.41553833344022301 0 0.071260751408415451 -0.40583032332525898 0 0.082412892866854714 -0.44182345270401441 0 0.085410796704641828 -0.41553833344022301 0 0.10565257718969159 -0.42402980380391259 0 0.1082504500781146 -0.44478934181291102 0 0.10565257718969159 -0.42402980380391259 0 0.1082504500781146 -0.44478934181291102 0 0.082412892866854714 -0.44182345270401441 0 0.10565257718969159 -0.42402980380391259 0 0.12203304576274319 -0.43975504748265359 0 0.1082504500781146 -0.44478934181291102 0 0.10565257718969159 -0.42402980380391259 0 0.12945713117598301 -0.42527718494859718 0 0.12203304576274319 -0.43975504748265359 0 0.10565257718969159 -0.42402980380391259 0 0.12945713117598301 -0.42527718494859718 0 0.10565257718969159 -0.42402980380391259 0 0.1185943653130178 -0.41089393958744808 0 0.10565257718969159 -0.42402980380391259 0 0.10305470430126849 -0.40327026579491432 0 0.10565257718969159 -0.42402980380391259 0 0.1185943653130178 -0.41089393958744808 0 0.10305470430126849 -0.40327026579491432 0 0.085410796704641828 -0.41553833344022301 0 0.10565257718969159 -0.42402980380391259 0 0.10305470430126849 -0.40327026579491432 0 0.10305470430126849 -0.40327026579491432 0 0.1092296532162271 -0.39195520602732847 0 0.1018679158255022 -0.38137383587803358 0 0.10305470430126849 -0.40327026579491432 0 0.1018679158255022 -0.38137383587803358 0 0.084827885114816814 -0.39510276155480978 0 0.10305470430126849 -0.40327026579491432 0 0.1018679158255022 -0.38137383587803358 0 0.1185943653130178 -0.41089393958744808 0 0.10305470430126849 -0.40327026579491432 0 0.1092296532162271 -0.39195520602732847 0 0.1185943653130178 -0.41089393958744808 0 0.1092296532162271 -0.39195520602732847 0 0.12412735500694751 -0.39493505064503392 0 0.12412735500694751 -0.39493505064503392 0 0.1208593498238435 -0.38006314209191833 0 0.1018679158255022 -0.38137383587803358 0 0.1092296532162271 -0.39195520602732847 0 0.12412735500694751 -0.39493505064503392 0 0.1018679158255022 -0.38137383587803358 0 0.12412735500694751 -0.39493505064503392 0 0.1018679158255022 -0.38137383587803358 0 0.1208593498238435 -0.38006314209191833 0 0.1018679158255022 -0.38137383587803358 0 0.12334710111447229 -0.36406834251145731 0 0.1018679158255022 -0.38137383587803358 0 0.1001863568717406 -0.38034937241650962 0 0.10879209213087419 -0.36797725762153549 0 0.1018679158255022 -0.38137383587803358 0 0.1001863568717406 -0.38034937241650962 0 0.092680417082859706 -0.38189565836938699 0 0.1018679158255022 -0.38137383587803358 0 0.1001863568717406 -0.38034937241650962 0 0.1001863568717406 -0.38034937241650962 0 0.092680417082859706 -0.38189565836938699 0 0.078941289569781151 -0.36740614783332631 0 0.1018679158255022 -0.38137383587803358 0 0.084827885114816814 -0.39510276155480978 0 0.1018679158255022 -0.38137383587803358 0 0.092680417082859706 -0.38189565836938699 0 0.084827885114816814 -0.39510276155480978 0 0.083667078469080447 -0.3817485906143725 0 0.076461538166658155 -0.38231907318138902 0 0.078941289569781151 -0.36740614783332631 0 0.092680417082859706 -0.38189565836938699 0 0.083667078469080447 -0.3817485906143725 0 0.078941289569781151 -0.36740614783332631 0 0.084827885114816814 -0.39510276155480978 0 0.073546264855348126 -0.39398280964304111 0 0.076461538166658155 -0.38231907318138902 0 0.083667078469080447 -0.3817485906143725 0 0.084827885114816814 -0.39510276155480978 0 0.076461538166658155 -0.38231907318138902 0 0.092680417082859706 -0.38189565836938699 0 0.083667078469080447 -0.3817485906143725 0 0.084827885114816814 -0.39510276155480978 0 0.085410796704641828 -0.41553833344022301 0 0.10305470430126849 -0.40327026579491432 0 0.084827885114816814 -0.39510276155480978 0 0.085410796704641828 -0.41553833344022301 0 0.084827885114816814 -0.39510276155480978 0 0.071260751408415451 -0.40583032332525898 0 0.084827885114816814 -0.39510276155480978 0 0.073546264855348126 -0.39398280964304111 0 0.071260751408415451 -0.40583032332525898 0 0.073546264855348126 -0.39398280964304111 0 0.071260751408415451 -0.40583032332525898 0 0.061634884731502082 -0.39267908051070671 0 0.076461538166658155 -0.38231907318138902 0 0.061634884731502082 -0.39267908051070671 0 0.076461538166658155 -0.38231907318138902 0 0.061634884731502082 -0.39267908051070671 0 0.061904282875925747 -0.37237526148823941 0 0.073546264855348126 -0.39398280964304111 0 0.076461538166658155 -0.38231907318138902 0 0.061634884731502082 -0.39267908051070671 0 0.051370350477500881 -0.3764161884637201 0 0.045801185216693012 -0.38580832539780119 0 0.043663507306638913 -0.36868104746756258 0 0.051370350477500881 -0.3764161884637201 0 0.061634884731502082 -0.39267908051070671 0 0.045801185216693012 -0.38580832539780119 0 0.051370350477500881 -0.3764161884637201 0 0.061634884731502082 -0.39267908051070671 0 0.061904282875925747 -0.37237526148823941 0 0.071260751408415451 -0.40583032332525898 0 0.061634884731502082 -0.39267908051070671 0 0.04680823129634433 -0.40303908784002201 0 0.061634884731502082 -0.39267908051070671 0 0.04680823129634433 -0.40303908784002201 0 0.045801185216693012 -0.38580832539780119 0 0.061634884731502082 -0.39267908051070671 0 0.04680823129634433 -0.40303908784002201 0 0.04680823129634433 -0.40303908784002201 0 0.02837172461734 -0.38295609391969199 0 0.04680823129634433 -0.40303908784002201 0 0.02837172461734 -0.38295609391969199 0 0.028215565298714249 -0.40094151263492078 0 0.045801185216693012 -0.38580832539780119 0 0.02837172461734 -0.38295609391969199 0 0.043663507306638913 -0.36868104746756258 0 0.04680823129634433 -0.40303908784002201 0 0.045801185216693012 -0.38580832539780119 0 0.02837172461734 -0.38295609391969199 0 0.02837172461734 -0.38295609391969199 0 0.0122991559467155 -0.37891225603134221 0 0.011208636448502229 -0.39508796301279092 0 -0.002178803782163227 -0.37161627006544062 0 0.0122991559467155 -0.37891225603134221 0 0.011208636448502229 -0.39508796301279092 0 -0.002178803782163227 -0.37161627006544062 0 0.011208636448502229 -0.39508796301279092 0 -0.002178803782163227 -0.37161627006544062 0 -0.0066930742226519926 -0.39143820132839208 0 0.011208636448502229 -0.39508796301279092 0 -0.001728596279610697 -0.40597762003102339 0 0.011208636448502229 -0.39508796301279092 0 0.0082246319185010179 -0.41465428951275207 0 -0.0066930742226519926 -0.39143820132839208 0 -0.001728596279610697 -0.40597762003102339 0 0.011208636448502229 -0.39508796301279092 0 0.011208636448502229 -0.39508796301279092 0 0.028215565298714249 -0.40094151263492078 0 0.024596076679173799 -0.41855965596013778 0 0.02837172461734 -0.38295609391969199 0 0.011208636448502229 -0.39508796301279092 0 0.028215565298714249 -0.40094151263492078 0 0.011208636448502229 -0.39508796301279092 0 0.024596076679173799 -0.41855965596013778 0 0.011208636448502229 -0.39508796301279092 0 0.024596076679173799 -0.41855965596013778 0 0.0082246319185010179 -0.41465428951275207 0 0.024596076679173799 -0.41855965596013778 0 0.0082246319185010179 -0.41465428951275207 0 0.01039378864355619 -0.42848339288335913 0 -0.009537301248459449 -0.42510302968362512 0 0.0082246319185010179 -0.41465428951275207 0 0.01039378864355619 -0.42848339288335913 0 0.024596076679173799 -0.41855965596013778 0 0.036208764147486278 -0.43891974197010591 0 0.024596076679173799 -0.41855965596013778 0 0.036208764147486278 -0.43891974197010591 0 0.020713539006084219 -0.44010250100644183 0 0.024596076679173799 -0.41855965596013778 0 0.01039378864355619 -0.42848339288335913 0 0.020713539006084219 -0.44010250100644183 0 0.024596076679173799 -0.41855965596013778 0 0.01039378864355619 -0.42848339288335913 0 0.024596076679173799 -0.41855965596013778 0 0.043950702345966319 -0.42295947833088071 0 0.036208764147486278 -0.43891974197010591 0 0.043950702345966319 -0.42295947833088071 0 0.051347790295756007 -0.43901682978775403 0 0.036208764147486278 -0.43891974197010591 0 0.04680823129634433 -0.40303908784002201 0 0.024596076679173799 -0.41855965596013778 0 0.04680823129634433 -0.40303908784002201 0 0.028215565298714249 -0.40094151263492078 0 0.024596076679173799 -0.41855965596013778 0 0.04680823129634433 -0.40303908784002201 0 0.024596076679173799 -0.41855965596013778 0 0.043950702345966319 -0.42295947833088071 0 0.064610562081599654 -0.42243127027201799 0 0.071260751408415451 -0.40583032332525898 0 0.04680823129634433 -0.40303908784002201 0 0.064610562081599654 -0.42243127027201799 0 0.04680823129634433 -0.40303908784002201 0 0.064610562081599654 -0.42243127027201799 0 0.04680823129634433 -0.40303908784002201 0 0.043950702345966319 -0.42295947833088071 0 0.064610562081599654 -0.42243127027201799 0 0.043950702345966319 -0.42295947833088071 0 0.051347790295756007 -0.43901682978775403 0 0.064942869781788204 -0.45298741250561531 0 0.064610562081599654 -0.42243127027201799 0 0.051347790295756007 -0.43901682978775403 0 0.064942869781788204 -0.45298741250561531 0 0.051347790295756007 -0.43901682978775403 0 0.047821451615799627 -0.45927982798007361 0 0.064942869781788204 -0.45298741250561531 0 0.047821451615799627 -0.45927982798007361 0 0.05802097188470097 -0.46975988197928431 0 0.047821451615799627 -0.45927982798007361 0 0.023714967739582489 -0.4565662814222432 0 0.032020960621095843 -0.47777188036233098 0 0.047821451615799627 -0.45927982798007361 0 0.036208764147486278 -0.43891974197010591 0 0.051347790295756007 -0.43901682978775403 0 0.047821451615799627 -0.45927982798007361 0 0.036208764147486278 -0.43891974197010591 0 0.047821451615799627 -0.45927982798007361 0 0.036208764147486278 -0.43891974197010591 0 0.023714967739582489 -0.4565662814222432 0 0.036208764147486278 -0.43891974197010591 0 0.020713539006084219 -0.44010250100644183 0 0.023714967739582489 -0.4565662814222432 0 -0.0013374034004768371 -0.44947558896604423 0 0.01039378864355619 -0.42848339288335913 0 0.020713539006084219 -0.44010250100644183 0 -0.0013374034004768371 -0.44947558896604423 0 0.020713539006084219 -0.44010250100644183 0 0.023714967739582489 -0.4565662814222432 0 -0.0013374034004768371 -0.44947558896604423 0 0.0068624944475057766 -0.47384814824846327 0 -0.0013374034004768371 -0.44947558896604423 0 0.023714967739582489 -0.4565662814222432 0 0.0068624944475057766 -0.47384814824846327 0 0.023714967739582489 -0.4565662814222432 0 0.0068624944475057766 -0.47384814824846327 0 0.032020960621095843 -0.47777188036233098 0 0.0068624944475057766 -0.47384814824846327 0 0.0150623922954884 -0.49822070753088238 0 0.032020960621095843 -0.47777188036233098 0 -0.015217900669161011 -0.5 0 0.0024053695883212941 -0.48891336768777249 0 0.013537008404702511 -0.5 0 0.0068624944475057766 -0.47384814824846327 0 0.0024053695883212941 -0.48891336768777249 0 0.0150623922954884 -0.49822070753088238 0 0.0068624944475057766 -0.47384814824846327 0 0.0150623922954884 -0.49822070753088238 0 0.0024053695883212941 -0.48891336768777249 0 0.0150623922954884 -0.49822070753088238 0 0.013537008404702511 -0.5 0 0.0150623922954884 -0.49822070753088238 0 0.013537008404702511 -0.5 0 0.042291917478565873 -0.5 0 0.0150623922954884 -0.49822070753088238 0 0.042291917478565873 -0.5 0 0.032020960621095843 -0.47777188036233098 0 0.042291917478565873 -0.5 0 0.032020960621095843 -0.47777188036233098 0 0.059434139084113012 -0.47963991399004141 0 0.047821451615799627 -0.45927982798007361 0 0.032020960621095843 -0.47777188036233098 0 0.059434139084113012 -0.47963991399004141 0 0.047821451615799627 -0.45927982798007361 0 0.05802097188470097 -0.46975988197928431 0 0.059434139084113012 -0.47963991399004141 0 0.047821451615799627 -0.45927982798007361 0 0.059434139084113012 -0.47963991399004141 0 0.071046826552429457 -0.50000000000000733 0 0.042291917478565873 -0.5 0 0.059434139084113012 -0.47963991399004141 0 0.078456545354339768 -0.28525100698693651 0 0.075192778843485145 -0.3004755496101415 0 0.095899689397586599 -0.3008291305439913 0 0.078456545354339768 -0.28525100698693651 0 0.095711127176573443 -0.2751242682777974 0 0.095899689397586599 -0.3008291305439913 0 0.075192778843485145 -0.3004755496101415 0 0.095899689397586599 -0.3008291305439913 0 0.074188022781041252 -0.31649930169162399 0 0.095899689397586599 -0.3008291305439913 0 0.074188022781041252 -0.31649930169162399 0 0.075192778843485145 -0.3004755496101415 0 0.074188022781041252 -0.31649930169162399 0 0.058270312985904418 -0.30816514798469019 0 0.075192778843485145 -0.3004755496101415 0 0.068995976747761104 -0.2945131319279734 0 0.058270312985904418 -0.30816514798469019 0 0.068995976747761104 -0.2945131319279734 0 0.064064269807315097 -0.28416082313012542 0 0.058270312985904418 -0.30816514798469019 0 0.078456545354339768 -0.28525100698693651 0 0.075192778843485145 -0.3004755496101415 0 0.068995976747761104 -0.2945131319279734 0 0.078456545354339768 -0.28525100698693651 0 0.068995976747761104 -0.2945131319279734 0 0.064064269807315097 -0.28416082313012542 0 0.064064269807315097 -0.28416082313012542 0 0.069858226628725775 -0.26015649827556059 0 0.078456545354339768 -0.28525100698693651 0 0.064064269807315097 -0.28416082313012542 0 0.069858226628725775 -0.26015649827556059 0 0.069858226628725775 -0.26015649827556059 0 0.095711127176573443 -0.2751242682777974 0 0.096521476943682558 -0.25181800011133371 0 0.078456545354339768 -0.28525100698693651 0 0.069858226628725775 -0.26015649827556059 0 0.095711127176573443 -0.2751242682777974 0 0.095711127176573443 -0.2751242682777974 0 0.114720785939063 -0.26575264298982931 0 0.1176113560141319 -0.2851589593963586 0 0.095711127176573443 -0.2751242682777974 0 0.096521476943682558 -0.25181800011133371 0 0.114720785939063 -0.26575264298982931 0 0.1376178273856396 -0.2676878026278281 0 0.114720785939063 -0.26575264298982931 0 0.1200034520355143 -0.24749468667538321 0 0.096521476943682558 -0.25181800011133371 0 0.114720785939063 -0.26575264298982931 0 0.1200034520355143 -0.24749468667538321 0 0.1376178273856396 -0.2676878026278281 0 0.114720785939063 -0.26575264298982931 0 0.1176113560141319 -0.2851589593963586 0 0.13584279120622419 -0.29064916595208462 0 0.1176113560141319 -0.2851589593963586 0 0.1212075847983899 -0.30357596212866123 0 0.1176113560141319 -0.2851589593963586 0 0.095899689397586599 -0.3008291305439913 0 0.1212075847983899 -0.30357596212866123 0 0.1176113560141319 -0.2851589593963586 0 0.095899689397586599 -0.3008291305439913 0 0.095711127176573443 -0.2751242682777974 0 0.1176113560141319 -0.2851589593963586 0 0.095899689397586599 -0.3008291305439913 0 0.095899689397586599 -0.3008291305439913 0 0.1212075847983899 -0.30357596212866123 0 0.1047724191350739 -0.31963875894108951 0 0.1212075847983899 -0.30357596212866123 0 0.1249111379911398 -0.32186001205002218 0 0.1047724191350739 -0.31963875894108951 0 0.1249111379911398 -0.32186001205002218 0 0.1047724191350739 -0.31963875894108951 0 0.11573058637367541 -0.34380091622275832 0 0.094619564876377599 -0.33586527524184762 0 0.1047724191350739 -0.31963875894108951 0 0.11573058637367541 -0.34380091622275832 0 0.094619564876377599 -0.33586527524184762 0 0.1047724191350739 -0.31963875894108951 0 0.086339338786571823 -0.32698567366184278 0 0.095899689397586599 -0.3008291305439913 0 0.1047724191350739 -0.31963875894108951 0 0.086339338786571823 -0.32698567366184278 0 0.1018679158255022 -0.38137383587803358 0 0.12334710111447229 -0.36406834251145731 0 0.1018679158255022 -0.38137383587803358 0 0.12334710111447229 -0.36406834251145731 0 0.10879209213087419 -0.36797725762153549 0 0.12334710111447229 -0.36406834251145731 0 0.11573058637367541 -0.34380091622275832 0 0.10879209213087419 -0.36797725762153549 0 0.11573058637367541 -0.34380091622275832 0 0.097402960874061584 -0.35810732382917831 0 0.10879209213087419 -0.36797725762153549 0 0.094619564876377599 -0.33586527524184762 0 0.11573058637367541 -0.34380091622275832 0 0.097402960874061584 -0.35810732382917831 0 0.094619564876377599 -0.33586527524184762 0 0.097402960874061584 -0.35810732382917831 0 0.1001863568717406 -0.38034937241650962 0 0.097402960874061584 -0.35810732382917831 0 0.1001863568717406 -0.38034937241650962 0 0.097402960874061584 -0.35810732382917831 0 0.10879209213087419 -0.36797725762153549 0 0.1001863568717406 -0.38034937241650962 0 0.097402960874061584 -0.35810732382917831 0 0.078941289569781151 -0.36740614783332631 0 0.1001863568717406 -0.38034937241650962 0 0.078941289569781151 -0.36740614783332631 0 0.094619564876377599 -0.33586527524184762 0 0.097402960874061584 -0.35810732382917831 0 0.084740357312199394 -0.34701535865000288 0 0.078941289569781151 -0.36740614783332631 0 0.084740357312199394 -0.34701535865000288 0 0.072564810466095128 -0.35396504242622201 0 0.097402960874061584 -0.35810732382917831 0 0.078941289569781151 -0.36740614783332631 0 0.084740357312199394 -0.34701535865000288 0 0.078941289569781151 -0.36740614783332631 0 0.072564810466095128 -0.35396504242622201 0 0.057696222267823373 -0.35446292325014028 0 0.084740357312199394 -0.34701535865000288 0 0.072564810466095128 -0.35396504242622201 0 0.073102422775426085 -0.33909783780230318 0 0.064643683218506637 -0.34920539315333932 0 0.072564810466095128 -0.35396504242622201 0 0.073102422775426085 -0.33909783780230318 0 0.064643683218506637 -0.34920539315333932 0 0.072564810466095128 -0.35396504242622201 0 0.057696222267823373 -0.35446292325014028 0 0.078941289569781151 -0.36740614783332631 0 0.057696222267823373 -0.35446292325014028 0 0.076461538166658155 -0.38231907318138902 0 0.078941289569781151 -0.36740614783332631 0 0.061904282875925747 -0.37237526148823941 0 0.078941289569781151 -0.36740614783332631 0 0.061904282875925747 -0.37237526148823941 0 0.057696222267823373 -0.35446292325014028 0 0.095899689397586599 -0.3008291305439913 0 0.086339338786571823 -0.32698567366184278 0 0.074188022781041252 -0.31649930169162399 0 0.094619564876377599 -0.33586527524184762 0 0.084740357312199394 -0.34701535865000288 0 0.086339338786571823 -0.32698567366184278 0 0.084740357312199394 -0.34701535865000288 0 0.086339338786571823 -0.32698567366184278 0 0.073102422775426085 -0.33909783780230318 0 0.073102422775426085 -0.33909783780230318 0 0.074188022781041252 -0.31649930169162399 0 0.052476356164494947 -0.33216947283925541 0 0.064643683218506637 -0.34920539315333932 0 0.073102422775426085 -0.33909783780230318 0 0.060945063747813971 -0.34285112352430303 0 0.074188022781041252 -0.31649930169162399 0 0.052476356164494947 -0.33216947283925541 0 0.086339338786571823 -0.32698567366184278 0 0.073102422775426085 -0.33909783780230318 0 0.074188022781041252 -0.31649930169162399 0 0.052476356164494947 -0.33216947283925541 0 0.058270312985904418 -0.30816514798469019 0 0.052476356164494947 -0.33216947283925541 0 0.044648526871603783 -0.31770081170742831 0 0.058270312985904418 -0.30816514798469019 0 0.074188022781041252 -0.31649930169162399 0 0.052476356164494947 -0.33216947283925541 0 0.058270312985904418 -0.30816514798469019 0 0.052476356164494947 -0.33216947283925541 0 0.047583047975914103 -0.35244241635483559 0 0.073102422775426085 -0.33909783780230318 0 0.060945063747813971 -0.34285112352430303 0 0.052476356164494947 -0.33216947283925541 0 0.060945063747813971 -0.34285112352430303 0 0.052476356164494947 -0.33216947283925541 0 0.054181307711507642 -0.34983992205818981 0 0.052476356164494947 -0.33216947283925541 0 0.04071506683574927 -0.34065806194451792 0 0.047583047975914103 -0.35244241635483559 0 0.052476356164494947 -0.33216947283925541 0 0.04071506683574927 -0.34065806194451792 0 0.044648526871603783 -0.31770081170742831 0 0.04071506683574927 -0.34065806194451792 0 0.03015636661650286 -0.3225410253719756 0 0.04071506683574927 -0.34065806194451792 0 0.03015636661650286 -0.3225410253719756 0 0.02636863849756152 -0.33688388254537838 0 0.052476356164494947 -0.33216947283925541 0 0.04071506683574927 -0.34065806194451792 0 0.04071506683574927 -0.34065806194451792 0 0.044648526871603783 -0.31770081170742831 0 0.03015636661650286 -0.3225410253719756 0 0.044648526871603783 -0.31770081170742831 0 0.03015636661650286 -0.3225410253719756 0 0.034491627806478041 -0.30853974567073322 0 0.061904282875925747 -0.37237526148823941 0 0.053259535722039633 -0.3641180164926533 0 0.057696222267823373 -0.35446292325014028 0 0.051370350477500881 -0.3764161884637201 0 0.053259535722039633 -0.3641180164926533 0 0.043663507306638913 -0.36868104746756258 0 0.051370350477500881 -0.3764161884637201 0 0.061904282875925747 -0.37237526148823941 0 0.053259535722039633 -0.3641180164926533 0 0.053259535722039633 -0.3641180164926533 0 0.048773826387857627 -0.3544856011778737 0 0.043663507306638913 -0.36868104746756258 0 0.052476356164494947 -0.33216947283925541 0 0.047583047975914103 -0.35244241635483559 0 0.054181307711507642 -0.34983992205818981 0 0.053259535722039633 -0.3641180164926533 0 0.053244657324237762 -0.3582642649149802 0 0.048773826387857627 -0.3544856011778737 0 0.053244657324237762 -0.3582642649149802 0 0.048773826387857627 -0.3544856011778737 0 0.054181307711507642 -0.34983992205818981 0 0.048773826387857627 -0.3544856011778737 0 0.047583047975914103 -0.35244241635483559 0 0.054181307711507642 -0.34983992205818981 0 0.048773826387857627 -0.3544856011778737 0 0.047583047975914103 -0.35244241635483559 0 0.053259535722039633 -0.3641180164926533 0 0.053244657324237762 -0.3582642649149802 0 0.057696222267823373 -0.35446292325014028 0 0.053244657324237762 -0.3582642649149802 0 0.057696222267823373 -0.35446292325014028 0 0.054181307711507642 -0.34983992205818981 0 0.064643683218506637 -0.34920539315333932 0 0.057696222267823373 -0.35446292325014028 0 0.054181307711507642 -0.34983992205818981 0 0.064643683218506637 -0.34920539315333932 0 0.060945063747813971 -0.34285112352430303 0 0.054181307711507642 -0.34983992205818981 0 0.048773826387857627 -0.3544856011778737 0 0.047583047975914103 -0.35244241635483559 0 0.043663507306638913 -0.36868104746756258 0 0.04071506683574927 -0.34065806194451792 0 0.047583047975914103 -0.35244241635483559 0 0.04071506683574927 -0.34065806194451792 0 0.047583047975914103 -0.35244241635483559 0 0.03985573710467899 -0.35136837444597901 0 0.04071506683574927 -0.34065806194451792 0 0.03985573710467899 -0.35136837444597901 0 0.03205896378917665 -0.35434441690964041 0 0.04071506683574927 -0.34065806194451792 0 0.03205896378917665 -0.35434441690964041 0 0.025431496553892478 -0.35168882095041942 0 0.04071506683574927 -0.34065806194451792 0 0.025431496553892478 -0.35168882095041942 0 0.03985573710467899 -0.35136837444597901 0 0.03205896378917665 -0.35434441690964041 0 0.039065869817875902 -0.35802860257492208 0 0.047583047975914103 -0.35244241635483559 0 0.03985573710467899 -0.35136837444597901 0 0.039065869817875902 -0.35802860257492208 0 0.02837172461734 -0.38295609391969199 0 0.033371525452051833 -0.36592480980272157 0 0.043663507306638913 -0.36868104746756258 0 0.047583047975914103 -0.35244241635483559 0 0.039065869817875902 -0.35802860257492208 0 0.043663507306638913 -0.36868104746756258 0 0.047583047975914103 -0.35244241635483559 0 0.043663507306638913 -0.36868104746756258 0 0.039065869817875902 -0.35802860257492208 0 0.033371525452051833 -0.36592480980272157 0 0.043663507306638913 -0.36868104746756258 0 0.03205896378917665 -0.35434441690964041 0 0.039065869817875902 -0.35802860257492208 0 0.033371525452051833 -0.36592480980272157 0 0.02837172461734 -0.38295609391969199 0 0.0099352179383349771 -0.36287309999936251 0 0.02837172461734 -0.38295609391969199 0 0.023697561729227701 -0.3656138881417908 0 0.0099352179383349771 -0.36287309999936251 0 0.02837172461734 -0.38295609391969199 0 0.033371525452051833 -0.36592480980272157 0 0.023697561729227701 -0.3656138881417908 0 0.02837172461734 -0.38295609391969199 0 0.0122991559467155 -0.37891225603134221 0 0.0099352179383349771 -0.36287309999936251 0 0.03205896378917665 -0.35434441690964041 0 0.033371525452051833 -0.36592480980272157 0 0.023697561729227701 -0.3656138881417908 0 0.023697561729227701 -0.3656138881417908 0 0.025431496553892478 -0.35168882095041942 0 0.0099352179383349771 -0.36287309999936251 0 0.025431496553892478 -0.35168882095041942 0 0.0075807645751098419 -0.34453611388615663 0 0.025431496553892478 -0.35168882095041942 0 0.0075807645751098419 -0.34453611388615663 0 0.02636863849756152 -0.33688388254537838 0 0.025431496553892478 -0.35168882095041942 0 0.0099352179383349771 -0.36287309999936251 0 0.03205896378917665 -0.35434441690964041 0 0.023697561729227701 -0.3656138881417908 0 0.025431496553892478 -0.35168882095041942 0 0.03205896378917665 -0.35434441690964041 0 0.025431496553892478 -0.35168882095041942 0 -0.0096343958099064687 -0.34155580596031437 0 0.0099352179383349771 -0.36287309999936251 0 -0.0096343958099064687 -0.34155580596031437 0 0.0075807645751098419 -0.34453611388615663 0 0.0099352179383349771 -0.36287309999936251 0 0.025431496553892478 -0.35168882095041942 0 0.0075807645751098419 -0.34453611388615663 0 0.0099352179383349771 -0.36287309999936251 0 -0.002178803782163227 -0.37161627006544062 0 0.0122991559467155 -0.37891225603134221 0 0.0099352179383349771 -0.36287309999936251 0 -0.0070150904897389628 -0.35875101633193152 0 -0.002178803782163227 -0.37161627006544062 0 0.0099352179383349771 -0.36287309999936251 0 -0.002178803782163227 -0.37161627006544062 0 0.0099352179383349771 -0.36287309999936251 0 0.03015636661650286 -0.3225410253719756 0 0.019597666397256509 -0.30442398879943339 0 0.03015636661650286 -0.3225410253719756 0 0.014793392922354411 -0.31628120652474823 0 0.019597666397256509 -0.30442398879943339 0 0.03015636661650286 -0.3225410253719756 0 0.01453256369494863 -0.32953892791496292 0 0.014793392922354411 -0.31628120652474823 0 0.03015636661650286 -0.3225410253719756 0 0.02636863849756152 -0.33688388254537838 0 0.01453256369494863 -0.32953892791496292 0 0.0075807645751098419 -0.34453611388615663 0 0.02636863849756152 -0.33688388254537838 0 0.01453256369494863 -0.32953892791496292 0 0.04071506683574927 -0.34065806194451792 0 0.025431496553892478 -0.35168882095041942 0 0.02636863849756152 -0.33688388254537838 0 0.0075807645751098419 -0.34453611388615663 0 0.01453256369494863 -0.32953892791496292 0 0.0034794820758208261 -0.33361449123698089 0 -0.010269967403673339 -0.33738340682189533 0 0.0075807645751098419 -0.34453611388615663 0 0.0034794820758208261 -0.33361449123698089 0 0.01453256369494863 -0.32953892791496292 0 0.0034794820758208261 -0.33361449123698089 0 0.001904989571353899 -0.32214434476741449 0 0.001904989571353899 -0.32214434476741449 0 0.014793392922354411 -0.31628120652474823 0 0.0019518825097332619 -0.30029273945570772 0 0.01453256369494863 -0.32953892791496292 0 0.001904989571353899 -0.32214434476741449 0 0.014793392922354411 -0.31628120652474823 0 0.0019518825097332619 -0.30029273945570772 0 0.0090389661780101715 -0.28630695222689118 0 0.019597666397256509 -0.30442398879943339 0 0.014793392922354411 -0.31628120652474823 0 0.0019518825097332619 -0.30029273945570772 0 0.019597666397256509 -0.30442398879943339 0 -0.0020851015340006161 -0.28052611142458661 0 0.0019518825097332619 -0.30029273945570772 0 0.0090389661780101715 -0.28630695222689118 0 0.0090389661780101715 -0.28630695222689118 0 0.019597666397256509 -0.30442398879943339 0 0.0090389661780101715 -0.28630695222689118 0 0.019597666397256509 -0.30442398879943339 0 0.033821918158706138 -0.27707393290215671 0 0.03015636661650286 -0.3225410253719756 0 0.019597666397256509 -0.30442398879943339 0 0.034491627806478041 -0.30853974567073322 0 0.019597666397256509 -0.30442398879943339 0 0.034491627806478041 -0.30853974567073322 0 0.043330632548044458 -0.29475484461045087 0 0.044648526871603783 -0.31770081170742831 0 0.034491627806478041 -0.30853974567073322 0 0.043330632548044458 -0.29475484461045087 0 0.019597666397256509 -0.30442398879943339 0 0.043330632548044458 -0.29475484461045087 0 0.033821918158706138 -0.27707393290215671 0 0.043330632548044458 -0.29475484461045087 0 0.062049371387241412 -0.28749956346879602 0 0.033821918158706138 -0.27707393290215671 0 0.064064269807315097 -0.28416082313012542 0 0.058270312985904418 -0.30816514798469019 0 0.062049371387241412 -0.28749956346879602 0 0.033821918158706138 -0.27707393290215671 0 0.064064269807315097 -0.28416082313012542 0 0.062049371387241412 -0.28749956346879602 0 0.058270312985904418 -0.30816514798469019 0 0.043330632548044458 -0.29475484461045087 0 0.062049371387241412 -0.28749956346879602 0 0.058270312985904418 -0.30816514798469019 0 0.044648526871603783 -0.31770081170742831 0 0.043330632548044458 -0.29475484461045087 0 0.058270312985904418 -0.30816514798469019 0 0.069858226628725775 -0.26015649827556059 0 0.051624075113339378 -0.26919050519125598 0 0.046498349670861652 -0.24826912251879649 0 0.064064269807315097 -0.28416082313012542 0 0.069858226628725775 -0.26015649827556059 0 0.051624075113339378 -0.26919050519125598 0 0.062049371387241412 -0.28749956346879602 0 0.051624075113339378 -0.26919050519125598 0 0.033821918158706138 -0.27707393290215671 0 0.064064269807315097 -0.28416082313012542 0 0.062049371387241412 -0.28749956346879602 0 0.051624075113339378 -0.26919050519125598 0 0.051624075113339378 -0.26919050519125598 0 0.033821918158706138 -0.27707393290215671 0 0.034240698289148337 -0.25967273023798509 0 0.051624075113339378 -0.26919050519125598 0 0.034240698289148337 -0.25967273023798509 0 0.046498349670861652 -0.24826912251879649 0 0.034240698289148337 -0.25967273023798509 0 0.02296875629887114 -0.2464092256209898 0 0.046498349670861652 -0.24826912251879649 0 0.034240698289148337 -0.25967273023798509 0 0.0055944649301708496 -0.26664830233551728 0 0.02296875629887114 -0.2464092256209898 0 0.0090389661780101715 -0.28630695222689118 0 0.033821918158706138 -0.27707393290215671 0 0.0055944649301708496 -0.26664830233551728 0 0.033821918158706138 -0.27707393290215671 0 0.034240698289148337 -0.25967273023798509 0 0.0055944649301708496 -0.26664830233551728 0 0.033821918158706138 -0.27707393290215671 0 0.0055944649301708496 -0.26664830233551728 0 -0.0020851015340006161 -0.28052611142458661 0 0.0090389661780101715 -0.28630695222689118 0 0.0055944649301708496 -0.26664830233551728 0 0.0055944649301708496 -0.26664830233551728 0 0.0055632338660241776 -0.24332209518663511 0 0.02296875629887114 -0.2464092256209898 0 -0.0080727856436109482 -0.2481099565327444 0 0.0055944649301708496 -0.26664830233551728 0 0.0055632338660241776 -0.24332209518663511 0 0.0055632338660241776 -0.24332209518663511 0 0.0032521440618358652 -0.23009641691855939 0 0.019268989126464159 -0.2308348024940351 0 -0.0084819670471955304 -0.2367225590632196 0 0.0055632338660241776 -0.24332209518663511 0 0.0032521440618358652 -0.23009641691855939 0 -0.0075276580997289226 -0.21896018305478171 0 0.0032521440618358652 -0.23009641691855939 0 0.012041166441398349 -0.21677938876306921 0 0.0032521440618358652 -0.23009641691855939 0 0.019268989126464159 -0.2308348024940351 0 0.012041166441398349 -0.21677938876306921 0 0.019268989126464159 -0.2308348024940351 0 0.028464877365028059 -0.21915571909051779 0 0.012041166441398349 -0.21677938876306921 0 0.019268989126464159 -0.2308348024940351 0 0.028464877365028059 -0.21915571909051779 0 0.041174919052571327 -0.22964645066930789 0 0.0055632338660241776 -0.24332209518663511 0 0.019268989126464159 -0.2308348024940351 0 0.02296875629887114 -0.2464092256209898 0 0.019268989126464159 -0.2308348024940351 0 0.02296875629887114 -0.2464092256209898 0 0.041174919052571327 -0.22964645066930789 0 -0.0075276580997289226 -0.21896018305478171 0 0.003555539334036632 -0.19934620758084881 0 0.012041166441398349 -0.21677938876306921 0 0.003555539334036632 -0.19934620758084881 0 0.012041166441398349 -0.21677938876306921 0 0.02523310686075431 -0.20228300343967229 0 0.028464877365028059 -0.21915571909051779 0 0.012041166441398349 -0.21677938876306921 0 0.02523310686075431 -0.20228300343967229 0 0.02523310686075431 -0.20228300343967229 0 0.033125333554059701 -0.1865598477748947 0 0.018588522793563201 -0.18166153924030251 0 0.003555539334036632 -0.19934620758084881 0 0.02523310686075431 -0.20228300343967229 0 0.018588522793563201 -0.18166153924030251 0 0.048648578511840943 -0.20623258170594561 0 0.049880579816306267 -0.17970719815632741 0 0.033125333554059701 -0.1865598477748947 0 0.02523310686075431 -0.20228300343967229 0 0.048648578511840943 -0.20623258170594561 0 0.033125333554059701 -0.1865598477748947 0 0.028464877365028059 -0.21915571909051779 0 0.02523310686075431 -0.20228300343967229 0 0.048648578511840943 -0.20623258170594561 0 0.028464877365028059 -0.21915571909051779 0 0.048648578511840943 -0.20623258170594561 0 0.041174919052571327 -0.22964645066930789 0 0.048648578511840943 -0.20623258170594561 0 0.059757914812518881 -0.22869522271940709 0 0.066598585428591164 -0.21133354617687591 0 0.048648578511840943 -0.20623258170594561 0 0.067160325985138131 -0.18691533881804831 0 0.049880579816306267 -0.17970719815632741 0 0.048648578511840943 -0.20623258170594561 0 0.066598585428591164 -0.21133354617687591 0 0.067160325985138131 -0.18691533881804831 0 0.069858226628725775 -0.26015649827556059 0 0.046498349670861652 -0.24826912251879649 0 0.059757914812518881 -0.22869522271940709 0 0.02296875629887114 -0.2464092256209898 0 0.046498349670861652 -0.24826912251879649 0 0.041174919052571327 -0.22964645066930789 0 0.048648578511840943 -0.20623258170594561 0 0.041174919052571327 -0.22964645066930789 0 0.059757914812518881 -0.22869522271940709 0 0.046498349670861652 -0.24826912251879649 0 0.041174919052571327 -0.22964645066930789 0 0.059757914812518881 -0.22869522271940709 0 0.069858226628725775 -0.26015649827556059 0 0.059757914812518881 -0.22869522271940709 0 0.080941623453078815 -0.2334444244951252 0 0.069858226628725775 -0.26015649827556059 0 0.096521476943682558 -0.25181800011133371 0 0.080941623453078815 -0.2334444244951252 0 0.096521476943682558 -0.25181800011133371 0 0.080941623453078815 -0.2334444244951252 0 0.102389076685389 -0.22730157072293841 0 0.080941623453078815 -0.2334444244951252 0 0.084774701335263575 -0.20710845477049339 0 0.102389076685389 -0.22730157072293841 0 0.059757914812518881 -0.22869522271940709 0 0.080941623453078815 -0.2334444244951252 0 0.066598585428591164 -0.21133354617687591 0 0.080941623453078815 -0.2334444244951252 0 0.066598585428591164 -0.21133354617687591 0 0.084774701335263575 -0.20710845477049339 0 0.084774701335263575 -0.20710845477049339 0 0.067160325985138131 -0.18691533881804831 0 0.066598585428591164 -0.21133354617687591 0 0.084774701335263575 -0.20710845477049339 0 0.067160325985138131 -0.18691533881804831 0 0.092537347032927528 -0.18889969997864839 0 0.084774701335263575 -0.20710845477049339 0 0.067160325985138131 -0.18691533881804831 0 0.084774701335263575 -0.20710845477049339 0 0.102389076685389 -0.22730157072293841 0 0.084774701335263575 -0.20710845477049339 0 0.10575093398731179 -0.20517541990618701 0 0.102389076685389 -0.22730157072293841 0 0.092537347032927528 -0.18889969997864839 0 0.10575093398731179 -0.20517541990618701 0 0.11404320040195411 -0.17785048998131209 0 0.092537347032927528 -0.18889969997864839 0 0.084774701335263575 -0.20710845477049339 0 0.10575093398731179 -0.20517541990618701 0 0.10575093398731179 -0.20517541990618701 0 0.11404320040195411 -0.17785048998131209 0 0.12592289232087811 -0.19910656028939411 0 0.10575093398731179 -0.20517541990618701 0 0.1284413173888232 -0.22347585252773641 0 0.12592289232087811 -0.19910656028939411 0 0.10575093398731179 -0.20517541990618701 0 0.102389076685389 -0.22730157072293841 0 0.1284413173888232 -0.22347585252773641 0 0.1200034520355143 -0.24749468667538321 0 0.102389076685389 -0.22730157072293841 0 0.1284413173888232 -0.22347585252773641 0 0.1200034520355143 -0.24749468667538321 0 0.102389076685389 -0.22730157072293841 0 0.096521476943682558 -0.25181800011133371 0 0.1200034520355143 -0.24749468667538321 0 0.102389076685389 -0.22730157072293841 0 0.099885875260422058 -0.15149088269105351 0 0.1161887790728692 -0.1476769396888597 0 0.1105045846919957 -0.16013033574144619 0 0.099885875260422058 -0.15149088269105351 0 0.099597293261818404 -0.1347502866929414 0 0.1161887790728692 -0.1476769396888597 0 0.099597293261818404 -0.1347502866929414 0 0.1161887790728692 -0.1476769396888597 0 0.099597293261818404 -0.1347502866929414 0 0.1047785765018954 -0.13712350701568179 0 0.1161887790728692 -0.1476769396888597 0 0.099597293261818404 -0.1347502866929414 0 0.093527805260815264 -0.13002146576964491 0 0.104312872852085 -0.12243825994362539 0 0.099597293261818404 -0.1347502866929414 0 0.093527805260815264 -0.13002146576964491 0 0.099597293261818404 -0.1347502866929414 0 0.093527805260815264 -0.13002146576964491 0 0.092996203934319052 -0.1329056080468716 0 0.099597293261818404 -0.1347502866929414 0 0.1088944047617572 -0.13480079442927331 0 0.104312872852085 -0.12243825994362539 0 0.099597293261818404 -0.1347502866929414 0 0.1047785765018954 -0.13712350701568179 0 0.1088944047617572 -0.13480079442927331 0 0.099597293261818404 -0.1347502866929414 0 0.1088944047617572 -0.13480079442927331 0 0.1047785765018954 -0.13712350701568179 0 0.1088944047617572 -0.13480079442927331 0 0.1088944047617572 -0.13480079442927331 0 0.1161887790728692 -0.1476769396888597 0 0.13638976604354719 -0.13495016646355951 0 0.1088944047617572 -0.13480079442927331 0 0.12800820934211829 -0.12401417466047961 0 0.13638976604354719 -0.13495016646355951 0 0.1047785765018954 -0.13712350701568179 0 0.1088944047617572 -0.13480079442927331 0 0.1161887790728692 -0.1476769396888597 0 0.1088944047617572 -0.13480079442927331 0 0.104312872852085 -0.12243825994362539 0 0.12800820934211829 -0.12401417466047961 0 0.1088944047617572 -0.13480079442927331 0 0.12800820934211829 -0.12401417466047961 0 0.1088944047617572 -0.13480079442927331 0 0.13638976604354719 -0.13495016646355951 0 0.1161887790728692 -0.1476769396888597 0 0.1105045846919957 -0.16013033574144619 0 0.1305387904294309 -0.15561497697083931 0 0.1105045846919957 -0.16013033574144619 0 0.11404320040195411 -0.17785048998131209 0 0.1305387904294309 -0.15561497697083931 0 0.092537347032927528 -0.18889969997864839 0 0.11404320040195411 -0.17785048998131209 0 0.090957573454969964 -0.1674487964172009 0 0.1105045846919957 -0.16013033574144619 0 0.11404320040195411 -0.17785048998131209 0 0.090957573454969964 -0.1674487964172009 0 0.099885875260422058 -0.15149088269105351 0 0.1105045846919957 -0.16013033574144619 0 0.090957573454969964 -0.1674487964172009 0 0.099885875260422058 -0.15149088269105351 0 0.090957573454969964 -0.1674487964172009 0 0.080257725164813276 -0.1505404030764457 0 0.090957573454969964 -0.1674487964172009 0 0.065342325237630991 -0.1650228072456788 0 0.080257725164813276 -0.1505404030764457 0 0.092537347032927528 -0.18889969997864839 0 0.090957573454969964 -0.1674487964172009 0 0.067160325985138131 -0.18691533881804831 0 0.090957573454969964 -0.1674487964172009 0 0.067160325985138131 -0.18691533881804831 0 0.065342325237630991 -0.1650228072456788 0 0.065342325237630991 -0.1650228072456788 0 0.080257725164813276 -0.1505404030764457 0 0.056224073158944461 -0.14994265306170279 0 0.080257725164813276 -0.1505404030764457 0 0.069539210615093855 -0.1345869923500955 0 0.056224073158944461 -0.14994265306170279 0 0.099885875260422058 -0.15149088269105351 0 0.099597293261818404 -0.1347502866929414 0 0.080257725164813276 -0.1505404030764457 0 0.099597293261818404 -0.1347502866929414 0 0.080257725164813276 -0.1505404030764457 0 0.069539210615093855 -0.1345869923500955 0 0.099597293261818404 -0.1347502866929414 0 0.092996203934319052 -0.1329056080468716 0 0.069539210615093855 -0.1345869923500955 0 0.099597293261818404 -0.1347502866929414 0 0.069539210615093855 -0.1345869923500955 0 0.092996203934319052 -0.1329056080468716 0 0.069539210615093855 -0.1345869923500955 0 0.079322302472514483 -0.11895376470488229 0 0.093527805260815264 -0.13002146576964491 0 0.092996203934319052 -0.1329056080468716 0 0.079322302472514483 -0.11895376470488229 0 0.093527805260815264 -0.13002146576964491 0 0.092996203934319052 -0.1329056080468716 0 0.069539210615093855 -0.1345869923500955 0 0.052298963826290519 -0.1211548808236817 0 0.066569319149528045 -0.1206454253796948 0 0.069539210615093855 -0.1345869923500955 0 0.039481127968369292 -0.1344236980072451 0 0.052298963826290519 -0.1211548808236817 0 0.069539210615093855 -0.1345869923500955 0 0.056224073158944461 -0.14994265306170279 0 0.039481127968369292 -0.1344236980072451 0 0.069539210615093855 -0.1345869923500955 0 0.039481127968369292 -0.1344236980072451 0 0.056224073158944461 -0.14994265306170279 0 0.038811693183881758 -0.15444647348478721 0 0.047368807546727579 -0.16279517251764489 0 0.056224073158944461 -0.14994265306170279 0 0.038811693183881758 -0.15444647348478721 0 0.039481127968369292 -0.1344236980072451 0 0.038811693183881758 -0.15444647348478721 0 0.039481127968369292 -0.1344236980072451 0 0.019056913867763529 -0.155566515408149 0 0.034777770017858589 -0.1343981464191871 0 0.039481127968369292 -0.1344236980072451 0 0.022320289212787989 -0.1422177528203018 0 0.034777770017858589 -0.1343981464191871 0 0.039481127968369292 -0.1344236980072451 0 0.034777770017858589 -0.1343981464191871 0 0.029299678594365521 -0.12697140115214181 0 0.037800108132664212 -0.12348471533883321 0 0.034777770017858589 -0.1343981464191871 0 0.039481127968369292 -0.1344236980072451 0 0.037800108132664212 -0.12348471533883321 0 0.039481127968369292 -0.1344236980072451 0 0.052298963826290519 -0.1211548808236817 0 0.039481127968369292 -0.1344236980072451 0 0.052298963826290519 -0.1211548808236817 0 0.037800108132664212 -0.12348471533883321 0 0.067160325985138131 -0.18691533881804831 0 0.065342325237630991 -0.1650228072456788 0 0.049880579816306267 -0.17970719815632741 0 0.065342325237630991 -0.1650228072456788 0 0.049880579816306267 -0.17970719815632741 0 0.047368807546727579 -0.16279517251764489 0 0.065342325237630991 -0.1650228072456788 0 0.056224073158944461 -0.14994265306170279 0 0.047368807546727579 -0.16279517251764489 0 0.049880579816306267 -0.17970719815632741 0 0.047368807546727579 -0.16279517251764489 0 0.031927543377605602 -0.16950432842919569 0 0.038811693183881758 -0.15444647348478721 0 0.047368807546727579 -0.16279517251764489 0 0.031927543377605602 -0.16950432842919569 0 0.049880579816306267 -0.17970719815632741 0 0.031927543377605602 -0.16950432842919569 0 0.033125333554059701 -0.1865598477748947 0 0.031927543377605602 -0.16950432842919569 0 0.033125333554059701 -0.1865598477748947 0 0.018588522793563201 -0.18166153924030251 0 0.031927543377605602 -0.16950432842919569 0 0.018588522793563201 -0.18166153924030251 0 0.019056913867763529 -0.155566515408149 0 0.038811693183881758 -0.15444647348478721 0 0.031927543377605602 -0.16950432842919569 0 0.019056913867763529 -0.155566515408149 0 -0.0013673002328405961 -0.1767093328090546 0 0.018588522793563201 -0.18166153924030251 0 0.019056913867763529 -0.155566515408149 0 -0.0013673002328405961 -0.1767093328090546 0 0.019056913867763529 -0.155566515408149 0 -0.0013673002328405961 -0.1767093328090546 0 0.019056913867763529 -0.155566515408149 0 0.0027310736070901482 -0.15493719994590471 0 -0.0013673002328405961 -0.1767093328090546 0 0.003555539334036632 -0.19934620758084881 0 0.018588522793563201 -0.18166153924030251 0 0.020222670022858619 -0.12863691797839069 0 0.022320289212787989 -0.1422177528203018 0 0.0088678229424013627 -0.13941235935176011 0 0.020222670022858619 -0.12863691797839069 0 0.02665510196196769 -0.1330560545925053 0 0.022320289212787989 -0.1422177528203018 0 0.034777770017858589 -0.1343981464191871 0 0.029299678594365521 -0.12697140115214181 0 0.02665510196196769 -0.1330560545925053 0 0.020222670022858619 -0.12863691797839069 0 0.029299678594365521 -0.12697140115214181 0 0.02665510196196769 -0.1330560545925053 0 0.034777770017858589 -0.1343981464191871 0 0.02665510196196769 -0.1330560545925053 0 0.022320289212787989 -0.1422177528203018 0 0.039481127968369292 -0.1344236980072451 0 0.019056913867763529 -0.155566515408149 0 0.019056913867763529 -0.155566515408149 0 0.022320289212787989 -0.1422177528203018 0 0.0088678229424013627 -0.13941235935176011 0 0.039481127968369292 -0.1344236980072451 0 0.019056913867763529 -0.155566515408149 0 0.022320289212787989 -0.1422177528203018 0 0.019056913867763529 -0.155566515408149 0 0.0027310736070901482 -0.15493719994590471 0 0.0088678229424013627 -0.13941235935176011 0 0.020222670022858619 -0.12863691797839069 0 0.0088678229424013627 -0.13941235935176011 0 0.0015243557028834459 -0.11711868301268021 0 0.020222670022858619 -0.12863691797839069 0 0.0015243557028834459 -0.11711868301268021 0 0.0144479962461943 -0.1082343501681014 0 0.020222670022858619 -0.12863691797839069 0 0.02728947708542654 -0.1146689930447462 0 0.0144479962461943 -0.1082343501681014 0 0.020222670022858619 -0.12863691797839069 0 0.029299678594365521 -0.12697140115214181 0 0.02728947708542654 -0.1146689930447462 0 0.0144479962461943 -0.1082343501681014 0 0.01674231050701382 -0.093658367309864349 0 0.03170108987002046 -0.10050694789866579 0 0.02728947708542654 -0.1146689930447462 0 0.0144479962461943 -0.1082343501681014 0 0.03170108987002046 -0.10050694789866579 0 0.01674231050701382 -0.093658367309864349 0 0.02745527456064175 -0.089089442263575569 0 0.03170108987002046 -0.10050694789866579 0 0.0144479962461943 -0.1082343501681014 0 0.001856719827670471 -0.098182337095309047 0 0.01674231050701382 -0.093658367309864349 0 0.0015243557028834459 -0.11711868301268021 0 0.0144479962461943 -0.1082343501681014 0 0.001856719827670471 -0.098182337095309047 0 0.001856719827670471 -0.098182337095309047 0 0.0065051428120863272 -0.082127796022149757 0 0.01674231050701382 -0.093658367309864349 0 0.0065051428120863272 -0.082127796022149757 0 0.018539693253586439 -0.071597204448153262 0 0.01731060528333208 -0.084118202510935727 0 0.0065051428120863272 -0.082127796022149757 0 0.01674231050701382 -0.093658367309864349 0 0.01731060528333208 -0.084118202510935727 0 0.0065051428120863272 -0.082127796022149757 0 0.018539693253586439 -0.071597204448153262 0 0.00035237720396625368 -0.061086817302918282 0 0.018539693253586439 -0.071597204448153262 0 0.00035237720396625368 -0.061086817302918282 0 0.029337839486141829 -0.062098975348790997 0 0.018539693253586439 -0.071597204448153262 0 0.036998616429076953 -0.080413518666692163 0 0.029337839486141829 -0.062098975348790997 0 0.018539693253586439 -0.071597204448153262 0 0.039278739387756327 -0.087755278287702396 0 0.018539693253586439 -0.071597204448153262 0 0.02745527456064175 -0.089089442263575569 0 0.039278739387756327 -0.087755278287702396 0 0.018539693253586439 -0.071597204448153262 0 0.01731060528333208 -0.084118202510935727 0 0.02745527456064175 -0.089089442263575569 0 0.01674231050701382 -0.093658367309864349 0 0.01731060528333208 -0.084118202510935727 0 0.02745527456064175 -0.089089442263575569 0 0.018539693253586439 -0.071597204448153262 0 0.036998616429076953 -0.080413518666692163 0 0.039278739387756327 -0.087755278287702396 0 0.02745527456064175 -0.089089442263575569 0 0.039278739387756327 -0.087755278287702396 0 0.036114206476440321 -0.094502097047588079 0 0.036998616429076953 -0.080413518666692163 0 0.039278739387756327 -0.087755278287702396 0 0.050747139898636717 -0.081209848062237813 0 0.058323301768317432 -0.063111133394663815 0 0.029337839486141829 -0.062098975348790997 0 0.036998616429076953 -0.080413518666692163 0 0.058323301768317432 -0.063111133394663815 0 0.029337839486141829 -0.062098975348790997 0 0.036998616429076953 -0.080413518666692163 0 0.058323301768317432 -0.063111133394663815 0 0.058323301768317432 -0.063111133394663815 0 0.050747139898636717 -0.081209848062237813 0 0.060228637404373828 -0.081759239016750626 0 0.036998616429076953 -0.080413518666692163 0 0.058323301768317432 -0.063111133394663815 0 0.050747139898636717 -0.081209848062237813 0 0.039278739387756327 -0.087755278287702396 0 0.050747139898636717 -0.081209848062237813 0 0.060818353003097771 -0.090653503469919336 0 0.050747139898636717 -0.081209848062237813 0 0.060228637404373828 -0.081759239016750626 0 0.060818353003097771 -0.090653503469919336 0 0.060017785521926562 -0.10391335212725129 0 0.042153090511964017 -0.099193769589441219 0 0.043653631303676513 -0.1092911725859987 0 0.060017785521926562 -0.10391335212725129 0 0.043653631303676513 -0.1092911725859987 0 0.039278739387756327 -0.087755278287702396 0 0.060818353003097771 -0.090653503469919336 0 0.060017785521926562 -0.10391335212725129 0 0.060017785521926562 -0.10391335212725129 0 0.053375718786791107 -0.1112883554404277 0 0.043653631303676513 -0.1092911725859987 0 0.039278739387756327 -0.087755278287702396 0 0.060017785521926562 -0.10391335212725129 0 0.039278739387756327 -0.087755278287702396 0 0.060017785521926562 -0.10391335212725129 0 0.042153090511964017 -0.099193769589441219 0 0.060017785521926562 -0.10391335212725129 0 0.053375718786791107 -0.1112883554404277 0 0.065116799684213397 -0.10788606364011991 0 0.052298963826290519 -0.1211548808236817 0 0.066569319149528045 -0.1206454253796948 0 0.065116799684213397 -0.10788606364011991 0 0.052298963826290519 -0.1211548808236817 0 0.065116799684213397 -0.10788606364011991 0 0.052298963826290519 -0.1211548808236817 0 0.053375718786791107 -0.1112883554404277 0 0.065116799684213397 -0.10788606364011991 0 0.052298963826290519 -0.1211548808236817 0 0.053375718786791107 -0.1112883554404277 0 0.043653631303676513 -0.1092911725859987 0 0.02728947708542654 -0.1146689930447462 0 0.037800108132664212 -0.12348471533883321 0 0.043653631303676513 -0.1092911725859987 0 0.02728947708542654 -0.1146689930447462 0 0.043653631303676513 -0.1092911725859987 0 0.052298963826290519 -0.1211548808236817 0 0.037800108132664212 -0.12348471533883321 0 0.043653631303676513 -0.1092911725859987 0 0.029299678594365521 -0.12697140115214181 0 0.02728947708542654 -0.1146689930447462 0 0.037800108132664212 -0.12348471533883321 0 0.02728947708542654 -0.1146689930447462 0 0.03170108987002046 -0.10050694789866579 0 0.043653631303676513 -0.1092911725859987 0 0.036114206476440321 -0.094502097047588079 0 0.03170108987002046 -0.10050694789866579 0 0.042153090511964017 -0.099193769589441219 0 0.02745527456064175 -0.089089442263575569 0 0.036114206476440321 -0.094502097047588079 0 0.03170108987002046 -0.10050694789866579 0 0.039278739387756327 -0.087755278287702396 0 0.036114206476440321 -0.094502097047588079 0 0.042153090511964017 -0.099193769589441219 0 0.03170108987002046 -0.10050694789866579 0 0.042153090511964017 -0.099193769589441219 0 0.043653631303676513 -0.1092911725859987 0 0.025695344612614111 0.0095801541182225364 0 0.02812452509478746 -0.0099579005571815878 0 0.006935528729737548 -0.0054826371559186567 0 0.02812452509478746 -0.0099579005571815878 0 0.006935528729737548 -0.0054826371559186567 0 0.01889941714368459 -0.025130787452367569 0 0.006935528729737548 -0.0054826371559186567 0 0.0027408304473846411 -0.028176541972939319 0 0.01889941714368459 -0.025130787452367569 0 0.02812452509478746 -0.0099579005571815878 0 0.01889941714368459 -0.025130787452367569 0 0.035567370731091272 -0.02454493013615917 0 0.01889941714368459 -0.025130787452367569 0 0.02846567832778216 -0.042756626880165419 0 0.035567370731091272 -0.02454493013615917 0 0.01889941714368459 -0.025130787452367569 0 0.02846567832778216 -0.042756626880165419 0 0.0096258971738255473 -0.043108802377643002 0 0.02846567832778216 -0.042756626880165419 0 0.0096258971738255473 -0.043108802377643002 0 0.016945448047928951 -0.052262805477379423 0 0.01889941714368459 -0.025130787452367569 0 0.0096258971738255473 -0.043108802377643002 0 -0.01026660782967455 -0.041229232136501717 0 0.0027408304473846411 -0.028176541972939319 0 0.0096258971738255473 -0.043108802377643002 0 0.0027408304473846411 -0.028176541972939319 0 0.01889941714368459 -0.025130787452367569 0 0.0096258971738255473 -0.043108802377643002 0 0.0096258971738255473 -0.043108802377643002 0 0.00035237720396625368 -0.061086817302918282 0 0.016945448047928951 -0.052262805477379423 0 0.00035237720396625368 -0.061086817302918282 0 0.016945448047928951 -0.052262805477379423 0 0.029337839486141829 -0.062098975348790997 0 0.0096258971738255473 -0.043108802377643002 0 0.00035237720396625368 -0.061086817302918282 0 0.00035237720396625368 -0.061086817302918282 0 0.029337839486141829 -0.062098975348790997 0 0.02846567832778216 -0.042756626880165419 0 0.016945448047928951 -0.052262805477379423 0 0.029337839486141829 -0.062098975348790997 0 0.02846567832778216 -0.042756626880165419 0 0.029337839486141829 -0.062098975348790997 0 0.044041605111135473 -0.049431168693685697 0 0.058323301768317432 -0.063111133394663815 0 0.029337839486141829 -0.062098975348790997 0 0.044041605111135473 -0.049431168693685697 0 0.058323301768317432 -0.063111133394663815 0 0.044041605111135473 -0.049431168693685697 0 0.059903341899081253 -0.040049795258846832 0 0.059903341899081253 -0.040049795258846832 0 0.045154502468205723 -0.035444412579530127 0 0.052999286202529479 -0.022291816621987929 0 0.044041605111135473 -0.049431168693685697 0 0.059903341899081253 -0.040049795258846832 0 0.045154502468205723 -0.035444412579530127 0 0.02846567832778216 -0.042756626880165419 0 0.044041605111135473 -0.049431168693685697 0 0.045154502468205723 -0.035444412579530127 0 0.02846567832778216 -0.042756626880165419 0 0.045154502468205723 -0.035444412579530127 0 0.035567370731091272 -0.02454493013615917 0 0.045154502468205723 -0.035444412579530127 0 0.035567370731091272 -0.02454493013615917 0 0.052999286202529479 -0.022291816621987929 0 0.035567370731091272 -0.02454493013615917 0 0.052999286202529479 -0.022291816621987929 0 0.04138045704507981 -0.013293391242584921 0 0.02812452509478746 -0.0099579005571815878 0 0.035567370731091272 -0.02454493013615917 0 0.04138045704507981 -0.013293391242584921 0 0.059903341899081253 -0.040049795258846832 0 0.052999286202529479 -0.022291816621987929 0 0.073093181043766914 -0.026775388104941698 0 0.052999286202529479 -0.022291816621987929 0 0.049896637954744763 -0.0073960790217490677 0 0.04138045704507981 -0.013293391242584921 0 0.052999286202529479 -0.022291816621987929 0 0.049896637954744763 -0.0073960790217490677 0 0.066530330394949447 -0.012320269852860621 0 0.049896637954744763 -0.0073960790217490677 0 0.040314465242246092 -0.002276229875846851 0 0.04138045704507981 -0.013293391242584921 0 0.025695344612614111 0.0095801541182225364 0 0.02812452509478746 -0.0099579005571815878 0 0.040314465242246092 -0.002276229875846851 0 0.046640351189982193 0.001482106492276504 0 0.049896637954744763 -0.0073960790217490677 0 0.040314465242246092 -0.002276229875846851 0 0.02812452509478746 -0.0099579005571815878 0 0.040314465242246092 -0.002276229875846851 0 0.04138045704507981 -0.013293391242584921 0 0.075461568133428525 0.0044331687040122013 0 0.081703970602104437 -0.011974759962048749 0 0.098011391193308373 -0.0056982583262641584 0 0.075461568133428525 0.0044331687040122013 0 0.049896637954744763 -0.0073960790217490677 0 0.075461568133428525 0.0044331687040122013 0 0.049896637954744763 -0.0073960790217490677 0 0.066530330394949447 -0.012320269852860621 0 0.075461568133428525 0.0044331687040122013 0 0.081703970602104437 -0.011974759962048749 0 0.066530330394949447 -0.012320269852860621 0 0.081703970602104437 -0.011974759962048749 0 0.066530330394949447 -0.012320269852860621 0 0.073093181043766914 -0.026775388104941698 0 0.052999286202529479 -0.022291816621987929 0 0.066530330394949447 -0.012320269852860621 0 0.073093181043766914 -0.026775388104941698 0 0.081703970602104437 -0.011974759962048749 0 0.097837743661838034 -0.031049975793767819 0 0.098011391193308373 -0.0056982583262641584 0 0.081703970602104437 -0.011974759962048749 0 0.073093181043766914 -0.026775388104941698 0 0.097837743661838034 -0.031049975793767819 0 0.078080522715077566 -0.047080554594215653 0 0.097861902682226248 -0.045151270938537998 0 0.097837743661838034 -0.031049975793767819 0 0.073093181043766914 -0.026775388104941698 0 0.078080522715077566 -0.047080554594215653 0 0.097837743661838034 -0.031049975793767819 0 0.078080522715077566 -0.047080554594215653 0 0.097837743661838034 -0.031049975793767819 0 0.059903341899081253 -0.040049795258846832 0 0.073093181043766914 -0.026775388104941698 0 0.078080522715077566 -0.047080554594215653 0 0.058323301768317432 -0.063111133394663815 0 0.078080522715077566 -0.047080554594215653 0 0.058323301768317432 -0.063111133394663815 0 0.059903341899081253 -0.040049795258846832 0 0.078080522715077566 -0.047080554594215653 0 0.058323301768317432 -0.063111133394663815 0 0.078080522715077566 -0.047080554594215653 0 0.081939961595450139 -0.063935815506958552 0 0.078080522715077566 -0.047080554594215653 0 0.094142039140793971 -0.055881476276546937 0 0.081939961595450139 -0.063935815506958552 0 0.078080522715077566 -0.047080554594215653 0 0.094142039140793971 -0.055881476276546937 0 0.097861902682226248 -0.045151270938537998 0 0.094142039140793971 -0.055881476276546937 0 0.081939961595450139 -0.063935815506958552 0 0.1067368008806147 -0.064801708903802782 0 0.094142039140793971 -0.055881476276546937 0 0.1075629424949773 -0.053875431803618333 0 0.097861902682226248 -0.045151270938537998 0 0.094142039140793971 -0.055881476276546937 0 0.1075629424949773 -0.053875431803618333 0 0.1067368008806147 -0.064801708903802782 0 0.1075629424949773 -0.053875431803618333 0 0.1067368008806147 -0.064801708903802782 0 0.1075629424949773 -0.053875431803618333 0 0.1232921759667842 -0.047663851323270827 0 0.1067368008806147 -0.064801708903802782 0 0.1232921759667842 -0.047663851323270827 0 0.1067368008806147 -0.064801708903802782 0 0.1075629424949773 -0.053875431803618333 0 0.1232921759667842 -0.047663851323270827 0 0.1109518143893137 -0.039435966374661548 0 0.1232921759667842 -0.047663851323270827 0 0.1067368008806147 -0.064801708903802782 0 0.13548767730717889 -0.06580567532731052 0 0.1232921759667842 -0.047663851323270827 0 0.1109518143893137 -0.039435966374661548 0 0.124582941869709 -0.030507807285028901 0 0.1109518143893137 -0.039435966374661548 0 0.097861902682226248 -0.045151270938537998 0 0.097837743661838034 -0.031049975793767819 0 0.1075629424949773 -0.053875431803618333 0 0.1109518143893137 -0.039435966374661548 0 0.097861902682226248 -0.045151270938537998 0 0.097837743661838034 -0.031049975793767819 0 0.1175949646085984 -0.015019396993320021 0 0.097837743661838034 -0.031049975793767819 0 0.1175949646085984 -0.015019396993320021 0 0.098011391193308373 -0.0056982583262641584 0 0.1109518143893137 -0.039435966374661548 0 0.097837743661838034 -0.031049975793767819 0 0.1175949646085984 -0.015019396993320021 0 0.1109518143893137 -0.039435966374661548 0 0.124582941869709 -0.030507807285028901 0 0.1175949646085984 -0.015019396993320021 0 0.124582941869709 -0.030507807285028901 0 0.1175949646085984 -0.015019396993320021 0 0.13165260102391191 -0.019660205177744808 0 0.11882011836095251 0.0065886106746579649 0 0.1175949646085984 -0.015019396993320021 0 0.098011391193308373 -0.0056982583262641584 0 0.11882011836095251 0.0065886106746579649 0 0.13735218555535891 0.001011181807127467 0 0.1175949646085984 -0.015019396993320021 0 0.073111172643960082 -0.099610417542301155 0 0.10058413041743761 -0.090581864498492995 0 0.088608598291174498 -0.101420796185217 0 0.073111172643960082 -0.099610417542301155 0 0.10058413041743761 -0.090581864498492995 0 0.083297568291202648 -0.10670285905343881 0 0.088608598291174498 -0.101420796185217 0 0.073111172643960082 -0.099610417542301155 0 0.083297568291202648 -0.10670285905343881 0 0.088608598291174498 -0.101420796185217 0 0.097441521812097198 -0.10878804364663471 0 0.093527805260815264 -0.13002146576964491 0 0.079322302472514483 -0.11895376470488229 0 0.097441521812097198 -0.10878804364663471 0 0.083297568291202648 -0.10670285905343881 0 0.079322302472514483 -0.11895376470488229 0 0.097441521812097198 -0.10878804364663471 0 0.093527805260815264 -0.13002146576964491 0 0.079322302472514483 -0.11895376470488229 0 0.079322302472514483 -0.11895376470488229 0 0.065116799684213397 -0.10788606364011991 0 0.083297568291202648 -0.10670285905343881 0 0.079322302472514483 -0.11895376470488229 0 0.065116799684213397 -0.10788606364011991 0 0.079322302472514483 -0.11895376470488229 0 0.066569319149528045 -0.1206454253796948 0 0.065116799684213397 -0.10788606364011991 0 0.069539210615093855 -0.1345869923500955 0 0.079322302472514483 -0.11895376470488229 0 0.066569319149528045 -0.1206454253796948 0 0.060017785521926562 -0.10391335212725129 0 0.065116799684213397 -0.10788606364011991 0 0.060017785521926562 -0.10391335212725129 0 0.073111172643960082 -0.099610417542301155 0 0.065116799684213397 -0.10788606364011991 0 0.073111172643960082 -0.099610417542301155 0 0.083297568291202648 -0.10670285905343881 0 0.065116799684213397 -0.10788606364011991 0 0.073111172643960082 -0.099610417542301155 0 0.060017785521926562 -0.10391335212725129 0 0.065116799684213397 -0.10788606364011991 0 0.073111172643960082 -0.099610417542301155 0 0.060818353003097771 -0.090653503469919336 0 0.060017785521926562 -0.10391335212725129 0 0.073111172643960082 -0.099610417542301155 0 0.060818353003097771 -0.090653503469919336 0 0.073111172643960082 -0.099610417542301155 0 0.074211161232423301 -0.082716200610011378 0 0.060228637404373828 -0.081759239016750626 0 0.060818353003097771 -0.090653503469919336 0 0.074211161232423301 -0.082716200610011378 0 0.058323301768317432 -0.063111133394663815 0 0.081939961595450139 -0.063935815506958552 0 0.058323301768317432 -0.063111133394663815 0 0.074211161232423301 -0.082716200610011378 0 0.081939961595450139 -0.063935815506958552 0 0.058323301768317432 -0.063111133394663815 0 0.060228637404373828 -0.081759239016750626 0 0.074211161232423301 -0.082716200610011378 0 0.074211161232423301 -0.082716200610011378 0 0.081939961595450139 -0.063935815506958552 0 0.089190063779311518 -0.082965808471458069 0 0.081939961595450139 -0.063935815506958552 0 0.089190063779311518 -0.082965808471458069 0 0.1052689549146623 -0.0663211994006144 0 0.073111172643960082 -0.099610417542301155 0 0.074211161232423301 -0.082716200610011378 0 0.089190063779311518 -0.082965808471458069 0 0.073111172643960082 -0.099610417542301155 0 0.089190063779311518 -0.082965808471458069 0 0.073111172643960082 -0.099610417542301155 0 0.089190063779311518 -0.082965808471458069 0 0.10058413041743761 -0.090581864498492995 0 0.089190063779311518 -0.082965808471458069 0 0.1017080788123951 -0.087804556385465471 0 0.1052689549146623 -0.0663211994006144 0 0.089190063779311518 -0.082965808471458069 0 0.10058413041743761 -0.090581864498492995 0 0.1017080788123951 -0.087804556385465471 0 0.1017080788123951 -0.087804556385465471 0 0.1084674426683357 -0.077888137089068013 0 0.1052689549146623 -0.0663211994006144 0 0.089190063779311518 -0.082965808471458069 0 0.1052689549146623 -0.0663211994006144 0 0.081939961595450139 -0.063935815506958552 0 0.1067368008806147 -0.064801708903802782 0 0.1052689549146623 -0.0663211994006144 0 0.081939961595450139 -0.063935815506958552 0 0.1067368008806147 -0.064801708903802782 0 0.1017080788123951 -0.087804556385465471 0 0.1052689549146623 -0.0663211994006144 0 0.1084674426683357 -0.077888137089068013 0 0.1067368008806147 -0.064801708903802782 0 0.1052689549146623 -0.0663211994006144 0 0.1067368008806147 -0.064801708903802782 0 0.1052689549146623 -0.0663211994006144 0 0.1067368008806147 -0.064801708903802782 0 0.13548767730717889 -0.06580567532731052 0 0.1084674426683357 -0.077888137089068013 0 0.1067368008806147 -0.064801708903802782 0 0.1232061248222129 -0.075206297362028066 0 0.1067368008806147 -0.064801708903802782 0 0.1232061248222129 -0.075206297362028066 0 0.13548767730717889 -0.06580567532731052 0 0.1017080788123951 -0.087804556385465471 0 0.1084674426683357 -0.077888137089068013 0 0.1272797878356694 -0.088593758706814907 0 0.1017080788123951 -0.087804556385465471 0 0.1272797878356694 -0.088593758706814907 0 0.1084674426683357 -0.077888137089068013 0 0.1232061248222129 -0.075206297362028066 0 0.1272797878356694 -0.088593758706814907 0 0.1017080788123951 -0.087804556385465471 0 0.11567178204704499 -0.10568275569041199 0 0.1272797878356694 -0.088593758706814907 0 0.1017080788123951 -0.087804556385465471 0 0.11567178204704499 -0.10568275569041199 0 0.097441521812097198 -0.10878804364663471 0 0.1017080788123951 -0.087804556385465471 0 0.097441521812097198 -0.10878804364663471 0 0.088608598291174498 -0.101420796185217 0 0.10058413041743761 -0.090581864498492995 0 0.097441521812097198 -0.10878804364663471 0 0.10058413041743761 -0.090581864498492995 0 0.1017080788123951 -0.087804556385465471 0 0.097441521812097198 -0.10878804364663471 0 0.093527805260815264 -0.13002146576964491 0 0.097441521812097198 -0.10878804364663471 0 0.104312872852085 -0.12243825994362539 0 0.093527805260815264 -0.13002146576964491 0 0.097441521812097198 -0.10878804364663471 0 0.11567178204704499 -0.10568275569041199 0 0.097441521812097198 -0.10878804364663471 0 0.104312872852085 -0.12243825994362539 0 0.11567178204704499 -0.10568275569041199 0 0.104312872852085 -0.12243825994362539 0 0.12800820934211829 -0.12401417466047961 0 0.12800820934211829 -0.12401417466047961 0 0.14712201392247631 -0.1132275548916801 0 0.13655559816636781 -0.1031347463460832 0 0.12800820934211829 -0.12401417466047961 0 0.14712201392247631 -0.1132275548916801 0 0.11567178204704499 -0.10568275569041199 0 0.12800820934211829 -0.12401417466047961 0 0.13655559816636781 -0.1031347463460832 0 0.12800820934211829 -0.12401417466047961 0 0.14712201392247631 -0.1132275548916801 0 0.1486045981545247 -0.12747252536747111 0 0.14712201392247631 -0.1132275548916801 0 0.16095359288685571 -0.1184472051676727 0 0.1486045981545247 -0.12747252536747111 0 0.15146120268426411 -0.099532086410862586 0 0.13655559816636781 -0.1031347463460832 0 0.1528514968589437 -0.089382961028164357 0 0.14712201392247631 -0.1132275548916801 0 0.15146120268426411 -0.099532086410862586 0 0.16623581850283431 -0.10244093512288061 0 0.14712201392247631 -0.1132275548916801 0 0.15146120268426411 -0.099532086410862586 0 0.13655559816636781 -0.1031347463460832 0 0.11567178204704499 -0.10568275569041199 0 0.13655559816636781 -0.1031347463460832 0 0.1272797878356694 -0.088593758706814907 0 0.1272797878356694 -0.088593758706814907 0 0.13805891541926751 -0.078942206783145619 0 0.1528514968589437 -0.089382961028164357 0 0.1272797878356694 -0.088593758706814907 0 0.1528514968589437 -0.089382961028164357 0 0.13655559816636781 -0.1031347463460832 0 0.1272797878356694 -0.088593758706814907 0 0.1528514968589437 -0.089382961028164357 0 0.1232061248222129 -0.075206297362028066 0 0.1272797878356694 -0.088593758706814907 0 0.13805891541926751 -0.078942206783145619 0 0.1232061248222129 -0.075206297362028066 0 0.13805891541926751 -0.078942206783145619 0 0.13548767730717889 -0.06580567532731052 0 0.13548767730717889 -0.06580567532731052 0 0.16423855373374319 -0.066809641750814969 0 0.13548767730717889 -0.06580567532731052 0 0.1516507619880918 -0.076739651506421189 0 0.16423855373374319 -0.066809641750814969 0 0.13548767730717889 -0.06580567532731052 0 0.16423855373374319 -0.066809641750814969 0 0.16004124225532049 -0.061841453839887157 0 0.13805891541926751 -0.078942206783145619 0 0.13548767730717889 -0.06580567532731052 0 0.1516507619880918 -0.076739651506421189 0 0.13805891541926751 -0.078942206783145619 0 0.1516507619880918 -0.076739651506421189 0 0.1528514968589437 -0.089382961028164357 0 0.15146120268426411 -0.099532086410862586 0 0.1528514968589437 -0.089382961028164357 0 0.15581646250916109 -0.090151240212135456 0 0.1528514968589437 -0.089382961028164357 0 0.15581646250916109 -0.090151240212135456 0 0.17842320588221819 -0.090172163349513806 0 0.1528514968589437 -0.089382961028164357 0 0.17842320588221819 -0.090172163349513806 0 0.15581646250916109 -0.090151240212135456 0 0.16859491992305889 -0.093070393687126218 0 0.17842320588221819 -0.090172163349513806 0 0.1528514968589437 -0.089382961028164357 0 0.1653897445003264 -0.079862578323319361 0 0.17842320588221819 -0.090172163349513806 0 0.1516507619880918 -0.076739651506421189 0 0.1528514968589437 -0.089382961028164357 0 0.1653897445003264 -0.079862578323319361 0 0.1516507619880918 -0.076739651506421189 0 0.1653897445003264 -0.079862578323319361 0 0.16423855373374319 -0.066809641750814969 0 0.1653897445003264 -0.079862578323319361 0 0.16423855373374319 -0.066809641750814969 0 0.17833356117891219 -0.077628002067558224 0 0.16423855373374319 -0.066809641750814969 0 0.1727598808088672 -0.056322389892066158 0 0.1929894301603077 -0.067813608174319001 0 0.16423855373374319 -0.066809641750814969 0 0.1929894301603077 -0.067813608174319001 0 0.16423855373374319 -0.066809641750814969 0 0.17833356117891219 -0.077628002067558224 0 0.1929894301603077 -0.067813608174319001 0 0.17833356117891219 -0.077628002067558224 0 0.19040307974074269 -0.080139672987034255 0 0.1929894301603077 -0.067813608174319001 0 0.16859491992305889 -0.093070393687126218 0 0.17842320588221819 -0.090172163349513806 0 0.17335524666804841 -0.094081054567607611 0 0.17842320588221819 -0.090172163349513806 0 0.17824607109877541 -0.095663109832525739 0 0.17335524666804841 -0.094081054567607611 0 0.1653897445003264 -0.079862578323319361 0 0.17833356117891219 -0.077628002067558224 0 0.17842320588221819 -0.090172163349513806 0 0.17833356117891219 -0.077628002067558224 0 0.1854866420256687 -0.084161575248007242 0 0.19040307974074269 -0.080139672987034255 0 0.17833356117891219 -0.077628002067558224 0 0.17842320588221819 -0.090172163349513806 0 0.1854866420256687 -0.084161575248007242 0 0.18404025852736719 -0.096743595743047278 0 0.18504385230606449 -0.10434071571553651 0 0.19243594079672521 -0.096163448387799222 0 0.17824607109877541 -0.095663109832525739 0 0.18504385230606449 -0.10434071571553651 0 0.16623581850283431 -0.10244093512288061 0 0.18504385230606449 -0.10434071571553651 0 0.18014950107347269 -0.1188522098678762 0 0.16623581850283431 -0.10244093512288061 0 0.18404025852736719 -0.096743595743047278 0 0.17824607109877541 -0.095663109832525739 0 0.18504385230606449 -0.10434071571553651 0 0.17842320588221819 -0.090172163349513806 0 0.18404025852736719 -0.096743595743047278 0 0.19243594079672521 -0.096163448387799222 0 0.17842320588221819 -0.090172163349513806 0 0.18404025852736719 -0.096743595743047278 0 0.17824607109877541 -0.095663109832525739 0 0.17824607109877541 -0.095663109832525739 0 0.17335524666804841 -0.094081054567607611 0 0.16623581850283431 -0.10244093512288061 0 0.17824607109877541 -0.095663109832525739 0 0.16623581850283431 -0.10244093512288061 0 0.18504385230606449 -0.10434071571553651 0 0.18014950107347269 -0.1188522098678762 0 0.1922879604253335 -0.1099500278873989 0 0.18014950107347269 -0.1188522098678762 0 0.16623581850283431 -0.10244093512288061 0 0.18014950107347269 -0.1188522098678762 0 0.16095359288685571 -0.1184472051676727 0 0.16623581850283431 -0.10244093512288061 0 0.14712201392247631 -0.1132275548916801 0 0.16095359288685571 -0.1184472051676727 0 0.16623581850283431 -0.10244093512288061 0 0.18014950107347269 -0.1188522098678762 0 0.16095359288685571 -0.1184472051676727 0 0.16265603278097029 -0.1302428005884553 0 0.14712201392247631 -0.1132275548916801 0 0.16623581850283431 -0.10244093512288061 0 0.15581646250916109 -0.090151240212135456 0 0.16859491992305889 -0.093070393687126218 0 0.16623581850283431 -0.10244093512288061 0 0.15146120268426411 -0.099532086410862586 0 0.15581646250916109 -0.090151240212135456 0 0.16623581850283431 -0.10244093512288061 0 0.15581646250916109 -0.090151240212135456 0 0.16623581850283431 -0.10244093512288061 0 0.16859491992305889 -0.093070393687126218 0 0.17335524666804841 -0.094081054567607611 0 0.16623581850283431 -0.10244093512288061 0 0.13735218555535891 0.001011181807127467 0 0.1449152044553462 -0.019939696741877431 0 0.14216046477152491 0.0049125148476896544 0 0.15727218843160701 -0.01758578836774349 0 0.15849764294065671 -0.0060544572746906826 0 0.14216046477152491 0.0049125148476896544 0 0.15727218843160701 -0.01758578836774349 0 0.14216046477152491 0.0049125148476896544 0 0.1449152044553462 -0.019939696741877431 0 0.15727218843160701 -0.01758578836774349 0 0.14216046477152491 0.0049125148476896544 0 0.13735218555535891 0.001011181807127467 0 0.1449152044553462 -0.019939696741877431 0 0.13735218555535891 0.001011181807127467 0 0.1175949646085984 -0.015019396993320021 0 0.13735218555535891 0.001011181807127467 0 0.1175949646085984 -0.015019396993320021 0 0.13165260102391191 -0.019660205177744808 0 0.13735218555535891 0.001011181807127467 0 0.13165260102391191 -0.019660205177744808 0 0.1449152044553462 -0.019939696741877431 0 0.13165260102391191 -0.019660205177744808 0 0.13984755105295521 -0.030525993742740402 0 0.1449152044553462 -0.019939696741877431 0 0.124582941869709 -0.030507807285028901 0 0.13165260102391191 -0.019660205177744808 0 0.13984755105295521 -0.030525993742740402 0 0.1449152044553462 -0.019939696741877431 0 0.15247822335533329 -0.040890575290882317 0 0.15727218843160701 -0.01758578836774349 0 0.13984755105295521 -0.030525993742740402 0 0.1449152044553462 -0.019939696741877431 0 0.15247822335533329 -0.040890575290882317 0 0.1449152044553462 -0.019939696741877431 0 0.15247822335533329 -0.040890575290882317 0 0.15247822335533329 -0.040890575290882317 0 0.1379109625223634 -0.045605004272587249 0 0.14629243763992239 -0.054068479542427092 0 0.13984755105295521 -0.030525993742740402 0 0.15247822335533329 -0.040890575290882317 0 0.1379109625223634 -0.045605004272587249 0 0.1232921759667842 -0.047663851323270827 0 0.13984755105295521 -0.030525993742740402 0 0.1379109625223634 -0.045605004272587249 0 0.1232921759667842 -0.047663851323270827 0 0.124582941869709 -0.030507807285028901 0 0.13984755105295521 -0.030525993742740402 0 0.1232921759667842 -0.047663851323270827 0 0.13984755105295521 -0.030525993742740402 0 0.1232921759667842 -0.047663851323270827 0 0.13548767730717889 -0.06580567532731052 0 0.1379109625223634 -0.045605004272587249 0 0.13548767730717889 -0.06580567532731052 0 0.1379109625223634 -0.045605004272587249 0 0.14629243763992239 -0.054068479542427092 0 0.13548767730717889 -0.06580567532731052 0 0.14629243763992239 -0.054068479542427092 0 0.16004124225532049 -0.061841453839887157 0 0.15247822335533329 -0.040890575290882317 0 0.14629243763992239 -0.054068479542427092 0 0.16004124225532049 -0.061841453839887157 0 0.15247822335533329 -0.040890575290882317 0 0.16004124225532049 -0.061841453839887157 0 0.1644158146278025 -0.049784627651503079 0 0.1644158146278025 -0.049784627651503079 0 0.1727598808088672 -0.056322389892066158 0 0.1723839120916891 -0.040084091583176683 0 0.15247822335533329 -0.040890575290882317 0 0.16004124225532049 -0.061841453839887157 0 0.16423855373374319 -0.066809641750814969 0 0.16004124225532049 -0.061841453839887157 0 0.1727598808088672 -0.056322389892066158 0 0.16004124225532049 -0.061841453839887157 0 0.1644158146278025 -0.049784627651503079 0 0.1727598808088672 -0.056322389892066158 0 0.1727598808088672 -0.056322389892066158 0 0.18434240851125541 -0.050289724698312777 0 0.1723839120916891 -0.040084091583176683 0 0.1727598808088672 -0.056322389892066158 0 0.18434240851125541 -0.050289724698312777 0 0.1929894301603077 -0.067813608174319001 0 0.1723839120916891 -0.040084091583176683 0 0.18077822909658589 -0.032018797610549231 0 0.17598651952492231 -0.0227560541305885 0 0.18434240851125541 -0.050289724698312777 0 0.1723839120916891 -0.040084091583176683 0 0.18674227588606429 -0.037749552466939278 0 0.1723839120916891 -0.040084091583176683 0 0.18674227588606429 -0.037749552466939278 0 0.18077822909658589 -0.032018797610549231 0 0.18674227588606429 -0.037749552466939278 0 0.18077822909658589 -0.032018797610549231 0 0.18610830639217099 -0.030062433202775862 0 0.15247822335533329 -0.040890575290882317 0 0.1723839120916891 -0.040084091583176683 0 0.15727218843160701 -0.01758578836774349 0 0.15247822335533329 -0.040890575290882317 0 0.1644158146278025 -0.049784627651503079 0 0.1723839120916891 -0.040084091583176683 0 0.1723839120916891 -0.040084091583176683 0 0.15727218843160701 -0.01758578836774349 0 0.1723839120916891 -0.040084091583176683 0 0.1668946229318731 -0.019675061199070819 0 0.17598651952492231 -0.0227560541305885 0 0.1723839120916891 -0.040084091583176683 0 0.15727218843160701 -0.01758578836774349 0 0.1668946229318731 -0.019675061199070819 0 0.1668946229318731 -0.019675061199070819 0 0.17598651952492231 -0.0227560541305885 0 0.16985348277487761 -0.0099868764823510571 0 0.18077822909658589 -0.032018797610549231 0 0.18438258456793261 -0.021379302004443181 0 0.17598651952492231 -0.0227560541305885 0 0.18077822909658589 -0.032018797610549231 0 0.18610830639217099 -0.030062433202775862 0 0.18438258456793261 -0.021379302004443181 0 0.18438258456793261 -0.021379302004443181 0 0.17598651952492231 -0.0227560541305885 0 0.17878486519392331 -0.011645355321630489 0 0.17598651952492231 -0.0227560541305885 0 0.17878486519392331 -0.011645355321630489 0 0.16985348277487761 -0.0099868764823510571 0 0.17878486519392331 -0.011645355321630489 0 0.17506184651935949 -0.0021247232161890161 0 0.16985348277487761 -0.0099868764823510571 0 0.18438258456793261 -0.021379302004443181 0 0.17878486519392331 -0.011645355321630489 0 0.18863989258252481 -0.001979820774580698 0 0.17878486519392331 -0.011645355321630489 0 0.17506184651935949 -0.0021247232161890161 0 0.18863989258252481 -0.001979820774580698 0 0.1628037813635097 0.0015330777282007481 0 0.17506184651935949 -0.0021247232161890161 0 0.16985348277487761 -0.0099868764823510571 0 0.1668946229318731 -0.019675061199070819 0 0.16985348277487761 -0.0099868764823510571 0 0.15849764294065671 -0.0060544572746906826 0 0.15727218843160701 -0.01758578836774349 0 0.1668946229318731 -0.019675061199070819 0 0.15849764294065671 -0.0060544572746906826 0 0.1628037813635097 0.0015330777282007481 0 0.16985348277487761 -0.0099868764823510571 0 0.15849764294065671 -0.0060544572746906826 0 0.1628037813635097 0.0015330777282007481 0 0.15453230216132671 0.0032055715019124438 0 0.15849764294065671 -0.0060544572746906826 0 0.21174544862736719 0.0096628206364345465 0 0.20589386385567829 -0.0063134785331596111 0 0.2185782736923042 -0.0038367730406402641 0 0.20589386385567829 -0.0063134785331596111 0 0.2185782736923042 -0.0038367730406402641 0 0.2199828155312514 -0.0225516893132638 0 0.20589386385567829 -0.0063134785331596111 0 0.18863989258252481 -0.001979820774580698 0 0.1936475112771239 -0.030998707124919651 0 0.20589386385567829 -0.0063134785331596111 0 0.1936475112771239 -0.030998707124919651 0 0.20001428446098229 -0.034334459813343092 0 0.18863989258252481 -0.001979820774580698 0 0.1936475112771239 -0.030998707124919651 0 0.20589386385567829 -0.0063134785331596111 0 0.20001428446098229 -0.034334459813343092 0 0.18438258456793261 -0.021379302004443181 0 0.18863989258252481 -0.001979820774580698 0 0.1936475112771239 -0.030998707124919651 0 0.18610830639217099 -0.030062433202775862 0 0.18438258456793261 -0.021379302004443181 0 0.1936475112771239 -0.030998707124919651 0 0.20589386385567829 -0.0063134785331596111 0 0.20001428446098229 -0.034334459813343092 0 0.2199828155312514 -0.0225516893132638 0 0.20001428446098229 -0.034334459813343092 0 0.22061008072662569 -0.045125245157715169 0 0.20001428446098229 -0.034334459813343092 0 0.22061008072662569 -0.045125245157715169 0 0.2199828155312514 -0.0225516893132638 0 0.20001428446098229 -0.034334459813343092 0 0.19683654360934791 -0.049478981375062181 0 0.22061008072662569 -0.045125245157715169 0 0.1936475112771239 -0.030998707124919651 0 0.19683654360934791 -0.049478981375062181 0 0.18674227588606429 -0.037749552466939278 0 0.1936475112771239 -0.030998707124919651 0 0.19683654360934791 -0.049478981375062181 0 0.1936475112771239 -0.030998707124919651 0 0.20001428446098229 -0.034334459813343092 0 0.19683654360934791 -0.049478981375062181 0 0.1936475112771239 -0.030998707124919651 0 0.20001428446098229 -0.034334459813343092 0 0.18674227588606429 -0.037749552466939278 0 0.18610830639217099 -0.030062433202775862 0 0.1936475112771239 -0.030998707124919651 0 0.18434240851125541 -0.050289724698312777 0 0.18674227588606429 -0.037749552466939278 0 0.19683654360934791 -0.049478981375062181 0 0.20001428446098229 -0.034334459813343092 0 0.19683654360934791 -0.049478981375062181 0 0.19683654360934791 -0.049478981375062181 0 0.1929894301603077 -0.067813608174319001 0 0.2000429458732931 -0.068059913463883598 0 0.19683654360934791 -0.049478981375062181 0 0.21158346953455981 -0.057932445704329483 0 0.2000429458732931 -0.068059913463883598 0 0.19683654360934791 -0.049478981375062181 0 0.2000429458732931 -0.068059913463883598 0 0.19683654360934791 -0.049478981375062181 0 0.1929894301603077 -0.067813608174319001 0 0.18434240851125541 -0.050289724698312777 0 0.19683654360934791 -0.049478981375062181 0 0.1929894301603077 -0.067813608174319001 0 0.19683654360934791 -0.049478981375062181 0 0.21158346953455981 -0.057932445704329483 0 0.22061008072662569 -0.045125245157715169 0 0.24120587699226881 -0.055916030502087773 0 0.22061008072662569 -0.045125245157715169 0 0.2288443079289719 -0.069065642820655804 0 0.21158346953455981 -0.057932445704329483 0 0.22061008072662569 -0.045125245157715169 0 0.2288443079289719 -0.069065642820655804 0 0.24120587699226881 -0.055916030502087773 0 0.22061008072662569 -0.045125245157715169 0 0.25030159180115191 -0.034143426788088307 0 0.24120587699226881 -0.055916030502087773 0 0.23430517811137791 -0.037629801295311363 0 0.25030159180115191 -0.034143426788088307 0 0.23430517811137791 -0.037629801295311363 0 0.23651070060392609 -0.023431292744830981 0 0.22061008072662569 -0.045125245157715169 0 0.23430517811137791 -0.037629801295311363 0 0.2199828155312514 -0.0225516893132638 0 0.24120587699226881 -0.055916030502087773 0 0.22061008072662569 -0.045125245157715169 0 0.23430517811137791 -0.037629801295311363 0 0.2199828155312514 -0.0225516893132638 0 0.23651070060392609 -0.023431292744830981 0 0.2300866381754704 -0.0072438550720441714 0 0.23430517811137791 -0.037629801295311363 0 0.2199828155312514 -0.0225516893132638 0 0.23651070060392609 -0.023431292744830981 0 0.25030159180115191 -0.034143426788088307 0 0.23651070060392609 -0.023431292744830981 0 0.2464198669495459 -0.012097030270161889 0 0.23790413247208811 0.0091049515404343275 0 0.2464198669495459 -0.012097030270161889 0 0.2300866381754704 -0.0072438550720441714 0 0.23651070060392609 -0.023431292744830981 0 0.2464198669495459 -0.012097030270161889 0 0.2300866381754704 -0.0072438550720441714 0 0.2185782736923042 -0.0038367730406402641 0 0.2199828155312514 -0.0225516893132638 0 0.2300866381754704 -0.0072438550720441714 0 0.22518260227175371 0.0072623370788317187 0 0.2185782736923042 -0.0038367730406402641 0 0.2300866381754704 -0.0072438550720441714 0 0.20666963866093291 -0.1113398018781358 0 0.20399491490549271 -0.090961365670864353 0 0.20666963866093291 -0.1113398018781358 0 0.23081911420975029 -0.091789222750733895 0 0.20666963866093291 -0.1113398018781358 0 0.20399491490549271 -0.090961365670864353 0 0.23081911420975029 -0.091789222750733895 0 0.2184940671700534 -0.12394732724419751 0 0.20666963866093291 -0.1113398018781358 0 0.22056261316880149 -0.1108234873110058 0 0.2184940671700534 -0.12394732724419751 0 0.20975191972323501 -0.12432290509972491 0 0.20666963866093291 -0.1113398018781358 0 0.2184940671700534 -0.12394732724419751 0 0.20666963866093291 -0.1113398018781358 0 0.20975191972323501 -0.12432290509972491 0 0.20666963866093291 -0.1113398018781358 0 0.1971408692894723 -0.1190539635876471 0 0.20975191972323501 -0.12432290509972491 0 0.20666963866093291 -0.1113398018781358 0 0.18014950107347269 -0.1188522098678762 0 0.1971408692894723 -0.1190539635876471 0 0.19406318364410949 -0.13526348461287321 0 0.20666963866093291 -0.1113398018781358 0 0.1971408692894723 -0.1190539635876471 0 0.18014950107347269 -0.1188522098678762 0 0.1971408692894723 -0.1190539635876471 0 0.1922879604253335 -0.1099500278873989 0 0.20666963866093291 -0.1113398018781358 0 0.1971408692894723 -0.1190539635876471 0 0.1922879604253335 -0.1099500278873989 0 0.20666963866093291 -0.1113398018781358 0 0.19243594079672521 -0.096163448387799222 0 0.20399491490549271 -0.090961365670864353 0 0.18504385230606449 -0.10434071571553651 0 0.1922879604253335 -0.1099500278873989 0 0.19243594079672521 -0.096163448387799222 0 0.20666963866093291 -0.1113398018781358 0 0.1922879604253335 -0.1099500278873989 0 0.19243594079672521 -0.096163448387799222 0 0.20666963866093291 -0.1113398018781358 0 0.19243594079672521 -0.096163448387799222 0 0.1854866420256687 -0.084161575248007242 0 0.19040307974074269 -0.080139672987034255 0 0.20399491490549271 -0.090961365670864353 0 0.17842320588221819 -0.090172163349513806 0 0.19243594079672521 -0.096163448387799222 0 0.20399491490549271 -0.090961365670864353 0 0.17842320588221819 -0.090172163349513806 0 0.20399491490549271 -0.090961365670864353 0 0.17842320588221819 -0.090172163349513806 0 0.1854866420256687 -0.084161575248007242 0 0.20399491490549271 -0.090961365670864353 0 0.2000429458732931 -0.068059913463883598 0 0.20399491490549271 -0.090961365670864353 0 0.19040307974074269 -0.080139672987034255 0 0.2000429458732931 -0.068059913463883598 0 0.20399491490549271 -0.090961365670864353 0 0.19040307974074269 -0.080139672987034255 0 0.1929894301603077 -0.067813608174319001 0 0.2000429458732931 -0.068059913463883598 0 0.19040307974074269 -0.080139672987034255 0 0.1929894301603077 -0.067813608174319001 0 0.1929894301603077 -0.067813608174319001 0 0.2000429458732931 -0.068059913463883598 0 0.2000429458732931 -0.068059913463883598 0 0.2288443079289719 -0.069065642820655804 0 0.2000429458732931 -0.068059913463883598 0 0.21771238563745279 -0.081480669998114597 0 0.2288443079289719 -0.069065642820655804 0 0.21158346953455981 -0.057932445704329483 0 0.2000429458732931 -0.068059913463883598 0 0.2288443079289719 -0.069065642820655804 0 0.2000429458732931 -0.068059913463883598 0 0.20399491490549271 -0.090961365670864353 0 0.21771238563745279 -0.081480669998114597 0 0.20399491490549271 -0.090961365670864353 0 0.21771238563745279 -0.081480669998114597 0 0.23081911420975029 -0.091789222750733895 0 0.20399491490549271 -0.090961365670864353 0 0.23081911420975029 -0.091789222750733895 0 0.21771238563745279 -0.081480669998114597 0 0.23081911420975029 -0.091789222750733895 0 0.2288443079289719 -0.069065642820655804 0 0.25764566998465072 -0.070071372177431313 0 0.24120587699226881 -0.055916030502087773 0 0.2288443079289719 -0.069065642820655804 0 0.25764566998465072 -0.070071372177431313 0 0.2288443079289719 -0.069065642820655804 0 0.25764566998465072 -0.070071372177431313 0 0.2288443079289719 -0.069065642820655804 0 0.24423239209720191 -0.080930297464084477 0 0.25666672159796139 -0.092586939936295867 0 0.23081911420975029 -0.091789222750733895 0 0.23081911420975029 -0.091789222750733895 0 0.2288443079289719 -0.069065642820655804 0 0.24423239209720191 -0.080930297464084477 0 0.25666672159796139 -0.092586939936295867 0 0.23081911420975029 -0.091789222750733895 0 0.24423239209720191 -0.080930297464084477 0 0.23081911420975029 -0.091789222750733895 0 0.24423239209720191 -0.080930297464084477 0 0.25666672159796139 -0.092586939936295867 0 0.23081911420975029 -0.091789222750733895 0 0.23839025179526999 -0.1151992729885977 0 0.20666963866093291 -0.1113398018781358 0 0.23081911420975029 -0.091789222750733895 0 0.22056261316880149 -0.1108234873110058 0 0.23081911420975029 -0.091789222750733895 0 0.22056261316880149 -0.1108234873110058 0 0.23839025179526999 -0.1151992729885977 0 0.2184940671700534 -0.12394732724419751 0 0.22056261316880149 -0.1108234873110058 0 0.23839025179526999 -0.1151992729885977 0 0.2184940671700534 -0.12394732724419751 0 0.23839025179526999 -0.1151992729885977 0 0.22928680998153819 -0.13545484142638689 0 0.25915390151091949 -0.11811210275817149 0 0.25133622254172122 -0.13557462765415079 0 0.23839025179526999 -0.1151992729885977 0 0.25133622254172122 -0.13557462765415079 0 0.25208407187516418 -0.1419613505697605 0 0.23274332603383319 -0.13914027229300069 0 0.25133622254172122 -0.13557462765415079 0 0.23839025179526999 -0.1151992729885977 0 0.22928680998153819 -0.13545484142638689 0 0.25133622254172122 -0.13557462765415079 0 0.22928680998153819 -0.13545484142638689 0 0.25133622254172122 -0.13557462765415079 0 0.23274332603383319 -0.13914027229300069 0 0.22928680998153819 -0.13545484142638689 0 0.25208407187516418 -0.1419613505697605 0 0.23274332603383319 -0.13914027229300069 0 0.2530488896403309 -0.16079061319898569 0 0.23274332603383319 -0.13914027229300069 0 0.2530488896403309 -0.16079061319898569 0 0.23274332603383319 -0.13914027229300069 0 0.2334622085995452 -0.15779257262933219 0 0.2530488896403309 -0.16079061319898569 0 0.25208407187516418 -0.1419613505697605 0 0.23274332603383319 -0.13914027229300069 0 0.22694604844669111 -0.15137512496012309 0 0.2202725953444182 -0.1456731206256075 0 0.22100128495381829 -0.16152072110389429 0 0.22694604844669111 -0.15137512496012309 0 0.23274332603383319 -0.13914027229300069 0 0.2334622085995452 -0.15779257262933219 0 0.22694604844669111 -0.15137512496012309 0 0.2202725953444182 -0.1456731206256075 0 0.23274332603383319 -0.13914027229300069 0 0.23274332603383319 -0.13914027229300069 0 0.20959101376118139 -0.13576323162740581 0 0.22928680998153819 -0.13545484142638689 0 0.2116749968128239 -0.1353591630196288 0 0.23274332603383319 -0.13914027229300069 0 0.22928680998153819 -0.13545484142638689 0 0.2116749968128239 -0.1353591630196288 0 0.2184940671700534 -0.12394732724419751 0 0.22928680998153819 -0.13545484142638689 0 0.2116749968128239 -0.1353591630196288 0 0.2202725953444182 -0.1456731206256075 0 0.23274332603383319 -0.13914027229300069 0 0.20959101376118139 -0.13576323162740581 0 0.23274332603383319 -0.13914027229300069 0 0.22928680998153819 -0.13545484142638689 0 0.2184940671700534 -0.12394732724419751 0 0.22928680998153819 -0.13545484142638689 0 0.23274332603383319 -0.13914027229300069 0 0.20959101376118139 -0.13576323162740581 0 0.2116749968128239 -0.1353591630196288 0 0.20975191972323501 -0.12432290509972491 0 0.2116749968128239 -0.1353591630196288 0 0.19406318364410949 -0.13526348461287321 0 0.2184940671700534 -0.12394732724419751 0 0.20975191972323501 -0.12432290509972491 0 0.2116749968128239 -0.1353591630196288 0 0.20959101376118139 -0.13576323162740581 0 0.2116749968128239 -0.1353591630196288 0 0.19406318364410949 -0.13526348461287321 0 0.2202725953444182 -0.1456731206256075 0 0.21077041390333781 -0.15496976615408631 0 0.22100128495381829 -0.16152072110389429 0 0.2202725953444182 -0.1456731206256075 0 0.20959101376118139 -0.13576323162740581 0 0.21077041390333781 -0.15496976615408631 0 0.20959101376118139 -0.13576323162740581 0 0.21077041390333781 -0.15496976615408631 0 0.19406318364410949 -0.13526348461287321 0 0.21077041390333781 -0.15496976615408631 0 0.19019323353294471 -0.15547991582157239 0 0.19406318364410949 -0.13526348461287321 0 0.21077041390333781 -0.15496976615408631 0 0.19406318364410949 -0.13526348461287321 0 0.20975191972323501 -0.12432290509972491 0 0.1971408692894723 -0.1190539635876471 0 0.19406318364410949 -0.13526348461287321 0 0.2116749968128239 -0.1353591630196288 0 0.19406318364410949 -0.13526348461287321 0 0.2064216300685435 -0.1763378775815001 0 0.19333004299069351 -0.19482382871724169 0 0.185888281266576 -0.1738959907954824 0 0.21077041390333781 -0.15496976615408631 0 0.19019323353294471 -0.15547991582157239 0 0.2064216300685435 -0.1763378775815001 0 0.19019323353294471 -0.15547991582157239 0 0.2064216300685435 -0.1763378775815001 0 0.185888281266576 -0.1738959907954824 0 0.21077041390333781 -0.15496976615408631 0 0.2064216300685435 -0.1763378775815001 0 0.22100128495381829 -0.16152072110389429 0 0.2064216300685435 -0.1763378775815001 0 0.22637928715471201 -0.1750627007060517 0 0.22100128495381829 -0.16152072110389429 0 0.2064216300685435 -0.1763378775815001 0 0.22637928715471201 -0.1750627007060517 0 0.2213864998634191 -0.19074186604973761 0 0.22637928715471201 -0.1750627007060517 0 0.2363010186387848 -0.18586727398715949 0 0.2213864998634191 -0.19074186604973761 0 0.22637928715471201 -0.1750627007060517 0 0.22100128495381829 -0.16152072110389429 0 0.2334622085995452 -0.15779257262933219 0 0.22637928715471201 -0.1750627007060517 0 0.2334622085995452 -0.15779257262933219 0 0.24133419147104179 -0.17110858194103351 0 0.22694604844669111 -0.15137512496012309 0 0.22100128495381829 -0.16152072110389429 0 0.2334622085995452 -0.15779257262933219 0 0.2530488896403309 -0.16079061319898569 0 0.2334622085995452 -0.15779257262933219 0 0.24133419147104179 -0.17110858194103351 0 0.2550208565069661 -0.17514012483034949 0 0.2530488896403309 -0.16079061319898569 0 0.24133419147104179 -0.17110858194103351 0 0.22637928715471201 -0.1750627007060517 0 0.24133419147104179 -0.17110858194103351 0 0.2363010186387848 -0.18586727398715949 0 0.25030889548151403 -0.1837077448593728 0 0.2550208565069661 -0.17514012483034949 0 0.24133419147104179 -0.17110858194103351 0 0.25030889548151403 -0.1837077448593728 0 0.24133419147104179 -0.17110858194103351 0 0.2363010186387848 -0.18586727398715949 0 0.25030889548151403 -0.1837077448593728 0 0.2363010186387848 -0.18586727398715949 0 0.24624710011957149 -0.19756578472926509 0 0.2363010186387848 -0.18586727398715949 0 0.24624710011957149 -0.19756578472926509 0 0.23232272155890341 -0.19906227567560569 0 0.24624710011957149 -0.19756578472926509 0 0.2390873575194972 -0.2119906927462733 0 0.23232272155890341 -0.19906227567560569 0 0.25806059678156651 -0.21160485628964759 0 0.24624710011957149 -0.19756578472926509 0 0.2390873575194972 -0.2119906927462733 0 0.25806059678156651 -0.21160485628964759 0 0.2390873575194972 -0.2119906927462733 0 0.2485278721491469 -0.22983386195931649 0 0.22156570902884701 -0.2081716276760221 0 0.2275965143199381 -0.22680811778712909 0 0.21130945108473639 -0.22000441216527869 0 0.2390873575194972 -0.2119906927462733 0 0.22156570902884701 -0.2081716276760221 0 0.23232272155890341 -0.19906227567560569 0 0.2390873575194972 -0.2119906927462733 0 0.22156570902884701 -0.2081716276760221 0 0.2275965143199381 -0.22680811778712909 0 0.22156570902884701 -0.2081716276760221 0 0.2213864998634191 -0.19074186604973761 0 0.23232272155890341 -0.19906227567560569 0 0.2363010186387848 -0.18586727398715949 0 0.2213864998634191 -0.19074186604973761 0 0.23232272155890341 -0.19906227567560569 0 0.2410490216361528 -0.25300372010805161 0 0.2485278721491469 -0.22983386195931649 0 0.2275965143199381 -0.22680811778712909 0 0.25787859859726192 -0.24372773219337371 0 0.2410490216361528 -0.25300372010805161 0 0.2485278721491469 -0.22983386195931649 0 0.2390873575194972 -0.2119906927462733 0 0.2485278721491469 -0.22983386195931649 0 0.2275965143199381 -0.22680811778712909 0 0.2410490216361528 -0.25300372010805161 0 0.2275965143199381 -0.22680811778712909 0 0.2136455624920251 -0.24586339942155419 0 0.2410490216361528 -0.25300372010805161 0 0.2136455624920251 -0.24586339942155419 0 0.2136455624920251 -0.24586339942155419 0 0.1995187067769538 -0.22648505830905971 0 0.1970165427207646 -0.2431475676051908 0 0.2275965143199381 -0.22680811778712909 0 0.2136455624920251 -0.24586339942155419 0 0.21130945108473639 -0.22000441216527869 0 0.2136455624920251 -0.24586339942155419 0 0.21130945108473639 -0.22000441216527869 0 0.1995187067769538 -0.22648505830905971 0 0.1995187067769538 -0.22648505830905971 0 0.1970165427207646 -0.2431475676051908 0 0.1843931124890181 -0.23269732176232691 0 0.21130945108473639 -0.22000441216527869 0 0.1995187067769538 -0.22648505830905971 0 0.19847161958806309 -0.21206345826637629 0 0.2064216300685435 -0.1763378775815001 0 0.2213864998634191 -0.19074186604973761 0 0.20705859430259141 -0.20063481153153051 0 0.22156570902884701 -0.2081716276760221 0 0.2213864998634191 -0.19074186604973761 0 0.20705859430259141 -0.20063481153153051 0 0.22156570902884701 -0.2081716276760221 0 0.21130945108473639 -0.22000441216527869 0 0.20705859430259141 -0.20063481153153051 0 0.21130945108473639 -0.22000441216527869 0 0.20705859430259141 -0.20063481153153051 0 0.19847161958806309 -0.21206345826637629 0 0.19847161958806309 -0.21206345826637629 0 0.19333004299069351 -0.19482382871724169 0 0.184507054165965 -0.21658659277756609 0 0.1995187067769538 -0.22648505830905971 0 0.19847161958806309 -0.21206345826637629 0 0.184507054165965 -0.21658659277756609 0 0.20705859430259141 -0.20063481153153051 0 0.19847161958806309 -0.21206345826637629 0 0.19333004299069351 -0.19482382871724169 0 0.2064216300685435 -0.1763378775815001 0 0.20705859430259141 -0.20063481153153051 0 0.19333004299069351 -0.19482382871724169 0 0.1776330785524223 -0.18942424135099509 0 0.184507054165965 -0.21658659277756609 0 0.16837846483810831 -0.20319749351435479 0 0.19333004299069351 -0.19482382871724169 0 0.1776330785524223 -0.18942424135099509 0 0.184507054165965 -0.21658659277756609 0 0.1776330785524223 -0.18942424135099509 0 0.184507054165965 -0.21658659277756609 0 0.184507054165965 -0.21658659277756609 0 0.1749867686249286 -0.21735889230250449 0 0.16837846483810831 -0.20319749351435479 0 0.1749867686249286 -0.21735889230250449 0 0.16837846483810831 -0.20319749351435479 0 0.15045483047290331 -0.2082327262959493 0 0.1749867686249286 -0.21735889230250449 0 0.15045483047290331 -0.2082327262959493 0 0.1749867686249286 -0.21735889230250449 0 0.16226861639455931 -0.22172210758959859 0 0.15045483047290331 -0.2082327262959493 0 0.16837846483810831 -0.20319749351435479 0 0.15045483047290331 -0.2082327262959493 0 0.15431059237432221 -0.18438501484475869 0 0.1776330785524223 -0.18942424135099509 0 0.16837846483810831 -0.20319749351435479 0 0.15431059237432221 -0.18438501484475869 0 0.1970165427207646 -0.2431475676051908 0 0.18013525364959199 -0.24590787480667409 0 0.1843931124890181 -0.23269732176232691 0 0.18013525364959199 -0.24590787480667409 0 0.1843931124890181 -0.23269732176232691 0 0.17030829067285161 -0.2305872157882054 0 0.1995187067769538 -0.22648505830905971 0 0.1749867686249286 -0.21735889230250449 0 0.1995187067769538 -0.22648505830905971 0 0.1749867686249286 -0.21735889230250449 0 0.1843931124890181 -0.23269732176232691 0 0.1995187067769538 -0.22648505830905971 0 0.184507054165965 -0.21658659277756609 0 0.1749867686249286 -0.21735889230250449 0 0.1749867686249286 -0.21735889230250449 0 0.1843931124890181 -0.23269732176232691 0 0.17030829067285161 -0.2305872157882054 0 0.16226861639455931 -0.22172210758959859 0 0.17030829067285161 -0.2305872157882054 0 0.15332457580755371 -0.23070959597173549 0 0.1749867686249286 -0.21735889230250449 0 0.16226861639455931 -0.22172210758959859 0 0.17030829067285161 -0.2305872157882054 0 0.16103468924722281 -0.25381861710109321 0 0.18013525364959199 -0.24590787480667409 0 0.17030829067285161 -0.2305872157882054 0 0.16103468924722281 -0.25381861710109321 0 0.17030829067285161 -0.2305872157882054 0 0.15332457580755371 -0.23070959597173549 0 0.16103468924722281 -0.25381861710109321 0 0.1412434604122122 -0.24631040783256791 0 0.15332457580755371 -0.23070959597173549 0 0.1412434604122122 -0.24631040783256791 0 0.15332457580755371 -0.23070959597173549 0 0.1284413173888232 -0.22347585252773641 0 0.15332457580755371 -0.23070959597173549 0 0.1284413173888232 -0.22347585252773641 0 0.15045483047290331 -0.2082327262959493 0 0.16226861639455931 -0.22172210758959859 0 0.15332457580755371 -0.23070959597173549 0 0.15045483047290331 -0.2082327262959493 0 0.1200034520355143 -0.24749468667538321 0 0.1412434604122122 -0.24631040783256791 0 0.1284413173888232 -0.22347585252773641 0 0.15045483047290331 -0.2082327262959493 0 0.12592289232087811 -0.19910656028939411 0 0.15431059237432221 -0.18438501484475869 0 0.15045483047290331 -0.2082327262959493 0 0.12592289232087811 -0.19910656028939411 0 0.1284413173888232 -0.22347585252773641 0 0.15045483047290331 -0.2082327262959493 0 0.12592289232087811 -0.19910656028939411 0 0.11404320040195411 -0.17785048998131209 0 0.12592289232087811 -0.19910656028939411 0 0.1362427207560932 -0.1734399905344442 0 0.12592289232087811 -0.19910656028939411 0 0.1362427207560932 -0.1734399905344442 0 0.15431059237432221 -0.18438501484475869 0 0.1362427207560932 -0.1734399905344442 0 0.15431059237432221 -0.18438501484475869 0 0.1498051255961938 -0.157092757972084 0 0.11404320040195411 -0.17785048998131209 0 0.1362427207560932 -0.1734399905344442 0 0.1305387904294309 -0.15561497697083931 0 0.1362427207560932 -0.1734399905344442 0 0.1498051255961938 -0.157092757972084 0 0.1305387904294309 -0.15561497697083931 0 0.1498051255961938 -0.157092757972084 0 0.1305387904294309 -0.15561497697083931 0 0.13638976604354719 -0.13495016646355951 0 0.1161887790728692 -0.1476769396888597 0 0.1305387904294309 -0.15561497697083931 0 0.13638976604354719 -0.13495016646355951 0 0.12800820934211829 -0.12401417466047961 0 0.13638976604354719 -0.13495016646355951 0 0.1486045981545247 -0.12747252536747111 0 0.13638976604354719 -0.13495016646355951 0 0.16388512732533739 -0.13509953849785281 0 0.13638976604354719 -0.13495016646355951 0 0.1486045981545247 -0.12747252536747111 0 0.16388512732533739 -0.13509953849785281 0 0.1498051255961938 -0.157092757972084 0 0.13638976604354719 -0.13495016646355951 0 0.16388512732533739 -0.13509953849785281 0 0.16388512732533739 -0.13509953849785281 0 0.17075910293887969 -0.16226188992442411 0 0.1498051255961938 -0.157092757972084 0 0.16388512732533739 -0.13509953849785281 0 0.17075910293887969 -0.16226188992442411 0 0.18014950107347269 -0.1188522098678762 0 0.16265603278097029 -0.1302428005884553 0 0.16388512732533739 -0.13509953849785281 0 0.16095359288685571 -0.1184472051676727 0 0.1486045981545247 -0.12747252536747111 0 0.16265603278097029 -0.1302428005884553 0 0.1486045981545247 -0.12747252536747111 0 0.16265603278097029 -0.1302428005884553 0 0.16388512732533739 -0.13509953849785281 0 0.16265603278097029 -0.1302428005884553 0 0.16388512732533739 -0.13509953849785281 0 0.19406318364410949 -0.13526348461287321 0 0.16388512732533739 -0.13509953849785281 0 0.18014950107347269 -0.1188522098678762 0 0.19406318364410949 -0.13526348461287321 0 0.18014950107347269 -0.1188522098678762 0 0.19406318364410949 -0.13526348461287321 0 0.16388512732533739 -0.13509953849785281 0 0.19019323353294471 -0.15547991582157239 0 0.16388512732533739 -0.13509953849785281 0 0.17075910293887969 -0.16226188992442411 0 0.19019323353294471 -0.15547991582157239 0 0.19406318364410949 -0.13526348461287321 0 0.16388512732533739 -0.13509953849785281 0 0.19019323353294471 -0.15547991582157239 0 0.185888281266576 -0.1738959907954824 0 0.17075910293887969 -0.16226188992442411 0 0.1776330785524223 -0.18942424135099509 0 0.185888281266576 -0.1738959907954824 0 0.17075910293887969 -0.16226188992442411 0 0.1776330785524223 -0.18942424135099509 0 0.17075910293887969 -0.16226188992442411 0 0.19333004299069351 -0.19482382871724169 0 0.1776330785524223 -0.18942424135099509 0 0.185888281266576 -0.1738959907954824 0 0.1776330785524223 -0.18942424135099509 0 0.15431059237432221 -0.18438501484475869 0 0.17075910293887969 -0.16226188992442411 0 0.15431059237432221 -0.18438501484475869 0 0.1498051255961938 -0.157092757972084 0 0.17075910293887969 -0.16226188992442411 0 
</DataArray>
</Points>
<Cells>
<DataArray type="UInt32" Name="connectivity" format="ascii">
0 1 2 3 4 5 6 7 8 9 10 11 12 13 14 15 16 17 18 19 20 21 22 23 24 25 26 27 28 29 30 31 32 33 34 35 36 37 38 39 40 41 42 43 44 45 46 47 48 49 50 51 52 53 54 55 56 57 58 59 60 61 62 63 64 65 66 67 68 69 70 71 72 73 74 75 76 77 78 79 80 81 82 83 84 85 86 87 88 89 90 91 92 93 94 95 96 97 98 99 100 101 102 103 104 105 106 107 108 109 110 111 112 113 114 115 116 117 118 119 120 121 122 123 124 125 126 127 128 129 130 131 132 133 134 135 136 137 138 139 140 141 142 143 144 145 146 147 148 149 150 151 152 153 154 155 156 157 158 159 160 161 162 163 164 165 166 167 168 169 170 171 172 173 174 175 176 177 178 179 180 181 182 183 184 185 186 187 188 189 190 191 192 193 194 195 196 197 198 199 200 201 202 203 204 205 206 207 208 209 210 211 212 213 214 215 216 217 218 219 220 221 222 223 224 225 226 227 228 229 230 231 232 233 234 235 236 237 238 239 240 241 242 243 244 245 246 247 248 249 250 251 252 253 254 255 256 257 258 259 260 261 262 263 264 265 266 267 268 269 270 271 272 273 274 275 276 277 278 279 280 281 282 283 284 285 286 287 288 289 290 291 292 293 294 295 296 297 298 299 300 301 302 303 304 305 306 307 308 309 310 311 312 313 314 315 316 317 318 319 320 321 322 323 324 325 326 327 328 329 330 331 332 333 334 335 336 337 338 339 340 341 342 343 344 345 346 347 348 349 350 351 352 353 354 355 356 357 358 359 360 361 362 363 364 365 366 367 368 369 370 371 372 373 374 375 376 377 378 379 380 381 382 383 384 385 386 387 388 389 390 391 392 393 394 395 396 397 398 399 400 401 402 403 404 405 406 407 408 409 410 411 412 413 414 415 416 417 418 419 420 421 422 423 424 425 426 427 428 429 430 431 432 433 434 435 436 437 438 439 440 441 442 443 444 445 446 447 448 449 450 451 452 453 454 455 456 457 458 459 460 461 462 463 464 465 466 467 468 469 470 471 472 473 474 475 476 477 478 479 480 481 482 483 484 485 486 487 488 489 490 491 492 493 494 495 496 497 498 499 500 501 502 503 504 505 506 507 508 509 510 511 512 513 514 515 516 517 518 519 520 521 522 523 524 525 526 527 528 529 530 531 532 533 534 535 536 537 538 539 540 541 542 543 544 545 546 547 548 549 550 551 552 553 554 555 556 557 558 559 560 561 562 563 564 565 566 567 568 569 570 571 572 573 574 575 576 577 578 579 580 581 582 583 584 585 586 587 588 589 590 591 592 593 594 595 596 597 598 599 600 601 602 603 604 605 606 607 608 609 610 611 612 613 614 615 616 617 618 619 620 621 622 623 624 625 626 627 628 629 630 631 632 633 634 635 636 637 638 639 640 641 642 643 644 645 646 647 648 649 650 651 652 653 654 655 656 657 658 659 660 661 662 663 664 665 666 667 668 669 670 671 672 673 674 675 676 677 678 679 680 681 682 683 684 685 686 687 688 689 690 691 692 693 694 695 696 697 698 699 700 701 702 703 704 705 706 707 708 709 710 711 712 713 714 715 716 717 718 719 720 721 722 723 724 725 726 727 728 729 730 731 732 733 734 735 736 737 738 739 740 741 742 743 744 745 746 747 748 749 750 751 752 753 754 755 756 757 758 759 760 761 762 763 764 765 766 767 768 769 770 771 772 773 774 775 776 777 778 779 780 781 782 783 784 785 786 787 788 789 790 791 792 793 794 795 796 797 798 799 800 801 802 803 804 805 806 807 808 809 810 811 812 813 814 815 816 817 818 819 820 821 822 823 824 825 826 827 828 829 830 831 832 833 834 835 836 837 838 839 840 841 842 843 844 845 846 847 848 849 850 851 852 853 854 855 856 857 858 859 860 861 862 863 864 865 866 867 868 869 870 871 872 873 874 875 876 877 878 879 880 881 882 883 884 885 886 887 888 889 890 891 892 893 894 895 896 897 898 899 900 901 902 903 904 905 906 907 908 909 910 911 912 913 914 915 916 917 918 919 920 921 922 923 924 925 926 927 928 929 930 931 932 933 934 935 936 937 938 939 940 941 942 943 944 945 946 947 948 949 950 951 952 953 954 955 956 957 958 959 960 961 962 963 964 965 966 967 968 969 970 971 972 973 974 975 976 977 978 979 980 981 982 983 984 985 986 987 988 989 990 991 992 993 994 995 996 997 998 999 1000 1001 1002 1003 1004 1005 1006 1007 1008 1009 1010 1011 1012 1013 1014 1015 1016 1017 1018 1019 1020 1021 1022 1023 1024 1025 1026 1027 1028 1029 1030 1031 1032 1033 1034 1035 1036 1037 1038 1039 1040 1041 1042 1043 1044 1045 1046 1047 1048 1049 1050 1051 1052 1053 1054 1055 1056 1057 1058 1059 1060 1061 1062 1063 1064 1065 1066 1067 1068 1069 1070 1071 1072 1073 1074 1075 1076 1077 1078 1079 1080 1081 1082 1083 1084 1085 1086 1087 1088 1089 1090 1091 1092 1093 1094 1095 1096 1097 1098 1099 1100 1101 1102 1103 1104 1105 1106 1107 1108 1109 1110 1111 1112 1113 1114 1115 1116 1117 1118 1119 1120 1121 1122 1123 1124 1125 1126 1127 1128 1129 1130 1131 1132 1133 1134 1135 1136 1137 1138 1139 1140 1141 1142 1143 1144 1145 1146 1147 1148 1149 1150 1151 1152 1153 1154 1155 1156 1157 1158 1159 1160 1161 1162 1163 1164 1165 1166 1167 1168 1169 1170 1171 1172 1173 1174 1175 1176 1177 1178 1179 1180 1181 1182 1183 1184 1185 1186 1187 1188 1189 1190 1191 1192 1193 1194 1195 1196 1197 1198 1199 1200 1201 1202 1203 1204 1205 1206 1207 1208 1209 1210 1211 1212 1213 1214 1215 1216 1217 1218 1219 1220 1221 1222 1223 1224 1225 1226 1227 1228 1229 1230 1231 1232 1233 1234 1235 1236 1237 1238 1239 1240 1241 1242 1243 1244 1245 1246 1247 1248 1249 1250 1251 1252 1253 1254 1255 1256 1257 1258 1259 1260 1261 1262 1263 1264 1265 1266 1267 1268 1269 1270 1271 1272 1273 1274 1275 1276 1277 1278 1279 1280 1281 1282 1283 1284 1285 1286 1287 1288 1289 1290 1291 1292 1293 1294 1295 1296 1297 1298 1299 1300 1301 1302 1303 1304 1305 1306 1307 1308 1309 1310 1311 1312 1313 1314 1315 1316 1317 1318 1319 1320 1321 1322 1323 1324 1325 1326 1327 1328 1329 1330 1331 1332 1333 1334 1335 1336 1337 1338 1339 1340 1341 1342 1343 1344 1345 1346 1347 1348 1349 1350 1351 1352 1353 1354 1355 1356 1357 1358 1359 1360 1361 1362 1363 1364 1365 1366 1367 1368 1369 1370 1371 1372 1373 1374 1375 1376 1377 1378 1379 1380 1381 1382 1383 1384 1385 1386 1387 1388 1389 1390 1391 1392 1393 1394 1395 1396 1397 1398 1399 1400 1401 1402 1403 1404 1405 1406 1407 1408 1409 1410 1411 1412 1413 1414 1415 1416 1417 1418 1419 1420 1421 1422 1423 1424 1425 1426 1427 1428 1429 1430 1431 1432 1433 1434 1435 1436 1437 1438 1439 1440 1441 1442 1443 1444 1445 1446 1447 1448 1449 1450 1451 1452 1453 1454 1455 1456 1457 1458 1459 1460 1461 1462 1463 1464 1465 1466 1467 1468 1469 1470 1471 1472 1473 1474 1475 1476 1477 1478 1479 1480 1481 1482 1483 1484 1485 1486 1487 1488 1489 1490 1491 1492 1493 1494 1495 1496 1497 1498 1499 1500 1501 1502 1503 1504 1505 1506 1507 1508 1509 1510 1511 1512 1513 1514 1515 1516 1517 1518 1519 1520 1521 1522 1523 1524 1525 1526 1527 1528 1529 1530 1531 1532 1533 1534 1535 1536 1537 1538 1539 1540 1541 1542 1543 1544 1545 1546 1547 1548 1549 1550 1551 1552 1553 1554 1555 1556 1557 1558 1559 1560 1561 1562 1563 1564 1565 1566 1567 1568 1569 1570 1571 1572 1573 1574 1575 1576 1577 1578 1579 1580 1581 1582 1583 1584 1585 1586 1587 1588 1589 1590 1591 1592 1593 1594 1595 1596 1597 1598 1599 1600 1601 1602 1603 1604 1605 1606 1607 1608 1609 1610 1611 1612 1613 1614 1615 1616 1617 1618 1619 1620 1621 1622 1623 1624 1625 1626 1627 1628 1629 1630 1631 1632 1633 1634 1635 1636 1637 1638 1639 1640 1641 1642 1643 1644 1645 1646 1647 1648 1649 1650 1651 1652 1653 1654 1655 1656 1657 1658 1659 1660 1661 1662 1663 1664 1665 1666 1667 1668 1669 1670 1671 1672 1673 1674 1675 1676 1677 1678 1679 1680 1681 1682 1683 1684 1685 1686 1687 1688 1689 1690 1691 1692 1693 1694 1695 1696 1697 1698 1699 1700 1701 1702 1703 1704 1705 1706 1707 1708 1709 1710 1711 1712 1713 1714 1715 1716 1717 1718 1719 1720 1721 1722 1723 1724 1725 1726 1727 1728 1729 1730 1731 1732 1733 1734 1735 1736 1737 1738 1739 1740 1741 1742 1743 1744 1745 1746 1747 1748 1749 1750 1751 1752 1753 1754 1755 1756 1757 1758 1759 1760 1761 1762 1763 1764 1765 1766 1767 1768 1769 1770 1771 1772 1773 1774 1775 1776 1777 1778 1779 1780 1781 1782 1783 1784 1785 1786 1787 1788 1789 1790 1791 1792 1793 1794 1795 1796 1797 1798 1799 1800 1801 1802 1803 1804 1805 1806 1807 1808 1809 1810 1811 1812 1813 1814 1815 1816 1817 1818 1819 1820 1821 1822 1823 1824 1825 1826 1827 1828 1829 1830 1831 1832 1833 1834 1835 1836 1837 1838 1839 1840 1841 1842 1843 1844 1845 1846 1847 1848 1849 1850 1851 1852 1853 1854 1855 1856 1857 1858 1859 1860 1861 1862 1863 1864 1865 1866 1867 1868 1869 1870 1871 1872 1873 1874 1875 1876 1877 1878 1879 1880 1881 1882 1883 1884 1885 1886 1887 1888 1889 1890 1891 1892 1893 1894 1895 1896 1897 1898 1899 1900 1901 1902 1903 1904 1905 1906 1907 1908 1909 1910 1911 1912 1913 1914 1915 1916 1917 1918 1919 1920 1921 1922 1923 1924 1925 1926 1927 1928 1929 1930 1931 1932 1933 1934 1935 1936 1937 1938 1939 1940 1941 1942 1943 1944 1945 1946 1947 1948 1949 1950 1951 1952 1953 1954 1955 1956 1957 1958 1959 1960 1961 1962 1963 1964 1965 1966 1967 1968 1969 1970 1971 1972 1973 1974 1975 1976 1977 1978 1979 1980 1981 1982 1983 1984 1985 1986 1987 1988 1989 1990 1991 1992 1993 1994 1995 1996 1997 1998 1999 2000 2001 2002 2003 2004 2005 2006 2007 2008 2009 2010 2011 2012 2013 2014 2015 2016 2017 2018 2019 2020 2021 2022 2023 2024 2025 2026 2027 2028 2029 2030 2031 2032 2033 2034 2035 2036 2037 2038 2039 2040 2041 2042 2043 2044 2045 2046 2047 2048 2049 2050 2051 2052 2053 2054 2055 2056 2057 2058 2059 2060 2061 2062 2063 2064 2065 2066 2067 2068 2069 2070 2071 2072 2073 2074 2075 2076 2077 2078 2079 2080 2081 2082 2083 2084 2085 2086 2087 2088 2089 2090 2091 2092 2093 2094 2095 2096 2097 2098 2099 2100 2101 2102 2103 2104 2105 2106 2107 2108 2109 2110 2111 2112 2113 2114 2115 2116 2117 2118 2119 2120 2121 2122 2123 2124 2125 2126 2127 2128 2129 2130 2131 2132 2133 2134 2135 2136 2137 2138 2139 2140 2141 2142 2143 2144 2145 2146 2147 2148 2149 2150 2151 2152 2153 2154 2155 2156 2157 2158 2159 2160 2161 2162 2163 2164 2165 2166 2167 2168 2169 2170 2171 2172 2173 2174 2175 2176 2177 2178 2179 2180 2181 2182 2183 2184 2185 2186 2187 2188 2189 2190 2191 2192 2193 2194 2195 2196 2197 2198 2199 2200 2201 2202 2203 2204 2205 2206 2207 2208 2209 2210 2211 2212 2213 2214 2215 2216 2217 2218 2219 2220 2221 2222 2223 2224 2225 2226 2227 2228 2229 2230 2231 2232 2233 2234 2235 2236 2237 2238 2239 2240 2241 2242 2243 2244 2245 2246 2247 2248 2249 2250 2251 2252 2253 2254 2255 2256 2257 2258 2259 2260 2261 2262 2263 2264 2265 2266 2267 2268 2269 2270 2271 2272 2273 2274 2275 2276 2277 2278 2279 2280 2281 2282 2283 2284 2285 2286 2287 2288 2289 2290 2291 2292 2293 2294 2295 2296 2297 2298 2299 2300 2301 2302 2303 2304 2305 2306 2307 2308 2309 2310 2311 2312 2313 2314 2315 2316 2317 2318 2319 2320 2321 2322 2323 2324 2325 2326 2327 2328 2329 2330 2331 2332 2333 2334 2335 2336 2337 2338 2339 2340 2341 2342 2343 2344 2345 2346 2347 2348 2349 2350 2351 2352 2353 2354 2355 2356 2357 2358 2359 2360 2361 2362 2363 2364 2365 2366 2367 2368 2369 2370 2371 2372 2373 2374 2375 2376 2377 2378 2379 2380 2381 2382 2383 2384 2385 2386 2387 2388 2389 2390 2391 2392 2393 2394 2395 2396 2397 2398 2399 2400 2401 2402 2403 2404 2405 2406 2407 2408 2409 2410 2411 2412 2413 2414 2415 2416 2417 2418 2419 2420 2421 2422 2423 2424 2425 2426 2427 2428 2429 2430 2431 2432 2433 2434 2435 2436 2437 2438 2439 2440 2441 2442 2443 2444 2445 2446 2447 2448 2449 2450 2451 2452 2453 2454 2455 2456 2457 2458 2459 2460 2461 2462 2463 2464 2465 2466 2467 2468 2469 2470 2471 2472 2473 2474 2475 2476 2477 2478 2479 2480 2481 2482 2483 2484 2485 2486 2487 2488 2489 2490 2491 2492 2493 2494 2495 2496 2497 2498 2499 2500 2501 2502 2503 2504 2505 2506 2507 2508 2509 2510 2511 2512 2513 2514 2515 2516 2517 2518 2519 2520 2521 2522 2523 2524 2525 2526 2527 2528 2529 2530 2531 2532 2533 2534 2535 2536 2537 2538 2539 2540 2541 2542 2543 2544 2545 2546 2547 2548 2549 2550 2551 2552 2553 2554 2555 2556 2557 2558 2559 2560 2561 2562 2563 2564 2565 2566 2567 2568 2569 2570 2571 2572 2573 2574 2575 2576 2577 2578 2579 2580 2581 2582 2583 2584 2585 2586 2587 2588 2589 2590 2591 2592 2593 2594 2595 2596 2597 2598 2599 2600 2601 2602 2603 2604 2605 2606 2607 2608 2609 2610 2611 2612 2613 2614 2615 2616 2617 2618 2619 2620 2621 2622 2623 2624 2625 2626 2627 2628 2629 2630 2631 2632 2633 2634 2635 2636 2637 2638 2639 2640 2641 2642 2643 2644 2645 2646 2647 2648 2649 2650 2651 2652 2653 2654 2655 2656 2657 2658 2659 2660 2661 2662 2663 2664 2665 2666 2667 2668 2669 2670 2671 2672 2673 2674 2675 2676 2677 2678 2679 2680 2681 2682 2683 2684 2685 2686 2687 2688 2689 2690 2691 2692 2693 2694 2695 2696 2697 2698 2699 2700 2701 2702 2703 2704 2705 2706 2707 2708 2709 2710 2711 2712 2713 2714 2715 2716 2717 2718 2719 2720 2721 2722 2723 2724 2725 2726 2727 2728 2729 2730 2731 2732 2733 2734 2735 2736 2737 2738 2739 2740 2741 2742 2743 2744 2745 2746 2747 2748 2749 2750 2751 2752 2753 2754 2755 2756 2757 2758 2759 2760 2761 2762 2763 2764 2765 2766 2767 2768 2769 2770 2771 2772 2773 2774 2775 2776 2777 2778 2779 2780 2781 2782 2783 2784 2785 2786 2787 2788 2789 2790 2791 2792 2793 2794 2795 2796 2797 2798 2799 2800 2801 2802 2803 2804 2805 2806 2807 2808 2809 2810 2811 2812 2813 2814 2815 2816 2817 2818 2819 2820 2821 2822 2823 2824 2825 2826 2827 2828 2829 2830 2831 2832 2833 2834 2835 2836 2837 2838 2839 2840 2841 2842 2843 2844 2845 2846 2847 2848 2849 2850 2851 2852 2853 2854 2855 2856 2857 2858 2859 2860 2861 2862 2863 2864 2865 2866 2867 2868 2869 2870 2871 2872 2873 2874 2875 2876 2877 2878 2879 2880 2881 2882 2883 2884 2885 2886 2887 2888 2889 2890 2891 2892 2893 2894 2895 2896 2897 2898 2899 2900 2901 2902 2903 2904 2905 2906 2907 2908 2909 2910 2911 2912 2913 2914 2915 2916 2917 2918 2919 2920 2921 2922 2923 2924 2925 2926 2927 2928 2929 2930 2931 2932 2933 2934 2935 2936 2937 2938 2939 2940 2941 2942 2943 2944 2945 2946 2947 2948 2949 2950 2951 2952 2953 2954 2955 2956 2957 2958 2959 2960 2961 2962 2963 2964 2965 2966 2967 2968 2969 2970 2971 2972 2973 2974 2975 2976 2977 2978 2979 2980 2981 2982 2983 2984 2985 2986 2987 2988 2989 2990 2991 2992 2993 2994 2995 2996 2997 2998 2999 3000 3001 3002 3003 3004 3005 3006 3007 3008 3009 3010 3011 3012 3013 3014 3015 3016 3017 3018 3019 3020 3021 3022 3023 3024 3025 3026 3027 3028 3029 3030 3031 3032 3033 3034 3035 3036 3037 3038 3039 3040 3041 3042 3043 3044 3045 3046 3047 3048 3049 3050 3051 3052 3053 3054 3055 3056 3057 3058 3059 3060 3061 3062 3063 3064 3065 3066 3067 3068 3069 3070 3071 3072 3073 3074 3075 3076 3077 3078 3079 3080 3081 3082 3083 3084 3085 3086 3087 3088 3089 3090 3091 3092 3093 3094 3095 3096 3097 3098 3099 3100 3101 3102 3103 3104 3105 3106 3107 3108 3109 3110 3111 3112 3113 3114 3115 3116 3117 3118 3119 3120 3121 3122 3123 3124 3125 3126 3127 3128 3129 3130 3131 3132 3133 3134 3135 3136 3137 3138 3139 3140 3141 3142 3143 3144 3145 3146 3147 3148 3149 3150 3151 3152 3153 3154 3155 3156 3157 3158 3159 3160 3161 3162 3163 3164 3165 3166 3167 3168 3169 3170 3171 3172 3173 3174 3175 3176 3177 3178 3179 3180 3181 3182 3183 3184 3185 3186 3187 3188 3189 3190 3191 3192 3193 3194 3195 3196 3197 3198 3199 3200 3201 3202 3203 3204 3205 3206 3207 3208 3209 3210 3211 3212 3213 3214 3215 3216 3217 3218 3219 3220 3221 3222 3223 3224 3225 3226 3227 3228 3229 3230 3231 3232 3233 3234 3235 3236 3237 3238 3239 3240 3241 3242 3243 3244 3245 3246 3247 3248 3249 3250 3251 3252 3253 3254 3255 3256 3257 3258 3259 3260 3261 3262 3263 3264 3265 3266 3267 3268 3269 3270 3271 3272 3273 3274 3275 3276 3277 3278 3279 3280 3281 3282 3283 3284 3285 3286 3287 3288 3289 3290 3291 3292 3293 3294 3295 3296 3297 3298 3299 3300 3301 3302 3303 3304 3305 3306 3307 3308 3309 3310 3311 3312 3313 3314 3315 3316 3317 3318 3319 3320 3321 3322 3323 3324 3325 3326 3327 3328 3329 3330 3331 3332 3333 3334 3335 3336 3337 3338 3339 3340 3341 3342 3343 3344 3345 3346 3347 3348 3349 3350 3351 3352 3353 3354 3355 3356 3357 3358 3359 3360 3361 3362 3363 3364 3365 3366 3367 3368 3369 3370 3371 3372 3373 3374 3375 3376 3377 3378 3379 3380 3381 3382 3383 3384 3385 3386 3387 3388 3389 3390 3391 3392 3393 3394 3395 3396 3397 3398 3399 3400 3401 3402 3403 3404 3405 3406 3407 3408 3409 3410 3411 3412 3413 3414 3415 3416 3417 3418 3419 3420 3421 3422 3423 3424 3425 3426 3427 3428 3429 3430 3431 3432 3433 3434 3435 3436 3437 3438 3439 3440 3441 3442 3443 3444 3445 3446 3447 3448 3449 3450 3451 3452 3453 3454 3455 3456 3457 3458 3459 3460 3461 3462 3463 3464 3465 3466 3467 3468 3469 3470 3471 3472 3473 3474 3475 3476 3477 3478 3479 3480 3481 3482 3483 3484 3485 3486 3487 3488 3489 3490 3491 3492 3493 3494 3495 3496 3497 3498 3499 3500 3501 3502 3503 3504 3505 3506 3507 3508 3509 3510 3511 3512 3513 3514 3515 3516 3517 3518 3519 3520 3521 3522 3523 3524 3525 3526 3527 3528 3529 3530 3531 3532 3533 3534 3535 3536 3537 3538 3539 3540 3541 3542 3543 3544 3545 3546 3547 3548 3549 3550 3551 3552 3553 3554 3555 3556 3557 3558 3559 3560 3561 3562 3563 3564 3565 3566 3567 3568 3569 3570 3571 3572 3573 3574 3575 3576 3577 3578 3579 3580 3581 3582 3583 3584 3585 3586 3587 3588 3589 3590 3591 3592 3593 3594 3595 3596 3597 3598 3599 3600 3601 3602 3603 3604 3605 3606 3607 3608 3609 3610 3611 3612 3613 3614 3615 3616 3617 3618 3619 3620 3621 3622 3623 3624 3625 3626 3627 3628 3629 3630 3631 3632 3633 3634 3635 3636 3637 3638 3639 3640 3641 3642 3643 3644 3645 3646 3647 3648 3649 3650 3651 3652 3653 3654 3655 3656 3657 3658 3659 3660 3661 3662 3663 3664 3665 3666 3667 3668 3669 3670 3671 3672 3673 3674 3675 3676 3677 3678 3679 3680 3681 3682 3683 3684 3685 3686 3687 3688 3689 3690 3691 3692 3693 3694 3695 3696 3697 3698 3699 3700 3701 3702 3703 3704 3705 3706 3707 3708 3709 3710 3711 3712 3713 3714 3715 3716 3717 3718 3719 3720 3721 3722 3723 3724 3725 3726 3727 3728 3729 3730 3731 3732 3733 3734 3735 3736 3737 3738 3739 3740 3741 3742 3743 3744 3745 3746 3747 3748 3749 3750 3751 3752 3753 3754 3755 3756 3757 3758 3759 3760 3761 3762 3763 3764 3765 3766 3767 3768 3769 3770 3771 3772 3773 3774 3775 3776 3777 3778 3779 3780 3781 3782 3783 3784 3785 3786 3787 3788 3789 3790 3791 3792 3793 3794 3795 3796 3797 3798 3799 3800 3801 3802 3803 3804 3805 3806 3807 3808 3809 3810 3811 3812 3813 3814 3815 3816 3817 3818 3819 3820 3821 3822 3823 3824 3825 3826 3827 3828 3829 3830 3831 3832 3833 3834 3835 3836 3837 3838 3839 3840 3841 3842 3843 3844 3845 3846 3847 3848 3849 3850 3851 3852 3853 3854 3855 3856 3857 3858 3859 3860 3861 3862 3863 3864 3865 3866 3867 3868 3869 3870 3871 3872 3873 3874 3875 3876 3877 3878 3879 3880 3881 3882 3883 3884 3885 3886 3887 3888 3889 3890 3891 3892 3893 3894 3895 3896 3897 3898 3899 3900 3901 3902 3903 3904 3905 3906 3907 3908 3909 3910 3911 3912 3913 3914 3915 3916 3917 3918 3919 3920 3921 3922 3923 3924 3925 3926 3927 3928 3929 3930 3931 3932 3933 3934 3935 3936 3937 3938 3939 3940 3941 3942 3943 3944 3945 3946 3947 3948 3949 3950 3951 3952 3953 3954 3955 3956 3957 3958 3959 3960 3961 3962 3963 3964 3965 3966 3967 3968 3969 3970 3971 3972 3973 3974 3975 3976 3977 3978 3979 3980 3981 3982 3983 3984 3985 3986 3987 3988 3989 3990 3991 3992 3993 3994 3995 3996 3997 3998 3999 4000 4001 4002 4003 4004 4005 4006 4007 4008 4009 4010 4011 4012 4013 4014 4015 4016 4017 4018 4019 4020 4021 4022 4023 4024 4025 4026 4027 4028 4029 4030 4031 4032 4033 4034 4035 4036 4037 4038 4039 4040 4041 4042 4043 4044 4045 4046 4047 4048 4049 4050 4051 4052 4053 4054 4055 4056 4057 4058 4059 4060 4061 4062 4063 4064 4065 4066 4067 4068 4069 4070 4071 4072 4073 4074 4075 4076 4077 4078 4079 4080 4081 4082 4083 4084 4085 4086 4087 4088 4089 4090 4091 4092 4093 4094 4095 4096 4097 4098 4099 4100 4101 4102 4103 4104 4105 4106 4107 4108 4109 4110 4111 4112 4113 4114 4115 4116 4117 4118 4119 4120 4121 4122 4123 4124 4125 4126 4127 4128 4129 4130 4131 4132 4133 4134 4135 4136 4137 4138 4139 4140 4141 4142 4143 4144 4145 4146 4147 4148 4149 4150 4151 4152 4153 4154 4155 4156 4157 4158 4159 4160 4161 4162 4163 4164 4165 4166 4167 4168 4169 4170 4171 4172 4173 4174 4175 4176 4177 4178 4179 4180 4181 4182 4183 4184 4185 4186 4187 4188 4189 4190 4191 4192 4193 4194 4195 4196 4197 4198 4199 4200 4201 4202 4203 4204 4205 4206 4207 4208 4209 4210 4211 4212 4213 4214 4215 4216 4217 4218 4219 4220 4221 4222 4223 4224 4225 4226 4227 4228 4229 4230 4231 4232 4233 4234 4235 4236 4237 4238 4239 4240 4241 4242 4243 4244 4245 4246 4247 4248 4249 4250 4251 4252 4253 4254 4255 4256 4257 4258 4259 4260 4261 4262 4263 4264 4265 4266 4267 4268 4269 4270 4271 4272 4273 4274 4275 4276 4277 4278 4279 4280 4281 4282 4283 4284 4285 4286 4287 4288 4289 4290 4291 4292 4293 4294 4295 4296 4297 4298 4299 4300 4301 4302 4303 4304 4305 4306 4307 4308 4309 4310 4311 4312 4313 4314 4315 4316 4317 4318 4319 4320 4321 4322 4323 4324 4325 4326 4327 4328 4329 4330 4331 4332 4333 4334 4335 4336 4337 4338 4339 4340 4341 4342 4343 4344 4345 4346 4347 4348 4349 4350 4351 4352 4353 4354 4355 4356 4357 4358 4359 4360 4361 4362 4363 4364 4365 4366 4367 4368 4369 4370 4371 4372 4373 4374 4375 4376 4377 4378 4379 4380 4381 4382 4383 4384 4385 4386 4387 4388 4389 4390 4391 4392 4393 4394 4395 4396 4397 4398 4399 4400 4401 4402 4403 4404 4405 4406 4407 4408 4409 4410 4411 4412 4413 4414 4415 4416 4417 4418 4419 4420 4421 4422 4423 4424 4425 4426 4427 4428 4429 4430 4431 4432 4433 4434 4435 4436 4437 4438 4439 4440 4441 4442 4443 4444 4445 4446 4447 4448 4449 4450 4451 4452 4453 4454 4455 4456 4457 4458 4459 4460 4461 4462 4463 4464 4465 4466 4467 4468 4469 4470 4471 4472 4473 4474 4475 4476 4477 4478 4479 4480 4481 4482 4483 4484 4485 4486 4487 4488 4489 4490 4491 4492 4493 4494 4495 4496 4497 4498 4499 4500 4501 4502 4503 4504 4505 4506 4507 4508 4509 4510 4511 4512 4513 4514 4515 4516 4517 4518 4519 4520 4521 4522 4523 4524 4525 4526 4527 4528 4529 4530 4531 4532 4533 4534 4535 4536 4537 4538 4539 4540 4541 4542 4543 4544 4545 4546 4547 4548 4549 4550 4551 4552 4553 4554 4555 4556 4557 4558 4559 4560 4561 4562 4563 4564 4565 4566 4567 4568 4569 4570 4571 4572 4573 4574 4575 4576 4577 4578 4579 4580 4581 4582 4583 4584 4585 4586 4587 4588 4589 4590 4591 4592 4593 4594 4595 4596 4597 4598 4599 4600 4601 4602 4603 4604 4605 4606 4607 4608 4609 4610 4611 4612 4613 4614 4615 4616 4617 4618 4619 4620 4621 4622 4623 4624 4625 4626 4627 4628 4629 4630 4631 4632 4633 4634 4635 4636 4637 4638 4639 4640 4641 4642 4643 4644 4645 4646 4647 4648 4649 4650 4651 4652 4653 4654 4655 4656 4657 4658 4659 4660 4661 4662 4663 4664 4665 4666 4667 4668 4669 4670 4671 4672 4673 4674 4675 4676 4677 4678 4679 4680 4681 4682 4683 4684 4685 4686 4687 4688 4689 4690 4691 4692 4693 4694 4695 4696 4697 4698 4699 4700 4701 4702 4703 4704 4705 4706 4707 4708 4709 4710 4711 4712 4713 4714 4715 4716 4717 4718 4719 4720 4721 4722 4723 4724 4725 4726 4727 4728 4729 4730 4731 4732 4733 4734 4735 4736 4737 4738 4739 4740 4741 4742 4743 4744 4745 4746 4747 4748 4749 4750 4751 4752 4753 4754 4755 4756 4757 4758 4759 4760 4761 4762 4763 4764 4765 4766 4767 4768 4769 4770 4771 4772 4773 4774 4775 4776 4777 4778 4779 4780 4781 4782 4783 4784 4785 4786 4787 4788 4789 4790 4791 4792 4793 4794 4795 4796 4797 4798 4799 4800 4801 4802 4803 4804 4805 4806 4807 4808 4809 4810 4811 4812 4813 4814 4815 4816 4817 4818 4819 4820 4821 4822 4823 4824 4825 4826 4827 4828 4829 4830 4831 4832 4833 4834 4835 4836 4837 4838 4839 4840 4841 4842 4843 4844 4845 4846 4847 4848 4849 4850 4851 4852 4853 4854 4855 4856 4857 4858 4859 4860 4861 4862 4863 4864 4865 4866 4867 4868 4869 4870 4871 4872 4873 4874 4875 4876 4877 4878 4879 4880 4881 4882 4883 4884 4885 4886 4887 4888 4889 4890 4891 4892 4893 4894 4895 4896 4897 4898 4899 4900 4901 4902 4903 4904 4905 4906 4907 4908 4909 4910 4911 4912 4913 4914 4915 4916 4917 4918 4919 4920 4921 4922 4923 4924 4925 4926 4927 4928 4929 4930 4931 4932 4933 4934 4935 4936 4937 4938 4939 4940 4941 4942 4943 4944 4945 4946 4947 4948 4949 4950 4951 4952 4953 4954 4955 4956 4957 4958 4959 4960 4961 4962 4963 4964 4965 4966 4967 4968 4969 4970 4971 4972 4973 4974 4975 4976 4977 4978 4979 4980 4981 4982 4983 4984 4985 4986 4987 4988 4989 4990 4991 4992 4993 4994 4995 4996 4997 4998 4999 5000 5001 5002 5003 5004 5005 5006 5007 5008 5009 5010 5011 5012 5013 5014 5015 5016 5017 5018 5019 5020 5021 5022 5023 5024 5025 5026 5027 5028 5029 5030 5031 5032 5033 5034 5035 5036 5037 5038 5039 5040 5041 5042 5043 5044 5045 5046 5047 5048 5049 5050 5051 5052 5053 5054 5055 5056 5057 5058 5059 5060 5061 5062 5063 5064 5065 5066 5067 5068 5069 5070 5071 5072 5073 5074 5075 5076 5077 5078 5079 5080 5081 5082 5083 5084 5085 5086 5087 5088 5089 5090 5091 5092 5093 5094 5095 5096 5097 5098 5099 5100 5101 5102 5103 5104 5105 5106 5107 5108 5109 5110 5111 5112 5113 5114 5115 5116 5117 5118 5119 5120 5121 5122 5123 5124 5125 5126 5127 5128 5129 5130 5131 5132 5133 5134 5135 5136 5137 5138 5139 5140 5141 5142 5143 5144 5145 5146 5147 5148 5149 5150 5151 5152 5153 5154 5155 5156 5157 5158 5159 5160 5161 5162 5163 5164 5165 5166 5167 5168 5169 5170 5171 5172 5173 5174 5175 5176 5177 5178 5179 5180 5181 5182 5183 5184 5185 5186 5187 5188 5189 5190 5191 5192 5193 5194 5195 5196 5197 5198 5199 5200 5201 5202 5203 5204 5205 5206 5207 5208 5209 5210 5211 5212 5213 5214 5215 5216 5217 5218 5219 5220 5221 5222 5223 5224 5225 5226 5227 5228 5229 5230 5231 5232 5233 5234 5235 5236 5237 5238 5239 5240 5241 5242 5243 5244 5245 5246 5247 5248 5249 5250 5251 5252 5253 5254 5255 5256 5257 5258 5259 5260 5261 5262 5263 5264 5265 5266 5267 5268 5269 5270 5271 5272 5273 5274 5275 5276 5277 5278 5279 5280 5281 5282 5283 5284 5285 5286 5287 5288 5289 5290 5291 5292 5293 5294 5295 5296 5297 5298 5299 5300 5301 5302 5303 5304 5305 5306 5307 5308 5309 5310 5311 5312 5313 5314 5315 5316 5317 5318 5319 5320 5321 5322 5323 5324 5325 5326 5327 5328 5329 5330 5331 5332 5333 5334 5335 5336 5337 5338 5339 5340 5341 5342 5343 5344 5345 5346 5347 5348 5349 5350 5351 5352 5353 5354 5355 5356 5357 5358 5359 5360 5361 5362 5363 5364 5365 5366 5367 5368 5369 5370 5371 5372 5373 5374 5375 5376 5377 5378 5379 5380 5381 5382 5383 5384 5385 5386 5387 5388 5389 5390 5391 5392 5393 5394 5395 5396 5397 5398 5399 5400 5401 5402 5403 5404 5405 5406 5407 5408 5409 5410 5411 5412 5413 5414 5415 5416 5417 5418 5419 5420 5421 5422 5423 5424 5425 5426 5427 5428 5429 5430 5431 5432 5433 5434 5435 5436 5437 5438 5439 5440 5441 5442 5443 5444 5445 5446 5447 5448 5449 5450 5451 5452 5453 5454 5455 5456 5457 5458 5459 5460 5461 5462 5463 5464 5465 5466 5467 5468 5469 5470 5471 5472 5473 5474 5475 5476 5477 5478 5479 5480 5481 5482 5483 5484 5485 5486 5487 5488 5489 5490 5491 5492 5493 5494 5495 5496 5497 5498 5499 5500 5501 5502 5503 5504 5505 5506 5507 5508 5509 5510 5511 5512 5513 5514 5515 5516 5517 5518 5519 5520 5521 5522 5523 5524 5525 5526 5527 5528 5529 5530 5531 5532 5533 5534 5535 5536 5537 5538 5539 5540 5541 5542 5543 5544 5545 5546 5547 5548 5549 5550 5551 5552 5553 5554 5555 5556 5557 5558 5559 5560 5561 5562 5563 5564 5565 5566 5567 5568 5569 5570 5571 5572 5573 5574 5575 5576 5577 5578 5579 5580 5581 5582 5583 5584 5585 5586 5587 5588 5589 5590 5591 5592 5593 5594 5595 5596 5597 5598 5599 5600 5601 5602 5603 5604 5605 5606 5607 5608 5609 5610 5611 5612 5613 5614 5615 5616 5617 5618 5619 5620 5621 5622 5623 5624 5625 5626 5627 5628 5629 5630 5631 5632 5633 5634 5635 5636 5637 5638 5639 5640 5641 5642 5643 5644 5645 5646 5647 5648 5649 5650 5651 5652 5653 5654 5655 5656 5657 5658 5659 5660 5661 5662 5663 5664 5665 5666 5667 5668 5669 5670 5671 5672 5673 5674 5675 5676 5677 5678 5679 5680 5681 5682 5683 5684 5685 5686 5687 5688 5689 5690 5691 5692 5693 5694 5695 5696 5697 5698 5699 5700 5701 5702 5703 5704 5705 5706 5707 5708 5709 5710 5711 5712 5713 5714 5715 5716 5717 5718 5719 5720 5721 5722 5723 5724 5725 5726 5727 5728 5729 5730 5731 5732 5733 5734 5735 5736 5737 5738 5739 5740 5741 5742 5743 5744 5745 5746 5747 5748 5749 5750 5751 5752 5753 5754 5755 5756 5757 5758 5759 5760 5761 5762 5763 5764 5765 5766 5767 5768 5769 5770 5771 5772 5773 5774 5775 5776 5777 5778 5779 5780 5781 5782 5783 5784 5785 5786 5787 5788 5789 5790 5791 5792 5793 5794 5795 5796 5797 5798 5799 5800 5801 5802 5803 5804 5805 5806 5807 5808 5809 5810 5811 5812 5813 5814 5815 5816 5817 5818 5819 5820 5821 5822 5823 5824 5825 5826 5827 5828 5829 5830 5831 5832 5833 5834 5835 5836 5837 5838 5839 5840 5841 5842 5843 5844 5845 5846 5847 5848 5849 5850 5851 5852 5853 5854 5855 5856 5857 5858 5859 5860 5861 5862 5863 5864 5865 5866 5867 5868 5869 5870 5871 5872 5873 5874 5875 5876 5877 5878 5879 5880 5881 5882 5883 5884 5885 5886 5887 5888 5889 5890 5891 5892 5893 5894 5895 5896 5897 5898 5899 5900 5901 5902 5903 5904 5905 5906 5907 5908 5909 5910 5911 5912 5913 5914 5915 5916 5917 5918 5919 5920 5921 5922 5923 5924 5925 5926 5927 5928 5929 5930 5931 5932 5933 5934 5935 5936 5937 5938 5939 5940 5941 5942 5943 5944 5945 5946 5947 5948 5949 5950 5951 5952 5953 5954 5955 5956 5957 5958 5959 5960 5961 5962 5963 5964 5965 5966 5967 5968 5969 5970 5971 5972 5973 5974 5975 5976 5977 5978 5979 5980 5981 5982 5983 5984 5985 5986 5987 5988 5989 5990 5991 5992 5993 5994 5995 5996 5997 5998 5999 6000 6001 6002 6003 6004 6005 6006 6007 6008 6009 6010 6011 6012 6013 6014 6015 6016 6017 6018 6019 6020 6021 6022 6023 6024 6025 6026 6027 6028 6029 6030 6031 6032 6033 6034 6035 6036 6037 6038 6039 6040 6041 6042 6043 6044 6045 6046 6047 6048 6049 6050 6051 6052 6053 6054 6055 6056 6057 6058 6059 6060 6061 6062 6063 6064 6065 6066 6067 6068 6069 6070 6071 6072 6073 6074 6075 6076 6077 6078 6079 6080 6081 6082 6083 6084 6085 6086 6087 6088 6089 6090 6091 6092 6093 6094 6095 6096 6097 6098 6099 6100 6101 6102 6103 6104 6105 6106 6107 6108 6109 6110 6111 6112 6113 6114 6115 6116 6117 6118 6119 6120 6121 6122 6123 6124 6125 6126 6127 6128 6129 6130 6131 6132 6133 6134 6135 6136 6137 6138 6139 6140 6141 6142 6143 6144 6145 6146 6147 6148 6149 6150 6151 6152 6153 6154 6155 6156 6157 6158 6159 6160 6161 6162 6163 6164 6165 6166 6167 6168 6169 6170 6171 6172 6173 6174 6175 6176 6177 6178 6179 6180 6181 6182 6183 6184 6185 6186 6187 6188 6189 6190 6191 6192 6193 6194 6195 6196 6197 6198 6199 6200 6201 6202 6203 6204 6205 6206 6207 6208 6209 6210 6211 6212 6213 6214 6215 6216 6217 6218 6219 6220 6221 6222 6223 6224 6225 6226 6227 6228 6229 6230 6231 6232 6233 6234 6235 6236 6237 6238 6239 6240 6241 6242 6243 6244 6245 6246 6247 6248 6249 6250 6251 6252 6253 6254 6255 6256 6257 6258 6259 6260 6261 6262 6263 6264 6265 6266 6267 6268 6269 6270 6271 6272 6273 6274 6275 6276 6277 6278 6279 6280 6281 6282 6283 6284 6285 6286 6287 6288 6289 6290 6291 6292 6293 6294 6295 6296 6297 6298 6299 6300 6301 6302 6303 6304 6305 6306 6307 6308 6309 6310 6311 6312 6313 6314 6315 6316 6317 6318 6319 6320 6321 6322 6323 6324 6325 6326 6327 6328 6329 6330 6331 6332 6333 6334 6335 6336 6337 6338 6339 6340 6341 6342 6343 6344 6345 6346 6347 6348 6349 6350 6351 6352 6353 6354 6355 6356 6357 6358 6359 6360 6361 6362 6363 6364 6365 6366 6367 6368 6369 6370 6371 6372 6373 6374 6375 6376 6377 6378 6379 6380 6381 6382 6383 6384 6385 6386 6387 6388 6389 6390 6391 6392 6393 6394 6395 6396 6397 6398 6399 6400 6401 6402 6403 6404 6405 6406 6407 6408 6409 6410 6411 6412 6413 6414 6415 6416 6417 6418 6419 6420 6421 6422 6423 6424 6425 6426 6427 6428 6429 6430 6431 6432 6433 6434 6435 6436 6437 6438 6439 6440 6441 6442 6443 6444 6445 6446 6447 6448 6449 6450 6451 6452 6453 6454 6455 6456 6457 6458 6459 6460 6461 6462 6463 6464 6465 6466 6467 6468 6469 6470 6471 6472 6473 6474 6475 6476 6477 6478 6479 6480 6481 6482 6483 6484 6485 6486 6487 6488 6489 6490 6491 6492 6493 6494 6495 6496 6497 6498 6499 6500 6501 6502 6503 6504 6505 6506 6507 6508 6509 6510 6511 6512 6513 6514 6515 6516 6517 6518 6519 6520 6521 6522 6523 6524 6525 6526 6527 6528 6529 6530 6531 6532 6533 6534 6535 6536 6537 6538 6539 6540 6541 6542 6543 6544 6545 6546 6547 6548 6549 6550 6551 6552 6553 6554 6555 6556 6557 6558 6559 6560 6561 6562 6563 6564 6565 6566 6567 6568 6569 6570 6571 6572 6573 6574 6575 6576 6577 6578 6579 6580 6581 6582 6583 6584 6585 6586 6587 6588 6589 6590 6591 6592 6593 6594 6595 6596 6597 6598 6599 6600 6601 6602 6603 6604 6605 6606 6607 6608 6609 6610 6611 6612 6613 6614 6615 6616 6617 6618 6619 6620 6621 6622 6623 6624 6625 6626 6627 6628 6629 6630 6631 6632 6633 6634 6635 6636 6637 6638 6639 6640 6641 6642 6643 6644 6645 6646 6647 6648 6649 6650 6651 6652 6653 6654 6655 6656 6657 6658 6659 6660 6661 6662 6663 6664 6665 6666 6667 6668 6669 6670 6671 6672 6673 6674 6675 6676 6677 6678 6679 6680 6681 6682 6683 6684 6685 6686 6687 6688 6689 6690 6691 6692 6693 6694 6695 6696 6697 6698 6699 6700 6701 6702 6703 6704 6705 6706 6707 6708 6709 6710 6711 6712 6713 6714 6715 6716 6717 6718 6719 6720 6721 6722 6723 6724 6725 6726 6727 6728 6729 6730 6731 6732 6733 6734 6735 6736 6737 6738 6739 6740 6741 6742 6743 6744 6745 6746 6747 6748 6749 6750 6751 6752 6753 6754 6755 6756 6757 6758 6759 6760 6761 6762 6763 6764 6765 6766 6767 6768 6769 6770 6771 6772 6773 6774 6775 6776 6777 6778 6779 6780 6781 6782 6783 6784 6785 6786 6787 6788 6789 6790 6791 6792 6793 6794 6795 6796 6797 6798 6799 6800 6801 6802 6803 6804 6805 6806 6807 6808 6809 6810 6811 6812 6813 6814 6815 6816 6817 6818 6819 6820 6821 6822 6823 6824 6825 6826 6827 6828 6829 6830 6831 6832 6833 6834 6835 6836 6837 6838 6839 6840 6841 6842 6843 6844 6845 6846 6847 6848 6849 6850 6851 6852 6853 6854 6855 6856 6857 6858 6859 6860 6861 6862 6863 6864 6865 6866 6867 6868 6869 6870 6871 6872 6873 6874 6875 6876 6877 6878 6879 6880 6881 6882 6883 6884 6885 6886 6887 6888 6889 6890 6891 6892 6893 6894 6895 6896 6897 6898 6899 6900 6901 6902 6903 6904 6905 6906 6907 6908 6909 6910 6911 6912 6913 6914 6915 6916 6917 6918 6919 6920 6921 6922 6923 6924 6925 6926 6927 6928 6929 6930 6931 6932 6933 6934 6935 6936 6937 6938 6939 6940 6941 6942 6943 6944 6945 6946 6947 6948 6949 6950 6951 6952 6953 6954 6955 6956 6957 6958 6959 6960 6961 6962 6963 6964 6965 6966 6967 6968 6969 6970 6971 6972 6973 6974 6975 6976 6977 6978 6979 6980 6981 6982 6983 6984 6985 6986 6987 6988 6989 6990 6991 6992 6993 6994 6995 6996 6997 6998 6999 7000 7001 7002 7003 7004 7005 7006 7007 7008 7009 7010 7011 7012 7013 7014 7015 7016 7017 7018 7019 7020 7021 7022 7023 7024 7025 7026 7027 7028 7029 7030 7031 7032 7033 7034 7035 7036 7037 7038 7039 7040 7041 7042 7043 7044 7045 7046 7047 7048 7049 7050 7051 7052 7053 7054 7055 7056 7057 7058 7059 7060 7061 7062 7063 7064 7065 7066 7067 7068 7069 7070 7071 7072 7073 7074 7075 7076 7077 7078 7079 7080 7081 7082 7083 7084 7085 7086 7087 7088 7089 7090 7091 7092 7093 7094 7095 7096 7097 7098 7099 7100 7101 7102 7103 7104 7105 7106 7107 7108 7109 7110 7111 7112 7113 7114 7115 7116 7117 7118 7119 7120 7121 7122 7123 7124 7125 7126 7127 7128 7129 7130 7131 7132 7133 7134 7135 7136 7137 7138 7139 7140 7141 7142 7143 7144 7145 7146 7147 7148 7149 7150 7151 7152 7153 7154 7155 7156 7157 7158 7159 7160 7161 7162 7163 7164 7165 7166 7167 7168 7169 7170 7171 7172 7173 7174 7175 7176 7177 7178 7179 7180 7181 7182 7183 7184 7185 7186 7187 7188 7189 7190 7191 7192 7193 7194 7195 7196 7197 7198 7199 7200 7201 7202 7203 7204 7205 7206 7207 7208 7209 7210 7211 7212 7213 7214 7215 7216 7217 7218 7219 7220 7221 7222 7223 7224 7225 7226 7227 7228 7229 7230 7231 7232 7233 7234 7235 7236 7237 7238 7239 7240 7241 7242 7243 7244 7245 7246 7247 7248 7249 7250 7251 7252 7253 7254 7255 7256 7257 7258 7259 7260 7261 7262 7263 7264 7265 7266 7267 7268 7269 7270 7271 7272 7273 7274 7275 7276 7277 7278 7279 7280 7281 7282 7283 7284 7285 7286 7287 7288 7289 7290 7291 7292 7293 7294 7295 7296 7297 7298 7299 7300 7301 7302 7303 7304 7305 7306 7307 7308 7309 7310 7311 7312 7313 7314 7315 7316 7317 7318 7319 7320 7321 7322 7323 7324 7325 7326 7327 7328 7329 7330 7331 7332 7333 7334 7335 7336 7337 7338 7339 7340 7341 7342 7343 7344 7345 7346 7347 7348 7349 7350 7351 7352 7353 7354 7355 7356 7357 7358 7359 7360 7361 7362 7363 7364 7365 7366 7367 7368 7369 7370 7371 7372 7373 7374 7375 7376 7377 7378 7379 7380 7381 7382 7383 7384 7385 7386 7387 7388 7389 7390 7391 7392 7393 7394 7395 7396 7397 7398 7399 7400 7401 7402 7403 7404 7405 7406 7407 7408 7409 7410 7411 7412 7413 7414 7415 7416 7417 7418 7419 7420 7421 7422 7423 7424 7425 7426 7427 7428 7429 7430 7431 7432 7433 7434 7435 7436 7437 7438 7439 7440 7441 7442 7443 7444 7445 7446 7447 7448 7449 7450 7451 7452 7453 7454 7455 7456 7457 7458 7459 7460 7461 7462 7463 7464 7465 7466 7467 7468 7469 7470 7471 7472 7473 7474 7475 7476 7477 7478 7479 7480 7481 7482 7483 7484 7485 7486 7487 7488 7489 7490 7491 7492 7493 7494 7495 7496 7497 7498 7499 7500 7501 7502 7503 7504 7505 7506 7507 7508 7509 7510 7511 7512 7513 7514 7515 7516 7517 7518 7519 7520 7521 7522 7523 7524 7525 7526 7527 7528 7529 7530 7531 7532 7533 7534 7535 7536 7537 7538 7539 7540 7541 7542 7543 7544 7545 7546 7547 7548 7549 7550 7551 7552 7553 7554 7555 7556 7557 7558 7559 7560 7561 7562 7563 7564 7565 7566 7567 7568 7569 7570 7571 7572 7573 7574 7575 7576 7577 7578 7579 7580 7581 7582 7583 7584 7585 7586 7587 7588 7589 7590 7591 7592 7593 7594 7595 7596 7597 7598 7599 7600 7601 7602 7603 7604 7605 7606 7607 7608 7609 7610 7611 7612 7613 7614 7615 7616 7617 7618 7619 7620 7621 7622 7623 7624 7625 7626 7627 7628 7629 7630 7631 7632 7633 7634 7635 7636 7637 7638 7639 7640 7641 7642 7643 7644 7645 7646 7647 7648 7649 7650 7651 7652 7653 7654 7655 7656 7657 7658 7659 7660 7661 7662 7663 7664 7665 7666 7667 7668 7669 7670 7671 7672 7673 7674 7675 7676 7677 7678 7679 7680 7681 7682 7683 7684 7685 7686 7687 7688 7689 7690 7691 7692 7693 7694 7695 7696 7697 7698 7699 7700 7701 7702 7703 7704 7705 7706 7707 7708 7709 7710 7711 7712 7713 7714 7715 7716 7717 7718 7719 7720 7721 7722 7723 7724 7725 7726 7727 7728 7729 7730 7731 7732 7733 7734 7735 7736 7737 7738 7739 7740 7741 7742 7743 7744 7745 7746 7747 7748 7749 7750 7751 7752 7753 7754 7755 7756 7757 7758 7759 7760 7761 7762 7763 7764 7765 7766 7767 7768 7769 7770 7771 7772 7773 7774 7775 7776 7777 7778 7779 7780 7781 7782 7783 7784 7785 7786 7787 7788 7789 7790 7791 7792 7793 7794 7795 7796 7797 7798 7799 7800 7801 7802 7803 7804 7805 7806 7807 7808 7809 7810 7811 7812 7813 7814 7815 7816 7817 7818 7819 7820 7821 7822 7823 7824 7825 7826 7827 7828 7829 7830 7831 7832 7833 7834 7835 7836 7837 7838 7839 7840 7841 7842 7843 7844 7845 7846 7847 7848 7849 7850 7851 7852 7853 7854 7855 7856 7857 7858 7859 7860 7861 7862 7863 7864 7865 7866 7867 7868 7869 7870 7871 7872 7873 7874 7875 7876 7877 7878 7879 7880 7881 7882 7883 7884 7885 7886 7887 7888 7889 7890 7891 7892 7893 7894 7895 7896 7897 7898 7899 7900 7901 7902 7903 7904 7905 7906 7907 7908 7909 7910 7911 7912 7913 7914 7915 7916 7917 7918 7919 7920 7921 7922 7923 7924 7925 7926 7927 7928 7929 7930 7931 7932 7933 7934 7935 7936 7937 7938 7939 7940 7941 7942 7943 7944 7945 7946 7947 7948 7949 7950 7951 7952 7953 7954 7955 7956 7957 7958 7959 7960 7961 7962 7963 7964 7965 7966 7967 7968 7969 7970 7971 7972 7973 7974 7975 7976 7977 7978 7979 7980 7981 7982 7983 7984 7985 7986 7987 7988 7989 7990 7991 7992 7993 7994 7995 7996 7997 7998 7999 8000 8001 8002 8003 8004 8005 8006 8007 8008 8009 8010 8011 8012 8013 8014 8015 8016 8017 8018 8019 8020 8021 8022 8023 8024 8025 8026 8027 8028 8029 8030 8031 8032 8033 8034 8035 8036 8037 8038 8039 8040 8041 8042 8043 8044 8045 8046 8047 8048 8049 8050 8051 8052 8053 8054 8055 8056 8057 8058 8059 8060 8061 8062 8063 8064 8065 8066 8067 8068 8069 8070 8071 8072 8073 8074 8075 8076 8077 8078 8079 8080 8081 8082 8083 8084 8085 8086 8087 8088 8089 8090 8091 8092 8093 8094 8095 8096 8097 8098 8099 8100 8101 8102 8103 8104 8105 8106 8107 8108 8109 8110 8111 8112 8113 8114 8115 8116 8117 8118 8119 8120 8121 8122 8123 8124 8125 8126 8127 8128 8129 8130 8131 8132 8133 8134 8135 8136 8137 8138 8139 8140 8141 8142 8143 8144 8145 8146 8147 8148 8149 8150 8151 8152 8153 8154 8155 8156 8157 8158 8159 8160 8161 8162 8163 8164 8165 8166 8167 8168 8169 8170 8171 8172 8173 8174 8175 8176 8177 8178 8179 8180 8181 8182 8183 8184 8185 8186 8187 8188 8189 8190 8191 8192 8193 8194 8195 8196 8197 8198 8199 8200 8201 8202 8203 8204 8205 8206 8207 8208 8209 8210 8211 8212 8213 8214 8215 8216 8217 8218 8219 8220 8221 8222 8223 8224 8225 8226 8227 8228 8229 8230 8231 8232 8233 8234 8235 8236 8237 8238 8239 8240 8241 8242 8243 8244 8245 8246 8247 8248 8249 8250 8251 8252 8253 8254 8255 8256 8257 8258 8259 8260 8261 8262 8263 8264 8265 8266 8267 8268 8269 8270 8271 8272 8273 8274 8275 8276 8277 8278 8279 8280 8281 8282 8283 8284 8285 8286 8287 8288 8289 8290 8291 8292 8293 8294 8295 8296 8297 8298 8299 8300 8301 8302 8303 8304 8305 8306 8307 8308 8309 8310 8311 8312 8313 8314 8315 8316 8317 8318 8319 8320 8321 8322 8323 8324 8325 8326 8327 8328 8329 8330 8331 8332 8333 8334 8335 8336 8337 8338 8339 8340 8341 8342 8343 8344 8345 8346 8347 8348 8349 8350 8351 8352 8353 8354 8355 8356 8357 8358 8359 8360 8361 8362 8363 8364 8365 8366 8367 8368 8369 8370 8371 8372 8373 8374 8375 8376 8377 8378 8379 8380 8381 8382 8383 8384 8385 8386 8387 8388 8389 8390 8391 8392 8393 8394 8395 8396 8397 8398 8399 8400 8401 8402 8403 8404 8405 8406 8407 8408 8409 8410 8411 8412 8413 8414 8415 8416 8417 8418 8419 8420 8421 8422 8423 8424 8425 8426 8427 8428 8429 8430 8431 8432 8433 8434 8435 8436 8437 8438 8439 8440 8441 8442 8443 8444 8445 8446 8447 8448 8449 8450 8451 8452 8453 8454 8455 8456 8457 8458 8459 8460 8461 8462 8463 8464 8465 8466 8467 8468 8469 8470 8471 8472 8473 8474 8475 8476 8477 8478 8479 8480 8481 8482 8483 8484 8485 8486 8487 8488 8489 8490 8491 8492 8493 8494 8495 8496 8497 8498 8499 8500 8501 8502 8503 8504 8505 8506 8507 8508 8509 8510 8511 8512 8513 8514 8515 8516 8517 8518 8519 8520 8521 8522 8523 8524 8525 8526 8527 8528 8529 8530 8531 8532 8533 8534 8535 8536 8537 8538 8539 8540 8541 8542 8543 8544 8545 8546 8547 8548 8549 8550 8551 8552 8553 8554 8555 8556 8557 8558 8559 8560 8561 8562 8563 8564 8565 8566 8567 8568 8569 8570 8571 8572 8573 8574 8575 8576 8577 8578 8579 8580 8581 8582 8583 8584 8585 8586 8587 8588 8589 8590 8591 8592 8593 8594 8595 8596 8597 8598 8599 8600 8601 8602 8603 8604 8605 8606 8607 8608 8609 8610 8611 8612 8613 8614 8615 8616 8617 8618 8619 8620 8621 8622 8623 8624 8625 8626 8627 8628 8629 8630 8631 8632 8633 8634 8635 8636 8637 8638 8639 8640 8641 8642 8643 8644 8645 8646 8647 8648 8649 8650 8651 8652 8653 8654 8655 8656 8657 8658 8659 8660 8661 8662 8663 8664 8665 8666 8667 8668 8669 8670 8671 8672 8673 8674 8675 8676 8677 8678 8679 8680 8681 8682 8683 8684 8685 8686 8687 8688 8689 8690 8691 8692 8693 8694 8695 8696 8697 8698 8699 8700 8701 8702 8703 8704 8705 8706 8707 8708 8709 8710 8711 8712 8713 8714 8715 8716 8717 8718 8719 8720 8721 8722 8723 8724 8725 8726 8727 8728 8729 8730 8731 8732 8733 8734 8735 8736 8737 8738 8739 8740 8741 8742 8743 8744 8745 8746 8747 8748 8749 8750 8751 8752 8753 8754 8755 8756 8757 8758 8759 8760 8761 8762 8763 8764 8765 8766 8767 8768 8769 8770 8771 8772 8773 8774 8775 8776 8777 8778 8779 8780 8781 8782 8783 8784 8785 8786 8787 8788 8789 8790 8791 8792 8793 8794 8795 8796 8797 8798 8799 8800 8801 8802 8803 8804 8805 8806 8807 8808 8809 8810 8811 8812 8813 8814 8815 8816 8817 8818 8819 8820 8821 8822 8823 8824 8825 8826 8827 8828 8829 8830 8831 8832 8833 8834 8835 8836 8837 8838 8839 8840 8841 8842 8843 8844 8845 8846 8847 8848 8849 8850 8851 8852 8853 8854 8855 8856 8857 8858 8859 8860 8861 8862 8863 8864 8865 8866 8867 8868 8869 8870 8871 8872 8873 8874 8875 8876 8877 8878 8879 8880 8881 8882 8883 8884 8885 8886 8887 8888 8889 8890 8891 8892 8893 8894 8895 8896 8897 8898 8899 8900 8901 8902 8903 8904 8905 8906 8907 8908 8909 8910 8911 8912 8913 8914 8915 8916 8917 8918 8919 8920 8921 8922 8923 8924 8925 8926 8927 8928 8929 8930 8931 8932 8933 8934 8935 8936 8937 8938 8939 8940 8941 8942 8943 8944 8945 8946 8947 8948 8949 8950 8951 8952 8953 8954 8955 8956 8957 8958 8959 8960 8961 8962 8963 8964 8965 8966 8967 8968 8969 8970 8971 8972 8973 8974 8975 8976 8977 8978 8979 8980 8981 8982 8983 8984 8985 8986 8987 8988 8989 8990 8991 8992 8993 8994 8995 8996 8997 8998 8999 9000 9001 9002 9003 9004 9005 9006 9007 9008 9009 9010 9011 9012 9013 9014 9015 9016 9017 9018 9019 9020 9021 9022 9023 9024 9025 9026 9027 9028 9029 9030 9031 9032 9033 9034 9035 9036 9037 9038 9039 9040 9041 9042 9043 9044 9045 9046 9047 9048 9049 9050 9051 9052 9053 9054 9055 9056 9057 9058 9059 9060 9061 9062 9063 9064 9065 9066 9067 9068 9069 9070 9071 9072 9073 9074 9075 9076 9077 9078 9079 9080 9081 9082 9083 9084 9085 9086 9087 9088 9089 9090 9091 9092 9093 9094 9095 9096 9097 9098 9099 9100 9101 9102 9103 9104 9105 9106 9107 9108 9109 9110 9111 9112 9113 9114 9115 9116 9117 9118 9119 9120 9121 9122 9123 9124 9125 9126 9127 9128 9129 9130 9131 9132 9133 9134 9135 9136 9137 9138 9139 9140 9141 9142 9143 9144 9145 9146 9147 9148 9149 9150 9151 9152 9153 9154 9155 9156 9157 9158 9159 9160 9161 9162 9163 9164 9165 9166 9167 9168 9169 9170 9171 9172 9173 9174 9175 9176 9177 9178 9179 9180 9181 9182 9183 9184 9185 9186 9187 9188 9189 9190 9191 9192 9193 9194 9195 9196 9197 9198 9199 9200 9201 9202 9203 9204 9205 9206 9207 9208 9209 9210 9211 9212 9213 9214 9215 9216 9217 9218 9219 9220 9221 9222 9223 9224 9225 9226 9227 9228 9229 9230 9231 9232 9233 9234 9235 9236 9237 9238 9239 9240 9241 9242 9243 9244 9245 9246 9247 9248 9249 9250 9251 9252 9253 9254 9255 9256 9257 9258 9259 9260 9261 9262 9263 9264 9265 9266 9267 9268 9269 9270 9271 9272 9273 9274 9275 9276 9277 9278 9279 9280 9281 9282 9283 9284 9285 9286 9287 9288 9289 9290 9291 9292 9293 9294 9295 9296 9297 9298 9299 9300 9301 9302 9303 9304 9305 9306 9307 9308 9309 9310 9311 9312 9313 9314 9315 9316 9317 9318 9319 9320 9321 9322 9323 9324 9325 9326 9327 9328 9329 9330 9331 9332 9333 9334 9335 9336 9337 9338 9339 9340 9341 9342 9343 9344 9345 9346 9347 9348 9349 9350 9351 9352 9353 9354 9355 9356 9357 9358 9359 9360 9361 9362 9363 9364 9365 9366 9367 9368 9369 9370 9371 9372 9373 9374 9375 9376 9377 9378 9379 9380 9381 9382 9383 9384 9385 9386 9387 9388 9389 9390 9391 9392 9393 9394 9395 9396 9397 9398 9399 9400 9401 9402 9403 9404 9405 9406 9407 9408 9409 9410 9411 9412 9413 9414 9415 9416 9417 9418 9419 9420 9421 9422 9423 9424 9425 9426 9427 9428 9429 9430 9431 9432 9433 9434 9435 9436 9437 9438 9439 9440 9441 9442 9443 9444 9445 9446 9447 9448 9449 9450 9451 9452 9453 9454 9455 9456 9457 9458 9459 9460 9461 9462 9463 9464 9465 9466 9467 9468 9469 9470 9471 9472 9473 9474 9475 9476 9477 9478 9479 9480 9481 9482 9483 9484 9485 9486 9487 9488 9489 9490 9491 9492 9493 9494 9495 9496 9497 9498 9499 9500 9501 9502 9503 9504 9505 9506 9507 9508 9509 9510 9511 9512 9513 9514 9515 9516 9517 9518 9519 9520 9521 9522 9523 9524 9525 9526 9527 9528 9529 9530 9531 9532 9533 9534 9535 9536 9537 9538 9539 9540 9541 9542 9543 9544 9545 9546 9547 9548 9549 9550 9551 9552 9553 9554 9555 9556 9557 9558 9559 9560 9561 9562 9563 9564 9565 9566 9567 9568 9569 9570 9571 9572 9573 9574 9575 9576 9577 9578 9579 9580 9581 9582 9583 9584 9585 9586 9587 9588 9589 9590 9591 9592 9593 9594 9595 9596 9597 9598 9599 9600 9601 9602 9603 9604 9605 9606 9607 9608 9609 9610 9611 9612 9613 9614 9615 9616 9617 9618 9619 9620 9621 9622 9623 9624 9625 9626 9627 9628 9629 9630 9631 9632 9633 9634 9635 9636 9637 9638 9639 9640 9641 9642 9643 9644 9645 9646 9647 9648 9649 9650 9651 9652 9653 9654 9655 9656 9657 9658 9659 9660 9661 9662 9663 9664 9665 9666 9667 9668 9669 9670 9671 9672 9673 9674 9675 9676 9677 9678 9679 9680 9681 9682 9683 9684 9685 9686 9687 9688 9689 9690 9691 9692 9693 9694 9695 9696 9697 9698 9699 9700 9701 9702 9703 9704 9705 9706 9707 9708 9709 9710 9711 9712 9713 9714 9715 9716 9717 9718 9719 9720 9721 9722 9723 9724 9725 9726 9727 9728 9729 9730 9731 9732 9733 9734 9735 9736 9737 9738 9739 9740 9741 9742 9743 9744 9745 9746 9747 9748 9749 9750 9751 9752 9753 9754 9755 9756 9757 9758 9759 9760 9761 9762 9763 9764 9765 9766 9767 9768 9769 9770 9771 9772 9773 9774 9775 9776 9777 9778 9779 9780 9781 9782 9783 9784 9785 9786 9787 9788 9789 9790 9791 9792 9793 9794 9795 9796 9797 9798 9799 9800 9801 9802 9803 9804 9805 9806 9807 9808 9809 9810 9811 9812 9813 9814 9815 9816 9817 9818 9819 9820 9821 9822 9823 9824 9825 9826 9827 9828 9829 9830 9831 9832 9833 9834 9835 9836 9837 9838 9839 9840 9841 9842 9843 9844 9845 9846 9847 9848 9849 9850 9851 9852 9853 9854 9855 9856 9857 9858 9859 9860 9861 9862 9863 9864 9865 9866 9867 9868 9869 9870 9871 9872 9873 9874 9875 9876 9877 9878 9879 9880 9881 9882 9883 9884 9885 9886 9887 9888 9889 9890 9891 9892 9893 9894 9895 9896 9897 9898 9899 9900 9901 9902 9903 9904 9905 9906 9907 9908 9909 9910 9911 9912 9913 9914 9915 9916 9917 9918 9919 9920 9921 9922 9923 9924 9925 9926 9927 9928 9929 9930 9931 9932 9933 9934 9935 9936 9937 9938 9939 9940 9941 9942 9943 9944 9945 9946 9947 9948 9949 9950 9951 9952 9953 9954 9955 9956 9957 9958 9959 9960 9961 9962 9963 9964 9965 9966 9967 9968 9969 9970 9971 9972 9973 9974 9975 9976 9977 9978 9979 9980 9981 9982 9983 9984 9985 9986 9987 9988 9989 9990 9991 9992 9993 9994 9995 9996 9997 9998 9999 10000 10001 10002 10003 10004 10005 10006 10007 10008 10009 10010 10011 10012 10013 10014 10015 10016 10017 10018 10019 10020 10021 10022 10023 10024 10025 10026 10027 10028 10029 10030 10031 10032 10033 10034 10035 10036 10037 10038 10039 10040 10041 10042 10043 10044 10045 10046 10047 10048 10049 10050 10051 10052 10053 10054 10055 10056 10057 10058 10059 10060 10061 10062 10063 10064 10065 10066 10067 10068 10069 10070 10071 10072 10073 10074 10075 10076 10077 10078 10079 10080 10081 10082 10083 10084 10085 10086 10087 10088 10089 10090 10091 10092 10093 10094 10095 10096 10097 10098 10099 10100 10101 10102 10103 10104 10105 10106 10107 10108 10109 10110 10111 10112 10113 10114 10115 10116 10117 10118 10119 10120 10121 10122 10123 10124 10125 10126 10127 10128 10129 10130 10131 10132 10133 10134 10135 10136 10137 10138 10139 10140 10141 10142 10143 10144 10145 10146 10147 10148 10149 10150 10151 10152 10153 10154 10155 10156 10157 10158 10159 10160 10161 10162 10163 10164 10165 10166 10167 10168 10169 10170 10171 10172 10173 10174 10175 10176 10177 10178 10179 10180 10181 10182 10183 10184 10185 10186 10187 10188 10189 10190 10191 10192 10193 10194 10195 10196 10197 10198 10199 10200 10201 10202 10203 10204 10205 10206 10207 10208 10209 10210 10211 10212 10213 10214 10215 10216 10217 10218 10219 10220 10221 10222 10223 10224 10225 10226 10227 10228 10229 10230 10231 10232 10233 10234 10235 10236 10237 10238 10239 10240 10241 10242 10243 10244 10245 10246 10247 10248 10249 10250 10251 10252 10253 10254 10255 10256 10257 10258 10259 10260 10261 10262 10263 10264 10265 10266 10267 10268 10269 10270 10271 10272 10273 10274 10275 10276 10277 10278 10279 10280 10281 10282 10283 10284 10285 10286 10287 10288 10289 10290 10291 10292 10293 10294 10295 10296 10297 10298 10299 10300 10301 10302 10303 10304 10305 10306 10307 10308 10309 10310 10311 10312 10313 10314 10315 10316 10317 10318 10319 10320 10321 10322 10323 10324 10325 10326 10327 10328 10329 10330 10331 10332 10333 10334 10335 10336 10337 10338 10339 10340 10341 10342 10343 10344 10345 10346 10347 10348 10349 10350 10351 10352 10353 10354 10355 10356 10357 10358 10359 10360 10361 10362 10363 10364 10365 10366 10367 10368 10369 10370 10371 10372 10373 10374 10375 10376 10377 10378 10379 10380 10381 10382 10383 10384 10385 10386 10387 10388 10389 10390 10391 10392 10393 10394 10395 10396 10397 10398 10399 10400 10401 10402 10403 10404 10405 10406 10407 10408 10409 10410 10411 10412 10413 10414 10415 10416 10417 10418 10419 10420 10421 10422 10423 10424 10425 10426 10427 10428 10429 10430 10431 10432 10433 10434 10435 10436 10437 10438 10439 10440 10441 10442 10443 10444 10445 10446 10447 10448 10449 10450 10451 10452 10453 10454 10455 10456 10457 10458 10459 10460 10461 10462 10463 10464 10465 10466 10467 10468 10469 10470 10471 10472 10473 10474 10475 10476 10477 10478 10479 10480 10481 10482 10483 10484 10485 10486 10487 10488 10489 10490 10491 10492 10493 10494 10495 10496 10497 10498 10499 10500 10501 10502 10503 10504 10505 10506 10507 10508 10509 10510 10511 10512 10513 10514 10515 10516 10517 10518 10519 10520 10521 10522 10523 10524 10525 10526 10527 10528 10529 10530 10531 10532 10533 10534 10535 10536 10537 10538 10539 10540 10541 10542 10543 10544 10545 10546 10547 10548 10549 10550 10551 10552 10553 10554 10555 10556 10557 10558 10559 10560 10561 10562 10563 10564 10565 10566 10567 10568 10569 10570 10571 10572 10573 10574 10575 10576 10577 10578 10579 10580 10581 10582 10583 10584 10585 10586 10587 10588 10589 10590 10591 10592 10593 10594 10595 10596 10597 10598 10599 10600 10601 10602 10603 10604 10605 10606 10607 10608 10609 10610 10611 10612 10613 10614 10615 10616 10617 10618 10619 10620 10621 10622 10623 10624 10625 10626 10627 10628 10629 10630 10631 10632 10633 10634 10635 10636 10637 10638 10639 10640 10641 10642 10643 10644 10645 10646 10647 10648 10649 10650 10651 10652 10653 10654 10655 10656 10657 10658 10659 10660 10661 10662 10663 10664 10665 10666 10667 10668 10669 10670 10671 10672 10673 10674 10675 10676 10677 10678 10679 10680 10681 10682 10683 10684 10685 10686 10687 10688 10689 10690 10691 10692 10693 10694 10695 10696 10697 10698 10699 10700 10701 10702 10703 10704 10705 10706 10707 10708 10709 10710 10711 10712 10713 10714 10715 10716 10717 10718 10719 10720 10721 10722 10723 10724 10725 10726 10727 10728 10729 10730 10731 10732 10733 10734 10735 10736 10737 10738 10739 10740 10741 10742 10743 10744 10745 10746 10747 10748 10749 10750 10751 10752 10753 10754 10755 10756 10757 10758 10759 10760 10761 10762 10763 10764 10765 10766 10767 10768 10769 10770 10771 10772 10773 10774 10775 10776 10777 10778 10779 10780 10781 10782 10783 10784 10785 10786 10787 10788 10789 10790 10791 10792 10793 10794 10795 10796 10797 10798 10799 10800 10801 10802 10803 10804 10805 10806 10807 10808 10809 10810 10811 10812 10813 10814 10815 10816 10817 10818 10819 10820 10821 10822 10823 10824 10825 10826 10827 10828 10829 10830 10831 10832 10833 10834 10835 10836 10837 10838 10839 10840 10841 10842 10843 10844 10845 10846 10847 10848 10849 10850 10851 10852 10853 10854 10855 10856 10857 10858 10859 10860 10861 10862 10863 10864 10865 10866 10867 10868 10869 10870 10871 10872 10873 10874 10875 10876 10877 10878 10879 10880 10881 10882 10883 10884 10885 10886 10887 10888 10889 10890 10891 10892 10893 10894 10895 10896 10897 10898 10899 10900 10901 10902 10903 10904 10905 10906 10907 10908 10909 10910 10911 10912 10913 10914 10915 10916 10917 10918 10919 10920 10921 10922 10923 10924 10925 10926 10927 10928 10929 10930 10931 10932 10933 10934 10935 10936 10937 10938 10939 10940 10941 10942 10943 10944 10945 10946 10947 10948 10949 10950 10951 10952 10953 10954 10955 10956 10957 10958 10959 10960 10961 10962 10963 10964 10965 10966 10967 10968 10969 10970 10971 10972 10973 10974 10975 10976 10977 10978 10979 10980 10981 10982 10983 10984 10985 10986 10987 10988 10989 10990 10991 10992 10993 10994 10995 10996 10997 10998 10999 11000 11001 11002 11003 11004 11005 11006 11007 11008 11009 11010 11011 11012 11013 11014 11015 11016 11017 11018 11019 11020 11021 11022 11023 11024 11025 11026 11027 11028 11029 11030 11031 11032 11033 11034 11035 11036 11037 11038 11039 11040 11041 11042 11043 11044 11045 11046 11047 11048 11049 11050 11051 11052 11053 11054 11055 11056 11057 11058 11059 11060 11061 11062 11063 11064 11065 11066 11067 11068 11069 11070 11071 11072 11073 11074 11075 11076 11077 11078 11079 11080 11081 11082 11083 11084 11085 11086 11087 11088 11089 11090 11091 11092 11093 11094 11095 11096 11097 11098 11099 11100 11101 11102 11103 11104 11105 11106 11107 11108 11109 11110 11111 11112 11113 11114 11115 11116 11117 11118 11119 11120 11121 11122 11123 11124 11125 11126 11127 11128 11129 11130 11131 11132 11133 11134 11135 11136 11137 11138 11139 11140 11141 11142 11143 11144 11145 11146 11147 11148 11149 11150 11151 11152 11153 11154 11155 11156 11157 11158 11159 11160 11161 11162 11163 11164 11165 11166 11167 11168 11169 11170 11171 11172 11173 11174 11175 11176 11177 11178 11179 11180 11181 11182 11183 11184 11185 11186 11187 11188 11189 11190 11191 11192 11193 11194 11195 11196 11197 11198 11199 11200 11201 11202 11203 11204 11205 11206 11207 11208 11209 11210 11211 11212 11213 11214 11215 11216 11217 11218 11219 11220 11221 11222 11223 11224 11225 11226 11227 11228 11229 11230 11231 11232 11233 11234 11235 11236 11237 11238 11239 11240 11241 11242 11243 11244 11245 11246 11247 11248 11249 11250 11251 11252 11253 11254 11255 11256 11257 11258 11259 11260 11261 11262 11263 11264 11265 11266 11267 11268 11269 11270 11271 11272 11273 11274 11275 11276 11277 11278 11279 11280 11281 11282 11283 11284 11285 11286 11287 11288 11289 11290 11291 11292 11293 11294 11295 11296 11297 11298 11299 11300 11301 11302 11303 11304 11305 11306 11307 11308 11309 11310 11311 11312 11313 11314 11315 11316 11317 11318 11319 11320 11321 11322 11323 11324 11325 11326 11327 11328 11329 11330 11331 11332 11333 11334 11335 11336 11337 11338 11339 11340 11341 11342 11343 11344 11345 11346 11347 11348 11349 11350 11351 11352 11353 11354 11355 11356 11357 11358 11359 11360 11361 11362 11363 11364 11365 11366 11367 11368 11369 11370 11371 11372 11373 11374 11375 11376 11377 11378 11379 11380 11381 11382 11383 11384 11385 11386 11387 11388 11389 11390 11391 11392 11393 11394 11395 11396 11397 11398 11399 11400 11401 11402 11403 11404 11405 11406 11407 11408 11409 11410 11411 11412 11413 11414 11415 11416 11417 11418 11419 11420 11421 11422 11423 11424 11425 11426 11427 11428 11429 11430 11431 11432 11433 11434 11435 11436 11437 11438 11439 11440 11441 11442 11443 11444 11445 11446 11447 11448 11449 11450 11451 11452 11453 11454 11455 11456 11457 11458 11459 11460 11461 11462 11463 11464 11465 11466 11467 11468 11469 11470 11471 11472 11473 11474 11475 11476 11477 11478 11479 11480 11481 11482 11483 11484 11485 11486 11487 11488 11489 11490 11491 11492 11493 11494 11495 11496 11497 11498 11499 11500 11501 11502 11503 11504 11505 11506 11507 11508 11509 11510 11511 11512 11513 11514 11515 11516 11517 11518 11519 11520 11521 11522 11523 11524 11525 11526 11527 11528 11529 11530 11531 11532 11533 11534 11535 11536 11537 11538 11539 11540 11541 11542 11543 11544 11545 11546 11547 11548 11549 11550 11551 11552 11553 11554 11555 11556 11557 11558 11559 11560 11561 11562 11563 11564 11565 11566 11567 11568 11569 11570 11571 11572 11573 11574 11575 11576 11577 11578 11579 11580 11581 11582 11583 11584 11585 11586 11587 11588 11589 11590 11591 11592 11593 11594 11595 11596 11597 11598 11599 11600 11601 11602 11603 11604 11605 11606 11607 11608 11609 11610 11611 11612 11613 11614 11615 11616 11617 11618 11619 11620 11621 11622 11623 11624 11625 11626 11627 11628 11629 11630 11631 11632 11633 11634 11635 11636 11637 11638 11639 11640 11641 11642 11643 11644 11645 11646 11647 11648 11649 11650 11651 11652 11653 11654 11655 11656 11657 11658 11659 11660 11661 11662 11663 11664 11665 11666 11667 11668 11669 11670 11671 11672 11673 11674 11675 11676 11677 11678 11679 11680 11681 11682 11683 11684 11685 11686 11687 11688 11689 11690 11691 11692 11693 11694 11695 11696 11697 11698 11699 11700 11701 11702 11703 11704 11705 11706 11707 11708 11709 11710 11711 11712 11713 11714 11715 11716 11717 11718 11719 11720 11721 11722 11723 11724 11725 11726 11727 11728 11729 11730 11731 11732 11733 11734 11735 11736 11737 11738 11739 11740 11741 11742 11743 11744 11745 11746 11747 11748 11749 11750 11751 11752 11753 11754 11755 11756 11757 11758 11759 11760 11761 11762 11763 11764 11765 11766 11767 11768 11769 11770 11771 11772 11773 11774 11775 11776 11777 11778 11779 11780 11781 11782 11783 11784 11785 11786 11787 11788 11789 11790 11791 11792 11793 11794 11795 11796 11797 11798 11799 11800 11801 11802 11803 11804 11805 11806 11807 11808 11809 11810 11811 11812 11813 11814 11815 11816 11817 11818 11819 11820 11821 11822 11823 11824 11825 11826 11827 11828 11829 11830 11831 11832 11833 11834 11835 11836 11837 11838 11839 11840 11841 11842 11843 11844 11845 11846 11847 11848 11849 11850 11851 11852 11853 11854 11855 11856 11857 11858 11859 11860 11861 11862 11863 11864 11865 11866 11867 11868 11869 11870 11871 11872 11873 11874 11875 11876 11877 11878 11879 11880 11881 11882 11883 11884 11885 11886 11887 11888 11889 11890 11891 11892 11893 11894 11895 11896 11897 11898 11899 11900 11901 11902 11903 11904 11905 11906 11907 11908 11909 11910 11911 11912 11913 11914 11915 11916 11917 11918 11919 11920 11921 11922 11923 11924 11925 11926 11927 11928 11929 11930 11931 11932 11933 11934 11935 11936 11937 11938 11939 11940 11941 11942 11943 11944 11945 11946 11947 11948 11949 11950 11951 11952 11953 11954 11955 11956 11957 11958 11959 11960 11961 11962 11963 11964 11965 11966 11967 11968 11969 11970 11971 11972 11973 11974 11975 11976 11977 11978 11979 11980 11981 11982 11983 11984 11985 11986 11987 11988 11989 11990 11991 11992 11993 11994 11995 11996 11997 11998 11999 12000 12001 12002 12003 12004 12005 12006 12007 12008 12009 12010 12011 12012 12013 12014 12015 12016 12017 12018 12019 12020 12021 12022 12023 12024 12025 12026 12027 12028 12029 12030 12031 12032 12033 12034 12035 12036 12037 12038 12039 12040 12041 12042 12043 12044 12045 12046 12047 12048 12049 12050 12051 12052 12053 12054 12055 12056 12057 12058 12059 12060 12061 12062 12063 12064 12065 12066 12067 12068 12069 12070 12071 12072 12073 12074 12075 12076 12077 12078 12079 12080 12081 12082 12083 12084 12085 12086 12087 12088 12089 12090 12091 12092 12093 12094 12095 12096 12097 12098 12099 12100 12101 12102 12103 12104 12105 12106 12107 12108 12109 12110 12111 12112 12113 12114 12115 12116 12117 12118 12119 12120 12121 12122 12123 12124 12125 12126 12127 12128 12129 12130 12131 12132 12133 12134 12135 12136 12137 12138 12139 12140 12141 12142 12143 12144 12145 12146 12147 12148 12149 12150 12151 12152 12153 12154 12155 12156 12157 12158 12159 12160 12161 12162 12163 12164 12165 12166 12167 12168 12169 12170 12171 12172 12173 12174 12175 12176 12177 12178 12179 12180 12181 12182 12183 12184 12185 12186 12187 12188 12189 12190 12191 12192 12193 12194 12195 12196 12197 12198 12199 12200 12201 12202 12203 12204 12205 12206 12207 12208 12209 12210 12211 12212 12213 12214 12215 12216 12217 12218 12219 12220 12221 12222 12223 12224 12225 12226 12227 12228 12229 12230 12231 12232 12233 12234 12235 12236 12237 12238 12239 12240 12241 12242 12243 12244 12245 12246 12247 12248 12249 12250 12251 12252 12253 12254 12255 12256 12257 12258 12259 12260 12261 12262 12263 12264 12265 12266 12267 12268 12269 12270 12271 12272 12273 12274 12275 12276 12277 12278 12279 12280 12281 12282 12283 12284 12285 12286 12287 12288 12289 12290 12291 12292 12293 12294 12295 12296 12297 12298 12299 12300 12301 12302 12303 12304 12305 12306 12307 12308 12309 12310 12311 12312 12313 12314 12315 12316 12317 12318 12319 12320 12321 12322 12323 12324 12325 12326 12327 12328 12329 12330 12331 12332 12333 12334 12335 12336 12337 12338 12339 12340 12341 12342 12343 12344 12345 12346 12347 12348 12349 12350 12351 12352 12353 12354 12355 12356 12357 12358 12359 12360 12361 12362 12363 12364 12365 12366 12367 12368 12369 12370 12371 12372 12373 12374 12375 12376 12377 12378 12379 12380 12381 12382 12383 12384 12385 12386 12387 12388 12389 12390 12391 12392 12393 12394 12395 12396 12397 12398 12399 12400 12401 12402 12403 12404 12405 12406 12407 12408 12409 12410 12411 12412 12413 12414 12415 12416 12417 12418 12419 12420 12421 12422 12423 12424 12425 12426 12427 12428 12429 12430 12431 12432 12433 12434 12435 12436 12437 12438 12439 12440 12441 12442 12443 12444 12445 12446 12447 12448 12449 12450 12451 12452 12453 12454 12455 12456 12457 12458 12459 12460 12461 12462 12463 12464 12465 12466 12467 12468 12469 12470 12471 12472 12473 12474 12475 12476 12477 12478 12479 12480 12481 12482 12483 12484 12485 12486 12487 12488 12489 12490 12491 12492 12493 12494 12495 12496 12497 12498 12499 12500 12501 12502 12503 12504 12505 12506 12507 12508 12509 12510 12511 12512 12513 12514 12515 12516 12517 12518 12519 12520 12521 12522 12523 12524 12525 12526 12527 12528 12529 12530 12531 12532 12533 12534 12535 12536 12537 12538 12539 12540 12541 12542 12543 12544 12545 12546 12547 12548 12549 12550 12551 12552 12553 12554 12555 12556 12557 12558 12559 12560 12561 12562 12563 12564 12565 12566 12567 12568 12569 12570 12571 12572 12573 12574 12575 12576 12577 12578 12579 12580 12581 12582 12583 12584 12585 12586 12587 12588 12589 12590 12591 12592 12593 12594 12595 12596 12597 12598 12599 12600 12601 12602 12603 12604 12605 12606 12607 12608 12609 12610 12611 12612 12613 12614 12615 12616 12617 12618 12619 12620 12621 12622 12623 12624 12625 12626 12627 12628 12629 12630 12631 12632 12633 12634 12635 12636 12637 12638 12639 12640 12641 12642 12643 12644 12645 12646 12647 12648 12649 12650 12651 12652 12653 12654 12655 12656 12657 12658 12659 12660 12661 12662 12663 12664 12665 12666 12667 12668 12669 12670 12671 12672 12673 12674 12675 12676 12677 12678 12679 12680 12681 12682 12683 12684 12685 12686 12687 12688 12689 12690 12691 12692 12693 12694 12695 12696 12697 12698 12699 12700 12701 12702 12703 12704 12705 12706 12707 12708 12709 12710 12711 12712 12713 12714 12715 12716 12717 12718 12719 12720 12721 12722 12723 12724 12725 12726 12727 12728 12729 12730 12731 12732 12733 12734 12735 12736 12737 12738 12739 12740 12741 12742 12743 12744 12745 12746 12747 12748 12749 12750 12751 12752 12753 12754 12755 12756 12757 12758 12759 12760 12761 12762 12763 12764 12765 12766 12767 12768 12769 12770 12771 12772 12773 12774 12775 12776 12777 12778 12779 12780 12781 12782 12783 12784 12785 12786 12787 12788 12789 12790 12791 12792 12793 12794 12795 12796 12797 12798 12799 12800 12801 12802 12803 12804 12805 12806 12807 12808 12809 12810 12811 12812 12813 12814 12815 12816 12817 12818 12819 12820 12821 12822 12823 12824 12825 12826 12827 12828 12829 12830 12831 12832 12833 12834 12835 12836 12837 12838 12839 12840 12841 12842 12843 12844 12845 12846 12847 12848 12849 12850 12851 12852 12853 12854 12855 12856 12857 12858 12859 12860 12861 12862 12863 12864 12865 12866 12867 12868 12869 12870 12871 12872 12873 12874 12875 12876 12877 12878 12879 12880 12881 12882 12883 12884 12885 12886 12887 12888 12889 12890 12891 12892 12893 12894 12895 12896 12897 12898 12899 12900 12901 12902 12903 12904 12905 12906 12907 12908 12909 12910 12911 12912 12913 12914 12915 12916 12917 12918 12919 12920 12921 12922 12923 12924 12925 12926 12927 12928 12929 12930 12931 12932 12933 12934 12935 12936 12937 12938 12939 12940 12941 12942 12943 12944 12945 12946 12947 12948 12949 12950 12951 12952 12953 12954 12955 12956 12957 12958 12959 12960 12961 12962 12963 12964 12965 12966 12967 12968 12969 12970 12971 12972 12973 12974 12975 12976 12977 12978 12979 12980 12981 12982 12983 12984 12985 12986 12987 12988 12989 12990 12991 12992 12993 12994 12995 12996 12997 12998 12999 13000 13001 13002 13003 13004 13005 13006 13007 13008 13009 13010 13011 13012 13013 13014 13015 13016 13017 13018 13019 13020 13021 13022 13023 13024 13025 13026 13027 13028 13029 13030 13031 13032 13033 13034 13035 13036 13037 13038 13039 13040 13041 13042 13043 13044 13045 13046 13047 13048 13049 13050 13051 13052 13053 13054 13055 13056 13057 13058 13059 13060 13061 13062 13063 13064 13065 13066 13067 13068 13069 13070 13071 13072 13073 13074 13075 13076 13077 13078 13079 13080 13081 13082 13083 13084 13085 13086 13087 13088 13089 13090 13091 13092 13093 13094 13095 13096 13097 13098 13099 13100 13101 13102 13103 13104 13105 13106 13107 13108 13109 13110 13111 13112 13113 13114 13115 13116 13117 13118 13119 13120 13121 13122 13123 13124 13125 13126 13127 13128 13129 13130 13131 13132 13133 13134 13135 13136 13137 13138 13139 13140 13141 13142 13143 13144 13145 13146 13147 13148 13149 13150 13151 13152 13153 13154 13155 13156 13157 13158 13159 13160 13161 13162 13163 13164 13165 13166 13167 13168 13169 13170 13171 13172 13173 13174 13175 13176 13177 13178 13179 13180 13181 13182 13183 13184 13185 13186 13187 13188 13189 13190 13191 13192 13193 13194 13195 13196 13197 13198 13199 13200 13201 13202 13203 13204 13205 13206 13207 13208 13209 13210 13211 13212 13213 13214 13215 13216 13217 13218 13219 13220 13221 13222 13223 13224 13225 13226 13227 13228 13229 13230 13231 13232 13233 13234 13235 13236 13237 13238 13239 13240 13241 13242 13243 13244 13245 13246 13247 13248 13249 13250 13251 13252 13253 13254 13255 13256 13257 13258 13259 13260 13261 13262 13263 13264 13265 13266 13267 13268 13269 13270 13271 13272 13273 13274 13275 13276 13277 13278 13279 13280 13281 13282 13283 13284 13285 13286 13287 13288 13289 13290 13291 13292 13293 13294 13295 13296 13297 13298 13299 13300 13301 13302 13303 13304 13305 13306 13307 13308 13309 13310 13311 13312 13313 13314 13315 13316 13317 13318 13319 13320 13321 13322 13323 13324 13325 13326 13327 13328 13329 13330 13331 13332 13333 13334 13335 13336 13337 13338 13339 13340 13341 13342 13343 13344 13345 13346 13347 13348 13349 13350 13351 13352 13353 13354 13355 13356 13357 13358 13359 13360 13361 13362 13363 13364 13365 13366 13367 13368 13369 13370 13371 13372 13373 13374 13375 13376 13377 13378 13379 13380 13381 13382 13383 13384 13385 13386 13387 13388 13389 13390 13391 13392 13393 13394 13395 13396 13397 13398 13399 13400 13401 13402 13403 13404 13405 13406 13407 13408 13409 13410 13411 13412 13413 13414 13415 13416 13417 13418 13419 13420 13421 13422 13423 13424 13425 13426 13427 13428 13429 13430 13431 13432 13433 13434 13435 13436 13437 13438 13439 13440 13441 13442 13443 13444 13445 13446 13447 13448 13449 13450 13451 13452 13453 13454 13455 13456 13457 13458 13459 13460 13461 13462 13463 13464 13465 13466 13467 13468 13469 13470 13471 13472 13473 13474 13475 13476 13477 13478 13479 13480 13481 13482 13483 13484 13485 13486 13487 13488 13489 13490 13491 13492 13493 13494 13495 13496 13497 13498 13499 13500 13501 13502 13503 13504 13505 13506 13507 13508 13509 13510 13511 13512 13513 13514 13515 13516 13517 13518 13519 13520 13521 13522 13523 13524 13525 13526 13527 13528 13529 13530 13531 13532 13533 13534 13535 13536 13537 13538 13539 13540 13541 13542 13543 13544 13545 13546 13547 13548 13549 13550 13551 13552 13553 13554 13555 13556 13557 13558 13559 13560 13561 13562 13563 13564 13565 13566 13567 13568 13569 13570 13571 13572 13573 13574 13575 13576 13577 13578 13579 13580 13581 13582 13583 13584 13585 13586 13587 13588 13589 13590 13591 13592 13593 13594 13595 13596 13597 13598 13599 13600 13601 13602 13603 13604 13605 13606 13607 13608 13609 13610 13611 13612 13613 13614 13615 13616 13617 13618 13619 13620 13621 13622 13623 13624 13625 13626 13627 13628 13629 13630 13631 13632 13633 13634 13635 13636 13637 13638 13639 13640 13641 13642 13643 13644 13645 13646 13647 13648 13649 13650 13651 13652 13653 13654 13655 13656 13657 13658 13659 13660 13661 13662 13663 13664 13665 13666 13667 13668 13669 13670 13671 13672 13673 13674 13675 13676 13677 13678 13679 13680 13681 13682 13683 13684 13685 13686 13687 13688 13689 13690 13691 13692 13693 13694 13695 13696 13697 13698 13699 13700 13701 13702 13703 13704 13705 13706 13707 13708 13709 13710 13711 13712 13713 13714 13715 13716 13717 13718 13719 13720 13721 13722 13723 13724 13725 13726 13727 13728 13729 13730 13731 13732 13733 13734 13735 13736 13737 13738 13739 13740 13741 13742 13743 13744 13745 13746 13747 13748 13749 13750 13751 13752 13753 13754 13755 13756 13757 13758 13759 13760 13761 13762 13763 13764 13765 13766 13767 13768 13769 13770 13771 13772 13773 13774 13775 13776 13777 13778 13779 13780 13781 13782 13783 13784 13785 13786 13787 13788 13789 13790 13791 13792 13793 13794 13795 13796 13797 13798 13799 13800 13801 13802 13803 13804 13805 13806 13807 13808 13809 13810 13811 13812 13813 13814 13815 13816 13817 13818 13819 13820 13821 13822 13823 13824 13825 13826 13827 13828 13829 13830 13831 13832 13833 13834 13835 13836 13837 13838 13839 13840 13841 13842 13843 13844 13845 13846 13847 13848 13849 13850 13851 13852 13853 13854 13855 13856 13857 13858 13859 13860 13861 13862 13863 13864 13865 13866 13867 13868 13869 13870 13871 13872 13873 13874 13875 13876 13877 13878 13879 13880 13881 13882 13883 13884 13885 13886 13887 13888 13889 13890 13891 13892 13893 13894 13895 13896 13897 13898 13899 13900 13901 13902 13903 13904 13905 13906 13907 13908 13909 13910 13911 13912 13913 13914 13915 13916 13917 13918 13919 13920 13921 13922 13923 13924 13925 13926 13927 13928 13929 13930 13931 13932 13933 13934 13935 13936 13937 13938 13939 13940 13941 13942 13943 13944 13945 13946 13947 13948 13949 13950 13951 13952 13953 13954 13955 13956 13957 13958 13959 13960 13961 13962 13963 13964 13965 13966 13967 13968 13969 13970 13971 13972 13973 13974 13975 13976 13977 13978 13979 13980 13981 13982 13983 13984 13985 13986 13987 13988 13989 13990 13991 13992 13993 13994 13995 13996 13997 13998 13999 14000 14001 14002 14003 14004 14005 14006 14007 14008 14009 14010 14011 14012 14013 14014 14015 14016 14017 14018 14019 14020 14021 14022 14023 14024 14025 14026 14027 14028 14029 14030 14031 14032 14033 14034 14035 14036 14037 14038 14039 14040 14041 14042 14043 14044 14045 14046 14047 14048 14049 14050 14051 14052 14053 14054 14055 14056 14057 14058 14059 14060 14061 14062 14063 14064 14065 14066 14067 14068 14069 14070 14071 14072 14073 14074 14075 14076 14077 14078 14079 14080 14081 14082 14083 14084 14085 14086 14087 14088 14089 14090 14091 14092 14093 14094 14095 14096 14097 14098 14099 14100 14101 14102 14103 14104 14105 14106 14107 14108 14109 14110 14111 14112 14113 14114 14115 14116 14117 14118 14119 14120 14121 14122 14123 14124 14125 14126 14127 14128 14129 14130 14131 14132 14133 14134 14135 14136 14137 14138 14139 14140 14141 14142 14143 14144 14145 14146 14147 14148 14149 14150 14151 14152 14153 14154 14155 14156 14157 14158 14159 14160 14161 14162 14163 14164 14165 14166 14167 14168 14169 14170 14171 14172 14173 14174 14175 14176 14177 14178 14179 14180 14181 14182 14183 14184 14185 14186 14187 14188 14189 14190 14191 14192 14193 14194 14195 14196 14197 14198 14199 14200 14201 14202 14203 14204 14205 14206 14207 14208 14209 14210 14211 14212 14213 14214 14215 14216 14217 14218 14219 14220 14221 14222 14223 14224 14225 14226 14227 14228 14229 14230 14231 14232 14233 14234 14235 14236 14237 14238 14239 14240 14241 14242 14243 14244 14245 14246 14247 14248 14249 14250 14251 14252 14253 14254 14255 14256 14257 14258 14259 14260 14261 14262 14263 14264 14265 14266 14267 14268 14269 14270 14271 14272 14273 14274 14275 14276 14277 14278 14279 14280 14281 14282 14283 14284 14285 14286 14287 14288 14289 14290 14291 14292 14293 14294 14295 14296 14297 14298 14299 14300 14301 14302 14303 14304 14305 14306 14307 14308 14309 14310 14311 14312 14313 14314 14315 14316 14317 14318 14319 14320 14321 14322 14323 14324 14325 14326 14327 14328 14329 14330 14331 14332 14333 14334 14335 14336 14337 14338 14339 14340 14341 14342 14343 14344 14345 14346 14347 14348 14349 14350 14351 14352 14353 14354 14355 14356 14357 14358 14359 14360 14361 14362 14363 14364 14365 14366 14367 14368 14369 14370 14371 14372 14373 14374 14375 14376 14377 14378 14379 14380 14381 14382 14383 14384 14385 14386 14387 14388 14389 14390 14391 14392 14393 14394 14395 14396 14397 14398 14399 14400 14401 14402 14403 14404 14405 14406 14407 14408 14409 14410 14411 14412 14413 14414 14415 14416 14417 14418 14419 14420 14421 14422 14423 14424 14425 14426 14427 14428 14429 14430 14431 14432 14433 14434 14435 14436 14437 14438 14439 14440 14441 14442 14443 14444 14445 14446 14447 14448 14449 14450 14451 14452 14453 14454 14455 14456 14457 14458 14459 14460 14461 14462 14463 14464 14465 14466 14467 14468 14469 14470 14471 14472 14473 14474 14475 14476 14477 14478 14479 14480 14481 14482 14483 14484 14485 14486 14487 14488 14489 14490 14491 14492 14493 14494 14495 14496 14497 14498 14499 14500 14501 14502 14503 14504 14505 14506 14507 14508 14509 14510 14511 14512 14513 14514 14515 14516 14517 14518 14519 14520 14521 14522 14523 14524 14525 14526 14527 14528 14529 14530 14531 14532 14533 14534 14535 14536 14537 14538 14539 14540 14541 14542 14543 14544 14545 14546 14547 14548 14549 14550 14551 14552 14553 14554 14555 14556 14557 14558 14559 14560 14561 14562 14563 14564 14565 14566 14567 14568 14569 14570 14571 14572 14573 14574 14575 14576 14577 14578 14579 14580 14581 14582 14583 14584 14585 14586 14587 14588 14589 14590 14591 14592 14593 14594 14595 14596 14597 14598 14599 14600 14601 14602 14603 14604 14605 14606 14607 14608 14609 14610 14611 14612 14613 14614 14615 14616 14617 14618 14619 14620 14621 14622 14623 14624 14625 14626 14627 14628 14629 14630 14631 14632 14633 14634 14635 14636 14637 14638 14639 14640 14641 14642 14643 14644 14645 14646 14647 14648 14649 14650 14651 14652 14653 14654 14655 14656 14657 14658 14659 14660 14661 14662 14663 14664 14665 14666 14667 14668 14669 14670 14671 14672 14673 14674 14675 14676 14677 14678 14679 14680 14681 14682 14683 14684 14685 14686 14687 14688 14689 14690 14691 14692 14693 14694 14695 14696 14697 14698 14699 14700 14701 14702 14703 14704 14705 14706 14707 14708 14709 14710 14711 14712 14713 14714 14715 14716 14717 14718 14719 14720 14721 14722 14723 14724 14725 14726 14727 14728 14729 14730 14731 14732 14733 14734 14735 14736 14737 14738 14739 14740 14741 14742 14743 14744 14745 14746 14747 14748 14749 14750 14751 14752 14753 14754 14755 14756 14757 14758 14759 14760 14761 14762 14763 14764 14765 14766 14767 14768 14769 14770 14771 14772 14773 14774 14775 14776 14777 14778 14779 14780 14781 14782 14783 14784 14785 14786 14787 14788 14789 14790 14791 14792 14793 14794 14795 14796 14797 14798 14799 14800 14801 14802 14803 14804 14805 14806 14807 14808 14809 14810 14811 14812 14813 14814 14815 14816 14817 14818 14819 14820 14821 14822 14823 14824 14825 14826 14827 14828 14829 14830 14831 14832 14833 14834 14835 14836 14837 14838 14839 14840 14841 14842 14843 14844 14845 14846 14847 14848 14849 14850 14851 14852 14853 14854 14855 14856 14857 14858 14859 14860 14861 14862 14863 14864 14865 14866 14867 14868 14869 14870 14871 14872 14873 14874 14875 14876 14877 14878 14879 14880 14881 14882 14883 14884 14885 14886 14887 14888 14889 14890 14891 14892 14893 14894 14895 14896 14897 14898 14899 14900 14901 14902 14903 14904 14905 14906 14907 14908 14909 14910 14911 14912 14913 14914 14915 14916 14917 14918 14919 14920 14921 14922 14923 14924 14925 14926 14927 14928 14929 14930 14931 14932 14933 14934 14935 14936 14937 14938 14939 14940 14941 14942 14943 14944 14945 14946 14947 14948 14949 14950 14951 14952 14953 14954 14955 14956 14957 14958 14959 14960 14961 14962 14963 14964 14965 14966 14967 14968 14969 14970 14971 14972 14973 14974 14975 14976 14977 14978 14979 14980 14981 14982 14983 14984 14985 14986 14987 14988 14989 14990 14991 14992 14993 14994 14995 14996 14997 14998 14999 15000 15001 15002 15003 15004 15005 15006 15007 15008 15009 15010 15011 15012 15013 15014 15015 15016 15017 15018 15019 15020 15021 15022 15023 15024 15025 15026 15027 15028 15029 15030 15031 15032 15033 15034 15035 15036 15037 15038 15039 15040 15041 15042 15043 15044 15045 15046 15047 15048 15049 15050 15051 15052 15053 15054 15055 15056 15057 15058 15059 15060 15061 15062 15063 15064 15065 15066 15067 15068 15069 15070 15071 15072 15073 15074 15075 15076 15077 15078 15079 15080 15081 15082 15083 15084 15085 15086 15087 15088 15089 15090 15091 15092 15093 15094 15095 15096 15097 15098 15099 15100 15101 15102 15103 15104 15105 15106 15107 15108 15109 15110 15111 15112 15113 15114 15115 15116 15117 15118 15119 15120 15121 15122 15123 15124 15125 15126 15127 15128 15129 15130 15131 15132 15133 15134 15135 15136 15137 15138 15139 15140 15141 15142 15143 15144 15145 15146 15147 15148 15149 15150 15151 15152 15153 15154 15155 15156 15157 15158 15159 15160 15161 15162 15163 15164 15165 15166 15167 15168 15169 15170 15171 15172 15173 15174 15175 15176 15177 15178 15179 15180 15181 15182 15183 15184 15185 15186 15187 15188 15189 15190 15191 15192 15193 15194 15195 15196 15197 15198 15199 15200 15201 15202 15203 15204 15205 15206 15207 15208 15209 15210 15211 15212 15213 15214 15215 15216 15217 15218 15219 15220 15221 15222 15223 15224 15225 15226 15227 15228 15229 15230 15231 15232 15233 15234 15235 15236 15237 15238 15239 15240 15241 15242 15243 15244 15245 15246 15247 15248 15249 15250 15251 15252 15253 15254 15255 15256 15257 15258 15259 15260 15261 15262 15263 15264 15265 15266 15267 15268 15269 15270 15271 15272 15273 15274 15275 15276 15277 15278 15279 15280 15281 15282 15283 15284 15285 15286 15287 15288 15289 15290 15291 15292 15293 15294 15295 15296 15297 15298 15299 15300 15301 15302 15303 15304 15305 15306 15307 15308 15309 15310 15311 15312 15313 15314 15315 15316 15317 15318 15319 15320 15321 15322 15323 15324 15325 15326 15327 15328 15329 15330 15331 15332 15333 15334 15335 15336 15337 15338 15339 15340 15341 15342 15343 15344 15345 15346 15347 15348 15349 15350 15351 15352 15353 15354 15355 15356 15357 15358 15359 15360 15361 15362 15363 15364 15365 15366 15367 15368 15369 15370 15371 15372 15373 15374 15375 15376 15377 15378 15379 15380 15381 15382 15383 15384 15385 15386 15387 15388 15389 15390 15391 15392 15393 15394 15395 15396 15397 15398 15399 15400 15401 15402 15403 15404 15405 15406 15407 15408 15409 15410 15411 15412 15413 15414 15415 15416 15417 15418 15419 15420 15421 15422 15423 15424 15425 15426 15427 15428 15429 15430 15431 15432 15433 15434 15435 15436 15437 15438 15439 15440 15441 15442 15443 15444 15445 15446 15447 15448 15449 15450 15451 15452 15453 15454 15455 15456 15457 15458 15459 15460 15461 15462 15463 15464 15465 15466 15467 15468 15469 15470 15471 15472 15473 15474 15475 15476 15477 15478 15479 15480 15481 15482 15483 15484 15485 15486 15487 15488 15489 15490 15491 15492 15493 15494 15495 15496 15497 15498 15499 15500 15501 15502 15503 15504 15505 15506 15507 15508 15509 15510 15511 15512 15513 15514 15515 15516 15517 15518 15519 15520 15521 15522 15523 15524 15525 15526 15527 15528 15529 15530 15531 15532 15533 15534 15535 15536 15537 15538 15539 15540 15541 15542 15543 15544 15545 15546 15547 15548 15549 15550 15551 15552 15553 15554 15555 15556 15557 15558 15559 15560 15561 15562 15563 15564 15565 15566 15567 15568 15569 15570 15571 15572 15573 15574 15575 15576 15577 15578 15579 15580 15581 15582 15583 15584 15585 15586 15587 15588 15589 15590 15591 15592 15593 15594 15595 15596 15597 15598 15599 15600 15601 15602 15603 15604 15605 15606 15607 15608 15609 15610 15611 15612 15613 15614 15615 15616 15617 15618 15619 15620 15621 15622 15623 15624 15625 15626 15627 15628 15629 15630 15631 15632 15633 15634 15635 15636 15637 15638 15639 15640 15641 15642 15643 15644 15645 15646 15647 15648 15649 15650 15651 15652 15653 15654 15655 15656 15657 15658 15659 15660 15661 15662 15663 15664 15665 15666 15667 15668 15669 15670 15671 15672 15673 15674 15675 15676 15677 15678 15679 15680 15681 15682 15683 15684 15685 15686 15687 15688 15689 15690 15691 15692 15693 15694 15695 15696 15697 15698 15699 15700 15701 15702 15703 15704 15705 15706 15707 15708 15709 15710 15711 15712 15713 15714 15715 15716 15717 15718 15719 15720 15721 15722 15723 15724 15725 15726 15727 15728 15729 15730 15731 15732 15733 15734 15735 15736 15737 15738 15739 15740 15741 15742 15743 15744 15745 15746 15747 15748 15749 15750 15751 15752 15753 15754 15755 15756 15757 15758 15759 15760 15761 15762 15763 15764 15765 15766 15767 15768 15769 15770 15771 15772 15773 15774 15775 15776 15777 15778 15779 15780 15781 15782 15783 15784 15785 15786 15787 15788 15789 15790 15791 15792 15793 15794 15795 15796 15797 15798 15799 15800 15801 15802 15803 15804 15805 15806 15807 15808 15809 15810 15811 15812 15813 15814 15815 15816 15817 15818 15819 15820 15821 15822 15823 15824 15825 15826 15827 15828 15829 15830 15831 15832 15833 15834 15835 15836 15837 15838 15839 15840 15841 15842 15843 15844 15845 15846 15847 15848 15849 15850 15851 15852 15853 15854 15855 15856 15857 15858 15859 15860 15861 15862 15863 15864 15865 15866 15867 15868 15869 15870 15871 15872 15873 15874 15875 15876 15877 15878 15879 15880 15881 15882 15883 15884 15885 15886 15887 15888 15889 15890 15891 15892 15893 15894 15895 15896 15897 15898 15899 15900 15901 15902 15903 15904 15905 15906 15907 15908 15909 15910 15911 15912 15913 15914 15915 15916 15917 15918 15919 15920 15921 15922 15923 15924 15925 15926 15927 15928 15929 15930 15931 15932 15933 15934 15935 15936 15937 15938 15939 15940 15941 15942 15943 15944 15945 15946 15947 15948 15949 15950 15951 15952 15953 15954 15955 15956 15957 15958 15959 15960 15961 15962 15963 15964 15965 15966 15967 15968 15969 15970 15971 15972 15973 15974 15975 15976 15977 15978 15979 15980 15981 15982 15983 15984 15985 15986 15987 15988 15989 15990 15991 15992 15993 15994 15995 15996 15997 15998 15999 16000 16001 16002 16003 16004 16005 16006 16007 16008 16009 16010 16011 16012 16013 16014 16015 16016 16017 16018 16019 16020 16021 16022 16023 16024 16025 16026 16027 16028 16029 16030 16031 16032 16033 16034 16035 16036 16037 16038 16039 16040 16041 16042 16043 16044 16045 16046 16047 16048 16049 16050 16051 16052 16053 16054 16055 16056 16057 16058 16059 16060 16061 16062 16063 16064 16065 16066 16067 16068 16069 16070 16071 16072 16073 16074 16075 16076 16077 16078 16079 16080 16081 16082 16083 16084 16085 16086 16087 16088 16089 16090 16091 16092 16093 16094 16095 16096 16097 16098 16099 16100 16101 16102 16103 16104 16105 16106 16107 16108 16109 16110 16111 16112 16113 16114 16115 16116 16117 16118 16119 16120 16121 16122 16123 16124 16125 16126 16127 16128 16129 16130 16131 16132 16133 16134 16135 16136 16137 16138 16139 16140 16141 16142 16143 16144 16145 16146 16147 16148 16149 16150 16151 16152 16153 16154 16155 16156 16157 16158 16159 16160 16161 16162 16163 16164 16165 16166 16167 16168 16169 16170 16171 16172 16173 16174 16175 16176 16177 16178 16179 16180 16181 16182 16183 16184 16185 16186 16187 16188 16189 16190 16191 16192 16193 16194 16195 16196 16197 16198 16199 16200 16201 16202 16203 16204 16205 16206 16207 16208 16209 16210 16211 16212 16213 16214 16215 16216 16217 16218 16219 16220 16221 16222 16223 16224 16225 16226 16227 16228 16229 16230 16231 16232 16233 16234 16235 16236 16237 16238 16239 16240 16241 16242 16243 16244 16245 16246 16247 16248 16249 16250 16251 16252 16253 16254 16255 16256 16257 16258 16259 16260 16261 16262 16263 16264 16265 16266 16267 16268 16269 16270 16271 16272 16273 16274 16275 16276 16277 16278 16279 16280 16281 16282 16283 16284 16285 16286 16287 16288 16289 16290 16291 16292 16293 16294 16295 16296 16297 16298 16299 16300 16301 16302 16303 16304 16305 16306 16307 16308 16309 16310 16311 16312 16313 16314 16315 16316 16317 16318 16319 16320 16321 16322 16323 16324 16325 16326 16327 16328 16329 16330 16331 16332 16333 16334 16335 16336 16337 16338 16339 16340 16341 16342 16343 16344 16345 16346 16347 16348 16349 16350 16351 16352 16353 16354 16355 16356 16357 16358 16359 16360 16361 16362 16363 16364 16365 16366 16367 16368 16369 16370 16371 16372 16373 16374 16375 16376 16377 16378 16379 16380 16381 16382 16383 16384 16385 16386 16387 16388 16389 16390 16391 16392 16393 16394 16395 16396 16397 16398 16399 16400 16401 16402 16403 16404 16405 16406 16407 16408 16409 16410 16411 16412 16413 16414 16415 16416 16417 16418 16419 16420 16421 16422 16423 16424 16425 16426 16427 16428 16429 16430 16431 16432 16433 16434 16435 16436 16437 16438 16439 16440 16441 16442 16443 16444 16445 16446 16447 16448 16449 16450 16451 16452 16453 16454 16455 16456 16457 16458 16459 16460 16461 16462 16463 16464 16465 16466 16467 16468 16469 16470 16471 16472 16473 16474 16475 16476 16477 16478 16479 16480 16481 16482 16483 16484 16485 16486 16487 16488 16489 16490 16491 16492 16493 16494 16495 16496 16497 16498 16499 16500 16501 16502 16503 16504 16505 16506 16507 16508 16509 16510 16511 16512 16513 16514 16515 16516 16517 16518 16519 16520 16521 16522 16523 16524 16525 16526 16527 16528 16529 16530 16531 16532 16533 16534 16535 16536 16537 16538 16539 16540 16541 16542 16543 16544 16545 16546 16547 16548 16549 16550 16551 16552 16553 16554 16555 16556 16557 16558 16559 16560 16561 16562 16563 16564 16565 16566 16567 16568 16569 16570 16571 16572 16573 16574 16575 16576 16577 16578 16579 16580 16581 16582 16583 16584 16585 16586 16587 16588 16589 16590 16591 16592 16593 16594 16595 16596 16597 16598 16599 16600 16601 16602 16603 16604 16605 16606 16607 16608 16609 16610 16611 16612 16613 16614 16615 16616 16617 16618 16619 16620 16621 16622 16623 16624 16625 16626 16627 16628 16629 16630 16631 16632 16633 16634 16635 16636 16637 16638 16639 16640 16641 16642 16643 16644 16645 16646 16647 16648 16649 16650 16651 16652 16653 16654 16655 16656 16657 16658 16659 16660 16661 16662 16663 16664 16665 16666 16667 16668 16669 16670 16671 16672 16673 16674 16675 16676 16677 16678 16679 16680 16681 16682 16683 16684 16685 16686 16687 16688 16689 16690 16691 16692 16693 16694 16695 16696 16697 16698 16699 16700 16701 16702 16703 16704 16705 16706 16707 16708 16709 16710 16711 16712 16713 16714 16715 16716 16717 16718 16719 16720 16721 16722 16723 16724 16725 16726 16727 16728 16729 16730 16731 16732 16733 16734 16735 16736 16737 16738 16739 16740 16741 16742 16743 16744 16745 16746 16747 16748 16749 16750 16751 16752 16753 16754 16755 16756 16757 16758 16759 16760 16761 16762 16763 16764 16765 16766 16767 16768 16769 16770 16771 16772 16773 16774 16775 16776 16777 16778 16779 16780 16781 16782 16783 16784 16785 16786 16787 16788 16789 16790 16791 16792 16793 16794 16795 16796 16797 16798 16799 16800 16801 16802 16803 16804 16805 16806 16807 16808 16809 16810 16811 16812 16813 16814 16815 16816 16817 16818 16819 16820 16821 16822 16823 16824 16825 16826 16827 16828 16829 16830 16831 16832 16833 16834 16835 16836 16837 16838 16839 16840 16841 16842 16843 16844 16845 16846 16847 16848 16849 16850 16851 16852 16853 16854 16855 16856 16857 16858 16859 16860 16861 16862 16863 16864 16865 16866 16867 16868 16869 16870 16871 16872 16873 16874 16875 16876 16877 16878 16879 16880 16881 16882 16883 16884 16885 16886 16887 16888 16889 16890 16891 16892 16893 16894 16895 16896 16897 16898 16899 16900 16901 16902 16903 16904 16905 16906 16907 16908 16909 16910 16911 16912 16913 16914 16915 16916 16917 16918 16919 16920 16921 16922 16923 16924 16925 16926 16927 16928 16929 16930 16931 16932 16933 16934 16935 16936 16937 16938 16939 16940 16941 16942 16943 16944 16945 16946 16947 16948 16949 16950 16951 16952 16953 16954 16955 16956 16957 16958 16959 16960 16961 16962 16963 16964 16965 16966 16967 16968 16969 16970 16971 16972 16973 16974 16975 16976 16977 16978 16979 16980 16981 16982 16983 16984 16985 16986 16987 16988 16989 16990 16991 16992 16993 16994 16995 16996 16997 16998 16999 17000 17001 17002 17003 17004 17005 17006 17007 17008 17009 17010 17011 17012 17013 17014 17015 17016 17017 17018 17019 17020 17021 17022 17023 17024 17025 17026 17027 17028 17029 17030 17031 17032 17033 17034 17035 17036 17037 17038 17039 17040 17041 17042 17043 17044 17045 17046 17047 17048 17049 17050 17051 17052 17053 17054 17055 17056 17057 17058 17059 17060 17061 17062 17063 17064 17065 17066 17067 17068 17069 17070 17071 17072 17073 17074 17075 17076 17077 17078 17079 17080 17081 17082 17083 17084 17085 17086 17087 17088 17089 17090 17091 17092 17093 17094 17095 17096 17097 17098 17099 17100 17101 17102 17103 17104 17105 17106 17107 17108 17109 17110 17111 17112 17113 17114 17115 17116 17117 17118 17119 17120 17121 17122 17123 17124 17125 17126 17127 17128 17129 17130 17131 17132 17133 17134 17135 17136 17137 17138 17139 17140 17141 17142 17143 17144 17145 17146 17147 17148 17149 17150 17151 17152 17153 17154 17155 17156 17157 17158 17159 17160 17161 17162 17163 17164 17165 17166 17167 17168 17169 17170 17171 17172 17173 17174 17175 17176 17177 17178 17179 17180 17181 17182 17183 17184 17185 17186 17187 17188 17189 17190 17191 17192 17193 17194 17195 17196 17197 17198 17199 17200 17201 17202 17203 17204 17205 17206 17207 17208 17209 17210 17211 17212 17213 17214 17215 17216 17217 17218 17219 17220 17221 17222 17223 17224 17225 17226 17227 17228 17229 17230 17231 17232 17233 17234 17235 17236 17237 17238 17239 17240 17241 17242 17243 17244 17245 17246 17247 17248 17249 17250 17251 17252 17253 17254 17255 17256 17257 17258 17259 17260 17261 17262 17263 17264 17265 17266 17267 17268 17269 17270 17271 17272 17273 17274 17275 17276 17277 17278 17279 17280 17281 17282 17283 17284 17285 17286 17287 17288 17289 17290 17291 17292 17293 17294 17295 17296 17297 17298 17299 17300 17301 17302 17303 17304 17305 17306 17307 17308 17309 17310 17311 17312 17313 17314 17315 17316 17317 17318 17319 17320 17321 17322 17323 17324 17325 17326 17327 17328 17329 17330 17331 17332 17333 17334 17335 17336 17337 17338 17339 17340 17341 17342 17343 17344 17345 17346 17347 17348 17349 17350 17351 17352 17353 17354 17355 17356 17357 17358 17359 17360 17361 17362 17363 17364 17365 17366 17367 17368 17369 17370 17371 17372 17373 17374 17375 17376 17377 17378 17379 17380 17381 17382 17383 17384 17385 17386 17387 17388 17389 17390 17391 17392 17393 17394 17395 17396 17397 17398 17399 17400 17401 17402 17403 17404 17405 17406 17407 17408 17409 17410 17411 17412 17413 17414 17415 17416 17417 17418 17419 17420 17421 17422 17423 17424 17425 17426 17427 17428 17429 17430 17431 17432 17433 17434 17435 17436 17437 17438 17439 17440 17441 17442 17443 17444 17445 17446 17447 17448 17449 17450 17451 17452 17453 17454 17455 17456 17457 17458 17459 17460 17461 17462 17463 17464 17465 17466 17467 17468 17469 17470 17471 17472 17473 17474 17475 17476 17477 17478 17479 17480 17481 17482 17483 17484 17485 17486 17487 17488 17489 17490 17491 17492 17493 17494 17495 17496 17497 17498 17499 17500 17501 17502 17503 17504 17505 17506 17507 17508 17509 17510 17511 17512 17513 17514 17515 17516 17517 17518 17519 17520 17521 17522 17523 17524 17525 17526 17527 17528 17529 17530 17531 17532 17533 17534 17535 17536 17537 17538 17539 17540 17541 17542 17543 17544 17545 17546 17547 17548 17549 17550 17551 17552 17553 17554 17555 17556 17557 17558 17559 17560 17561 17562 17563 17564 17565 17566 17567 17568 17569 17570 17571 17572 17573 17574 17575 17576 17577 17578 17579 17580 17581 17582 17583 17584 17585 17586 17587 17588 17589 17590 17591 17592 17593 17594 17595 17596 17597 17598 17599 17600 17601 17602 17603 17604 17605 17606 17607 17608 17609 17610 17611 17612 17613 17614 17615 17616 17617 17618 17619 17620 17621 17622 17623 17624 17625 17626 17627 17628 17629 17630 17631 17632 17633 17634 17635 17636 17637 17638 17639 17640 17641 17642 17643 17644 17645 17646 17647 17648 17649 17650 17651 17652 17653 17654 17655 17656 17657 17658 17659 17660 17661 17662 17663 17664 17665 17666 17667 17668 17669 17670 17671 17672 17673 17674 17675 17676 17677 17678 17679 17680 17681 17682 17683 17684 17685 17686 17687 17688 17689 17690 17691 17692 17693 17694 17695 17696 17697 17698 17699 17700 17701 17702 17703 17704 17705 17706 17707 17708 17709 17710 17711 17712 17713 17714 17715 17716 17717 17718 17719 17720 17721 17722 17723 17724 17725 17726 17727 17728 17729 17730 17731 17732 17733 17734 17735 17736 17737 17738 17739 17740 17741 17742 17743 17744 17745 17746 17747 17748 17749 17750 17751 17752 17753 17754 17755 17756 17757 17758 17759 17760 17761 17762 17763 17764 17765 17766 17767 17768 17769 17770 17771 17772 17773 17774 17775 17776 17777 17778 17779 17780 17781 17782 17783 17784 17785 17786 17787 17788 17789 17790 17791 17792 17793 17794 17795 17796 17797 17798 17799 17800 17801 17802 17803 17804 17805 17806 17807 17808 17809 17810 17811 17812 17813 17814 17815 17816 17817 17818 17819 17820 17821 17822 17823 17824 17825 17826 17827 17828 17829 17830 17831 17832 17833 17834 17835 17836 17837 17838 17839 17840 17841 17842 17843 17844 17845 17846 17847 17848 17849 17850 17851 17852 17853 17854 17855 17856 17857 17858 17859 17860 17861 17862 17863 17864 17865 17866 17867 17868 17869 17870 17871 17872 17873 17874 17875 17876 17877 17878 17879 17880 17881 17882 17883 17884 17885 17886 17887 17888 17889 17890 17891 17892 17893 17894 17895 17896 17897 17898 17899 17900 17901 17902 17903 17904 17905 17906 17907 17908 17909 17910 17911 17912 17913 17914 17915 17916 17917 17918 17919 17920 17921 17922 17923 17924 17925 17926 17927 17928 17929 17930 17931 17932 17933 17934 17935 17936 17937 17938 17939 17940 17941 17942 17943 17944 17945 17946 17947 17948 17949 17950 17951 17952 17953 17954 17955 17956 17957 17958 17959 17960 17961 17962 17963 17964 17965 17966 17967 17968 17969 17970 17971 17972 17973 17974 17975 17976 17977 17978 17979 17980 17981 17982 17983 17984 17985 17986 17987 17988 17989 17990 17991 17992 17993 17994 17995 17996 17997 17998 17999 18000 18001 18002 18003 18004 18005 18006 18007 18008 18009 18010 18011 18012 18013 18014 18015 18016 18017 18018 18019 18020 18021 18022 18023 18024 18025 18026 18027 18028 18029 18030 18031 18032 18033 18034 18035 18036 18037 18038 18039 18040 18041 18042 18043 18044 18045 18046 18047 18048 18049 18050 18051 18052 18053 18054 18055 18056 18057 18058 18059 18060 18061 18062 18063 18064 18065 18066 18067 18068 18069 18070 18071 18072 18073 18074 18075 18076 18077 18078 18079 18080 18081 18082 18083 18084 18085 18086 18087 18088 18089 18090 18091 18092 18093 18094 18095 18096 18097 18098 18099 18100 18101 18102 18103 18104 18105 18106 18107 18108 18109 18110 18111 18112 18113 18114 18115 18116 18117 18118 18119 18120 18121 18122 18123 18124 18125 18126 18127 18128 18129 18130 18131 18132 18133 18134 18135 18136 18137 18138 18139 18140 18141 18142 18143 18144 18145 18146 18147 18148 18149 18150 18151 18152 18153 18154 18155 18156 18157 18158 18159 18160 18161 18162 18163 18164 18165 18166 18167 18168 18169 18170 18171 18172 18173 18174 18175 18176 18177 18178 18179 18180 18181 18182 18183 18184 18185 18186 18187 18188 18189 18190 18191 18192 18193 18194 18195 18196 18197 18198 18199 18200 18201 18202 18203 18204 18205 18206 18207 18208 18209 18210 18211 18212 18213 18214 18215 18216 18217 18218 18219 18220 18221 18222 18223 18224 18225 18226 18227 18228 18229 18230 18231 18232 18233 18234 18235 18236 18237 18238 18239 18240 18241 18242 18243 18244 18245 18246 18247 18248 18249 18250 18251 18252 18253 18254 18255 18256 18257 18258 18259 18260 18261 18262 18263 18264 18265 18266 18267 18268 18269 18270 18271 18272 18273 18274 18275 18276 18277 18278 18279 18280 18281 18282 18283 18284 18285 18286 18287 18288 18289 18290 18291 18292 18293 18294 18295 18296 18297 18298 18299 18300 18301 18302 18303 18304 18305 18306 18307 18308 18309 18310 18311 18312 18313 18314 18315 18316 18317 18318 18319 18320 18321 18322 18323 18324 18325 18326 18327 18328 18329 18330 18331 18332 18333 18334 18335 18336 18337 18338 18339 18340 18341 18342 18343 18344 18345 18346 18347 18348 18349 18350 18351 18352 18353 18354 18355 18356 18357 18358 18359 18360 18361 18362 18363 18364 18365 18366 18367 18368 18369 18370 18371 18372 18373 18374 18375 18376 18377 18378 18379 18380 18381 18382 18383 18384 18385 18386 18387 18388 18389 18390 18391 18392 18393 18394 18395 18396 18397 18398 18399 18400 18401 18402 18403 18404 18405 18406 18407 18408 18409 18410 18411 18412 18413 18414 18415 18416 18417 18418 18419 18420 18421 18422 18423 18424 18425 18426 18427 18428 18429 18430 18431 18432 18433 18434 18435 18436 18437 18438 18439 18440 18441 18442 18443 18444 18445 18446 18447 18448 18449 18450 18451 18452 18453 18454 18455 18456 18457 18458 18459 18460 18461 18462 18463 18464 18465 18466 18467 18468 18469 18470 18471 18472 18473 18474 18475 18476 18477 18478 18479 18480 18481 18482 18483 18484 18485 18486 18487 18488 18489 18490 18491 18492 18493 18494 18495 18496 18497 18498 18499 18500 18501 18502 18503 18504 18505 18506 18507 18508 18509 18510 18511 18512 18513 18514 18515 18516 18517 18518 18519 18520 18521 18522 18523 18524 18525 18526 18527 18528 18529 18530 18531 18532 18533 18534 18535 18536 18537 18538 18539 18540 18541 18542 18543 18544 18545 18546 18547 18548 18549 18550 18551 18552 18553 18554 18555 18556 18557 18558 18559 18560 18561 18562 18563 18564 18565 18566 18567 18568 18569 18570 18571 18572 18573 18574 18575 18576 18577 18578 18579 18580 18581 18582 18583 18584 18585 18586 18587 18588 18589 18590 18591 18592 18593 18594 18595 18596 18597 18598 18599 18600 18601 18602 18603 18604 18605 18606 18607 18608 18609 18610 18611 18612 18613 18614 18615 18616 18617 18618 18619 18620 18621 18622 18623 18624 18625 18626 18627 18628 18629 18630 18631 18632 18633 18634 18635 18636 18637 18638 18639 18640 18641 18642 18643 18644 18645 18646 18647 18648 18649 18650 18651 18652 18653 18654 18655 18656 18657 18658 18659 18660 18661 18662 18663 18664 18665 18666 18667 18668 18669 18670 18671 18672 18673 18674 18675 18676 18677 18678 18679 18680 18681 18682 18683 18684 18685 18686 18687 18688 18689 18690 18691 18692 18693 18694 18695 18696 18697 18698 18699 18700 18701 18702 18703 18704 18705 18706 18707 18708 18709 18710 18711 18712 18713 18714 18715 18716 18717 18718 18719 18720 18721 18722 18723 18724 18725 18726 18727 18728 18729 18730 18731 18732 18733 18734 18735 18736 18737 18738 18739 18740 18741 18742 18743 18744 18745 18746 18747 18748 18749 18750 18751 18752 18753 18754 18755 18756 18757 18758 18759 18760 18761 18762 18763 18764 18765 18766 18767 18768 18769 18770 18771 18772 18773 18774 18775 18776 18777 18778 18779 18780 18781 18782 18783 18784 18785 18786 18787 18788 18789 18790 18791 18792 18793 18794 18795 18796 18797 18798 18799 18800 18801 18802 18803 18804 18805 18806 18807 18808 18809 18810 18811 18812 18813 18814 18815 18816 18817 18818 18819 18820 18821 18822 18823 18824 18825 18826 18827 18828 18829 18830 18831 18832 18833 18834 18835 18836 18837 18838 18839 18840 18841 18842 18843 18844 18845 18846 18847 18848 18849 18850 18851 18852 18853 18854 18855 18856 18857 18858 18859 18860 18861 18862 18863 18864 18865 18866 18867 18868 18869 18870 18871 18872 18873 18874 18875 18876 18877 18878 18879 18880 18881 18882 18883 18884 18885 18886 18887 18888 18889 18890 18891 18892 18893 18894 18895 18896 18897 18898 18899 18900 18901 18902 18903 18904 18905 18906 18907 18908 18909 18910 18911 18912 18913 18914 18915 18916 18917 18918 18919 18920 18921 18922 18923 18924 18925 18926 18927 18928 18929 18930 18931 18932 18933 18934 18935 18936 18937 18938 18939 18940 18941 18942 18943 18944 18945 18946 18947 18948 18949 18950 18951 18952 18953 18954 18955 18956 18957 18958 18959 18960 18961 18962 18963 18964 18965 18966 18967 18968 18969 18970 18971 18972 18973 18974 18975 18976 18977 18978 18979 18980 18981 18982 18983 18984 18985 18986 18987 18988 18989 18990 18991 18992 18993 18994 18995 18996 18997 18998 18999 19000 19001 19002 19003 19004 19005 19006 19007 19008 19009 19010 19011 19012 19013 19014 19015 19016 19017 19018 19019 19020 19021 19022 19023 19024 19025 19026 19027 19028 19029 19030 19031 19032 19033 19034 19035 19036 19037 19038 19039 19040 19041 19042 19043 19044 19045 19046 19047 19048 19049 19050 19051 19052 19053 19054 19055 19056 19057 19058 19059 19060 19061 19062 19063 19064 19065 19066 19067 19068 19069 19070 19071 19072 19073 19074 19075 19076 19077 19078 19079 19080 19081 19082 19083 19084 19085 19086 19087 19088 19089 19090 19091 19092 19093 19094 19095 19096 19097 19098 19099 19100 19101 19102 19103 19104 19105 19106 19107 19108 19109 19110 19111 19112 19113 19114 19115 19116 19117 19118 19119 19120 19121 19122 19123 19124 19125 19126 19127 19128 19129 19130 19131 19132 19133 19134 19135 19136 19137 19138 19139 19140 19141 19142 19143 19144 19145 19146 19147 19148 19149 19150 19151 19152 19153 19154 19155 19156 19157 19158 19159 19160 19161 19162 19163 19164 19165 19166 19167 19168 19169 19170 19171 19172 19173 19174 19175 19176 19177 19178 19179 19180 19181 19182 19183 19184 19185 19186 19187 19188 19189 19190 19191 19192 19193 19194 19195 19196 19197 19198 19199 19200 19201 19202 19203 19204 19205 19206 19207 19208 19209 19210 19211 19212 19213 19214 19215 19216 19217 19218 19219 19220 19221 19222 19223 19224 19225 19226 19227 19228 19229 19230 19231 19232 19233 19234 19235 19236 19237 19238 19239 19240 19241 19242 19243 19244 19245 19246 19247 19248 19249 19250 19251 19252 19253 19254 19255 19256 19257 19258 19259 19260 19261 19262 19263 19264 19265 19266 19267 19268 19269 19270 19271 19272 19273 19274 19275 19276 19277 19278 19279 19280 19281 19282 19283 19284 19285 19286 19287 19288 19289 19290 19291 19292 19293 19294 19295 19296 19297 19298 19299 19300 19301 19302 19303 19304 19305 19306 19307 19308 19309 19310 19311 19312 19313 19314 19315 19316 19317 19318 19319 19320 19321 19322 19323 19324 19325 19326 19327 19328 19329 19330 19331 19332 19333 19334 19335 19336 19337 19338 19339 19340 19341 19342 19343 19344 19345 19346 19347 19348 19349 19350 19351 19352 19353 19354 19355 19356 19357 19358 19359 19360 19361 19362 19363 19364 19365 19366 19367 19368 19369 19370 19371 19372 19373 19374 19375 19376 19377 19378 19379 19380 19381 19382 19383 19384 19385 19386 19387 19388 19389 19390 19391 19392 19393 19394 19395 19396 19397 19398 19399 19400 19401 19402 19403 19404 19405 19406 19407 19408 19409 19410 19411 19412 19413 19414 19415 19416 19417 19418 19419 19420 19421 19422 19423 19424 19425 19426 19427 19428 19429 19430 19431 19432 19433 19434 19435 19436 19437 19438 19439 19440 19441 19442 19443 19444 19445 19446 19447 19448 19449 19450 19451 19452 19453 19454 19455 19456 19457 19458 19459 19460 19461 19462 19463 19464 19465 19466 19467 19468 19469 19470 19471 19472 19473 19474 19475 19476 19477 19478 19479 19480 19481 19482 19483 19484 19485 19486 19487 19488 19489 19490 19491 19492 19493 19494 19495 19496 19497 19498 19499 19500 19501 19502 19503 19504 19505 19506 19507 19508 19509 19510 19511 19512 19513 19514 19515 19516 19517 19518 19519 19520 19521 19522 19523 19524 19525 19526 19527 19528 19529 19530 19531 19532 19533 19534 19535 19536 19537 19538 19539 19540 19541 19542 19543 19544 19545 19546 19547 19548 19549 19550 19551 19552 19553 19554 19555 19556 19557 19558 19559 19560 19561 19562 19563 19564 19565 19566 19567 19568 19569 19570 19571 19572 19573 19574 19575 19576 19577 19578 19579 19580 19581 19582 19583 19584 19585 19586 19587 19588 19589 19590 19591 19592 19593 19594 19595 19596 19597 19598 19599 19600 19601 19602 19603 19604 19605 19606 19607 19608 19609 19610 19611 19612 19613 19614 19615 19616 19617 19618 19619 19620 19621 19622 19623 19624 19625 19626 19627 19628 19629 19630 19631 19632 19633 19634 19635 19636 19637 19638 19639 19640 19641 19642 19643 19644 19645 19646 19647 19648 19649 19650 19651 19652 19653 19654 19655 19656 19657 19658 19659 19660 19661 19662 19663 19664 19665 19666 19667 19668 19669 19670 19671 19672 19673 19674 19675 19676 19677 19678 19679 19680 19681 19682 19683 19684 19685 19686 19687 19688 19689 19690 19691 19692 19693 19694 19695 19696 19697 19698 19699 19700 19701 19702 19703 19704 19705 19706 19707 19708 19709 19710 19711 19712 19713 19714 19715 19716 19717 19718 19719 19720 19721 19722 19723 19724 19725 19726 19727 19728 19729 19730 19731 19732 19733 19734 19735 19736 19737 19738 19739 19740 19741 19742 19743 19744 19745 19746 19747 19748 19749 19750 19751 19752 19753 19754 19755 19756 19757 19758 19759 19760 19761 19762 19763 19764 19765 19766 19767 19768 19769 19770 19771 19772 19773 19774 19775 19776 19777 19778 19779 19780 19781 19782 19783 19784 19785 19786 19787 19788 19789 19790 19791 19792 19793 19794 19795 19796 19797 19798 19799 19800 19801 19802 19803 19804 19805 19806 19807 19808 19809 19810 19811 19812 19813 19814 19815 19816 19817 19818 19819 19820 19821 19822 19823 19824 19825 19826 19827 19828 19829 19830 19831 19832 19833 19834 19835 19836 19837 19838 19839 19840 19841 19842 19843 19844 19845 19846 19847 19848 19849 19850 19851 19852 19853 19854 19855 19856 19857 19858 19859 19860 19861 19862 19863 19864 19865 19866 19867 19868 19869 19870 19871 19872 19873 19874 19875 19876 19877 19878 19879 19880 19881 19882 19883 19884 19885 19886 19887 19888 19889 19890 19891 19892 19893 19894 19895 19896 19897 19898 19899 19900 19901 19902 19903 19904 19905 19906 19907 19908 19909 19910 19911 19912 19913 19914 19915 19916 19917 19918 19919 19920 19921 19922 19923 19924 19925 19926 19927 19928 19929 19930 19931 19932 19933 19934 19935 19936 19937 19938 19939 19940 19941 19942 19943 19944 19945 19946 19947 19948 19949 19950 19951 19952 19953 19954 19955 19956 19957 19958 19959 19960 19961 19962 19963 19964 19965 19966 19967 19968 19969 19970 19971 19972 19973 19974 19975 19976 19977 19978 19979 19980 19981 19982 19983 19984 19985 19986 19987 19988 19989 19990 19991 19992 19993 19994 19995 19996 19997 19998 19999 20000 20001 20002 20003 20004 20005 20006 20007 20008 20009 20010 20011 20012 20013 20014 20015 20016 20017 20018 20019 20020 20021 20022 20023 20024 20025 20026 20027 20028 20029 20030 20031 20032 20033 20034 20035 20036 20037 20038 20039 20040 20041 20042 20043 20044 20045 20046 20047 20048 20049 20050 20051 20052 20053 20054 20055 20056 20057 20058 20059 20060 20061 20062 20063 20064 20065 20066 20067 20068 20069 20070 20071 20072 20073 20074 20075 20076 20077 20078 20079 20080 20081 20082 20083 20084 20085 20086 20087 20088 20089 20090 20091 20092 20093 20094 20095 20096 20097 20098 20099 20100 20101 20102 20103 20104 20105 20106 20107 20108 20109 20110 20111 20112 20113 20114 20115 20116 20117 20118 20119 20120 20121 20122 20123 20124 20125 20126 20127 20128 20129 20130 20131 20132 20133 20134 20135 20136 20137 20138 20139 20140 20141 20142 20143 20144 20145 20146 20147 20148 20149 20150 20151 20152 20153 20154 20155 20156 20157 20158 20159 20160 20161 20162 20163 20164 20165 20166 20167 20168 20169 20170 20171 20172 20173 20174 20175 20176 20177 20178 20179 20180 20181 20182 20183 20184 20185 20186 20187 20188 20189 20190 20191 20192 20193 20194 20195 20196 20197 20198 20199 20200 20201 20202 20203 20204 20205 20206 20207 20208 20209 20210 20211 20212 20213 20214 20215 20216 20217 20218 20219 20220 20221 20222 20223 20224 20225 20226 20227 20228 20229 20230 20231 20232 20233 20234 20235 20236 20237 20238 20239 20240 20241 20242 20243 20244 20245 20246 20247 20248 20249 20250 20251 20252 20253 20254 20255 20256 20257 20258 20259 20260 20261 20262 20263 20264 20265 20266 20267 20268 20269 20270 20271 20272 20273 20274 20275 20276 20277 20278 20279 20280 20281 20282 20283 20284 20285 20286 20287 20288 20289 20290 20291 20292 20293 20294 20295 20296 20297 20298 20299 20300 20301 20302 20303 20304 20305 20306 20307 20308 20309 20310 20311 20312 20313 20314 20315 20316 20317 20318 20319 20320 20321 20322 20323 20324 20325 20326 20327 20328 20329 20330 20331 20332 20333 20334 20335 20336 20337 20338 20339 20340 20341 20342 20343 20344 20345 20346 20347 20348 20349 20350 20351 20352 20353 20354 20355 20356 20357 20358 20359 20360 20361 20362 20363 20364 20365 20366 20367 20368 20369 20370 20371 20372 20373 20374 20375 20376 20377 20378 20379 20380 20381 20382 20383 20384 20385 20386 20387 20388 20389 20390 20391 20392 20393 20394 20395 20396 20397 20398 20399 20400 20401 20402 20403 20404 20405 20406 20407 20408 20409 20410 20411 20412 20413 20414 20415 20416 20417 20418 20419 20420 20421 20422 20423 20424 20425 20426 20427 20428 20429 20430 20431 20432 20433 20434 20435 20436 20437 20438 20439 20440 20441 20442 20443 20444 20445 20446 20447 20448 20449 20450 20451 20452 20453 20454 20455 20456 20457 20458 20459 20460 20461 20462 20463 20464 20465 20466 20467 20468 20469 20470 20471 20472 20473 20474 20475 20476 20477 20478 20479 20480 20481 20482 20483 20484 20485 20486 20487 20488 20489 20490 20491 20492 20493 20494 20495 20496 20497 20498 20499 20500 20501 20502 20503 20504 20505 20506 20507 20508 20509 20510 20511 20512 20513 20514 20515 20516 20517 20518 20519 20520 20521 20522 20523 20524 20525 20526 20527 20528 20529 20530 20531 20532 20533 20534 20535 20536 20537 20538 20539 20540 20541 20542 20543 20544 20545 20546 20547 20548 20549 20550 20551 20552 20553 20554 20555 20556 20557 20558 20559 20560 20561 20562 20563 20564 20565 20566 20567 20568 20569 20570 20571 20572 20573 20574 20575 20576 20577 20578 20579 20580 20581 20582 20583 20584 20585 20586 20587 20588 20589 20590 20591 20592 20593 20594 20595 20596 20597 20598 20599 20600 20601 20602 20603 20604 20605 20606 20607 20608 20609 20610 20611 20612 20613 20614 20615 20616 20617 20618 20619 20620 20621 20622 20623 20624 20625 20626 20627 20628 20629 20630 20631 20632 20633 20634 20635 20636 20637 20638 20639 20640 20641 20642 20643 20644 20645 20646 20647 20648 20649 20650 20651 20652 20653 20654 20655 20656 20657 20658 20659 20660 20661 20662 20663 20664 20665 20666 20667 20668 20669 20670 20671 20672 20673 20674 20675 20676 20677 20678 20679 20680 20681 20682 20683 20684 20685 20686 20687 20688 20689 20690 20691 20692 20693 20694 20695 20696 20697 20698 20699 20700 20701 20702 20703 20704 20705 20706 20707 20708 20709 20710 20711 20712 20713 20714 20715 20716 20717 20718 20719 20720 20721 20722 20723 20724 20725 20726 20727 20728 20729 20730 20731 20732 20733 20734 20735 20736 20737 20738 20739 20740 20741 20742 20743 20744 20745 20746 20747 20748 20749 20750 20751 20752 20753 20754 20755 20756 20757 20758 20759 20760 20761 20762 20763 20764 20765 20766 20767 20768 20769 20770 20771 20772 20773 20774 20775 20776 20777 20778 20779 20780 20781 20782 20783 20784 20785 20786 20787 20788 20789 20790 20791 20792 20793 20794 20795 20796 20797 20798 20799 20800 20801 20802 20803 20804 20805 20806 20807 20808 20809 20810 20811 20812 20813 20814 20815 20816 20817 20818 20819 20820 20821 20822 20823 20824 20825 20826 20827 20828 20829 20830 20831 20832 20833 20834 20835 20836 20837 20838 20839 20840 20841 20842 20843 20844 20845 20846 20847 20848 20849 20850 20851 20852 20853 20854 20855 20856 20857 20858 20859 20860 20861 20862 20863 20864 20865 20866 20867 20868 20869 20870 20871 20872 20873 20874 20875 20876 20877 20878 20879 20880 20881 20882 20883 20884 20885 20886 20887 20888 20889 20890 20891 20892 20893 20894 20895 20896 20897 20898 20899 20900 20901 20902 20903 20904 20905 20906 20907 20908 20909 20910 20911 20912 20913 20914 20915 20916 20917 20918 20919 20920 20921 20922 20923 20924 20925 20926 20927 20928 20929 20930 20931 20932 20933 20934 20935 20936 20937 20938 20939 20940 20941 20942 20943 20944 20945 20946 20947 20948 20949 20950 20951 20952 20953 20954 20955 20956 20957 20958 20959 20960 20961 20962 20963 20964 20965 20966 20967 20968 20969 20970 20971 20972 20973 20974 20975 20976 20977 20978 20979 20980 20981 20982 20983 20984 20985 20986 20987 20988 20989 20990 20991 20992 20993 20994 20995 20996 20997 20998 20999 21000 21001 21002 21003 21004 21005 21006 21007 21008 21009 21010 21011 21012 21013 21014 21015 21016 21017 21018 21019 21020 21021 21022 21023 21024 21025 21026 21027 21028 21029 21030 21031 21032 21033 21034 21035 21036 21037 21038 21039 21040 21041 21042 21043 21044 21045 21046 21047 21048 21049 21050 21051 21052 21053 21054 21055 21056 21057 21058 21059 21060 21061 21062 21063 21064 21065 21066 21067 21068 21069 21070 21071 21072 21073 21074 21075 21076 21077 21078 21079 21080 21081 21082 21083 21084 21085 21086 21087 21088 21089 21090 21091 21092 21093 21094 21095 21096 21097 21098 21099 21100 21101 21102 21103 21104 21105 21106 21107 21108 21109 21110 21111 21112 21113 21114 21115 21116 21117 21118 21119 21120 21121 21122 21123 21124 21125 21126 21127 21128 21129 21130 21131 21132 21133 21134 21135 21136 21137 21138 21139 21140 21141 21142 21143 21144 21145 21146 21147 21148 21149 21150 21151 21152 21153 21154 21155 21156 21157 21158 21159 21160 21161 21162 21163 21164 21165 21166 21167 21168 21169 21170 21171 21172 21173 21174 21175 21176 21177 21178 21179 21180 21181 21182 21183 21184 21185 21186 21187 21188 21189 21190 21191 21192 21193 21194 21195 21196 21197 21198 21199 21200 21201 21202 21203 21204 21205 21206 21207 21208 21209 21210 21211 21212 21213 21214 21215 21216 21217 21218 21219 21220 21221 21222 21223 21224 21225 21226 21227 21228 21229 21230 21231 21232 21233 21234 21235 21236 21237 21238 21239 21240 21241 21242 21243 21244 21245 21246 21247 21248 21249 21250 21251 21252 21253 21254 21255 21256 21257 21258 21259 21260 21261 21262 21263 21264 21265 21266 21267 21268 21269 21270 21271 21272 21273 21274 21275 21276 21277 21278 21279 21280 21281 21282 21283 21284 21285 21286 21287 21288 21289 21290 21291 21292 21293 21294 21295 21296 21297 21298 21299 21300 21301 21302 21303 21304 21305 21306 21307 21308 21309 21310 21311 21312 21313 21314 21315 21316 21317 21318 21319 21320 21321 21322 21323 21324 21325 21326 21327 21328 21329 21330 21331 21332 21333 21334 21335 21336 21337 21338 21339 21340 21341 21342 21343 21344 21345 21346 21347 21348 21349 21350 21351 21352 21353 21354 21355 21356 21357 21358 21359 21360 21361 21362 21363 21364 21365 21366 21367 21368 21369 21370 21371 21372 21373 21374 21375 21376 21377 21378 21379 21380 21381 21382 21383 21384 21385 21386 21387 21388 21389 21390 21391 21392 21393 21394 21395 21396 21397 21398 21399 21400 21401 21402 21403 21404 21405 21406 21407 21408 21409 21410 21411 21412 21413 21414 21415 21416 21417 21418 21419 21420 21421 21422 21423 21424 21425 21426 21427 21428 21429 21430 21431 21432 21433 21434 21435 21436 21437 21438 21439 21440 21441 21442 21443 21444 21445 21446 21447 21448 21449 21450 21451 21452 21453 21454 21455 21456 21457 21458 21459 21460 21461 21462 21463 21464 21465 21466 21467 21468 21469 21470 21471 21472 21473 21474 21475 21476 21477 21478 21479 21480 21481 21482 21483 21484 21485 21486 21487 21488 21489 21490 21491 21492 21493 21494 21495 21496 21497 21498 21499 21500 21501 21502 21503 21504 21505 21506 21507 21508 21509 21510 21511 21512 21513 21514 21515 21516 21517 21518 21519 21520 21521 21522 21523 21524 21525 21526 21527 21528 21529 21530 21531 21532 21533 21534 21535 21536 21537 21538 21539 21540 21541 21542 21543 21544 21545 21546 21547 21548 21549 21550 21551 21552 21553 21554 21555 21556 21557 21558 21559 21560 21561 21562 21563 21564 21565 21566 21567 21568 21569 21570 21571 21572 21573 21574 21575 21576 21577 21578 21579 21580 21581 21582 21583 21584 21585 21586 21587 21588 21589 21590 21591 21592 21593 21594 21595 21596 21597 21598 21599 21600 21601 21602 21603 21604 21605 21606 21607 21608 21609 21610 21611 21612 21613 21614 21615 21616 21617 21618 21619 21620 21621 21622 21623 21624 21625 21626 21627 21628 21629 21630 21631 21632 21633 21634 21635 21636 21637 21638 21639 21640 21641 21642 21643 21644 21645 21646 21647 21648 21649 21650 21651 21652 21653 21654 21655 21656 21657 21658 21659 21660 21661 21662 21663 21664 21665 21666 21667 21668 21669 21670 21671 21672 21673 21674 21675 21676 21677 21678 21679 21680 21681 21682 21683 21684 21685 21686 21687 21688 21689 21690 21691 21692 21693 21694 21695 21696 21697 21698 21699 21700 21701 21702 21703 21704 21705 21706 21707 21708 21709 21710 21711 21712 21713 21714 21715 21716 21717 21718 21719 21720 21721 21722 21723 21724 21725 21726 21727 21728 21729 21730 21731 21732 21733 21734 21735 21736 21737 21738 21739 21740 21741 21742 21743 21744 21745 21746 21747 21748 21749 21750 21751 21752 21753 21754 21755 21756 21757 21758 21759 21760 21761 21762 21763 21764 21765 21766 21767 21768 21769 21770 21771 21772 21773 21774 21775 21776 21777 21778 21779 21780 21781 21782 21783 21784 21785 21786 21787 21788 21789 21790 21791 21792 21793 21794 21795 21796 21797 21798 21799 21800 21801 21802 21803 21804 21805 21806 21807 21808 21809 21810 21811 21812 21813 21814 21815 21816 21817 21818 21819 21820 21821 21822 21823 21824 21825 21826 21827 21828 21829 21830 21831 21832 21833 21834 21835 21836 21837 21838 21839 21840 21841 21842 21843 21844 21845 21846 21847 21848 21849 21850 21851 21852 21853 21854 21855 21856 21857 21858 21859 21860 21861 21862 21863 21864 21865 21866 21867 21868 21869 21870 21871 21872 21873 21874 21875 21876 21877 21878 21879 21880 21881 21882 21883 21884 21885 21886 21887 21888 21889 21890 21891 21892 21893 21894 21895 21896 21897 21898 21899 21900 21901 21902 21903 21904 21905 21906 21907 21908 21909 21910 21911 21912 21913 21914 21915 21916 21917 21918 21919 21920 21921 21922 21923 21924 21925 21926 21927 21928 21929 21930 21931 21932 21933 21934 21935 21936 21937 21938 21939 21940 21941 21942 21943 21944 21945 21946 21947 21948 21949 21950 21951 21952 21953 21954 21955 21956 21957 21958 21959 21960 21961 21962 21963 21964 21965 21966 21967 21968 21969 21970 21971 21972 21973 21974 21975 21976 21977 21978 21979 21980 21981 21982 21983 21984 21985 21986 21987 21988 21989 21990 21991 21992 21993 21994 21995 21996 21997 21998 21999 22000 22001 22002 22003 22004 22005 22006 22007 22008 22009 22010 22011 22012 22013 22014 22015 22016 22017 22018 22019 22020 22021 22022 22023 22024 22025 22026 22027 22028 22029 22030 22031 22032 22033 22034 22035 22036 22037 22038 22039 22040 22041 22042 22043 22044 22045 22046 22047 22048 22049 22050 22051 22052 22053 22054 22055 22056 22057 22058 22059 22060 22061 22062 22063 22064 22065 22066 22067 22068 22069 22070 22071 22072 22073 22074 22075 22076 22077 22078 22079 22080 22081 22082 22083 22084 22085 22086 22087 22088 22089 22090 22091 22092 22093 22094 22095 22096 22097 22098 22099 22100 22101 22102 22103 22104 22105 22106 22107 22108 22109 22110 22111 22112 22113 22114 22115 22116 22117 22118 22119 22120 22121 22122 22123 22124 22125 22126 22127 22128 22129 22130 22131 22132 22133 22134 22135 22136 22137 22138 22139 22140 22141 22142 22143 22144 22145 22146 22147 22148 22149 22150 22151 22152 22153 22154 22155 22156 22157 22158 22159 22160 22161 22162 22163 22164 22165 22166 22167 22168 22169 22170 22171 22172 22173 22174 22175 22176 22177 22178 22179 22180 22181 22182 22183 22184 22185 22186 22187 22188 22189 22190 22191 22192 22193 22194 22195 22196 22197 22198 22199 22200 22201 22202 22203 22204 22205 22206 22207 22208 22209 22210 22211 22212 22213 22214 22215 22216 22217 22218 22219 22220 22221 22222 22223 22224 22225 22226 22227 22228 22229 22230 22231 22232 22233 22234 22235 22236 22237 22238 22239 22240 22241 22242 22243 22244 22245 22246 22247 22248 22249 22250 22251 22252 22253 22254 22255 22256 22257 22258 22259 22260 22261 22262 22263 22264 22265 22266 22267 22268 22269 22270 22271 22272 22273 22274 22275 22276 22277 22278 22279 22280 22281 22282 22283 22284 22285 22286 22287 22288 22289 22290 22291 22292 22293 22294 22295 22296 22297 22298 22299 22300 22301 22302 22303 22304 22305 22306 22307 22308 22309 22310 22311 22312 22313 22314 22315 22316 22317 22318 22319 22320 22321 22322 22323 22324 22325 22326 22327 22328 22329 22330 22331 22332 22333 22334 22335 22336 22337 22338 22339 22340 22341 22342 22343 22344 22345 22346 22347 22348 22349 22350 22351 22352 22353 22354 22355 22356 22357 22358 22359 22360 22361 22362 22363 22364 22365 22366 22367 22368 22369 22370 22371 22372 22373 22374 22375 22376 22377 22378 22379 22380 22381 22382 22383 22384 22385 22386 22387 22388 22389 22390 22391 22392 22393 22394 22395 22396 22397 22398 22399 22400 22401 22402 22403 22404 22405 22406 22407 22408 22409 22410 22411 22412 22413 22414 22415 22416 22417 22418 22419 22420 22421 22422 22423 22424 22425 22426 22427 22428 22429 22430 22431 22432 22433 22434 22435 22436 22437 22438 22439 22440 22441 22442 22443 22444 22445 22446 22447 22448 22449 22450 22451 22452 22453 22454 22455 22456 22457 22458 22459 22460 22461 22462 22463 22464 22465 22466 22467 22468 22469 22470 22471 22472 22473 22474 22475 22476 22477 22478 22479 22480 22481 22482 22483 22484 22485 22486 22487 22488 22489 22490 22491 22492 22493 22494 22495 22496 22497 22498 22499 22500 22501 22502 22503 22504 22505 22506 22507 22508 22509 22510 22511 22512 22513 22514 22515 22516 22517 22518 22519 22520 22521 22522 22523 22524 22525 22526 22527 22528 22529 22530 22531 22532 22533 22534 22535 22536 22537 22538 22539 22540 22541 22542 22543 22544 22545 22546 22547 22548 22549 22550 22551 22552 22553 22554 22555 22556 22557 22558 22559 22560 22561 22562 22563 22564 22565 22566 22567 22568 22569 22570 22571 22572 22573 22574 22575 22576 22577 22578 22579 22580 22581 22582 22583 22584 22585 22586 22587 22588 22589 22590 22591 22592 22593 22594 22595 22596 22597 22598 22599 22600 22601 22602 22603 22604 22605 22606 22607 22608 22609 22610 22611 22612 22613 22614 22615 22616 22617 22618 22619 22620 22621 22622 22623 22624 22625 22626 22627 22628 22629 22630 22631 22632 22633 22634 22635 22636 22637 22638 22639 22640 22641 22642 22643 22644 22645 22646 22647 22648 22649 22650 22651 22652 22653 22654 22655 22656 22657 22658 22659 22660 22661 22662 22663 22664 22665 22666 22667 22668 22669 22670 22671 22672 22673 22674 22675 22676 22677 22678 22679 22680 22681 22682 22683 22684 22685 22686 22687 22688 22689 22690 22691 22692 22693 22694 22695 22696 22697 22698 22699 22700 22701 22702 22703 22704 22705 22706 22707 22708 22709 22710 22711 22712 22713 22714 22715 22716 22717 22718 22719 22720 22721 22722 22723 22724 22725 22726 22727 22728 22729 22730 22731 22732 22733 22734 22735 22736 22737 22738 22739 22740 22741 22742 22743 22744 22745 22746 22747 22748 22749 22750 22751 22752 22753 22754 22755 22756 22757 22758 22759 22760 22761 22762 22763 22764 22765 22766 22767 22768 22769 22770 22771 22772 22773 22774 22775 22776 22777 22778 22779 22780 22781 22782 22783 22784 22785 22786 22787 22788 22789 22790 22791 22792 22793 22794 22795 22796 22797 22798 22799 22800 22801 22802 22803 22804 22805 22806 22807 22808 22809 22810 22811 22812 22813 22814 22815 22816 22817 22818 22819 22820 22821 22822 22823 22824 22825 22826 22827 22828 22829 22830 22831 22832 22833 22834 22835 22836 22837 22838 22839 22840 22841 22842 22843 22844 22845 22846 22847 22848 22849 22850 22851 22852 22853 22854 22855 22856 22857 22858 22859 22860 22861 22862 22863 22864 22865 22866 22867 22868 22869 22870 22871 22872 22873 22874 22875 22876 22877 22878 22879 22880 22881 22882 22883 22884 22885 22886 22887 22888 22889 22890 22891 22892 22893 22894 22895 22896 22897 22898 22899 22900 22901 22902 22903 22904 22905 22906 22907 22908 22909 22910 22911 22912 22913 22914 22915 22916 22917 22918 22919 22920 22921 22922 22923 22924 22925 22926 22927 22928 22929 22930 22931 22932 22933 22934 22935 22936 22937 22938 22939 22940 22941 22942 22943 22944 22945 22946 22947 22948 22949 22950 22951 22952 22953 22954 22955 22956 22957 22958 22959 22960 22961 22962 22963 22964 22965 22966 22967 22968 22969 22970 22971 22972 22973 22974 22975 22976 22977 22978 22979 22980 22981 22982 22983 22984 22985 22986 22987 22988 22989 22990 22991 22992 22993 22994 22995 22996 22997 22998 22999 23000 23001 23002 23003 23004 23005 23006 23007 23008 23009 23010 23011 23012 23013 23014 23015 23016 23017 23018 23019 23020 23021 23022 23023 23024 23025 23026 23027 23028 23029 23030 23031 23032 23033 23034 23035 23036 23037 23038 23039 23040 23041 23042 23043 23044 23045 23046 23047 23048 23049 23050 23051 23052 23053 23054 23055 23056 23057 23058 23059 23060 23061 23062 23063 23064 23065 23066 23067 23068 23069 23070 23071 23072 23073 23074 23075 23076 23077 23078 23079 23080 23081 23082 23083 23084 23085 23086 23087 23088 23089 23090 23091 23092 23093 23094 23095 23096 23097 23098 23099 23100 23101 23102 23103 23104 23105 23106 23107 23108 23109 23110 23111 23112 23113 23114 23115 23116 23117 23118 23119 23120 23121 23122 23123 23124 23125 23126 23127 23128 23129 23130 23131 23132 23133 23134 23135 23136 23137 23138 23139 23140 23141 23142 23143 23144 23145 23146 23147 23148 23149 23150 23151 23152 23153 23154 23155 23156 23157 23158 23159 23160 23161 23162 23163 23164 23165 23166 23167 23168 23169 23170 23171 23172 23173 23174 23175 23176 23177 23178 23179 23180 23181 23182 23183 23184 23185 23186 23187 23188 23189 23190 23191 23192 23193 23194 23195 23196 23197 23198 23199 23200 23201 23202 23203 23204 23205 23206 23207 23208 23209 23210 23211 23212 23213 23214 23215 23216 23217 23218 23219 23220 23221 23222 23223 23224 23225 23226 23227 23228 23229 23230 23231 23232 23233 23234 23235 23236 23237 23238 23239 23240 23241 23242 23243 23244 23245 23246 23247 23248 23249 23250 23251 23252 23253 23254 23255 23256 23257 23258 23259 23260 23261 23262 23263 23264 23265 23266 23267 23268 23269 23270 23271 23272 23273 23274 23275 23276 23277 23278 23279 23280 23281 23282 23283 23284 23285 23286 23287 23288 23289 23290 23291 23292 23293 23294 23295 23296 23297 23298 23299 23300 23301 23302 23303 23304 23305 23306 23307 23308 23309 23310 23311 23312 23313 23314 23315 23316 23317 23318 23319 23320 23321 23322 23323 23324 23325 23326 23327 23328 23329 23330 23331 23332 23333 23334 23335 23336 23337 23338 23339 23340 23341 23342 23343 23344 23345 23346 23347 23348 23349 23350 23351 23352 23353 23354 23355 23356 23357 23358 23359 23360 23361 23362 23363 23364 23365 23366 23367 23368 23369 23370 23371 23372 23373 23374 23375 23376 23377 23378 23379 23380 23381 23382 23383 23384 23385 23386 23387 23388 23389 23390 23391 23392 23393 23394 23395 23396 23397 23398 23399 23400 23401 23402 23403 23404 23405 23406 23407 23408 23409 23410 23411 23412 23413 23414 23415 23416 23417 23418 23419 23420 23421 23422 23423 23424 23425 23426 23427 23428 23429 23430 23431 23432 23433 23434 23435 23436 23437 23438 23439 23440 23441 23442 23443 23444 23445 23446 23447 23448 23449 23450 23451 23452 23453 23454 23455 23456 23457 23458 23459 23460 23461 23462 23463 23464 23465 23466 23467 23468 23469 23470 23471 23472 23473 23474 23475 23476 23477 23478 23479 23480 23481 23482 23483 23484 23485 23486 23487 23488 23489 23490 23491 23492 23493 23494 23495 23496 23497 23498 23499 23500 23501 23502 23503 23504 23505 23506 23507 23508 23509 23510 23511 23512 23513 23514 23515 23516 23517 23518 23519 23520 23521 23522 23523 23524 23525 23526 23527 23528 23529 23530 23531 23532 23533 23534 23535 23536 23537 23538 23539 23540 23541 23542 23543 23544 23545 23546 23547 23548 23549 23550 23551 23552 23553 23554 23555 23556 23557 23558 23559 23560 23561 23562 23563 23564 23565 23566 23567 23568 23569 23570 23571 23572 23573 23574 23575 23576 23577 23578 23579 23580 23581 23582 23583 23584 23585 23586 23587 23588 23589 23590 23591 23592 23593 23594 23595 23596 23597 23598 23599 23600 23601 23602 23603 23604 23605 23606 23607 23608 23609 23610 23611 23612 23613 23614 23615 23616 23617 23618 23619 23620 23621 23622 23623 23624 23625 23626 23627 23628 23629 23630 23631 23632 23633 23634 23635 23636 23637 23638 23639 23640 23641 23642 23643 23644 23645 23646 23647 23648 23649 23650 23651 23652 23653 23654 23655 23656 23657 23658 23659 23660 23661 23662 23663 23664 23665 23666 23667 23668 23669 23670 23671 23672 23673 23674 23675 23676 23677 23678 23679 23680 23681 23682 23683 23684 23685 23686 23687 23688 23689 23690 23691 23692 23693 23694 23695 23696 23697 23698 23699 23700 23701 23702 23703 23704 23705 23706 23707 23708 23709 23710 23711 23712 23713 23714 23715 23716 23717 23718 23719 23720 23721 23722 23723 23724 23725 23726 23727 23728 23729 23730 23731 23732 23733 23734 23735 23736 23737 23738 23739 23740 23741 23742 23743 23744 23745 23746 23747 23748 23749 23750 23751 23752 23753 23754 23755 23756 23757 23758 23759 23760 23761 23762 23763 23764 23765 23766 23767 23768 23769 23770 23771 23772 23773 23774 23775 23776 23777 23778 23779 23780 23781 23782 23783 23784 23785 23786 23787 23788 23789 23790 23791 23792 23793 23794 23795 23796 23797 23798 23799 23800 23801 23802 23803 23804 23805 23806 23807 23808 23809 23810 23811 23812 23813 23814 23815 23816 23817 23818 23819 23820 23821 23822 23823 23824 23825 23826 23827 23828 23829 23830 23831 23832 23833 23834 23835 23836 23837 23838 23839 23840 23841 23842 23843 23844 23845 23846 23847 23848 23849 23850 23851 23852 23853 23854 23855 23856 23857 23858 23859 23860 23861 23862 23863 23864 23865 23866 23867 23868 23869 23870 23871 23872 23873 23874 23875 23876 23877 23878 23879 23880 23881 23882 23883 23884 23885 23886 23887 23888 23889 23890 23891 23892 23893 23894 23895 23896 23897 23898 23899 23900 23901 23902 23903 23904 23905 23906 23907 23908 23909 23910 23911 23912 23913 23914 23915 23916 23917 23918 23919 23920 23921 23922 23923 23924 23925 23926 23927 23928 23929 23930 23931 23932 23933 23934 23935 23936 23937 23938 23939 23940 23941 23942 23943 23944 23945 23946 23947 23948 23949 23950 23951 23952 23953 23954 23955 23956 23957 23958 23959 23960 23961 23962 23963 23964 23965 23966 23967 23968 23969 23970 23971 23972 23973 23974 23975 23976 23977 23978 23979 23980 23981 23982 23983 23984 23985 23986 23987 23988 23989 23990 23991 23992 23993 23994 23995 23996 23997 23998 23999 24000 24001 24002 24003 24004 24005 24006 24007 24008 24009 24010 24011 24012 24013 24014 24015 24016 24017 24018 24019 24020 24021 24022 24023 24024 24025 24026 24027 24028 24029 24030 24031 24032 24033 24034 24035 24036 24037 24038 24039 24040 24041 24042 24043 24044 24045 24046 24047 24048 24049 24050 24051 24052 24053 24054 24055 24056 24057 24058 24059 24060 24061 24062 24063 24064 24065 24066 24067 24068 24069 24070 24071 24072 24073 24074 24075 24076 24077 24078 24079 24080 24081 24082 24083 24084 24085 24086 24087 24088 24089 24090 24091 24092 24093 24094 24095 24096 24097 24098 24099 24100 24101 24102 24103 24104 24105 24106 24107 24108 24109 24110 24111 24112 24113 24114 24115 24116 24117 24118 24119 24120 24121 24122 24123 24124 24125 24126 24127 24128 24129 24130 24131 24132 24133 24134 24135 24136 24137 24138 24139 24140 24141 24142 24143 24144 24145 24146 24147 24148 24149 24150 24151 24152 24153 24154 24155 24156 24157 24158 24159 24160 24161 24162 24163 24164 24165 24166 24167 24168 24169 24170 24171 24172 24173 24174 24175 24176 24177 24178 24179 24180 24181 24182 24183 24184 24185 24186 24187 24188 24189 24190 24191 24192 24193 24194 24195 24196 24197 24198 24199 24200 24201 24202 24203 24204 24205 24206 24207 24208 24209 24210 24211 24212 24213 24214 24215 24216 24217 24218 24219 24220 24221 24222 24223 24224 24225 24226 24227 24228 24229 24230 24231 24232 24233 24234 24235 24236 24237 24238 24239 24240 24241 24242 24243 24244 24245 24246 24247 24248 24249 24250 24251 24252 24253 24254 24255 24256 24257 24258 24259 24260 24261 24262 24263 24264 24265 24266 24267 24268 24269 24270 24271 24272 24273 24274 24275 24276 24277 24278 24279 24280 24281 24282 24283 24284 24285 24286 24287 24288 24289 24290 24291 24292 24293 24294 24295 24296 24297 24298 24299 24300 24301 24302 24303 24304 24305 24306 24307 24308 24309 24310 24311 24312 24313 24314 24315 24316 24317 24318 24319 24320 24321 24322 24323 24324 24325 24326 24327 24328 24329 24330 24331 24332 24333 24334 24335 24336 24337 24338 24339 24340 24341 24342 24343 24344 24345 24346 24347 24348 24349 24350 24351 24352 24353 24354 24355 24356 24357 24358 24359 24360 24361 24362 24363 24364 24365 24366 24367 24368 24369 24370 24371 24372 24373 24374 24375 24376 24377 24378 24379 24380 24381 24382 24383 24384 24385 24386 24387 24388 24389 24390 24391 24392 24393 24394 24395 24396 24397 24398 24399 24400 24401 24402 24403 24404 24405 24406 24407 24408 24409 24410 24411 24412 24413 24414 24415 24416 24417 24418 24419 24420 24421 24422 24423 24424 24425 24426 24427 24428 24429 24430 24431 24432 24433 24434 24435 24436 24437 24438 24439 24440 24441 24442 24443 24444 24445 24446 24447 24448 24449 24450 24451 24452 24453 24454 24455 24456 24457 24458 24459 24460 24461 24462 24463 24464 24465 24466 24467 24468 24469 24470 24471 24472 24473 24474 24475 24476 24477 24478 24479 24480 24481 24482 24483 24484 24485 24486 24487 24488 24489 24490 24491 24492 24493 24494 24495 24496 24497 24498 24499 24500 24501 24502 24503 24504 24505 24506 24507 24508 24509 24510 24511 24512 24513 24514 24515 24516 24517 24518 24519 24520 24521 24522 24523 24524 24525 24526 24527 24528 24529 24530 24531 24532 24533 24534 24535 24536 24537 24538 24539 24540 24541 24542 24543 24544 24545 24546 24547 24548 24549 24550 24551 24552 24553 24554 24555 24556 24557 24558 24559 24560 24561 24562 24563 24564 24565 24566 24567 24568 24569 24570 24571 24572 24573 24574 24575 24576 24577 24578 24579 24580 24581 24582 24583 24584 24585 24586 24587 24588 24589 24590 24591 24592 24593 24594 24595 24596 24597 24598 24599 24600 24601 24602 24603 24604 24605 24606 24607 24608 24609 24610 24611 24612 24613 24614 24615 24616 24617 24618 24619 24620 24621 24622 24623 24624 24625 24626 24627 24628 24629 24630 24631 24632 24633 24634 24635 24636 24637 24638 24639 24640 24641 24642 24643 24644 24645 24646 24647 24648 24649 24650 24651 24652 24653 24654 24655 24656 24657 24658 24659 24660 24661 24662 24663 24664 24665 24666 24667 24668 24669 24670 24671 24672 24673 24674 24675 24676 24677 24678 24679 24680 24681 24682 24683 24684 24685 24686 24687 24688 24689 24690 24691 24692 24693 24694 24695 24696 24697 24698 24699 24700 24701 24702 24703 24704 24705 24706 24707 24708 24709 24710 24711 24712 24713 24714 24715 24716 24717 24718 24719 24720 24721 24722 24723 24724 24725 24726 24727 24728 24729 24730 24731 24732 24733 24734 24735 24736 24737 24738 24739 24740 24741 24742 24743 24744 24745 24746 24747 24748 24749 24750 24751 24752 24753 24754 24755 24756 24757 24758 24759 24760 24761 24762 24763 24764 24765 24766 24767 24768 24769 24770 24771 24772 24773 24774 24775 24776 24777 24778 24779 24780 24781 24782 24783 24784 24785 24786 24787 24788 24789 24790 24791 24792 24793 24794 24795 24796 24797 24798 24799 24800 24801 24802 24803 24804 24805 24806 24807 24808 24809 24810 24811 24812 24813 24814 24815 24816 24817 24818 24819 24820 24821 24822 24823 24824 24825 24826 24827 24828 24829 24830 24831 24832 24833 24834 24835 24836 24837 24838 24839 24840 24841 24842 24843 24844 24845 24846 24847 24848 24849 24850 24851 24852 24853 24854 24855 24856 24857 24858 24859 24860 24861 24862 24863 24864 24865 24866 24867 24868 24869 24870 24871 24872 24873 24874 24875 24876 24877 24878 24879 24880 24881 24882 24883 24884 24885 24886 24887 24888 24889 24890 24891 24892 24893 24894 24895 24896 24897 24898 24899 24900 24901 24902 24903 24904 24905 24906 24907 24908 24909 24910 24911 24912 24913 24914 24915 24916 24917 24918 24919 24920 24921 24922 24923 24924 24925 24926 24927 24928 24929 24930 24931 24932 24933 24934 24935 24936 24937 24938 24939 24940 24941 24942 24943 24944 24945 24946 24947 24948 24949 24950 24951 24952 24953 24954 24955 24956 24957 24958 24959 24960 24961 24962 24963 24964 24965 24966 24967 24968 24969 24970 24971 24972 24973 24974 24975 24976 24977 24978 24979 24980 24981 24982 24983 24984 24985 24986 24987 24988 24989 24990 24991 24992 24993 24994 24995 24996 24997 24998 24999 25000 25001 25002 25003 25004 25005 25006 25007 25008 25009 25010 25011 25012 25013 25014 25015 25016 25017 25018 25019 25020 25021 25022 25023 25024 25025 25026 25027 25028 25029 25030 25031 25032 25033 25034 25035 25036 25037 25038 25039 25040 25041 25042 25043 25044 25045 25046 25047 25048 25049 25050 25051 25052 25053 25054 25055 25056 25057 25058 25059 25060 25061 25062 25063 25064 25065 25066 25067 25068 25069 25070 25071 25072 25073 25074 25075 25076 25077 25078 25079 25080 25081 25082 25083 25084 25085 25086 25087 25088 25089 25090 25091 25092 25093 25094 25095 25096 25097 25098 25099 25100 25101 25102 25103 25104 25105 25106 25107 25108 25109 25110 25111 25112 25113 25114 25115 25116 25117 25118 25119 25120 25121 25122 25123 25124 25125 25126 25127 25128 25129 25130 25131 25132 25133 25134 25135 25136 25137 25138 25139 25140 25141 25142 25143 25144 25145 25146 25147 25148 25149 25150 25151 25152 25153 25154 25155 25156 25157 25158 25159 25160 25161 25162 25163 25164 25165 25166 25167 25168 25169 25170 25171 25172 25173 25174 25175 25176 25177 25178 25179 25180 25181 25182 25183 25184 25185 25186 25187 25188 25189 25190 25191 25192 25193 25194 25195 25196 25197 25198 25199 25200 25201 25202 25203 25204 25205 25206 25207 25208 25209 25210 25211 25212 25213 25214 25215 25216 25217 25218 25219 25220 25221 25222 25223 25224 25225 25226 25227 25228 25229 25230 25231 25232 25233 25234 25235 25236 25237 25238 25239 25240 25241 25242 25243 25244 25245 25246 25247 25248 25249 25250 25251 25252 25253 25254 25255 25256 25257 25258 25259 25260 25261 25262 25263 25264 25265 25266 25267 25268 25269 25270 25271 25272 25273 25274 25275 25276 25277 25278 25279 25280 25281 25282 25283 25284 25285 25286 25287 25288 25289 25290 25291 25292 25293 25294 25295 25296 25297 25298 25299 25300 25301 25302 25303 25304 25305 25306 25307 25308 25309 25310 25311 25312 25313 25314 25315 25316 25317 25318 25319 25320 25321 25322 25323 25324 25325 25326 25327 25328 25329 25330 25331 25332 25333 25334 25335 25336 25337 25338 25339 25340 25341 25342 25343 25344 25345 25346 25347 25348 25349 25350 25351 25352 25353 25354 25355 25356 25357 25358 25359 25360 25361 25362 25363 25364 25365 25366 25367 25368 25369 25370 25371 25372 25373 25374 25375 25376 25377 25378 25379 25380 25381 25382 25383 25384 25385 25386 25387 25388 25389 25390 25391 25392 25393 25394 25395 25396 25397 25398 25399 25400 25401 25402 25403 25404 25405 25406 25407 25408 25409 25410 25411 25412 25413 25414 25415 25416 25417 25418 25419 25420 25421 25422 25423 25424 25425 25426 25427 25428 25429 25430 25431 25432 25433 25434 25435 25436 25437 25438 25439 25440 25441 25442 25443 25444 25445 25446 25447 25448 25449 25450 25451 25452 25453 25454 25455 25456 25457 25458 25459 25460 25461 25462 25463 25464 25465 25466 25467 25468 25469 25470 25471 25472 25473 25474 25475 25476 25477 25478 25479 25480 25481 25482 25483 25484 25485 25486 25487 25488 25489 25490 25491 25492 25493 25494 25495 25496 25497 25498 25499 25500 25501 25502 25503 25504 25505 25506 25507 25508 25509 25510 25511 25512 25513 25514 25515 25516 25517 25518 25519 25520 25521 25522 25523 25524 25525 25526 25527 25528 25529 25530 25531 25532 25533 25534 25535 25536 25537 25538 25539 25540 25541 25542 25543 25544 25545 25546 25547 25548 25549 25550 25551 25552 25553 25554 25555 25556 25557 25558 25559 25560 25561 25562 25563 25564 25565 25566 25567 25568 25569 25570 25571 25572 25573 25574 25575 25576 25577 25578 25579 25580 25581 25582 25583 25584 25585 25586 25587 25588 25589 25590 25591 25592 25593 25594 25595 25596 25597 25598 25599 25600 25601 25602 25603 25604 25605 25606 25607 25608 25609 25610 25611 25612 25613 25614 25615 25616 25617 25618 25619 25620 25621 25622 25623 25624 25625 25626 25627 25628 25629 25630 25631 25632 25633 25634 25635 25636 25637 25638 25639 25640 25641 25642 25643 25644 25645 25646 25647 25648 25649 25650 25651 25652 25653 25654 25655 25656 25657 25658 25659 25660 25661 25662 25663 25664 25665 25666 25667 25668 25669 25670 25671 25672 25673 25674 25675 25676 25677 25678 25679 25680 25681 25682 25683 25684 25685 25686 25687 25688 25689 25690 25691 25692 25693 25694 25695 25696 25697 25698 25699 25700 25701 25702 25703 25704 25705 25706 25707 25708 25709 25710 25711 25712 25713 25714 25715 25716 25717 25718 25719 25720 25721 25722 25723 25724 25725 25726 25727 25728 25729 25730 25731 25732 25733 25734 25735 25736 25737 25738 25739 25740 25741 25742 25743 25744 25745 25746 25747 25748 25749 25750 25751 25752 25753 25754 25755 25756 25757 25758 25759 25760 25761 25762 25763 25764 25765 25766 25767 25768 25769 25770 25771 25772 25773 25774 25775 25776 25777 25778 25779 25780 25781 25782 25783 25784 25785 25786 25787 25788 25789 25790 25791 25792 25793 25794 25795 25796 25797 25798 25799 25800 25801 25802 25803 25804 25805 25806 25807 25808 25809 25810 25811 25812 25813 25814 25815 25816 25817 25818 25819 25820 25821 25822 25823 25824 25825 25826 25827 25828 25829 25830 25831 25832 25833 25834 25835 25836 25837 25838 25839 25840 25841 25842 25843 25844 25845 25846 25847 25848 25849 25850 25851 25852 25853 25854 25855 25856 25857 25858 25859 25860 25861 25862 25863 25864 25865 25866 25867 25868 25869 25870 25871 25872 25873 25874 25875 25876 25877 25878 25879 25880 25881 25882 25883 25884 25885 25886 25887 25888 25889 25890 25891 25892 25893 25894 25895 25896 25897 25898 25899 25900 25901 25902 25903 25904 25905 25906 25907 25908 25909 25910 25911 25912 25913 25914 25915 25916 25917 25918 25919 25920 25921 25922 25923 25924 25925 25926 25927 25928 25929 25930 25931 25932 25933 25934 25935 25936 25937 25938 25939 25940 25941 25942 25943 25944 25945 25946 25947 25948 25949 25950 25951 25952 25953 25954 25955 25956 25957 25958 25959 25960 25961 25962 25963 25964 25965 25966 25967 25968 25969 25970 25971 25972 25973 25974 25975 25976 25977 25978 25979 25980 25981 25982 25983 25984 25985 25986 25987 25988 25989 25990 25991 25992 25993 25994 25995 25996 25997 25998 25999 26000 26001 26002 26003 26004 26005 26006 26007 26008 26009 26010 26011 26012 26013 26014 26015 26016 26017 26018 26019 26020 26021 26022 26023 26024 26025 26026 26027 26028 26029 26030 26031 26032 26033 26034 26035 26036 26037 26038 26039 26040 26041 26042 26043 26044 26045 26046 26047 26048 26049 26050 26051 26052 26053 26054 26055 26056 26057 26058 26059 26060 26061 26062 26063 26064 26065 26066 26067 26068 26069 26070 26071 26072 26073 26074 26075 26076 26077 26078 26079 26080 26081 26082 26083 26084 26085 26086 26087 26088 26089 26090 26091 26092 26093 26094 26095 26096 26097 26098 26099 26100 26101 26102 26103 26104 26105 26106 26107 26108 26109 26110 26111 26112 26113 26114 26115 26116 26117 26118 26119 26120 26121 26122 26123 26124 26125 26126 26127 26128 26129 26130 26131 26132 26133 26134 26135 26136 26137 26138 26139 26140 26141 26142 26143 26144 26145 26146 26147 26148 26149 26150 26151 26152 26153 26154 26155 26156 26157 26158 26159 26160 26161 26162 26163 26164 26165 26166 26167 26168 26169 26170 26171 26172 26173 26174 26175 26176 26177 26178 26179 26180 26181 26182 26183 26184 26185 26186 26187 26188 26189 26190 26191 26192 26193 26194 26195 26196 26197 26198 26199 26200 26201 26202 26203 26204 26205 26206 26207 26208 26209 26210 26211 26212 26213 26214 26215 26216 26217 26218 26219 26220 26221 26222 26223 26224 26225 26226 26227 26228 26229 26230 26231 26232 26233 26234 26235 26236 26237 26238 26239 26240 26241 26242 26243 26244 26245 26246 26247 26248 26249 26250 26251 26252 26253 26254 26255 26256 26257 26258 26259 26260 26261 26262 26263 26264 26265 26266 26267 26268 26269 26270 26271 26272 26273 26274 26275 26276 26277 26278 26279 26280 26281 26282 26283 26284 26285 26286 26287 26288 26289 26290 26291 26292 26293 26294 26295 26296 26297 26298 26299 26300 26301 26302 26303 26304 26305 26306 26307 26308 26309 26310 26311 26312 26313 26314 26315 26316 26317 26318 26319 26320 26321 26322 26323 26324 26325 26326 26327 26328 26329 26330 26331 26332 26333 26334 26335 26336 26337 26338 26339 26340 26341 26342 26343 26344 26345 26346 26347 26348 26349 26350 26351 26352 26353 26354 26355 26356 26357 26358 26359 26360 26361 26362 26363 26364 26365 26366 26367 26368 26369 26370 26371 26372 26373 26374 26375 26376 26377 26378 26379 26380 26381 26382 26383 26384 26385 26386 26387 26388 26389 26390 26391 26392 26393 26394 26395 26396 26397 26398 26399 26400 26401 26402 26403 26404 26405 26406 26407 26408 26409 26410 26411 26412 26413 26414 26415 26416 26417 26418 26419 26420 26421 26422 26423 26424 26425 26426 26427 26428 26429 26430 26431 26432 26433 26434 26435 26436 26437 26438 26439 26440 26441 26442 26443 26444 26445 26446 26447 26448 26449 26450 26451 26452 26453 26454 26455 26456 26457 26458 26459 26460 26461 26462 26463 26464 26465 26466 26467 26468 26469 26470 26471 26472 26473 26474 26475 26476 26477 26478 26479 26480 26481 26482 26483 26484 26485 26486 26487 26488 26489 26490 26491 26492 26493 26494 26495 26496 26497 26498 26499 26500 26501 26502 26503 26504 26505 26506 26507 26508 26509 26510 26511 26512 26513 26514 26515 26516 26517 26518 26519 26520 26521 26522 26523 26524 26525 26526 26527 26528 26529 26530 26531 26532 26533 26534 26535 26536 26537 26538 26539 26540 26541 26542 26543 26544 26545 26546 26547 26548 26549 26550 26551 26552 26553 26554 26555 26556 26557 26558 26559 26560 26561 26562 26563 26564 26565 26566 26567 26568 26569 26570 26571 26572 26573 26574 26575 26576 26577 26578 26579 26580 26581 26582 26583 26584 26585 26586 26587 26588 26589 26590 26591 26592 26593 26594 26595 26596 26597 26598 26599 26600 26601 26602 26603 26604 26605 26606 26607 26608 26609 26610 26611 26612 26613 26614 26615 26616 26617 26618 26619 26620 26621 26622 26623 26624 26625 26626 26627 26628 26629 26630 26631 26632 26633 26634 26635 26636 26637 26638 26639 26640 26641 26642 26643 26644 26645 26646 26647 26648 26649 26650 26651 26652 26653 26654 26655 26656 26657 26658 26659 26660 26661 26662 26663 26664 26665 26666 26667 26668 26669 26670 26671 26672 26673 26674 26675 26676 26677 26678 26679 26680 26681 26682 26683 26684 26685 26686 26687 26688 26689 26690 26691 26692 26693 26694 26695 26696 26697 26698 26699 26700 26701 26702 26703 26704 26705 26706 26707 26708 26709 26710 26711 26712 26713 26714 26715 26716 26717 26718 26719 26720 26721 26722 26723 26724 26725 26726 26727 26728 26729 26730 26731 26732 26733 26734 26735 26736 26737 26738 26739 26740 26741 26742 26743 26744 26745 26746 26747 26748 26749 26750 26751 26752 26753 26754 26755 26756 26757 26758 26759 26760 26761 26762 26763 26764 26765 26766 26767 26768 26769 26770 26771 26772 26773 26774 26775 26776 26777 26778 26779 26780 26781 26782 26783 26784 26785 26786 26787 26788 26789 26790 26791 26792 26793 26794 26795 26796 26797 26798 26799 26800 26801 26802 26803 26804 26805 26806 26807 26808 26809 26810 26811 26812 26813 26814 26815 26816 26817 26818 26819 26820 26821 26822 26823 26824 26825 26826 26827 26828 26829 26830 26831 26832 26833 26834 26835 26836 26837 26838 26839 26840 26841 26842 26843 26844 26845 26846 26847 26848 26849 26850 26851 26852 26853 26854 26855 26856 26857 26858 26859 26860 26861 26862 26863 26864 26865 26866 26867 26868 26869 26870 26871 26872 26873 26874 26875 26876 26877 26878 26879 26880 26881 26882 26883 26884 26885 26886 26887 26888 26889 26890 26891 26892 26893 26894 26895 26896 26897 26898 26899 26900 26901 26902 26903 26904 26905 26906 26907 26908 26909 26910 26911 26912 26913 26914 26915 26916 26917 26918 26919 26920 26921 26922 26923 26924 26925 26926 26927 26928 26929 26930 26931 26932 26933 26934 26935 26936 26937 26938 26939 26940 26941 26942 26943 26944 26945 26946 26947 26948 26949 26950 26951 26952 26953 26954 26955 26956 26957 26958 26959 26960 26961 26962 26963 26964 26965 26966 26967 26968 26969 26970 26971 26972 26973 26974 26975 26976 26977 26978 26979 26980 26981 26982 26983 26984 26985 26986 26987 26988 26989 26990 26991 26992 26993 26994 26995 26996 26997 26998 26999 27000 27001 27002 27003 27004 27005 27006 27007 27008 27009 27010 27011 27012 27013 27014 27015 27016 27017 27018 27019 27020 27021 27022 27023 27024 27025 27026 27027 27028 27029 27030 27031 27032 27033 27034 27035 27036 27037 27038 27039 27040 27041 27042 27043 27044 27045 27046 27047 27048 27049 27050 27051 27052 27053 27054 27055 27056 27057 27058 27059 27060 27061 27062 27063 27064 27065 27066 27067 27068 27069 27070 27071 27072 27073 27074 27075 27076 27077 27078 27079 27080 27081 27082 27083 27084 27085 27086 27087 27088 27089 27090 27091 27092 27093 27094 27095 27096 27097 27098 27099 27100 27101 27102 27103 27104 27105 27106 27107 27108 27109 27110 27111 27112 27113 27114 27115 27116 27117 27118 27119 27120 27121 27122 27123 27124 27125 27126 27127 27128 27129 27130 27131 27132 27133 27134 27135 27136 27137 27138 27139 27140 27141 27142 27143 27144 27145 27146 27147 27148 27149 27150 27151 27152 27153 27154 27155 27156 27157 27158 27159 27160 27161 27162 27163 27164 27165 27166 27167 27168 27169 27170 27171 27172 27173 27174 27175 27176 27177 27178 27179 27180 27181 27182 27183 27184 27185 27186 27187 27188 27189 27190 27191 27192 27193 27194 27195 27196 27197 27198 27199 27200 27201 27202 27203 27204 27205 27206 27207 27208 27209 27210 27211 27212 27213 27214 27215 27216 27217 27218 27219 27220 27221 27222 27223 27224 27225 27226 27227 27228 27229 27230 27231 27232 27233 27234 27235 27236 27237 27238 27239 27240 27241 27242 27243 27244 27245 27246 27247 27248 27249 27250 27251 27252 27253 27254 27255 27256 27257 27258 27259 27260 27261 27262 27263 27264 27265 27266 27267 27268 27269 27270 27271 27272 27273 27274 27275 27276 27277 27278 27279 27280 27281 27282 27283 27284 27285 27286 27287 27288 27289 27290 27291 27292 27293 27294 27295 27296 27297 27298 27299 27300 27301 27302 27303 27304 27305 27306 27307 27308 27309 27310 27311 27312 27313 27314 27315 27316 27317 27318 27319 27320 27321 27322 27323 27324 27325 27326 27327 27328 27329 27330 27331 27332 27333 27334 27335 27336 27337 27338 27339 27340 27341 27342 27343 27344 27345 27346 27347 27348 27349 27350 27351 27352 27353 27354 27355 27356 27357 27358 27359 27360 27361 27362 27363 27364 27365 27366 27367 27368 27369 27370 27371 27372 27373 27374 27375 27376 27377 27378 27379 27380 27381 27382 27383 27384 27385 27386 27387 27388 27389 27390 27391 27392 27393 27394 27395 27396 27397 27398 27399 27400 27401 27402 27403 27404 27405 27406 27407 27408 27409 27410 27411 27412 27413 27414 27415 27416 27417 27418 27419 27420 27421 27422 27423 27424 27425 27426 27427 27428 27429 27430 27431 27432 27433 27434 27435 27436 27437 27438 27439 27440 27441 27442 27443 27444 27445 27446 27447 27448 27449 27450 27451 27452 27453 27454 27455 27456 27457 27458 27459 27460 27461 27462 27463 27464 27465 27466 27467 27468 27469 27470 27471 27472 27473 27474 27475 27476 27477 27478 27479 27480 27481 27482 27483 27484 27485 27486 27487 27488 27489 27490 27491 27492 27493 27494 27495 27496 27497 27498 27499 27500 27501 27502 27503 27504 27505 27506 27507 27508 27509 27510 27511 27512 27513 27514 27515 27516 27517 27518 27519 27520 27521 27522 27523 27524 27525 27526 27527 27528 27529 27530 27531 27532 27533 27534 27535 27536 27537 27538 27539 27540 27541 27542 27543 27544 27545 27546 27547 27548 27549 27550 27551 27552 27553 27554 27555 27556 27557 27558 27559 27560 27561 27562 27563 27564 27565 27566 27567 27568 27569 27570 27571 27572 27573 27574 27575 27576 27577 27578 27579 27580 27581 27582 27583 27584 27585 27586 27587 27588 27589 27590 27591 27592 27593 27594 27595 27596 27597 27598 27599 27600 27601 27602 27603 27604 27605 27606 27607 27608 27609 27610 27611 27612 27613 27614 27615 27616 27617 27618 27619 27620 27621 27622 27623 27624 27625 27626 27627 27628 27629 27630 27631 27632 27633 27634 27635 27636 27637 27638 27639 27640 27641 27642 27643 27644 27645 27646 27647 27648 27649 27650 27651 27652 27653 27654 27655 27656 27657 27658 27659 27660 27661 27662 27663 27664 27665 27666 27667 27668 27669 27670 27671 27672 27673 27674 27675 27676 27677 27678 27679 27680 27681 27682 27683 27684 27685 27686 27687 27688 27689 27690 27691 27692 27693 27694 27695 27696 27697 27698 27699 27700 27701 27702 27703 27704 27705 27706 27707 27708 27709 27710 27711 27712 27713 27714 27715 27716 27717 27718 27719 27720 27721 27722 27723 27724 27725 27726 27727 27728 27729 27730 27731 27732 27733 27734 27735 27736 27737 27738 27739 27740 27741 27742 27743 27744 27745 27746 27747 27748 27749 27750 27751 27752 27753 27754 27755 27756 27757 27758 27759 27760 27761 27762 27763 27764 27765 27766 27767 27768 27769 27770 27771 27772 27773 27774 27775 27776 27777 27778 27779 27780 27781 27782 27783 27784 27785 27786 27787 27788 27789 27790 27791 27792 27793 27794 27795 27796 27797 27798 27799 27800 27801 27802 27803 27804 27805 27806 27807 27808 27809 27810 27811 27812 27813 27814 27815 27816 27817 27818 27819 27820 27821 27822 27823 27824 27825 27826 27827 27828 27829 27830 27831 27832 27833 27834 27835 27836 27837 27838 27839 27840 27841 27842 27843 27844 27845 27846 27847 27848 27849 27850 27851 27852 27853 27854 27855 27856 27857 27858 27859 27860 27861 27862 27863 27864 27865 27866 27867 27868 27869 27870 27871 27872 27873 27874 27875 27876 27877 27878 27879 27880 27881 27882 27883 27884 27885 27886 27887 27888 27889 27890 27891 27892 27893 27894 27895 27896 27897 27898 27899 27900 27901 27902 27903 27904 27905 27906 27907 27908 27909 27910 27911 27912 27913 27914 27915 27916 27917 27918 27919 27920 27921 27922 27923 27924 27925 27926 27927 27928 27929 27930 27931 27932 27933 27934 27935 27936 27937 27938 27939 27940 27941 27942 27943 27944 27945 27946 27947 27948 27949 27950 27951 27952 27953 27954 27955 27956 27957 27958 27959 27960 27961 27962 27963 27964 27965 27966 27967 27968 27969 27970 27971 27972 27973 27974 27975 27976 27977 27978 27979 27980 27981 27982 27983 27984 27985 27986 27987 27988 27989 27990 27991 27992 27993 27994 27995 27996 27997 27998 27999 28000 28001 28002 28003 28004 28005 28006 28007 28008 28009 28010 28011 28012 28013 28014 28015 28016 28017 28018 28019 28020 28021 28022 28023 28024 28025 28026 28027 28028 28029 28030 28031 28032 28033 28034 28035 28036 28037 28038 28039 28040 28041 28042 28043 28044 28045 28046 28047 28048 28049 28050 28051 28052 28053 28054 28055 28056 28057 28058 28059 28060 28061 28062 28063 28064 28065 28066 28067 28068 28069 28070 28071 28072 28073 28074 28075 28076 28077 28078 28079 28080 28081 28082 28083 28084 28085 28086 28087 28088 28089 28090 28091 28092 28093 28094 28095 28096 28097 28098 28099 28100 28101 28102 28103 28104 28105 28106 28107 28108 28109 28110 28111 28112 28113 28114 28115 28116 28117 28118 28119 28120 28121 28122 28123 28124 28125 28126 28127 28128 28129 28130 28131 28132 28133 28134 28135 28136 28137 28138 28139 28140 28141 28142 28143 28144 28145 28146 28147 28148 28149 28150 28151 28152 28153 28154 28155 28156 28157 28158 28159 28160 28161 28162 28163 28164 28165 28166 28167 28168 28169 28170 28171 28172 28173 28174 28175 28176 28177 28178 28179 28180 28181 28182 28183 28184 28185 28186 28187 28188 28189 28190 28191 28192 28193 28194 28195 28196 28197 28198 28199 28200 28201 28202 28203 28204 28205 28206 28207 28208 28209 28210 28211 28212 28213 28214 28215 28216 28217 28218 28219 28220 28221 28222 28223 28224 28225 28226 28227 28228 28229 28230 28231 28232 28233 28234 28235 28236 28237 28238 28239 28240 28241 28242 28243 28244 28245 28246 28247 28248 28249 28250 28251 28252 28253 28254 28255 28256 28257 28258 28259 28260 28261 28262 28263 28264 28265 28266 28267 28268 28269 28270 28271 28272 28273 28274 28275 28276 28277 28278 28279 28280 28281 28282 28283 28284 28285 28286 28287 28288 28289 28290 28291 28292 28293 28294 28295 28296 28297 28298 28299 28300 28301 28302 28303 28304 28305 28306 28307 28308 28309 28310 28311 28312 28313 28314 28315 28316 28317 28318 28319 28320 28321 28322 28323 28324 28325 28326 28327 28328 28329 28330 28331 28332 28333 28334 28335 28336 28337 28338 28339 28340 28341 28342 28343 28344 28345 28346 28347 28348 28349 28350 28351 28352 28353 28354 28355 28356 28357 28358 28359 28360 28361 28362 28363 28364 28365 28366 28367 28368 28369 28370 28371 28372 28373 28374 28375 28376 28377 28378 28379 28380 28381 28382 28383 28384 28385 28386 28387 28388 28389 28390 28391 28392 28393 28394 28395 28396 28397 28398 28399 28400 28401 28402 28403 28404 28405 28406 28407 28408 28409 28410 28411 28412 28413 28414 28415 28416 28417 28418 28419 28420 28421 28422 28423 28424 28425 28426 28427 28428 28429 28430 28431 28432 28433 28434 28435 28436 28437 28438 28439 28440 28441 28442 28443 28444 28445 28446 28447 28448 28449 28450 28451 28452 28453 28454 28455 28456 28457 28458 28459 28460 28461 28462 28463 28464 28465 28466 28467 28468 28469 28470 28471 28472 28473 28474 28475 28476 28477 28478 28479 28480 28481 28482 28483 28484 28485 28486 28487 28488 28489 28490 28491 28492 28493 28494 28495 28496 28497 28498 28499 28500 28501 28502 28503 28504 28505 28506 28507 28508 28509 28510 28511 28512 28513 28514 28515 28516 28517 28518 28519 28520 28521 28522 28523 28524 28525 28526 28527 28528 28529 28530 28531 28532 28533 28534 28535 28536 28537 28538 28539 28540 28541 28542 28543 28544 28545 28546 28547 28548 28549 28550 28551 28552 28553 28554 28555 28556 28557 28558 28559 28560 28561 28562 28563 28564 28565 28566 28567 28568 28569 28570 28571 28572 28573 28574 28575 28576 28577 28578 28579 28580 28581 28582 28583 28584 28585 28586 28587 28588 28589 28590 28591 28592 28593 28594 28595 28596 28597 28598 28599 28600 28601 28602 28603 28604 28605 28606 28607 28608 28609 28610 28611 28612 28613 28614 28615 28616 28617 28618 28619 28620 28621 28622 28623 28624 28625 28626 28627 28628 28629 28630 28631 28632 28633 28634 28635 28636 28637 28638 28639 28640 28641 28642 28643 28644 28645 28646 28647 28648 28649 28650 28651 28652 28653 28654 28655 28656 28657 28658 28659 28660 28661 28662 28663 28664 28665 28666 28667 28668 28669 28670 28671 28672 28673 28674 28675 28676 28677 28678 28679 28680 28681 28682 28683 28684 28685 28686 28687 28688 28689 28690 28691 28692 28693 28694 28695 28696 28697 28698 28699 28700 28701 28702 28703 28704 28705 28706 28707 28708 28709 28710 28711 28712 28713 28714 28715 28716 28717 28718 28719 28720 28721 28722 28723 28724 28725 28726 28727 28728 28729 28730 28731 28732 28733 28734 28735 28736 28737 28738 28739 28740 28741 28742 28743 28744 28745 28746 28747 28748 28749 28750 28751 28752 28753 28754 28755 28756 28757 28758 28759 28760 28761 28762 28763 28764 28765 28766 28767 28768 28769 28770 28771 28772 28773 28774 28775 28776 28777 28778 28779 28780 28781 28782 28783 28784 28785 28786 28787 28788 28789 28790 28791 28792 28793 28794 28795 28796 28797 28798 28799 28800 28801 28802 28803 28804 28805 28806 28807 28808 28809 28810 28811 28812 28813 28814 28815 28816 28817 28818 28819 28820 28821 28822 28823 28824 28825 28826 28827 28828 28829 28830 28831 28832 28833 28834 28835 28836 28837 28838 28839 28840 28841 28842 28843 28844 28845 28846 28847 28848 28849 28850 28851 28852 28853 28854 28855 28856 28857 28858 28859 28860 28861 28862 28863 28864 28865 28866 28867 28868 28869 28870 28871 28872 28873 28874 28875 28876 28877 28878 28879 28880 28881 28882 28883 28884 28885 28886 28887 28888 28889 28890 28891 28892 28893 28894 28895 28896 28897 28898 28899 28900 28901 28902 28903 28904 28905 28906 28907 28908 28909 28910 28911 28912 28913 28914 28915 28916 28917 28918 28919 28920 28921 28922 28923 28924 28925 28926 28927 28928 28929 28930 28931 28932 28933 28934 28935 28936 28937 28938 28939 28940 28941 28942 28943 28944 28945 28946 28947 28948 28949 28950 28951 28952 28953 28954 28955 28956 28957 28958 28959 28960 28961 28962 28963 28964 28965 28966 28967 28968 28969 28970 28971 28972 28973 28974 28975 28976 28977 28978 28979 28980 28981 28982 28983 28984 28985 28986 28987 28988 28989 28990 28991 28992 28993 28994 28995 28996 28997 28998 28999 29000 29001 29002 29003 29004 29005 29006 29007 29008 29009 29010 29011 29012 29013 29014 29015 29016 29017 29018 29019 29020 29021 29022 29023 29024 29025 29026 29027 29028 29029 29030 29031 29032 29033 29034 29035 29036 29037 29038 29039 29040 29041 29042 29043 29044 29045 29046 29047 29048 29049 29050 29051 29052 29053 29054 29055 29056 29057 29058 29059 29060 29061 29062 29063 29064 29065 29066 29067 29068 29069 29070 29071 29072 29073 29074 29075 29076 29077 29078 29079 29080 29081 29082 29083 29084 29085 29086 29087 29088 29089 29090 29091 29092 29093 29094 29095 29096 29097 29098 29099 29100 29101 29102 29103 29104 29105 29106 29107 29108 29109 29110 29111 29112 29113 29114 29115 29116 29117 29118 29119 29120 29121 29122 29123 29124 29125 29126 29127 29128 29129 29130 29131 29132 29133 29134 29135 29136 29137 29138 29139 29140 29141 29142 29143 29144 29145 29146 29147 29148 29149 29150 29151 29152 29153 29154 29155 29156 29157 29158 29159 29160 29161 29162 29163 29164 29165 29166 29167 29168 29169 29170 29171 29172 29173 29174 29175 29176 29177 29178 29179 29180 29181 29182 29183 29184 29185 29186 29187 29188 29189 29190 29191 29192 29193 29194 29195 29196 29197 29198 29199 29200 29201 29202 29203 29204 29205 29206 29207 29208 29209 29210 29211 29212 29213 29214 29215 29216 29217 29218 29219 29220 29221 29222 29223 29224 29225 29226 29227 29228 29229 29230 29231 29232 29233 29234 29235 29236 29237 29238 29239 29240 29241 29242 29243 29244 29245 29246 29247 29248 29249 29250 29251 29252 29253 29254 29255 29256 29257 29258 29259 29260 29261 29262 29263 29264 29265 29266 29267 29268 29269 29270 29271 29272 29273 29274 29275 29276 29277 29278 29279 29280 29281 29282 29283 29284 29285 29286 29287 29288 29289 29290 29291 29292 29293 29294 29295 29296 29297 29298 29299 29300 29301 29302 29303 29304 29305 29306 29307 29308 29309 29310 29311 29312 29313 29314 29315 29316 29317 29318 29319 29320 29321 29322 29323 29324 29325 29326 29327 29328 29329 29330 29331 29332 29333 29334 29335 29336 29337 29338 29339 29340 29341 29342 29343 29344 29345 29346 29347 29348 29349 29350 29351 29352 29353 29354 29355 29356 29357 29358 29359 29360 29361 29362 29363 29364 29365 29366 29367 29368 29369 29370 29371 29372 29373 29374 29375 29376 29377 29378 29379 29380 29381 29382 29383 29384 29385 29386 29387 29388 29389 29390 29391 29392 29393 29394 29395 29396 29397 29398 29399 29400 29401 29402 29403 29404 29405 29406 29407 29408 29409 29410 29411 29412 29413 29414 29415 29416 29417 29418 29419 29420 29421 29422 29423 29424 29425 29426 29427 29428 29429 29430 29431 29432 29433 29434 29435 29436 29437 29438 29439 29440 29441 29442 29443 29444 29445 29446 29447 29448 29449 29450 29451 29452 29453 29454 29455 29456 29457 29458 29459 29460 29461 29462 29463 29464 29465 29466 29467 29468 29469 29470 29471 29472 29473 29474 29475 29476 29477 29478 29479 29480 29481 29482 29483 29484 29485 29486 29487 29488 29489 29490 29491 29492 29493 29494 29495 29496 29497 29498 29499 29500 29501 29502 29503 29504 29505 29506 29507 29508 29509 29510 29511 29512 29513 29514 29515 29516 29517 29518 29519 29520 29521 29522 29523 29524 29525 29526 29527 29528 29529 29530 29531 29532 29533 29534 29535 29536 29537 29538 29539 29540 29541 29542 29543 29544 29545 29546 29547 29548 29549 29550 29551 29552 29553 29554 29555 29556 29557 29558 29559 29560 29561 29562 29563 29564 29565 29566 29567 29568 29569 29570 29571 29572 29573 29574 29575 29576 29577 29578 29579 29580 29581 29582 29583 29584 29585 29586 29587 29588 29589 29590 29591 29592 29593 29594 29595 29596 29597 29598 29599 29600 29601 29602 29603 29604 29605 29606 29607 29608 29609 29610 29611 29612 29613 29614 29615 29616 29617 29618 29619 29620 29621 29622 29623 29624 29625 29626 29627 29628 29629 29630 29631 29632 29633 29634 29635 29636 29637 29638 29639 29640 29641 29642 29643 29644 29645 29646 29647 29648 29649 29650 29651 29652 29653 29654 29655 29656 29657 29658 29659 29660 29661 29662 29663 29664 29665 29666 29667 29668 29669 29670 29671 29672 29673 29674 29675 29676 29677 29678 29679 29680 29681 29682 29683 29684 29685 29686 29687 29688 29689 29690 29691 29692 29693 29694 29695 29696 29697 29698 29699 29700 29701 29702 29703 29704 29705 29706 29707 29708 29709 29710 29711 29712 29713 29714 29715 29716 29717 29718 29719 29720 29721 29722 29723 29724 29725 29726 29727 29728 29729 29730 29731 29732 29733 29734 29735 29736 29737 29738 29739 29740 29741 29742 29743 29744 29745 29746 29747 29748 29749 29750 29751 29752 29753 29754 29755 29756 29757 29758 29759 29760 29761 29762 29763 29764 29765 29766 29767 29768 29769 29770 29771 29772 29773 29774 29775 29776 29777 29778 29779 29780 29781 29782 29783 29784 29785 29786 29787 29788 29789 29790 29791 29792 29793 29794 29795 29796 29797 29798 29799 29800 29801 29802 29803 29804 29805 29806 29807 29808 29809 29810 29811 29812 29813 29814 29815 29816 29817 29818 29819 29820 29821 29822 29823 29824 29825 29826 29827 29828 29829 29830 29831 29832 29833 29834 29835 29836 29837 29838 29839 29840 29841 29842 29843 29844 29845 29846 29847 29848 29849 29850 29851 29852 29853 29854 29855 29856 29857 29858 29859 29860 29861 29862 29863 29864 29865 29866 29867 29868 29869 29870 29871 29872 29873 29874 29875 29876 29877 29878 29879 29880 29881 29882 29883 29884 29885 29886 29887 29888 29889 29890 29891 29892 29893 29894 29895 29896 29897 29898 29899 29900 29901 29902 29903 29904 29905 29906 29907 29908 29909 29910 29911 29912 29913 29914 29915 29916 29917 29918 29919 29920 29921 29922 29923 29924 29925 29926 29927 29928 29929 29930 29931 29932 29933 29934 29935 29936 29937 29938 29939 29940 29941 29942 29943 29944 29945 29946 29947 29948 29949 29950 29951 29952 29953 29954 29955 29956 29957 29958 29959 29960 29961 29962 29963 29964 29965 29966 29967 29968 29969 29970 29971 29972 29973 29974 29975 29976 29977 29978 29979 29980 29981 29982 29983 29984 29985 29986 29987 29988 29989 29990 29991 29992 29993 29994 29995 29996 29997 29998 29999 30000 30001 30002 30003 30004 30005 30006 30007 30008 30009 30010 30011 30012 30013 30014 30015 30016 30017 30018 30019 30020 30021 30022 30023 30024 30025 30026 30027 30028 30029 30030 30031 30032 30033 30034 30035 30036 30037 30038 30039 30040 30041 30042 30043 30044 30045 30046 30047 30048 30049 30050 30051 30052 30053 30054 30055 30056 30057 30058 30059 30060 30061 30062 30063 30064 30065 30066 30067 30068 30069 30070 30071 30072 30073 30074 30075 30076 30077 30078 30079 30080 30081 30082 30083 30084 30085 30086 30087 30088 30089 30090 30091 30092 30093 30094 30095 30096 30097 30098 30099 30100 30101 30102 30103 30104 30105 30106 30107 30108 30109 30110 30111 30112 30113 30114 30115 30116 30117 30118 30119 30120 30121 30122 30123 30124 30125 30126 30127 30128 30129 30130 30131 30132 30133 30134 30135 30136 30137 30138 30139 30140 30141 30142 30143 30144 30145 30146 30147 30148 30149 30150 30151 30152 30153 30154 30155 30156 30157 30158 30159 30160 30161 30162 30163 30164 30165 30166 30167 30168 30169 30170 30171 30172 30173 30174 30175 30176 30177 30178 30179 30180 30181 30182 30183 30184 30185 30186 30187 30188 30189 30190 30191 30192 30193 30194 30195 30196 30197 30198 30199 30200 30201 30202 30203 30204 30205 30206 30207 30208 30209 30210 30211 30212 30213 30214 30215 30216 30217 30218 30219 30220 30221 30222 30223 30224 30225 30226 30227 30228 30229 30230 30231 30232 30233 30234 30235 30236 30237 30238 30239 30240 30241 30242 30243 30244 30245 30246 30247 30248 30249 30250 30251 30252 30253 30254 30255 30256 30257 30258 30259 30260 30261 30262 30263 30264 30265 30266 30267 30268 30269 30270 30271 30272 30273 30274 30275 30276 30277 30278 30279 30280 30281 30282 30283 30284 30285 30286 30287 30288 30289 30290 30291 30292 30293 30294 30295 30296 30297 30298 30299 30300 30301 30302 30303 30304 30305 30306 30307 30308 30309 30310 30311 30312 30313 30314 30315 30316 30317 30318 30319 30320 30321 30322 30323 30324 30325 30326 30327 30328 30329 30330 30331 30332 30333 30334 30335 30336 30337 30338 30339 30340 30341 30342 30343 30344 30345 30346 30347 30348 30349 30350 30351 30352 30353 30354 30355 30356 30357 30358 30359 30360 30361 30362 30363 30364 30365 30366 30367 30368 30369 30370 30371 30372 30373 30374 30375 30376 30377 30378 30379 30380 30381 30382 30383 30384 30385 30386 30387 30388 30389 30390 30391 30392 30393 30394 30395 30396 30397 30398 30399 30400 30401 30402 30403 30404 30405 30406 30407 30408 30409 30410 30411 30412 30413 30414 30415 30416 30417 30418 30419 30420 30421 30422 30423 30424 30425 30426 30427 30428 30429 30430 30431 30432 30433 30434 30435 30436 30437 30438 30439 30440 30441 30442 30443 30444 30445 30446 30447 30448 30449 30450 30451 30452 30453 30454 30455 30456 30457 30458 30459 30460 30461 30462 30463 30464 30465 30466 30467 30468 30469 30470 30471 30472 30473 30474 30475 30476 30477 30478 30479 30480 30481 30482 30483 30484 30485 30486 30487 30488 30489 30490 30491 30492 30493 30494 30495 30496 30497 30498 30499 30500 30501 30502 30503 30504 30505 30506 30507 30508 30509 30510 30511 30512 30513 30514 30515 30516 30517 30518 30519 30520 30521 30522 30523 30524 30525 30526 30527 30528 30529 30530 30531 30532 30533 30534 30535 30536 30537 30538 30539 30540 30541 30542 30543 30544 30545 30546 30547 30548 30549 30550 30551 30552 30553 30554 30555 30556 30557 30558 30559 30560 30561 30562 30563 30564 30565 30566 30567 30568 30569 30570 30571 30572 30573 30574 30575 30576 30577 30578 30579 30580 30581 30582 30583 30584 30585 30586 30587 30588 30589 30590 30591 30592 30593 30594 30595 30596 30597 30598 30599 30600 30601 30602 30603 30604 30605 30606 30607 30608 30609 30610 30611 30612 30613 30614 30615 30616 30617 30618 30619 30620 30621 30622 30623 30624 30625 30626 30627 30628 30629 30630 30631 30632 30633 30634 30635 30636 30637 30638 30639 30640 30641 30642 30643 30644 30645 30646 30647 30648 30649 30650 30651 30652 30653 30654 30655 30656 30657 30658 30659 30660 30661 30662 30663 30664 30665 30666 30667 30668 30669 30670 30671 30672 30673 30674 30675 30676 30677 30678 30679 30680 30681 30682 30683 30684 30685 30686 30687 30688 30689 30690 30691 30692 30693 30694 30695 30696 30697 30698 30699 30700 30701 30702 30703 30704 30705 30706 30707 30708 30709 30710 30711 30712 30713 30714 30715 30716 30717 30718 30719 30720 30721 30722 30723 30724 30725 30726 30727 30728 30729 30730 30731 30732 30733 30734 30735 30736 30737 30738 30739 30740 30741 30742 30743 30744 30745 30746 30747 30748 30749 30750 30751 30752 30753 30754 30755 30756 30757 30758 30759 30760 30761 30762 30763 30764 30765 30766 30767 30768 30769 30770 30771 30772 30773 30774 30775 30776 30777 30778 30779 30780 30781 30782 30783 30784 30785 30786 30787 30788 30789 30790 30791 30792 30793 30794 30795 30796 30797 30798 30799 30800 30801 30802 30803 30804 30805 30806 30807 30808 30809 30810 30811 30812 30813 30814 30815 30816 30817 30818 30819 30820 30821 30822 30823 30824 30825 30826 30827 30828 30829 30830 30831 30832 30833 30834 30835 30836 30837 30838 30839 30840 30841 30842 30843 30844 30845 30846 30847 30848 30849 30850 30851 30852 30853 30854 30855 30856 30857 30858 30859 30860 30861 30862 30863 30864 30865 30866 30867 30868 30869 30870 30871 30872 30873 30874 30875 30876 30877 30878 30879 30880 
</DataArray>
<DataArray type="UInt32" Name="offsets" format="ascii">
3 6 8 11 14 17 20 22 25 28 31 34 37 40 43 46 49 52 55 58 60 63 66 69 72 74 77 80 83 86 89 92 95 97 100 103 106 109 112 115 118 121 123 126 129 132 135 138 141 144 147 150 153 156 158 160 163 166 169 172 175 178 181 184 186 189 192 195 198 201 204 207 210 213 216 219 222 225 228 231 234 237 240 243 246 249 252 254 257 260 263 266 269 272 275 278 281 284 287 289 292 295 298 300 303 306 309 312 315 318 321 324 327 330 333 336 339 342 345 348 351 354 357 360 363 366 369 372 375 378 381 384 387 390 393 396 399 402 405 408 411 414 417 420 423 426 429 432 435 437 440 442 445 448 451 454 457 460 463 466 469 472 475 478 481 484 487 490 493 496 499 502 505 508 511 514 517 520 522 525 528 530 533 535 538 541 544 547 550 553 556 559 562 565 568 571 574 577 579 582 584 587 590 593 596 599 602 605 607 610 612 615 618 621 624 627 630 632 635 638 640 643 646 649 652 655 658 660 662 665 668 670 673 675 678 680 682 685 688 691 693 696 699 702 705 708 711 714 717 720 723 726 729 732 734 737 740 743 746 749 752 755 757 760 763 766 769 772 775 778 780 783 786 789 792 794 797 800 803 806 809 812 814 817 820 823 825 828 831 834 837 840 843 846 848 851 854 857 860 863 866 868 871 874 877 880 883 886 888 891 894 897 900 903 906 909 911 914 917 920 923 926 929 932 935 938 941 944 947 950 953 956 959 962 965 968 971 974 976 978 981 984 987 990 993 995 998 1001 1004 1007 1010 1013 1016 1018 1021 1023 1026 1029 1032 1034 1037 1040 1043 1045 1048 1050 1053 1056 1059 1062 1065 1068 1071 1073 1076 1079 1082 1085 1088 1091 1094 1096 1099 1102 1105 1107 1110 1113 1116 1119 1122 1125 1128 1131 1134 1137 1140 1143 1146 1149 1152 1155 1158 1161 1164 1167 1170 1173 1176 1179 1182 1185 1188 1191 1194 1197 1200 1203 1205 1208 1211 1214 1217 1220 1223 1226 1229 1232 1235 1238 1241 1244 1247 1250 1253 1256 1259 1262 1265 1268 1271 1274 1277 1280 1283 1286 1289 1292 1295 1298 1301 1303 1306 1309 1312 1315 1318 1321 1324 1327 1330 1333 1336 1339 1342 1345 1348 1351 1354 1357 1360 1363 1365 1368 1371 1374 1377 1380 1383 1386 1388 1391 1394 1397 1400 1403 1405 1408 1411 1413 1416 1418 1421 1424 1427 1430 1432 1435 1438 1440 1443 1446 1449 1452 1455 1458 1460 1463 1466 1469 1472 1475 1478 1481 1484 1487 1490 1493 1496 1499 1502 1505 1508 1511 1514 1517 1519 1522 1525 1528 1531 1534 1537 1540 1543 1546 1549 1552 1554 1556 1559 1562 1565 1568 1571 1574 1577 1580 1583 1586 1589 1592 1595 1598 1601 1604 1607 1610 1613 1616 1619 1621 1624 1626 1628 1631 1634 1636 1639 1642 1645 1648 1651 1654 1657 1660 1663 1666 1669 1672 1675 1677 1680 1683 1686 1689 1692 1695 1698 1700 1702 1705 1708 1711 1714 1717 1720 1723 1726 1728 1730 1733 1736 1739 1741 1744 1747 1750 1753 1756 1759 1762 1765 1768 1771 1774 1777 1780 1783 1786 1789 1792 1795 1798 1801 1804 1807 1810 1813 1816 1819 1822 1825 1828 1831 1834 1837 1840 1843 1846 1848 1851 1854 1856 1859 1862 1865 1868 1870 1873 1876 1879 1881 1884 1887 1890 1892 1895 1898 1900 1903 1906 1909 1912 1915 1918 1921 1924 1927 1930 1933 1936 1939 1942 1945 1948 1951 1954 1957 1960 1963 1965 1968 1971 1974 1976 1979 1982 1985 1988 1991 1993 1996 1999 2002 2005 2008 2011 2013 2016 2019 2022 2025 2028 2031 2034 2037 2040 2043 2046 2049 2052 2055 2058 2061 2064 2067 2069 2072 2075 2078 2081 2084 2087 2090 2093 2096 2099 2102 2105 2108 2111 2114 2117 2120 2123 2126 2129 2132 2134 2137 2140 2143 2146 2149 2152 2155 2158 2161 2164 2167 2170 2173 2176 2179 2181 2184 2187 2190 2193 2196 2199 2202 2205 2208 2211 2214 2217 2220 2223 2226 2229 2232 2235 2237 2240 2243 2246 2249 2252 2255 2258 2260 2263 2266 2269 2272 2275 2278 2281 2284 2287 2290 2293 2296 2299 2302 2305 2308 2311 2314 2317 2320 2323 2325 2328 2331 2334 2337 2340 2343 2346 2349 2352 2354 2357 2360 2363 2366 2369 2372 2375 2378 2380 2383 2386 2389 2392 2395 2398 2401 2404 2407 2410 2413 2416 2419 2422 2425 2428 2431 2434 2437 2439 2442 2445 2448 2451 2454 2456 2459 2462 2465 2467 2470 2473 2476 2479 2482 2485 2487 2490 2493 2496 2499 2502 2505 2508 2511 2514 2517 2519 2522 2525 2528 2531 2534 2537 2540 2543 2546 2549 2552 2555 2557 2560 2562 2565 2568 2571 2574 2577 2580 2583 2585 2588 2590 2593 2596 2599 2602 2605 2608 2611 2614 2617 2620 2623 2626 2629 2632 2635 2638 2641 2644 2647 2650 2653 2656 2659 2662 2665 2668 2671 2674 2677 2680 2683 2686 2689 2692 2695 2698 2701 2704 2707 2710 2713 2716 2719 2722 2725 2727 2729 2732 2735 2737 2740 2743 2746 2749 2752 2755 2758 2761 2764 2767 2770 2773 2776 2779 2782 2785 2787 2790 2793 2796 2799 2801 2804 2807 2809 2812 2815 2818 2821 2824 2827 2829 2832 2834 2837 2840 2842 2845 2848 2851 2854 2857 2860 2863 2866 2869 2872 2874 2877 2880 2883 2886 2889 2891 2893 2896 2899 2902 2905 2907 2910 2913 2915 2918 2920 2923 2926 2929 2932 2935 2937 2940 2943 2945 2948 2951 2954 2957 2960 2963 2966 2969 2972 2975 2978 2981 2983 2986 2989 2992 2995 2998 3001 3004 3007 3010 3013 3016 3019 3022 3025 3028 3030 3033 3035 3038 3040 3042 3045 3047 3050 3053 3055 3058 3061 3064 3067 3070 3073 3075 3078 3080 3083 3086 3088 3091 3094 3097 3099 3102 3105 3107 3110 3113 3116 3119 3122 3124 3127 3130 3132 3135 3138 3141 3144 3147 3149 3152 3154 3157 3160 3162 3165 3168 3170 3173 3176 3179 3182 3185 3188 3191 3194 3196 3199 3202 3205 3208 3211 3214 3217 3220 3223 3226 3228 3231 3234 3237 3240 3242 3245 3248 3250 3253 3256 3259 3262 3265 3267 3270 3273 3276 3279 3282 3284 3287 3289 3292 3295 3298 3301 3304 3307 3309 3312 3315 3318 3321 3324 3327 3330 3333 3335 3337 3339 3342 3345 3348 3351 3353 3356 3358 3361 3364 3367 3369 3371 3374 3377 3380 3382 3385 3388 3391 3393 3396 3398 3401 3403 3405 3408 3410 3413 3416 3419 3422 3424 3427 3430 3433 3435 3438 3440 3443 3445 3448 3451 3454 3457 3460 3463 3466 3468 3471 3474 3477 3480 3482 3485 3488 3491 3494 3497 3500 3503 3506 3508 3511 3513 3515 3518 3521 3524 3526 3529 3532 3535 3538 3540 3542 3545 3548 3550 3552 3555 3558 3561 3564 3567 3569 3572 3575 3578 3581 3584 3587 3590 3593 3595 3598 3600 3603 3606 3609 3612 3615 3618 3621 3624 3627 3630 3633 3636 3639 3642 3645 3648 3651 3653 3656 3659 3662 3665 3668 3671 3674 3677 3680 3683 3686 3689 3692 3695 3698 3701 3704 3707 3710 3713 3716 3719 3722 3725 3728 3730 3733 3735 3738 3741 3744 3747 3750 3752 3754 3757 3760 3763 3766 3768 3770 3773 3775 3778 3781 3783 3786 3789 3791 3794 3797 3800 3803 3805 3807 3810 3813 3816 3819 3822 3825 3828 3831 3833 3836 3839 3841 3844 3847 3850 3852 3855 3858 3860 3863 3866 3869 3872 3875 3878 3880 3883 3886 3889 3892 3895 3898 3900 3903 3906 3909 3912 3915 3917 3920 3923 3925 3927 3930 3933 3935 3938 3941 3943 3946 3949 3952 3955 3958 3961 3964 3967 3970 3973 3976 3979 3981 3984 3986 3989 3992 3994 3997 4000 4003 4006 4009 4012 4014 4017 4020 4023 4025 4027 4029 4032 4035 4038 4040 4042 4045 4047 4049 4052 4055 4057 4060 4063 4065 4068 4070 4073 4075 4078 4081 4084 4086 4088 4091 4094 4096 4098 4100 4102 4105 4108 4111 4113 4115 4118 4121 4123 4125 4127 4130 4132 4134 4137 4140 4142 4145 4147 4149 4152 4154 4157 4160 4162 4165 4167 4169 4172 4175 4178 4181 4183 4185 4188 4191 4193 4196 4199 4202 4204 4207 4210 4213 4216 4219 4222 4225 4228 4231 4234 4237 4240 4243 4246 4249 4252 4255 4258 4261 4264 4267 4270 4273 4276 4279 4282 4285 4288 4291 4294 4297 4300 4303 4306 4309 4312 4315 4318 4321 4324 4327 4330 4333 4336 4339 4342 4345 4348 4351 4354 4357 4360 4363 4366 4369 4372 4375 4378 4380 4383 4385 4388 4391 4394 4397 4400 4403 4406 4409 4412 4415 4418 4421 4424 4427 4429 4432 4435 4438 4441 4444 4447 4450 4453 4456 4459 4461 4464 4467 4470 4473 4476 4479 4482 4485 4488 4491 4494 4497 4500 4503 4506 4509 4512 4515 4518 4521 4524 4527 4530 4533 4536 4539 4542 4545 4548 4551 4554 4557 4560 4563 4566 4569 4572 4575 4578 4581 4584 4587 4590 4593 4596 4599 4601 4604 4607 4610 4612 4615 4617 4620 4623 4626 4629 4632 4634 4637 4639 4642 4645 4648 4651 4654 4657 4660 4663 4666 4669 4672 4675 4678 4681 4684 4687 4690 4693 4696 4699 4702 4705 4708 4711 4714 4716 4719 4722 4725 4728 4731 4734 4736 4739 4741 4744 4747 4750 4752 4755 4758 4760 4763 4766 4769 4772 4775 4778 4781 4784 4787 4790 4793 4796 4799 4802 4805 4808 4811 4814 4817 4820 4823 4826 4829 4832 4835 4838 4841 4844 4847 4850 4853 4856 4859 4862 4865 4868 4871 4873 4876 4878 4881 4884 4887 4890 4893 4896 4899 4902 4905 4908 4910 4913 4916 4919 4922 4925 4928 4931 4934 4937 4940 4943 4946 4949 4952 4955 4958 4961 4963 4966 4969 4972 4974 4976 4979 4981 4984 4987 4990 4993 4996 4999 5002 5005 5007 5010 5013 5016 5019 5021 5024 5027 5030 5033 5036 5039 5042 5044 5047 5050 5052 5055 5057 5060 5063 5065 5068 5071 5073 5075 5078 5081 5084 5087 5090 5093 5096 5099 5102 5105 5108 5111 5114 5117 5120 5122 5125 5127 5130 5133 5136 5138 5141 5143 5146 5149 5152 5155 5158 5161 5164 5167 5170 5173 5176 5179 5181 5184 5186 5189 5192 5195 5198 5201 5204 5207 5210 5212 5215 5218 5220 5223 5226 5229 5231 5233 5236 5239 5242 5245 5248 5251 5254 5257 5260 5263 5266 5269 5272 5275 5278 5281 5284 5287 5290 5293 5296 5298 5301 5304 5307 5310 5313 5315 5318 5320 5323 5326 5329 5332 5334 5337 5340 5342 5345 5348 5351 5354 5357 5359 5362 5365 5368 5371 5373 5376 5379 5382 5385 5388 5391 5394 5396 5399 5402 5405 5407 5410 5413 5416 5419 5422 5425 5428 5431 5434 5437 5440 5442 5445 5448 5451 5454 5457 5460 5463 5466 5468 5471 5474 5477 5480 5483 5486 5488 5491 5494 5497 5500 5503 5506 5508 5511 5514 5517 5520 5523 5526 5529 5532 5535 5538 5541 5543 5546 5549 5552 5554 5557 5560 5563 5565 5568 5570 5573 5576 5579 5582 5585 5588 5590 5593 5596 5599 5602 5605 5608 5611 5614 5617 5620 5623 5626 5629 5632 5635 5637 5640 5643 5646 5649 5652 5654 5657 5660 5663 5666 5669 5672 5675 5678 5680 5683 5686 5689 5692 5695 5698 5701 5704 5707 5710 5713 5716 5719 5722 5725 5728 5730 5733 5736 5739 5742 5744 5747 5750 5753 5756 5759 5762 5765 5768 5771 5774 5777 5780 5783 5786 5789 5792 5795 5798 5801 5804 5807 5810 5813 5816 5819 5822 5824 5827 5830 5833 5835 5838 5840 5843 5846 5849 5852 5854 5857 5859 5862 5865 5868 5871 5874 5876 5879 5882 5885 5888 5891 5894 5897 5900 5903 5905 5908 5911 5914 5917 5920 5923 5926 5929 5932 5935 5938 5941 5944 5947 5950 5953 5956 5959 5962 5965 5968 5971 5974 5977 5979 5981 5984 5987 5990 5993 5996 5998 6001 6004 6007 6009 6012 6015 6018 6020 6023 6026 6028 6031 6033 6036 6039 6042 6045 6047 6050 6053 6056 6059 6061 6063 6066 6069 6072 6075 6078 6081 6084 6087 6090 6093 6096 6099 6101 6104 6107 6110 6113 6115 6118 6121 6124 6127 6130 6132 6135 6138 6140 6143 6146 6149 6152 6155 6158 6161 6164 6167 6170 6173 6176 6179 6182 6185 6188 6190 6193 6196 6198 6201 6204 6207 6209 6212 6215 6218 6221 6224 6227 6230 6233 6236 6239 6242 6244 6247 6250 6253 6256 6259 6262 6265 6268 6271 6274 6277 6280 6283 6286 6289 6292 6294 6297 6300 6302 6305 6307 6310 6313 6315 6318 6320 6323 6325 6328 6331 6334 6337 6340 6343 6346 6349 6352 6355 6358 6361 6364 6366 6369 6371 6373 6376 6379 6381 6383 6386 6389 6391 6393 6396 6399 6402 6404 6407 6409 6412 6415 6417 6420 6423 6426 6429 6431 6433 6436 6438 6441 6444 6446 6448 6451 6454 6456 6459 6462 6465 6467 6470 6473 6476 6478 6480 6482 6485 6488 6490 6493 6495 6497 6500 6503 6506 6509 6512 6515 6518 6521 6524 6527 6530 6532 6534 6537 6539 6542 6544 6547 6549 6552 6555 6558 6560 6563 6566 6569 6572 6575 6577 6580 6583 6586 6589 6592 6595 6598 6601 6604 6607 6610 6613 6616 6619 6622 6625 6628 6631 6634 6637 6640 6643 6646 6649 6651 6654 6657 6660 6663 6666 6669 6672 6675 6678 6681 6684 6687 6690 6693 6696 6699 6702 6705 6707 6710 6713 6716 6719 6722 6725 6728 6731 6734 6737 6740 6742 6745 6748 6751 6754 6757 6759 6762 6765 6768 6771 6774 6777 6780 6783 6786 6789 6792 6795 6798 6801 6803 6806 6809 6812 6815 6818 6821 6824 6827 6830 6833 6836 6839 6842 6845 6847 6850 6852 6855 6858 6861 6864 6866 6869 6872 6875 6878 6881 6884 6887 6890 6893 6896 6899 6902 6904 6907 6909 6912 6915 6918 6921 6923 6926 6929 6932 6935 6938 6941 6944 6946 6949 6952 6955 6958 6961 6964 6967 6969 6972 6975 6978 6980 6983 6985 6988 6991 6994 6997 7000 7003 7006 7009 7012 7014 7017 7020 7023 7026 7029 7032 7035 7038 7041 7044 7047 7050 7053 7056 7059 7062 7065 7068 7071 7074 7077 7080 7083 7086 7089 7092 7095 7098 7101 7104 7107 7110 7113 7116 7119 7122 7125 7128 7131 7134 7137 7140 7143 7145 7148 7151 7153 7156 7159 7162 7165 7168 7171 7174 7177 7180 7183 7185 7188 7191 7194 7197 7200 7202 7205 7208 7210 7213 7216 7219 7222 7225 7228 7230 7233 7236 7239 7242 7244 7247 7250 7252 7255 7257 7260 7263 7266 7269 7272 7275 7278 7281 7284 7287 7290 7292 7295 7297 7300 7303 7306 7309 7311 7314 7317 7320 7323 7326 7329 7332 7335 7338 7341 7344 7347 7350 7353 7356 7359 7362 7365 7368 7371 7374 7376 7379 7382 7385 7388 7390 7393 7396 7399 7402 7405 7408 7411 7413 7416 7419 7422 7425 7428 7430 7433 7436 7439 7441 7444 7447 7450 7452 7455 7458 7460 7463 7466 7469 7471 7474 7477 7479 7482 7485 7488 7491 7494 7497 7500 7503 7506 7509 7512 7515 7518 7521 7524 7527 7530 7533 7536 7539 7542 7545 7548 7551 7554 7557 7560 7563 7566 7569 7572 7574 7577 7580 7583 7586 7589 7592 7595 7598 7601 7604 7607 7609 7612 7615 7618 7621 7624 7627 7630 7633 7636 7639 7642 7645 7648 7651 7654 7656 7658 7661 7664 7667 7669 7672 7675 7678 7681 7683 7686 7689 7691 7694 7697 7700 7703 7706 7709 7712 7715 7718 7721 7724 7727 7730 7732 7734 7737 7740 7743 7746 7749 7752 7755 7758 7761 7764 7767 7769 7772 7775 7777 7780 7783 7786 7789 7792 7795 7798 7801 7804 7807 7810 7813 7816 7819 7822 7825 7828 7831 7834 7836 7839 7842 7845 7847 7850 7853 7856 7859 7862 7864 7867 7870 7873 7876 7879 7882 7885 7888 7891 7894 7897 7900 7903 7906 7909 7912 7915 7918 7921 7924 7926 7929 7932 7934 7937 7940 7943 7946 7949 7952 7955 7958 7961 7964 7967 7970 7973 7976 7979 7982 7985 7988 7991 7993 7996 7999 8002 8005 8008 8011 8014 8017 8020 8023 8026 8029 8032 8035 8038 8041 8044 8047 8050 8053 8056 8059 8062 8065 8068 8071 8074 8077 8080 8083 8086 8089 8091 8094 8097 8100 8103 8106 8109 8111 8114 8117 8120 8123 8126 8128 8131 8134 8137 8140 8142 8145 8148 8151 8154 8157 8160 8163 8166 8169 8172 8175 8178 8181 8184 8187 8190 8193 8196 8199 8202 8205 8208 8210 8213 8216 8219 8222 8225 8228 8231 8233 8236 8239 8241 8244 8247 8249 8252 8255 8258 8261 8264 8267 8269 8272 8275 8278 8281 8284 8287 8290 8293 8296 8299 8301 8304 8306 8309 8312 8315 8318 8321 8324 8327 8330 8332 8335 8338 8340 8343 8346 8349 8351 8354 8357 8360 8362 8365 8368 8371 8373 8375 8378 8381 8383 8386 8389 8391 8394 8397 8399 8402 8405 8408 8411 8414 8417 8420 8423 8426 8428 8431 8434 8437 8439 8442 8445 8448 8450 8453 8456 8459 8461 8464 8466 8469 8472 8474 8477 8480 8483 8486 8489 8492 8495 8498 8500 8503 8506 8508 8511 8514 8517 8520 8523 8526 8529 8532 8535 8538 8541 8544 8547 8549 8552 8554 8557 8560 8563 8565 8567 8570 8572 8575 8578 8581 8584 8586 8589 8591 8594 8597 8600 8603 8606 8609 8612 8615 8618 8620 8623 8626 8629 8632 8635 8638 8641 8644 8647 8650 8653 8656 8659 8662 8665 8668 8671 8674 8677 8680 8683 8686 8689 8692 8695 8698 8701 8704 8706 8709 8712 8715 8718 8721 8724 8726 8729 8732 8735 8738 8741 8744 8746 8749 8752 8755 8758 8761 8764 8766 8769 8772 8775 8777 8780 8783 8786 8788 8791 8794 8796 8799 8802 8805 8808 8811 8814 8816 8819 8822 8825 8827 8829 8832 8835 8838 8841 8844 8847 8850 8853 8856 8859 8862 8865 8868 8871 8874 8877 8880 8882 8885 8888 8891 8894 8897 8900 8903 8905 8908 8911 8914 8917 8920 8922 8925 8928 8931 8934 8937 8939 8942 8945 8947 8950 8953 8956 8959 8961 8964 8967 8970 8973 8976 8979 8981 8984 8986 8989 8991 8993 8996 8998 9001 9004 9007 9009 9012 9015 9018 9021 9024 9026 9029 9032 9035 9037 9040 9043 9046 9049 9051 9053 9055 9058 9061 9064 9067 9069 9071 9074 9076 9079 9082 9085 9088 9091 9094 9096 9099 9101 9104 9107 9109 9112 9115 9118 9120 9123 9126 9128 9131 9134 9137 9140 9143 9146 9149 9152 9155 9158 9161 9164 9166 9169 9172 9175 9178 9180 9183 9186 9189 9192 9194 9197 9200 9203 9206 9209 9212 9215 9218 9221 9223 9225 9227 9230 9233 9236 9238 9240 9243 9246 9248 9251 9253 9256 9259 9262 9265 9268 9271 9274 9276 9279 9282 9285 9288 9291 9294 9297 9300 9303 9306 9309 9312 9315 9318 9321 9324 9326 9329 9332 9335 9338 9341 9344 9347 9350 9353 9355 9358 9361 9363 9366 9368 9371 9373 9376 9379 9381 9384 9387 9390 9392 9394 9397 9400 9402 9405 9408 9411 9413 9416 9419 9422 9425 9427 9430 9433 9436 9439 9442 9445 9448 9451 9454 9457 9460 9462 9464 9467 9470 9473 9476 9479 9482 9485 9488 9491 9494 9497 9500 9503 9506 9509 9512 9515 9518 9521 9524 9527 9530 9533 9536 9539 9542 9545 9548 9551 9554 9557 9560 9562 9565 9568 9571 9574 9577 9580 9583 9586 9589 9592 9595 9598 9601 9604 9607 9610 9613 9616 9619 9621 9624 9627 9630 9633 9636 9639 9641 9643 9646 9649 9651 9653 9656 9659 9662 9664 9667 9670 9673 9676 9679 9682 9685 9688 9691 9694 9697 9700 9703 9706 9709 9712 9715 9718 9721 9724 9727 9730 9733 9735 9738 9740 9743 9745 9748 9751 9754 9757 9760 9763 9765 9768 9770 9772 9775 9778 9780 9783 9786 9789 9792 9795 9798 9800 9802 9805 9808 9810 9812 9815 9818 9820 9822 9825 9828 9831 9834 9837 9840 9843 9846 9848 9851 9854 9857 9860 9863 9865 9868 9871 9873 9876 9879 9882 9884 9887 9890 9893 9896 9899 9902 9905 9908 9911 9914 9917 9920 9923 9926 9929 9932 9935 9938 9941 9944 9947 9950 9953 9956 9959 9962 9965 9968 9971 9974 9977 9980 9983 9986 9988 9991 9994 9996 9999 10001 10003 10006 10009 10012 10015 10018 10021 10024 10027 10030 10032 10035 10038 10041 10044 10047 10049 10052 10055 10058 10061 10064 10067 10070 10072 10075 10078 10081 10084 10087 10090 10093 10096 10098 10101 10104 10107 10110 10113 10115 10118 10121 10124 10127 10130 10133 10136 10139 10142 10145 10148 10151 10154 10157 10160 10163 10166 10169 10172 10175 10178 10181 10184 10187 10190 10193 10196 10199 10202 10205 10207 10209 10212 10215 10218 10221 10224 10227 10230 10232 10235 10238 10241 10243 10246 10248 10251 10254 10257 10260 10263 10266 10269 10272 10275 10278 10281 10284 10287 10290 10293 10296 10299 10302 10305 10308 10311 10313 10316 10319 10322 10325 10328 10331 10333 10336 10339 10342 10345 10348 10351 10354 10356 10359 10362 10364 10367 10370 10373 10376 10379 10382 10384 10387 10390 10393 10395 10398 10401 10403 10405 10408 10411 10414 10417 10420 10423 10426 10429 10432 10435 10438 10441 10444 10447 10450 10453 10456 10459 10462 10465 10468 10471 10474 10477 10480 10483 10486 10489 10491 10494 10497 10500 10503 10506 10509 10512 10515 10518 10521 10524 10527 10530 10533 10536 10539 10542 10545 10548 10550 10553 10556 10559 10561 10563 10566 10569 10572 10575 10578 10580 10583 10586 10589 10591 10594 10597 10600 10603 10606 10608 10611 10614 10617 10620 10623 10626 10629 10632 10635 10638 10641 10644 10647 10650 10653 10656 10659 10662 10665 10668 10671 10673 10676 10679 10682 10685 10688 10691 10693 10696 10699 10702 10705 10708 10711 10714 10717 10720 10723 10726 10729 10731 10734 10737 10740 10743 10745 10748 10750 10753 10756 10759 10762 10765 10768 10771 10774 10777 10780 10783 10786 10789 10791 10794 10797 10800 10803 10806 10808 10811 10814 10817 10820 10823 10826 10828 10831 10834 10837 10840 10843 10846 10849 10852 10855 10858 10861 10864 10866 10869 10872 10874 10877 10880 10882 10885 10888 10890 10893 10896 10899 10902 10905 10908 10911 10914 10917 10920 10922 10925 10928 10931 10934 10937 10940 10943 10946 10948 10951 10954 10957 10959 10962 10965 10968 10970 10973 10976 10978 10981 10984 10987 10989 10992 10995 10998 11001 11004 11006 11009 11011 11014 11017 11020 11023 11025 11027 11030 11033 11036 11038 11041 11044 11047 11050 11052 11055 11058 11061 11064 11067 11070 11073 11076 11079 11082 11085 11088 11091 11094 11097 11099 11102 11105 11107 11109 11112 11115 11118 11121 11123 11126 11129 11132 11135 11138 11141 11143 11146 11149 11152 11155 11158 11161 11163 11166 11169 11172 11175 11178 11181 11184 11187 11189 11192 11195 11198 11201 11204 11207 11210 11213 11216 11219 11221 11224 11227 11229 11232 11235 11237 11240 11243 11246 11249 11252 11254 11256 11259 11262 11264 11266 11269 11271 11274 11276 11279 11281 11283 11286 11289 11291 11294 11296 11299 11301 11304 11306 11309 11311 11314 11317 11319 11322 11324 11327 11329 11332 11335 11338 11341 11344 11347 11349 11352 11355 11358 11360 11363 11366 11369 11372 11375 11378 11381 11384 11387 11389 11392 11395 11397 11400 11402 11405 11407 11410 11413 11416 11418 11420 11423 11426 11429 11432 11435 11438 11441 11444 11447 11450 11453 11455 11458 11461 11464 11467 11470 11472 11475 11478 11481 11484 11487 11490 11493 11496 11499 11502 11505 11508 11511 11514 11517 11520 11523 11525 11528 11531 11534 11537 11540 11543 11545 11548 11551 11554 11556 11559 11562 11564 11567 11570 11573 11575 11578 11580 11582 11585 11588 11591 11594 11597 11600 11603 11606 11609 11611 11614 11617 11620 11623 11626 11629 11632 11634 11637 11639 11642 11644 11647 11650 11653 11656 11659 11662 11665 11668 11671 11674 11677 11680 11683 11686 11689 11692 11695 11698 11701 11704 11707 11710 11713 11716 11719 11722 11725 11728 11731 11734 11737 11740 11743 11746 11749 11752 11755 11757 11760 11763 11765 11767 11770 11773 11776 11779 11781 11784 11787 11790 11793 11796 11798 11801 11804 11806 11808 11811 11814 11817 11820 11823 11826 11828 11831 11833 11836 11839 11841 11843 11846 11848 11851 11854 11857 11859 11862 11865 11868 11871 11873 11876 11879 11882 11884 11887 11890 11892 11894 11897 11900 11903 11905 11908 11911 11914 11917 11919 11922 11925 11927 11930 11933 11936 11938 11941 11944 11946 11949 11952 11955 11957 11960 11962 11965 11968 11970 11973 11976 11978 11980 11983 11986 11988 11991 11993 11995 11998 12001 12004 12007 12009 12012 12015 12018 12021 12023 12026 12029 12032 12035 12038 12041 12044 12047 12050 12053 12056 12059 12061 12064 12067 12070 12073 12075 12078 12080 12083 12086 12089 12092 12095 12097 12099 12101 12104 12107 12110 12113 12116 12119 12122 12125 12127 12130 12133 12136 12139 12142 12145 12147 12150 12153 12156 12159 12161 12164 12167 12170 12173 12176 12179 12182 12185 12188 12191 12194 12197 12200 12203 12206 12209 12212 12215 12217 12220 12222 12225 12228 12230 12232 12235 12237 12240 12243 12245 12248 12250 12253 12255 12258 12260 12263 12266 12269 12272 12274 12277 12280 12283 12285 12288 12291 12294 12297 12300 12303 12306 12309 12312 12315 12318 12321 12324 12327 12330 12333 12336 12339 12342 12345 12348 12351 12354 12357 12360 12362 12365 12368 12371 12374 12377 12379 12382 12385 12388 12391 12394 12397 12400 12403 12406 12409 12412 12414 12417 12420 12423 12426 12429 12431 12434 12437 12439 12441 12444 12447 12450 12452 12455 12458 12460 12462 12465 12467 12470 12473 12476 12479 12482 12485 12488 12491 12494 12497 12500 12503 12506 12509 12512 12515 12517 12520 12523 12526 12529 12531 12534 12537 12540 12543 12546 12549 12552 12555 12557 12559 12562 12565 12567 12570 12573 12576 12579 12582 12585 12588 12591 12594 12596 12598 12601 12604 12606 12609 12612 12615 12617 12620 12623 12626 12629 12632 12635 12638 12641 12644 12647 12650 12653 12656 12659 12662 12665 12668 12671 12674 12677 12680 12683 12686 12689 12692 12695 12697 12700 12703 12706 12709 12712 12715 12718 12721 12724 12727 12730 12733 12736 12739 12742 12745 12748 12751 12754 12757 12759 12762 12765 12768 12770 12772 12775 12778 12781 12783 12786 12789 12791 12794 12797 12800 12803 12806 12808 12811 12813 12816 12819 12822 12825 12828 12831 12834 12837 12839 12842 12845 12848 12850 12853 12856 12858 12861 12863 12866 12869 12872 12874 12877 12880 12883 12885 12888 12891 12894 12897 12900 12903 12906 12909 12912 12915 12918 12921 12924 12927 12930 12933 12936 12938 12941 12944 12947 12950 12953 12956 12959 12962 12965 12967 12970 12973 12976 12979 12982 12985 12988 12991 12993 12996 12999 13002 13005 13008 13011 13014 13017 13020 13023 13026 13029 13032 13034 13037 13040 13043 13045 13048 13051 13054 13057 13060 13063 13066 13069 13072 13075 13078 13081 13084 13087 13090 13093 13096 13099 13102 13104 13107 13110 13113 13115 13118 13120 13123 13126 13129 13131 13134 13137 13140 13142 13144 13147 13150 13153 13156 13159 13162 13165 13168 13171 13174 13177 13180 13183 13186 13189 13192 13195 13198 13201 13204 13207 13210 13212 13215 13218 13221 13224 13226 13229 13232 13235 13238 13240 13243 13246 13249 13252 13255 13258 13261 13263 13266 13269 13272 13275 13277 13280 13283 13286 13289 13292 13295 13297 13300 13303 13306 13309 13312 13315 13317 13320 13323 13326 13328 13331 13334 13337 13340 13343 13346 13349 13352 13355 13357 13360 13363 13366 13369 13372 13375 13377 13380 13383 13386 13389 13392 13395 13398 13401 13404 13407 13410 13412 13415 13418 13420 13423 13426 13429 13432 13435 13437 13440 13443 13445 13448 13451 13454 13457 13460 13463 13466 13468 13470 13473 13476 13479 13482 13484 13487 13490 13493 13496 13499 13502 13504 13507 13510 13513 13516 13519 13522 13525 13528 13531 13534 13536 13539 13542 13545 13548 13551 13554 13557 13560 13563 13566 13569 13572 13574 13577 13579 13582 13585 13588 13590 13593 13596 13598 13601 13604 13607 13610 13612 13615 13618 13621 13624 13627 13629 13632 13635 13638 13641 13644 13647 13650 13653 13655 13658 13661 13664 13667 13669 13672 13675 13678 13681 13684 13687 13690 13692 13695 13698 13701 13704 13707 13710 13713 13716 13719 13722 13724 13727 13730 13733 13735 13738 13740 13743 13746 13749 13752 13755 13758 13760 13763 13765 13768 13770 13773 13776 13779 13782 13784 13787 13790 13793 13796 13799 13802 13805 13808 13811 13814 13817 13820 13823 13826 13828 13831 13833 13836 13839 13842 13845 13848 13851 13854 13856 13859 13862 13865 13868 13871 13874 13877 13880 13883 13886 13889 13892 13895 13897 13900 13903 13906 13909 13911 13914 13917 13920 13923 13926 13929 13932 13935 13938 13941 13944 13947 13950 13953 13956 13959 13962 13965 13968 13971 13974 13977 13980 13983 13985 13988 13991 13994 13997 13999 14002 14005 14008 14010 14013 14016 14018 14021 14024 14026 14029 14032 14035 14038 14041 14044 14047 14050 14053 14056 14059 14062 14065 14068 14071 14073 14076 14079 14081 14084 14087 14090 14093 14096 14099 14102 14104 14107 14110 14113 14116 14119 14121 14124 14127 14130 14132 14135 14138 14141 14143 14146 14149 14152 14155 14158 14161 14164 14166 14169 14172 14175 14177 14180 14182 14184 14187 14190 14193 14196 14199 14201 14204 14207 14210 14213 14216 14219 14222 14225 14228 14231 14233 14236 14239 14242 14245 14248 14251 14254 14257 14260 14263 14266 14269 14272 14275 14278 14281 14284 14287 14290 14293 14296 14299 14302 14305 14308 14311 14314 14317 14320 14323 14326 14329 14332 14335 14338 14341 14344 14346 14349 14352 14355 14358 14361 14364 14367 14370 14373 14376 14379 14382 14385 14388 14391 14394 14396 14399 14402 14405 14408 14411 14414 14417 14420 14423 14425 14428 14431 14434 14437 14440 14443 14446 14448 14451 14454 14457 14460 14463 14466 14469 14472 14475 14478 14481 14484 14487 14490 14493 14496 14499 14502 14505 14508 14511 14513 14516 14519 14522 14525 14528 14531 14534 14537 14540 14543 14546 14549 14552 14555 14558 14561 14564 14566 14569 14572 14575 14578 14581 14584 14587 14590 14593 14596 14599 14602 14605 14608 14611 14614 14617 14620 14623 14626 14629 14632 14635 14638 14641 14644 14647 14650 14653 14656 14659 14662 14665 14668 14671 14674 14677 14680 14683 14686 14689 14692 14695 14698 14701 14704 14706 14709 14712 14715 14718 14721 14724 14727 14730 14733 14736 14739 14742 14745 14747 14750 14752 14755 14758 14761 14764 14767 14769 14772 14775 14778 14781 14784 14786 14788 14791 14794 14797 14800 14803 14806 14809 14812 14815 14818 14821 14824 14827 14830 14833 14836 14839 14841 14843 14846 14849 14852 14855 14858 14861 14863 14866 14868 14871 14874 14877 14880 14883 14886 14889 14892 14895 14897 14900 14903 14906 14909 14912 14915 14918 14921 14924 14927 14930 14933 14936 14939 14942 14945 14948 14951 14954 14956 14959 14962 14965 14968 14971 14973 14976 14978 14981 14984 14987 14990 14993 14996 14999 15001 15004 15007 15010 15012 15015 15018 15021 15023 15026 15029 15031 15034 15037 15040 15042 15045 15048 15050 15053 15055 15058 15060 15063 15066 15068 15071 15074 15077 15080 15083 15086 15089 15092 15095 15098 15101 15104 15107 15110 15113 15116 15119 15122 15125 15128 15131 15133 15136 15138 15141 15144 15147 15150 15153 15156 15159 15161 15164 15167 15170 15173 15176 15179 15182 15185 15188 15191 15194 15197 15200 15203 15206 15209 15212 15215 15218 15220 15223 15226 15229 15231 15234 15237 15240 15243 15246 15249 15252 15255 15258 15261 15263 15266 15269 15272 15275 15277 15280 15283 15285 15288 15291 15294 15297 15300 15302 15305 15308 15311 15314 15316 15319 15321 15324 15327 15329 15332 15335 15338 15341 15344 15347 15350 15352 15355 15358 15360 15363 15365 15368 15371 15374 15377 15380 15383 15386 15389 15392 15395 15398 15401 15404 15407 15410 15413 15416 15419 15421 15424 15427 15430 15433 15436 15439 15442 15444 15447 15450 15453 15456 15458 15461 15464 15467 15470 15473 15476 15479 15482 15485 15487 15490 15493 15496 15499 15501 15504 15507 15510 15513 15516 15519 15522 15525 15528 15531 15534 15537 15539 15542 15545 15548 15551 15554 15557 15560 15563 15566 15568 15571 15574 15577 15580 15583 15586 15589 15592 15595 15598 15601 15604 15606 15609 15612 15614 15617 15620 15623 15626 15629 15632 15635 15638 15641 15643 15645 15647 15650 15653 15656 15658 15661 15664 15667 15670 15673 15676 15678 15681 15684 15687 15689 15691 15694 15697 15700 15703 15706 15709 15712 15715 15718 15721 15724 15727 15729 15732 15735 15738 15740 15742 15745 15748 15751 15754 15757 15759 15762 15765 15768 15771 15773 15776 15779 15782 15785 15787 15790 15793 15796 15799 15802 15804 15806 15808 15811 15814 15817 15819 15821 15824 15827 15830 15833 15836 15839 15842 15845 15848 15850 15852 15855 15858 15861 15863 15865 15868 15871 15874 15877 15880 15883 15886 15889 15892 15895 15898 15901 15904 15907 15910 15913 15916 15918 15921 15923 15926 15929 15932 15935 15937 15940 15943 15946 15949 15952 15955 15958 15960 15963 15966 15969 15972 15975 15978 15981 15983 15986 15989 15991 15994 15996 15998 16001 16004 16007 16009 16011 16014 16017 16020 16022 16024 16027 16030 16033 16036 16039 16042 16045 16048 16051 16054 16056 16059 16062 16065 16068 16071 16074 16077 16079 16082 16085 16088 16091 16093 16096 16099 16102 16105 16108 16111 16113 16116 16119 16122 16125 16127 16130 16132 16135 16138 16141 16144 16147 16150 16153 16156 16159 16162 16165 16168 16171 16174 16176 16179 16182 16185 16188 16191 16194 16197 16199 16202 16205 16208 16211 16213 16216 16219 16222 16224 16227 16230 16233 16236 16239 16242 16245 16248 16251 16254 16257 16260 16263 16266 16269 16272 16275 16278 16281 16284 16287 16290 16292 16295 16297 16300 16303 16305 16308 16311 16314 16316 16319 16322 16324 16327 16330 16333 16336 16339 16342 16345 16348 16351 16354 16357 16360 16363 16366 16369 16372 16375 16378 16381 16384 16386 16388 16390 16393 16396 16399 16402 16405 16408 16411 16414 16417 16420 16423 16426 16429 16431 16434 16437 16440 16442 16445 16448 16450 16453 16456 16459 16462 16464 16467 16470 16472 16474 16477 16480 16483 16486 16488 16491 16494 16496 16499 16501 16504 16507 16510 16513 16516 16519 16522 16525 16528 16531 16534 16537 16539 16542 16545 16548 16551 16554 16557 16560 16562 16565 16567 16570 16573 16576 16579 16581 16584 16587 16590 16593 16596 16599 16602 16605 16608 16611 16614 16617 16620 16623 16626 16629 16632 16635 16638 16641 16644 16647 16650 16652 16655 16658 16661 16663 16666 16668 16671 16674 16677 16679 16682 16685 16688 16691 16694 16696 16699 16702 16704 16707 16710 16713 16716 16719 16722 16725 16728 16730 16733 16736 16739 16742 16745 16747 16750 16753 16756 16759 16762 16765 16768 16771 16774 16777 16780 16783 16786 16789 16791 16794 16797 16800 16803 16805 16808 16811 16814 16817 16820 16823 16826 16829 16832 16835 16838 16841 16843 16846 16849 16852 16855 16857 16860 16863 16866 16869 16872 16875 16878 16881 16884 16887 16890 16893 16896 16898 16901 16904 16906 16909 16912 16915 16917 16920 16923 16926 16929 16932 16935 16938 16941 16944 16947 16950 16953 16956 16958 16960 16963 16965 16967 16970 16973 16976 16978 16980 16983 16985 16988 16990 16993 16995 16998 17001 17004 17006 17009 17011 17014 17017 17020 17023 17025 17028 17031 17034 17037 17040 17043 17045 17048 17051 17054 17057 17060 17062 17065 17068 17070 17073 17076 17078 17081 17084 17086 17089 17092 17095 17098 17101 17103 17106 17108 17111 17114 17117 17120 17123 17126 17129 17132 17135 17138 17141 17144 17147 17149 17152 17155 17157 17160 17163 17166 17169 17172 17175 17178 17181 17184 17186 17189 17192 17195 17198 17201 17204 17207 17210 17213 17215 17218 17221 17223 17226 17228 17231 17234 17237 17240 17243 17246 17249 17251 17254 17257 17260 17263 17266 17269 17272 17274 17277 17279 17282 17285 17287 17290 17293 17296 17298 17301 17304 17307 17310 17312 17315 17318 17321 17324 17327 17329 17332 17335 17338 17341 17344 17347 17350 17353 17356 17359 17362 17365 17368 17371 17374 17377 17380 17383 17386 17389 17392 17394 17397 17400 17402 17405 17408 17411 17413 17416 17419 17422 17425 17427 17430 17433 17436 17439 17442 17445 17448 17451 17454 17457 17460 17463 17466 17469 17472 17475 17478 17481 17484 17487 17490 17493 17496 17498 17501 17504 17507 17510 17513 17516 17518 17521 17524 17527 17530 17533 17536 17539 17542 17545 17548 17551 17554 17557 17559 17562 17564 17567 17570 17572 17575 17578 17581 17584 17586 17588 17591 17593 17596 17598 17601 17604 17607 17610 17613 17615 17618 17621 17623 17625 17628 17631 17634 17637 17640 17642 17645 17648 17650 17653 17656 17659 17662 17665 17668 17671 17674 17676 17678 17681 17684 17687 17689 17692 17694 17697 17700 17703 17706 17709 17711 17714 17716 17719 17722 17725 17728 17731 17733 17735 17738 17741 17744 17747 17749 17752 17755 17758 17761 17763 17766 17769 17772 17775 17778 17781 17784 17787 17790 17793 17796 17799 17802 17805 17808 17811 17814 17816 17819 17822 17824 17827 17830 17833 17835 17838 17841 17844 17847 17850 17853 17856 17859 17862 17865 17868 17871 17874 17877 17880 17883 17886 17889 17892 17894 17897 17900 17903 17906 17909 17912 17915 17918 17921 17924 17927 17930 17933 17936 17938 17940 17943 17946 17949 17951 17954 17957 17960 17963 17966 17968 17971 17974 17977 17980 17983 17986 17989 17992 17995 17998 18001 18003 18006 18009 18011 18014 18017 18020 18023 18026 18029 18032 18035 18038 18041 18043 18046 18049 18052 18054 18057 18059 18062 18064 18067 18070 18073 18075 18077 18080 18082 18085 18088 18090 18093 18096 18098 18100 18103 18106 18109 18111 18114 18117 18119 18122 18124 18127 18130 18133 18135 18138 18141 18143 18145 18148 18150 18153 18156 18158 18161 18163 18166 18169 18172 18175 18178 18181 18184 18187 18190 18192 18195 18198 18201 18204 18207 18209 18212 18215 18218 18221 18224 18227 18230 18233 18236 18239 18241 18244 18247 18250 18253 18255 18257 18260 18263 18265 18268 18270 18273 18276 18279 18282 18285 18287 18290 18293 18295 18298 18300 18303 18306 18309 18312 18315 18318 18321 18323 18326 18329 18332 18335 18338 18341 18344 18347 18350 18352 18355 18357 18360 18362 18365 18367 18370 18373 18376 18379 18381 18384 18387 18390 18393 18396 18398 18400 18403 18406 18409 18412 18415 18418 18420 18423 18426 18429 18432 18435 18437 18440 18443 18446 18449 18451 18454 18457 18459 18462 18464 18467 18470 18473 18475 18478 18480 18483 18486 18488 18490 18492 18495 18498 18501 18504 18507 18510 18512 18514 18516 18519 18522 18525 18528 18530 18533 18535 18538 18540 18543 18546 18549 18552 18555 18558 18560 18563 18566 18569 18572 18575 18578 18581 18584 18587 18590 18593 18596 18599 18602 18605 18608 18611 18614 18617 18620 18623 18626 18629 18632 18635 18638 18641 18644 18647 18650 18653 18656 18659 18662 18665 18668 18671 18674 18677 18680 18683 18686 18689 18692 18695 18698 18701 18704 18707 18709 18712 18715 18718 18720 18722 18725 18728 18731 18734 18737 18740 18743 18746 18749 18752 18755 18758 18761 18764 18767 18770 18773 18776 18779 18781 18784 18787 18790 18793 18796 18799 18802 18804 18807 18810 18812 18815 18818 18820 18823 18826 18828 18831 18833 18836 18839 18841 18844 18847 18850 18852 18855 18857 18860 18862 18864 18867 18870 18873 18875 18877 18880 18883 18885 18888 18891 18893 18896 18899 18902 18905 18908 18911 18914 18917 18920 18923 18926 18929 18931 18934 18937 18940 18943 18945 18948 18951 18954 18957 18959 18962 18965 18968 18971 18974 18977 18980 18983 18986 18988 18991 18993 18996 18999 19002 19005 19007 19010 19013 19016 19018 19021 19024 19027 19030 19033 19036 19038 19041 19044 19046 19049 19052 19055 19057 19060 19063 19066 19069 19072 19075 19078 19080 19083 19086 19089 19092 19095 19097 19100 19103 19106 19109 19112 19115 19118 19121 19124 19127 19130 19133 19136 19139 19142 19144 19147 19150 19153 19156 19159 19161 19164 19167 19169 19172 19174 19177 19180 19183 19186 19188 19190 19193 19196 19198 19201 19204 19207 19210 19213 19216 19219 19222 19225 19228 19231 19233 19236 19238 19241 19244 19247 19250 19253 19255 19258 19261 19264 19266 19269 19272 19275 19277 19280 19283 19286 19289 19292 19295 19298 19301 19304 19307 19310 19313 19316 19318 19321 19324 19327 19330 19333 19336 19339 19341 19344 19346 19349 19352 19355 19358 19361 19364 19367 19369 19371 19374 19377 19380 19383 19386 19389 19392 19395 19398 19400 19403 19406 19409 19412 19415 19418 19420 19422 19424 19427 19429 19432 19435 19438 19441 19444 19447 19449 19452 19454 19457 19459 19462 19464 19467 19470 19473 19476 19479 19482 19484 19487 19490 19492 19495 19498 19501 19504 19506 19509 19512 19515 19518 19521 19524 19527 19530 19533 19536 19539 19542 19545 19548 19551 19554 19557 19560 19563 19566 19569 19571 19574 19576 19579 19582 19585 19588 19591 19594 19597 19600 19603 19606 19609 19612 19615 19618 19621 19624 19627 19630 19633 19636 19639 19642 19645 19648 19651 19654 19657 19660 19663 19666 19669 19672 19675 19678 19681 19684 19687 19690 19693 19696 19699 19702 19705 19708 19711 19714 19717 19720 19723 19726 19729 19732 19735 19738 19741 19744 19747 19750 19752 19755 19758 19761 19764 19767 19770 19773 19776 19779 19782 19785 19788 19791 19794 19797 19800 19803 19806 19809 19812 19815 19818 19821 19823 19826 19829 19832 19834 19837 19839 19842 19845 19848 19851 19854 19857 19860 19863 19866 19869 19872 19875 19878 19881 19884 19887 19890 19893 19896 19899 19902 19905 19908 19911 19914 19917 19920 19923 19926 19929 19932 19935 19938 19941 19944 19947 19950 19953 19956 19958 19961 19963 19966 19969 19972 19975 19978 19981 19984 19987 19990 19993 19996 19999 20002 20005 20008 20011 20014 20017 20020 20023 20026 20029 20032 20035 20038 20040 20043 20046 20049 20052 20055 20058 20061 20064 20067 20070 20073 20076 20079 20082 20085 20088 20091 20094 20097 20100 20103 20106 20109 20112 20115 20118 20121 20124 20127 20130 20133 20136 20139 20142 20145 20148 20151 20154 20157 20160 20163 20166 20169 20172 20175 20178 20181 20184 20187 20190 20193 20196 20199 20202 20205 20208 20211 20214 20217 20220 20223 20226 20229 20232 20235 20238 20241 20244 20247 20249 20252 20255 20258 20261 20264 20267 20270 20272 20275 20278 20280 20283 20286 20289 20292 20295 20298 20301 20304 20307 20310 20313 20316 20319 20322 20325 20328 20331 20334 20337 20340 20342 20345 20348 20351 20354 20357 20360 20363 20366 20369 20372 20375 20378 20381 20384 20387 20390 20393 20396 20399 20402 20405 20408 20411 20414 20417 20420 20423 20426 20429 20432 20435 20438 20440 20443 20446 20449 20452 20454 20457 20459 20462 20465 20468 20471 20474 20477 20479 20482 20485 20487 20490 20493 20495 20497 20500 20502 20505 20508 20511 20513 20516 20519 20522 20525 20528 20531 20534 20537 20540 20543 20546 20549 20552 20555 20558 20560 20563 20566 20569 20572 20575 20578 20581 20584 20586 20589 20592 20595 20598 20601 20604 20607 20610 20613 20616 20619 20622 20625 20628 20631 20634 20637 20640 20643 20646 20649 20652 20655 20658 20661 20664 20667 20670 20673 20676 20679 20682 20685 20688 20691 20694 20696 20699 20702 20705 20708 20711 20714 20717 20719 20722 20725 20727 20730 20732 20735 20738 20741 20744 20747 20750 20753 20756 20759 20762 20765 20767 20769 20772 20775 20777 20780 20783 20785 20787 20790 20793 20796 20799 20801 20804 20806 20809 20812 20814 20817 20819 20821 20824 20826 20829 20831 20834 20837 20840 20843 20846 20849 20852 20854 20857 20859 20862 20865 20868 20871 20874 20876 20879 20882 20885 20887 20890 20893 20895 20898 20900 20903 20905 20907 20910 20913 20915 20918 20921 20924 20927 20930 20933 20935 20938 20941 20944 20947 20950 20953 20956 20959 20961 20963 20966 20969 20972 20974 20977 20980 20983 20986 20988 20990 20993 20995 20998 21001 21004 21006 21009 21012 21015 21018 21021 21024 21027 21030 21033 21036 21039 21042 21045 21048 21051 21054 21056 21059 21062 21065 21068 21071 21074 21076 21079 21081 21084 21087 21090 21092 21094 21097 21100 21102 21105 21107 21110 21113 21116 21119 21122 21125 21128 21131 21134 21137 21140 21143 21145 21147 21150 21153 21156 21159 21162 21164 21167 21170 21173 21176 21179 21182 21185 21187 21190 21193 21196 21198 21201 21203 21206 21209 21211 21214 21217 21220 21223 21226 21229 21232 21235 21238 21240 21243 21246 21248 21251 21254 21257 21260 21263 21266 21269 21272 21275 21278 21281 21283 21286 21289 21292 21295 21298 21301 21304 21307 21310 21313 21316 21319 21322 21325 21328 21331 21334 21337 21340 21343 21346 21349 21351 21354 21357 21360 21363 21366 21369 21372 21375 21378 21381 21384 21386 21389 21392 21395 21398 21400 21403 21406 21409 21412 21415 21418 21421 21424 21427 21430 21433 21435 21438 21441 21444 21447 21450 21452 21455 21457 21460 21463 21466 21469 21472 21475 21478 21481 21484 21486 21489 21492 21494 21497 21500 21502 21505 21508 21511 21514 21516 21519 21522 21525 21528 21531 21534 21537 21540 21543 21546 21549 21552 21555 21558 21561 21564 21567 21570 21573 21576 21579 21581 21584 21587 21589 21592 21594 21597 21600 21603 21606 21609 21612 21615 21618 21621 21623 21626 21629 21631 21633 21635 21638 21641 21644 21646 21649 21652 21655 21658 21661 21664 21666 21668 21671 21673 21676 21679 21681 21684 21687 21689 21692 21695 21698 21701 21703 21706 21709 21712 21715 21717 21720 21723 21726 21729 21732 21735 21738 21741 21744 21747 21750 21752 21755 21758 21760 21763 21765 21767 21770 21773 21775 21777 21779 21782 21785 21788 21791 21794 21797 21800 21803 21806 21809 21811 21814 21817 21820 21823 21826 21829 21832 21835 21838 21840 21843 21846 21849 21852 21855 21857 21860 21863 21866 21869 21872 21875 21878 21881 21884 21887 21889 21892 21895 21898 21901 21904 21907 21910 21913 21916 21919 21922 21925 21928 21931 21934 21937 21940 21943 21946 21949 21952 21955 21958 21961 21963 21965 21968 21971 21974 21977 21980 21983 21986 21989 21991 21994 21997 22000 22003 22006 22009 22012 22015 22018 22021 22024 22027 22030 22033 22036 22039 22041 22044 22047 22050 22053 22055 22058 22061 22064 22066 22068 22071 22074 22077 22080 22083 22086 22088 22091 22093 22096 22099 22102 22104 22107 22110 22113 22116 22119 22122 22125 22128 22130 22133 22135 22137 22140 22143 22146 22149 22152 22155 22158 22161 22164 22167 22170 22173 22175 22178 22181 22183 22186 22188 22191 22194 22197 22200 22203 22206 22209 22212 22215 22218 22221 22224 22227 22230 22233 22236 22239 22242 22245 22248 22251 22254 22257 22259 22262 22265 22268 22271 22274 22276 22279 22282 22285 22288 22291 22294 22297 22300 22303 22306 22308 22311 22314 22317 22319 22322 22325 22328 22331 22334 22337 22340 22343 22346 22349 22352 22354 22356 22359 22362 22365 22368 22371 22373 22376 22379 22382 22384 22387 22390 22393 22396 22399 22402 22405 22408 22411 22414 22416 22419 22422 22425 22428 22431 22434 22437 22439 22441 22444 22446 22449 22452 22455 22458 22460 22463 22466 22469 22472 22475 22477 22480 22483 22486 22489 22492 22495 22498 22501 22504 22507 22509 22512 22515 22518 22521 22524 22527 22530 22533 22536 22539 22541 22544 22547 22550 22553 22556 22559 22562 22564 22567 22570 22573 22576 22579 22582 22585 22588 22591 22594 22597 22600 22603 22606 22609 22612 22615 22618 22621 22624 22626 22629 22632 22635 22637 22640 22643 22646 22649 22652 22655 22658 22661 22664 22667 22670 22673 22676 22678 22681 22683 22685 22688 22690 22692 22695 22698 22701 22704 22707 22709 22712 22715 22718 22721 22724 22727 22730 22732 22735 22738 22740 22743 22746 22748 22751 22754 22756 22759 22762 22764 22766 22768 22770 22773 22776 22778 22780 22783 22786 22788 22791 22794 22796 22799 22802 22805 22808 22810 22812 22814 22816 22819 22822 22825 22827 22830 22832 22835 22837 22840 22842 22844 22847 22850 22853 22856 22859 22862 22865 22867 22870 22873 22875 22878 22880 22883 22886 22888 22890 22893 22896 22899 22902 22905 22908 22911 22914 22917 22920 22923 22926 22929 22932 22935 22938 22941 22943 22946 22949 22952 22955 22958 22961 22964 22967 22970 22973 22976 22979 22982 22985 22988 22991 22994 22996 22999 23002 23005 23008 23011 23014 23017 23020 23023 23026 23029 23032 23035 23038 23040 23042 23045 23048 23051 23054 23056 23059 23061 23064 23067 23070 23072 23074 23077 23079 23082 23085 23088 23091 23094 23097 23100 23103 23106 23109 23112 23115 23118 23121 23124 23127 23130 23133 23136 23138 23141 23143 23146 23149 23152 23155 23157 23160 23163 23166 23169 23172 23175 23178 23181 23184 23187 23190 23193 23196 23199 23202 23205 23208 23211 23214 23217 23219 23222 23225 23228 23231 23234 23237 23240 23243 23246 23249 23252 23255 23258 23261 23263 23266 23269 23272 23275 23278 23281 23284 23287 23290 23293 23296 23299 23302 23305 23308 23311 23314 23317 23320 23323 23326 23329 23332 23335 23338 23341 23344 23347 23350 23353 23356 23359 23362 23365 23368 23371 23374 23377 23380 23383 23386 23389 23392 23395 23398 23401 23404 23407 23410 23413 23416 23419 23422 23425 23428 23431 23434 23437 23440 23443 23446 23449 23451 23454 23457 23460 23462 23465 23468 23470 23473 23476 23479 23482 23485 23488 23491 23494 23497 23500 23503 23505 23508 23511 23514 23517 23519 23522 23525 23528 23531 23534 23537 23540 23543 23546 23549 23552 23555 23558 23561 23564 23567 23570 23573 23576 23579 23582 23585 23588 23591 23594 23597 23600 23603 23606 23608 23611 23614 23617 23620 23622 23625 23628 23631 23634 23637 23640 23643 23646 23649 23652 23654 23657 23660 23662 23665 23668 23671 23674 23677 23680 23683 23686 23689 23692 23695 23698 23700 23703 23706 23709 23712 23715 23718 23721 23724 23726 23729 23732 23735 23738 23741 23744 23747 23750 23753 23756 23758 23761 23763 23766 23769 23772 23774 23777 23780 23783 23785 23788 23790 23793 23795 23797 23800 23803 23806 23809 23812 23814 23817 23820 23823 23826 23829 23832 23835 23838 23841 23844 23847 23850 23853 23856 23859 23862 23865 23868 23871 23874 23877 23880 23883 23885 23888 23891 23893 23896 23899 23902 23904 23907 23909 23912 23915 23918 23921 23924 23927 23930 23933 23936 23939 23942 23945 23947 23950 23953 23956 23959 23962 23965 23968 23971 23974 23977 23980 23983 23986 23989 23992 23995 23998 24001 24004 24006 24009 24012 24015 24018 24021 24024 24027 24030 24033 24036 24039 24042 24045 24048 24051 24054 24057 24060 24063 24066 24069 24072 24075 24078 24081 24084 24087 24089 24092 24095 24098 24101 24104 24107 24110 24113 24116 24119 24122 24125 24128 24131 24134 24137 24140 24143 24145 24148 24151 24154 24156 24159 24162 24165 24167 24169 24172 24175 24178 24181 24184 24186 24189 24192 24195 24198 24201 24204 24207 24209 24211 24214 24217 24220 24222 24225 24227 24230 24233 24236 24239 24242 24245 24247 24249 24252 24255 24257 24259 24262 24265 24268 24271 24274 24277 24280 24283 24286 24289 24291 24294 24297 24300 24303 24306 24309 24311 24314 24317 24320 24323 24326 24329 24332 24335 24338 24341 24344 24347 24350 24353 24356 24359 24362 24364 24367 24370 24373 24376 24378 24381 24384 24386 24389 24392 24395 24398 24401 24404 24407 24410 24413 24416 24419 24421 24424 24426 24429 24431 24434 24437 24440 24443 24446 24449 24452 24455 24458 24461 24464 24467 24470 24473 24476 24479 24482 24485 24488 24490 24493 24496 24498 24501 24504 24507 24509 24512 24515 24517 24520 24523 24526 24529 24531 24534 24537 24540 24543 24546 24549 24552 24554 24557 24560 24563 24566 24569 24572 24575 24578 24581 24584 24587 24590 24593 24596 24599 24602 24605 24608 24611 24614 24617 24620 24623 24626 24629 24632 24635 24638 24641 24643 24646 24649 24652 24655 24658 24661 24664 24667 24670 24673 24676 24679 24682 24685 24688 24691 24694 24697 24700 24703 24706 24709 24712 24715 24718 24721 24724 24727 24730 24733 24736 24739 24742 24745 24748 24751 24754 24756 24758 24760 24763 24766 24768 24771 24774 24777 24779 24782 24784 24787 24790 24793 24796 24799 24801 24804 24807 24810 24813 24816 24819 24822 24824 24827 24830 24833 24836 24839 24842 24845 24848 24851 24854 24857 24860 24863 24866 24868 24871 24874 24877 24879 24882 24884 24887 24890 24893 24896 24899 24902 24905 24908 24910 24913 24916 24919 24922 24925 24928 24931 24933 24936 24938 24941 24943 24946 24949 24952 24955 24958 24961 24964 24967 24969 24972 24975 24977 24979 24981 24984 24986 24989 24991 24994 24997 25000 25003 25006 25009 25012 25015 25018 25021 25024 25027 25030 25033 25036 25039 25042 25045 25048 25051 25054 25056 25059 25062 25064 25066 25069 25072 25075 25077 25080 25083 25086 25089 25092 25095 25098 25100 25103 25105 25108 25111 25114 25117 25119 25122 25125 25127 25130 25133 25136 25139 25142 25145 25148 25150 25153 25156 25158 25161 25164 25167 25169 25172 25175 25178 25181 25184 25187 25190 25193 25196 25198 25201 25204 25207 25210 25213 25216 25218 25221 25224 25226 25229 25232 25235 25238 25240 25243 25246 25249 25252 25255 25258 25260 25262 25264 25267 25270 25273 25275 25278 25280 25283 25285 25288 25291 25294 25297 25300 25303 25305 25308 25311 25314 25316 25319 25322 25325 25327 25330 25333 25336 25339 25342 25345 25348 25351 25354 25357 25360 25363 25365 25368 25371 25374 25376 25379 25382 25385 25388 25391 25393 25395 25398 25401 25403 25406 25408 25410 25412 25415 25418 25421 25423 25426 25429 25432 25435 25438 25440 25443 25446 25449 25452 25455 25458 25461 25464 25467 25470 25473 25476 25478 25481 25484 25487 25490 25493 25496 25498 25501 25504 25506 25509 25512 25514 25517 25520 25523 25526 25529 25531 25534 25537 25539 25542 25544 25547 25549 25552 25555 25558 25561 25564 25567 25569 25572 25575 25578 25581 25583 25586 25589 25592 25595 25598 25601 25604 25607 25610 25613 25615 25618 25621 25624 25627 25630 25632 25635 25638 25641 25644 25647 25650 25653 25656 25659 25662 25665 25668 25671 25674 25677 25679 25682 25685 25688 25691 25694 25696 25699 25701 25704 25707 25710 25713 25716 25718 25721 25724 25727 25730 25733 25735 25738 25741 25744 25747 25750 25752 25755 25758 25761 25764 25767 25770 25773 25776 25779 25782 25784 25787 25789 25792 25794 25797 25800 25802 25805 25808 25811 25814 25817 25820 25823 25826 25828 25831 25833 25836 25839 25842 25845 25848 25851 25854 25857 25860 25863 25865 25868 25871 25874 25877 25880 25883 25886 25889 25892 25895 25897 25900 25903 25906 25908 25911 25913 25915 25918 25921 25924 25926 25929 25932 25935 25937 25939 25942 25945 25948 25951 25954 25957 25960 25963 25966 25969 25971 25973 25976 25979 25982 25985 25988 25990 25993 25996 25999 26002 26005 26008 26011 26014 26017 26020 26022 26025 26027 26029 26031 26034 26037 26040 26043 26046 26049 26052 26055 26057 26060 26063 26066 26069 26072 26075 26078 26081 26084 26087 26090 26093 26096 26099 26102 26105 26108 26111 26114 26117 26120 26123 26126 26129 26132 26135 26138 26141 26144 26146 26149 26152 26155 26158 26160 26163 26166 26169 26172 26175 26178 26181 26184 26186 26189 26192 26195 26198 26201 26204 26207 26210 26212 26215 26218 26221 26224 26227 26230 26233 26236 26239 26242 26245 26248 26251 26254 26257 26260 26263 26266 26269 26272 26275 26278 26281 26284 26287 26290 26292 26295 26298 26301 26304 26307 26310 26312 26315 26317 26320 26323 26325 26328 26331 26334 26336 26339 26341 26344 26347 26350 26352 26355 26358 26361 26363 26366 26369 26372 26375 26378 26381 26383 26386 26389 26392 26395 26398 26401 26404 26407 26410 26413 26416 26419 26422 26425 26428 26431 26434 26437 26440 26443 26446 26449 26452 26455 26458 26461 26464 26466 26469 26471 26474 26477 26480 26483 26485 26488 26491 26494 26497 26500 26503 26506 26509 26512 26515 26518 26521 26524 26526 26529 26532 26534 26537 26540 26542 26545 26548 26551 26554 26557 26559 26562 26565 26568 26571 26574 26577 26580 26583 26585 26588 26590 26593 26596 26599 26602 26605 26607 26609 26612 26615 26617 26620 26623 26626 26628 26631 26634 26637 26640 26643 26646 26649 26651 26654 26657 26660 26663 26666 26669 26672 26675 26678 26681 26684 26687 26690 26693 26696 26699 26701 26704 26707 26710 26713 26716 26718 26721 26723 26726 26729 26732 26735 26738 26741 26744 26747 26750 26753 26756 26759 26761 26764 26766 26769 26772 26775 26778 26781 26784 26786 26788 26791 26794 26797 26800 26803 26806 26809 26812 26815 26818 26821 26824 26827 26830 26833 26836 26839 26842 26845 26848 26851 26853 26856 26859 26861 26864 26867 26870 26873 26876 26878 26881 26884 26887 26890 26893 26896 26898 26901 26904 26907 26910 26913 26916 26919 26922 26925 26928 26931 26934 26937 26940 26943 26946 26948 26951 26954 26956 26959 26962 26965 26968 26970 26973 26976 26979 26982 26985 26988 26991 26994 26997 27000 27003 27005 27008 27011 27014 27017 27020 27023 27026 27029 27032 27035 27038 27041 27044 27047 27050 27053 27056 27059 27062 27064 27067 27070 27073 27076 27079 27082 27085 27088 27091 27094 27097 27100 27102 27105 27108 27111 27114 27117 27120 27123 27126 27129 27132 27135 27138 27141 27143 27145 27148 27151 27154 27157 27160 27163 27165 27168 27171 27174 27177 27180 27183 27186 27189 27192 27195 27198 27201 27204 27207 27210 27213 27216 27219 27222 27225 27228 27231 27234 27237 27240 27243 27246 27249 27252 27255 27258 27261 27264 27267 27270 27272 27275 27278 27281 27284 27287 27290 27293 27296 27298 27301 27304 27307 27310 27313 27316 27319 27322 27325 27328 27331 27334 27336 27339 27342 27345 27348 27350 27353 27355 27358 27361 27364 27367 27370 27373 27376 27379 27381 27384 27387 27390 27393 27396 27399 27402 27405 27408 27411 27413 27416 27419 27422 27424 27427 27430 27432 27435 27438 27441 27444 27446 27449 27452 27454 27457 27460 27463 27466 27469 27472 27475 27478 27480 27483 27486 27489 27491 27494 27497 27500 27503 27506 27509 27512 27514 27517 27519 27522 27524 27527 27529 27531 27534 27537 27540 27542 27544 27546 27549 27552 27554 27557 27560 27563 27565 27568 27571 27574 27577 27579 27582 27585 27588 27591 27594 27597 27600 27603 27606 27609 27612 27615 27618 27621 27624 27627 27630 27633 27636 27639 27642 27645 27648 27651 27654 27657 27660 27663 27666 27669 27672 27675 27678 27681 27684 27687 27690 27693 27695 27698 27701 27704 27707 27710 27713 27716 27719 27721 27724 27727 27730 27733 27735 27738 27741 27743 27746 27749 27751 27754 27757 27760 27763 27765 27768 27771 27774 27777 27780 27782 27785 27788 27791 27794 27797 27800 27803 27806 27809 27812 27815 27818 27821 27823 27825 27828 27831 27834 27836 27839 27842 27845 27848 27851 27854 27857 27860 27863 27866 27869 27872 27875 27878 27880 27883 27886 27889 27892 27895 27898 27900 27903 27906 27908 27911 27914 27917 27920 27923 27926 27929 27932 27935 27938 27940 27943 27946 27949 27952 27955 27957 27960 27963 27966 27969 27972 27975 27978 27981 27984 27987 27989 27992 27995 27998 28001 28004 28007 28010 28013 28016 28019 28022 28025 28028 28031 28034 28036 28039 28042 28045 28048 28051 28054 28057 28060 28063 28066 28069 28072 28075 28078 28081 28084 28087 28090 28093 28096 28099 28102 28105 28107 28110 28112 28115 28118 28121 28123 28126 28129 28132 28135 28138 28141 28144 28147 28150 28152 28155 28158 28161 28163 28166 28169 28172 28175 28178 28181 28184 28187 28190 28193 28196 28199 28202 28205 28208 28211 28213 28216 28219 28222 28225 28228 28230 28233 28236 28239 28241 28244 28246 28249 28252 28255 28258 28261 28264 28266 28269 28272 28275 28278 28281 28284 28287 28290 28293 28296 28299 28302 28305 28308 28311 28314 28317 28320 28323 28326 28329 28332 28335 28338 28341 28344 28347 28349 28352 28355 28357 28360 28363 28366 28369 28372 28375 28378 28380 28383 28386 28389 28392 28394 28397 28400 28402 28405 28408 28411 28414 28417 28420 28422 28425 28428 28431 28433 28436 28439 28442 28444 28447 28450 28453 28456 28459 28461 28464 28467 28470 28473 28476 28478 28481 28484 28487 28490 28493 28496 28499 28502 28504 28507 28510 28512 28515 28518 28521 28524 28526 28529 28532 28535 28538 28540 28543 28546 28549 28552 28554 28557 28560 28563 28565 28568 28570 28573 28576 28579 28582 28585 28588 28591 28594 28597 28600 28602 28605 28608 28611 28614 28617 28620 28623 28625 28627 28630 28633 28636 28639 28642 28644 28647 28650 28653 28656 28659 28661 28664 28667 28670 28672 28675 28678 28680 28683 28686 28688 28691 28694 28697 28699 28702 28705 28708 28711 28714 28717 28719 28722 28725 28728 28731 28734 28736 28739 28742 28745 28748 28751 28753 28756 28759 28762 28765 28768 28771 28773 28776 28779 28782 28785 28787 28790 28793 28796 28799 28802 28804 28807 28810 28813 28816 28819 28822 28825 28828 28831 28834 28836 28839 28842 28845 28848 28851 28854 28857 28859 28862 28865 28868 28871 28873 28875 28878 28881 28883 28886 28889 28892 28895 28898 28901 28904 28906 28909 28912 28915 28918 28921 28924 28927 28929 28932 28934 28937 28940 28942 28945 28948 28951 28954 28956 28959 28961 28964 28967 28970 28973 28976 28979 28982 28985 28988 28991 28993 28996 28999 29002 29005 29008 29010 29013 29016 29019 29021 29024 29027 29030 29033 29035 29038 29041 29043 29046 29049 29052 29055 29058 29060 29063 29065 29068 29070 29072 29075 29078 29081 29084 29086 29088 29091 29094 29097 29100 29103 29106 29109 29112 29115 29118 29121 29124 29127 29129 29132 29135 29138 29141 29144 29147 29149 29151 29154 29157 29160 29163 29166 29169 29172 29175 29178 29181 29184 29187 29190 29192 29195 29198 29201 29204 29207 29210 29213 29216 29219 29222 29225 29228 29231 29234 29237 29240 29243 29246 29249 29252 29255 29258 29261 29264 29267 29270 29273 29276 29279 29282 29285 29288 29291 29293 29296 29299 29301 29304 29307 29310 29313 29316 29319 29322 29324 29327 29330 29333 29335 29338 29341 29343 29346 29349 29352 29354 29356 29359 29362 29365 29368 29370 29372 29375 29378 29381 29384 29387 29390 29393 29396 29399 29402 29405 29408 29411 29414 29416 29419 29422 29424 29427 29430 29433 29435 29438 29441 29444 29447 29449 29452 29455 29457 29460 29463 29466 29469 29472 29475 29478 29481 29484 29487 29490 29492 29495 29498 29501 29504 29507 29510 29513 29515 29518 29521 29524 29527 29530 29533 29536 29539 29542 29545 29548 29551 29554 29557 29560 29563 29566 29569 29571 29574 29577 29580 29583 29586 29589 29591 29594 29596 29599 29602 29605 29608 29611 29613 29616 29619 29621 29624 29627 29630 29632 29635 29638 29641 29643 29646 29649 29652 29655 29658 29661 29664 29667 29670 29673 29676 29679 29682 29685 29687 29690 29693 29696 29699 29701 29703 29706 29709 29712 29715 29718 29721 29724 29727 29730 29733 29736 29739 29742 29745 29748 29751 29754 29757 29760 29762 29765 29768 29771 29774 29777 29780 29783 29786 29788 29791 29793 29796 29799 29802 29805 29808 29811 29814 29816 29819 29821 29824 29827 29830 29833 29836 29838 29841 29844 29847 29850 29853 29856 29858 29861 29864 29867 29870 29873 29875 29877 29880 29883 29886 29888 29890 29892 29895 29898 29901 29904 29907 29909 29912 29915 29918 29921 29924 29926 29929 29932 29935 29938 29940 29943 29945 29947 29950 29952 29954 29957 29960 29963 29965 29968 29971 29974 29976 29979 29982 29985 29987 29990 29993 29996 29998 30001 30004 30007 30010 30013 30016 30019 30022 30024 30027 30030 30033 30035 30038 30041 30044 30047 30050 30053 30055 30058 30061 30064 30067 30070 30073 30075 30078 30081 30084 30087 30090 30093 30096 30099 30102 30105 30108 30111 30114 30117 30119 30122 30124 30127 30130 30133 30135 30138 30141 30143 30146 30148 30151 30153 30156 30159 30161 30164 30167 30170 30173 30176 30179 30181 30184 30187 30190 30193 30195 30198 30201 30204 30207 30210 30213 30215 30218 30221 30224 30227 30230 30233 30236 30239 30242 30245 30247 30250 30253 30256 30259 30262 30265 30268 30271 30274 30277 30280 30283 30286 30289 30292 30295 30298 30301 30304 30306 30308 30311 30314 30317 30319 30322 30325 30327 30330 30333 30335 30338 30341 30343 30346 30349 30351 30353 30356 30359 30362 30365 30367 30370 30373 30376 30379 30382 30385 30388 30391 30394 30397 30400 30402 30404 30407 30410 30413 30415 30418 30420 30423 30425 30428 30431 30434 30437 30440 30442 30445 30448 30450 30453 30455 30458 30461 30463 30465 30467 30470 30473 30476 30479 30481 30484 30487 30489 30492 30494 30497 30500 30502 30505 30508 30511 30514 30517 30520 30523 30526 30528 30531 30533 30535 30538 30541 30544 30547 30550 30552 30554 30557 30560 30563 30565 30567 30570 30573 30576 30579 30582 30585 30588 30591 30593 30596 30598 30601 30604 30607 30610 30613 30616 30619 30622 30625 30628 30631 30634 30637 30640 30643 30646 30649 30652 30655 30658 30661 30664 30667 30670 30673 30676 30679 30682 30685 30687 30690 30693 30696 30699 30702 30705 30708 30711 30714 30717 30720 30723 30726 30729 30732 30734 30737 30740 30742 30745 30748 30751 30754 30757 30759 30762 30765 30768 30771 30774 30777 30780 30783 30786 30789 30792 30795 30798 30800 30803 30806 30809 30812 30815 30818 30821 30824 30827 30829 30832 30835 30837 30840 30843 30846 30849 30851 30853 30855 30858 30861 30864 30867 30870 30872 30875 30878 30881 
</DataArray>
<DataArray type="UInt32" Name="types" format="ascii">
5 5 3 5 5 5 5 3 5 5 5 5 5 5 5 5 5 5 5 5 3 5 5 5 5 3 5 5 5 5 5 5 5 3 5 5 5 5 5 5 5 5 3 5 5 5 5 5 5 5 5 5 5 5 3 3 5 5 5 5 5 5 5 5 3 5 5 5 5 5 5 5 5 5 5 5 5 5 5 5 5 5 5 5 5 5 5 3 5 5 5 5 5 5 5 5 5 5 5 3 5 5 5 3 5 5 5 5 5 5 5 5 5 5 5 5 5 5 5 5 5 5 5 5 5 5 5 5 5 5 5 5 5 5 5 5 5 5 5 5 5 5 5 5 5 5 5 5 5 3 5 3 5 5 5 5 5 5 5 5 5 5 5 5 5 5 5 5 5 5 5 5 5 5 5 5 5 5 3 5 5 3 5 3 5 5 5 5 5 5 5 5 5 5 5 5 5 5 3 5 3 5 5 5 5 5 5 5 3 5 3 5 5 5 5 5 5 3 5 5 3 5 5 5 5 5 5 3 3 5 5 3 5 3 5 3 3 5 5 5 3 5 5 5 5 5 5 5 5 5 5 5 5 5 3 5 5 5 5 5 5 5 3 5 5 5 5 5 5 5 3 5 5 5 5 3 5 5 5 5 5 5 3 5 5 5 3 5 5 5 5 5 5 5 3 5 5 5 5 5 5 3 5 5 5 5 5 5 3 5 5 5 5 5 5 5 3 5 5 5 5 5 5 5 5 5 5 5 5 5 5 5 5 5 5 5 5 5 3 3 5 5 5 5 5 3 5 5 5 5 5 5 5 3 5 3 5 5 5 3 5 5 5 3 5 3 5 5 5 5 5 5 5 3 5 5 5 5 5 5 5 3 5 5 5 3 5 5 5 5 5 5 5 5 5 5 5 5 5 5 5 5 5 5 5 5 5 5 5 5 5 5 5 5 5 5 5 5 3 5 5 5 5 5 5 5 5 5 5 5 5 5 5 5 5 5 5 5 5 5 5 5 5 5 5 5 5 5 5 5 5 3 5 5 5 5 5 5 5 5 5 5 5 5 5 5 5 5 5 5 5 5 3 5 5 5 5 5 5 5 3 5 5 5 5 5 3 5 5 3 5 3 5 5 5 5 3 5 5 3 5 5 5 5 5 5 3 5 5 5 5 5 5 5 5 5 5 5 5 5 5 5 5 5 5 5 3 5 5 5 5 5 5 5 5 5 5 5 3 3 5 5 5 5 5 5 5 5 5 5 5 5 5 5 5 5 5 5 5 5 5 3 5 3 3 5 5 3 5 5 5 5 5 5 5 5 5 5 5 5 5 3 5 5 5 5 5 5 5 3 3 5 5 5 5 5 5 5 5 3 3 5 5 5 3 5 5 5 5 5 5 5 5 5 5 5 5 5 5 5 5 5 5 5 5 5 5 5 5 5 5 5 5 5 5 5 5 5 5 5 3 5 5 3 5 5 5 5 3 5 5 5 3 5 5 5 3 5 5 3 5 5 5 5 5 5 5 5 5 5 5 5 5 5 5 5 5 5 5 5 5 3 5 5 5 3 5 5 5 5 5 3 5 5 5 5 5 5 3 5 5 5 5 5 5 5 5 5 5 5 5 5 5 5 5 5 5 3 5 5 5 5 5 5 5 5 5 5 5 5 5 5 5 5 5 5 5 5 5 3 5 5 5 5 5 5 5 5 5 5 5 5 5 5 5 3 5 5 5 5 5 5 5 5 5 5 5 5 5 5 5 5 5 5 3 5 5 5 5 5 5 5 3 5 5 5 5 5 5 5 5 5 5 5 5 5 5 5 5 5 5 5 5 5 3 5 5 5 5 5 5 5 5 5 3 5 5 5 5 5 5 5 5 3 5 5 5 5 5 5 5 5 5 5 5 5 5 5 5 5 5 5 5 3 5 5 5 5 5 3 5 5 5 3 5 5 5 5 5 5 3 5 5 5 5 5 5 5 5 5 5 3 5 5 5 5 5 5 5 5 5 5 5 5 3 5 3 5 5 5 5 5 5 5 3 5 3 5 5 5 5 5 5 5 5 5 5 5 5 5 5 5 5 5 5 5 5 5 5 5 5 5 5 5 5 5 5 5 5 5 5 5 5 5 5 5 5 5 5 5 5 5 3 3 5 5 3 5 5 5 5 5 5 5 5 5 5 5 5 5 5 5 5 3 5 5 5 5 3 5 5 3 5 5 5 5 5 5 3 5 3 5 5 3 5 5 5 5 5 5 5 5 5 5 3 5 5 5 5 5 3 3 5 5 5 5 3 5 5 3 5 3 5 5 5 5 5 3 5 5 3 5 5 5 5 5 5 5 5 5 5 5 5 3 5 5 5 5 5 5 5 5 5 5 5 5 5 5 5 3 5 3 5 3 3 5 3 5 5 3 5 5 5 5 5 5 3 5 3 5 5 3 5 5 5 3 5 5 3 5 5 5 5 5 3 5 5 3 5 5 5 5 5 3 5 3 5 5 3 5 5 3 5 5 5 5 5 5 5 5 3 5 5 5 5 5 5 5 5 5 5 3 5 5 5 5 3 5 5 3 5 5 5 5 5 3 5 5 5 5 5 3 5 3 5 5 5 5 5 5 3 5 5 5 5 5 5 5 5 3 3 3 5 5 5 5 3 5 3 5 5 5 3 3 5 5 5 3 5 5 5 3 5 3 5 3 3 5 3 5 5 5 5 3 5 5 5 3 5 3 5 3 5 5 5 5 5 5 5 3 5 5 5 5 3 5 5 5 5 5 5 5 5 3 5 3 3 5 5 5 3 5 5 5 5 3 3 5 5 3 3 5 5 5 5 5 3 5 5 5 5 5 5 5 5 3 5 3 5 5 5 5 5 5 5 5 5 5 5 5 5 5 5 5 5 3 5 5 5 5 5 5 5 5 5 5 5 5 5 5 5 5 5 5 5 5 5 5 5 5 5 3 5 3 5 5 5 5 5 3 3 5 5 5 5 3 3 5 3 5 5 3 5 5 3 5 5 5 5 3 3 5 5 5 5 5 5 5 5 3 5 5 3 5 5 5 3 5 5 3 5 5 5 5 5 5 3 5 5 5 5 5 5 3 5 5 5 5 5 3 5 5 3 3 5 5 3 5 5 3 5 5 5 5 5 5 5 5 5 5 5 5 3 5 3 5 5 3 5 5 5 5 5 5 3 5 5 5 3 3 3 5 5 5 3 3 5 3 3 5 5 3 5 5 3 5 3 5 3 5 5 5 3 3 5 5 3 3 3 3 5 5 5 3 3 5 5 3 3 3 5 3 3 5 5 3 5 3 3 5 3 5 5 3 5 3 3 5 5 5 5 3 3 5 5 3 5 5 5 3 5 5 5 5 5 5 5 5 5 5 5 5 5 5 5 5 5 5 5 5 5 5 5 5 5 5 5 5 5 5 5 5 5 5 5 5 5 5 5 5 5 5 5 5 5 5 5 5 5 5 5 5 5 5 5 5 5 5 3 5 3 5 5 5 5 5 5 5 5 5 5 5 5 5 5 3 5 5 5 5 5 5 5 5 5 5 3 5 5 5 5 5 5 5 5 5 5 5 5 5 5 5 5 5 5 5 5 5 5 5 5 5 5 5 5 5 5 5 5 5 5 5 5 5 5 5 5 5 5 5 5 5 5 3 5 5 5 3 5 3 5 5 5 5 5 3 5 3 5 5 5 5 5 5 5 5 5 5 5 5 5 5 5 5 5 5 5 5 5 5 5 5 5 3 5 5 5 5 5 5 3 5 3 5 5 5 3 5 5 3 5 5 5 5 5 5 5 5 5 5 5 5 5 5 5 5 5 5 5 5 5 5 5 5 5 5 5 5 5 5 5 5 5 5 5 5 5 3 5 3 5 5 5 5 5 5 5 5 5 5 3 5 5 5 5 5 5 5 5 5 5 5 5 5 5 5 5 5 3 5 5 5 3 3 5 3 5 5 5 5 5 5 5 5 3 5 5 5 5 3 5 5 5 5 5 5 5 3 5 5 3 5 3 5 5 3 5 5 3 3 5 5 5 5 5 5 5 5 5 5 5 5 5 5 5 3 5 3 5 5 5 3 5 3 5 5 5 5 5 5 5 5 5 5 5 5 3 5 3 5 5 5 5 5 5 5 5 3 5 5 3 5 5 5 3 3 5 5 5 5 5 5 5 5 5 5 5 5 5 5 5 5 5 5 5 5 5 3 5 5 5 5 5 3 5 3 5 5 5 5 3 5 5 3 5 5 5 5 5 3 5 5 5 5 3 5 5 5 5 5 5 5 3 5 5 5 3 5 5 5 5 5 5 5 5 5 5 5 3 5 5 5 5 5 5 5 5 3 5 5 5 5 5 5 3 5 5 5 5 5 5 3 5 5 5 5 5 5 5 5 5 5 5 3 5 5 5 3 5 5 5 3 5 3 5 5 5 5 5 5 3 5 5 5 5 5 5 5 5 5 5 5 5 5 5 5 3 5 5 5 5 5 3 5 5 5 5 5 5 5 5 3 5 5 5 5 5 5 5 5 5 5 5 5 5 5 5 5 3 5 5 5 5 3 5 5 5 5 5 5 5 5 5 5 5 5 5 5 5 5 5 5 5 5 5 5 5 5 5 5 3 5 5 5 3 5 3 5 5 5 5 3 5 3 5 5 5 5 5 3 5 5 5 5 5 5 5 5 5 3 5 5 5 5 5 5 5 5 5 5 5 5 5 5 5 5 5 5 5 5 5 5 5 5 3 3 5 5 5 5 5 3 5 5 5 3 5 5 5 3 5 5 3 5 3 5 5 5 5 3 5 5 5 5 3 3 5 5 5 5 5 5 5 5 5 5 5 5 3 5 5 5 5 3 5 5 5 5 5 3 5 5 3 5 5 5 5 5 5 5 5 5 5 5 5 5 5 5 5 3 5 5 3 5 5 5 3 5 5 5 5 5 5 5 5 5 5 5 3 5 5 5 5 5 5 5 5 5 5 5 5 5 5 5 5 3 5 5 3 5 3 5 5 3 5 3 5 3 5 5 5 5 5 5 5 5 5 5 5 5 5 3 5 3 3 5 5 3 3 5 5 3 3 5 5 5 3 5 3 5 5 3 5 5 5 5 3 3 5 3 5 5 3 3 5 5 3 5 5 5 3 5 5 5 3 3 3 5 5 3 5 3 3 5 5 5 5 5 5 5 5 5 5 5 3 3 5 3 5 3 5 3 5 5 5 3 5 5 5 5 5 3 5 5 5 5 5 5 5 5 5 5 5 5 5 5 5 5 5 5 5 5 5 5 5 5 3 5 5 5 5 5 5 5 5 5 5 5 5 5 5 5 5 5 5 3 5 5 5 5 5 5 5 5 5 5 5 3 5 5 5 5 5 3 5 5 5 5 5 5 5 5 5 5 5 5 5 5 3 5 5 5 5 5 5 5 5 5 5 5 5 5 5 3 5 3 5 5 5 5 3 5 5 5 5 5 5 5 5 5 5 5 5 3 5 3 5 5 5 5 3 5 5 5 5 5 5 5 3 5 5 5 5 5 5 5 3 5 5 5 3 5 3 5 5 5 5 5 5 5 5 5 3 5 5 5 5 5 5 5 5 5 5 5 5 5 5 5 5 5 5 5 5 5 5 5 5 5 5 5 5 5 5 5 5 5 5 5 5 5 5 5 5 5 5 5 3 5 5 3 5 5 5 5 5 5 5 5 5 5 3 5 5 5 5 5 3 5 5 3 5 5 5 5 5 5 3 5 5 5 5 3 5 5 3 5 3 5 5 5 5 5 5 5 5 5 5 5 3 5 3 5 5 5 5 3 5 5 5 5 5 5 5 5 5 5 5 5 5 5 5 5 5 5 5 5 5 3 5 5 5 5 3 5 5 5 5 5 5 5 3 5 5 5 5 5 3 5 5 5 3 5 5 5 3 5 5 3 5 5 5 3 5 5 3 5 5 5 5 5 5 5 5 5 5 5 5 5 5 5 5 5 5 5 5 5 5 5 5 5 5 5 5 5 5 5 3 5 5 5 5 5 5 5 5 5 5 5 3 5 5 5 5 5 5 5 5 5 5 5 5 5 5 5 3 3 5 5 5 3 5 5 5 5 3 5 5 3 5 5 5 5 5 5 5 5 5 5 5 5 5 3 3 5 5 5 5 5 5 5 5 5 5 5 3 5 5 3 5 5 5 5 5 5 5 5 5 5 5 5 5 5 5 5 5 5 5 3 5 5 5 3 5 5 5 5 5 3 5 5 5 5 5 5 5 5 5 5 5 5 5 5 5 5 5 5 5 5 3 5 5 3 5 5 5 5 5 5 5 5 5 5 5 5 5 5 5 5 5 5 5 3 5 5 5 5 5 5 5 5 5 5 5 5 5 5 5 5 5 5 5 5 5 5 5 5 5 5 5 5 5 5 5 5 3 5 5 5 5 5 5 3 5 5 5 5 5 3 5 5 5 5 3 5 5 5 5 5 5 5 5 5 5 5 5 5 5 5 5 5 5 5 5 5 5 3 5 5 5 5 5 5 5 3 5 5 3 5 5 3 5 5 5 5 5 5 3 5 5 5 5 5 5 5 5 5 5 3 5 3 5 5 5 5 5 5 5 5 3 5 5 3 5 5 5 3 5 5 5 3 5 5 5 3 3 5 5 3 5 5 3 5 5 3 5 5 5 5 5 5 5 5 5 3 5 5 5 3 5 5 5 3 5 5 5 3 5 3 5 5 3 5 5 5 5 5 5 5 5 3 5 5 3 5 5 5 5 5 5 5 5 5 5 5 5 5 3 5 3 5 5 5 3 3 5 3 5 5 5 5 3 5 3 5 5 5 5 5 5 5 5 5 3 5 5 5 5 5 5 5 5 5 5 5 5 5 5 5 5 5 5 5 5 5 5 5 5 5 5 5 5 3 5 5 5 5 5 5 3 5 5 5 5 5 5 3 5 5 5 5 5 5 3 5 5 5 3 5 5 5 3 5 5 3 5 5 5 5 5 5 3 5 5 5 3 3 5 5 5 5 5 5 5 5 5 5 5 5 5 5 5 5 5 3 5 5 5 5 5 5 5 3 5 5 5 5 5 3 5 5 5 5 5 3 5 5 3 5 5 5 5 3 5 5 5 5 5 5 3 5 3 5 3 3 5 3 5 5 5 3 5 5 5 5 5 3 5 5 5 3 5 5 5 5 3 3 3 5 5 5 5 3 3 5 3 5 5 5 5 5 5 3 5 3 5 5 3 5 5 5 3 5 5 3 5 5 5 5 5 5 5 5 5 5 5 5 3 5 5 5 5 3 5 5 5 5 3 5 5 5 5 5 5 5 5 5 3 3 3 5 5 5 3 3 5 5 3 5 3 5 5 5 5 5 5 5 3 5 5 5 5 5 5 5 5 5 5 5 5 5 5 5 5 3 5 5 5 5 5 5 5 5 5 3 5 5 3 5 3 5 3 5 5 3 5 5 5 3 3 5 5 3 5 5 5 3 5 5 5 5 3 5 5 5 5 5 5 5 5 5 5 5 3 3 5 5 5 5 5 5 5 5 5 5 5 5 5 5 5 5 5 5 5 5 5 5 5 5 5 5 5 5 5 5 5 5 3 5 5 5 5 5 5 5 5 5 5 5 5 5 5 5 5 5 5 5 3 5 5 5 5 5 5 3 3 5 5 3 3 5 5 5 3 5 5 5 5 5 5 5 5 5 5 5 5 5 5 5 5 5 5 5 5 5 5 5 3 5 3 5 3 5 5 5 5 5 5 3 5 3 3 5 5 3 5 5 5 5 5 5 3 3 5 5 3 3 5 5 3 3 5 5 5 5 5 5 5 5 3 5 5 5 5 5 3 5 5 3 5 5 5 3 5 5 5 5 5 5 5 5 5 5 5 5 5 5 5 5 5 5 5 5 5 5 5 5 5 5 5 5 5 5 5 5 5 5 3 5 5 3 5 3 3 5 5 5 5 5 5 5 5 5 3 5 5 5 5 5 3 5 5 5 5 5 5 5 3 5 5 5 5 5 5 5 5 3 5 5 5 5 5 3 5 5 5 5 5 5 5 5 5 5 5 5 5 5 5 5 5 5 5 5 5 5 5 5 5 5 5 5 5 5 3 3 5 5 5 5 5 5 5 3 5 5 5 3 5 3 5 5 5 5 5 5 5 5 5 5 5 5 5 5 5 5 5 5 5 5 5 3 5 5 5 5 5 5 3 5 5 5 5 5 5 5 3 5 5 3 5 5 5 5 5 5 3 5 5 5 3 5 5 3 3 5 5 5 5 5 5 5 5 5 5 5 5 5 5 5 5 5 5 5 5 5 5 5 5 5 5 5 5 3 5 5 5 5 5 5 5 5 5 5 5 5 5 5 5 5 5 5 5 3 5 5 5 3 3 5 5 5 5 5 3 5 5 5 3 5 5 5 5 5 3 5 5 5 5 5 5 5 5 5 5 5 5 5 5 5 5 5 5 5 5 5 3 5 5 5 5 5 5 3 5 5 5 5 5 5 5 5 5 5 5 5 3 5 5 5 5 3 5 3 5 5 5 5 5 5 5 5 5 5 5 5 5 3 5 5 5 5 5 3 5 5 5 5 5 5 3 5 5 5 5 5 5 5 5 5 5 5 5 3 5 5 3 5 5 3 5 5 3 5 5 5 5 5 5 5 5 5 5 3 5 5 5 5 5 5 5 5 3 5 5 5 3 5 5 5 3 5 5 3 5 5 5 3 5 5 5 5 5 3 5 3 5 5 5 5 3 3 5 5 5 3 5 5 5 5 3 5 5 5 5 5 5 5 5 5 5 5 5 5 5 5 3 5 5 3 3 5 5 5 5 3 5 5 5 5 5 5 3 5 5 5 5 5 5 3 5 5 5 5 5 5 5 5 3 5 5 5 5 5 5 5 5 5 5 3 5 5 3 5 5 3 5 5 5 5 5 3 3 5 5 3 3 5 3 5 3 5 3 3 5 5 3 5 3 5 3 5 3 5 3 5 5 3 5 3 5 3 5 5 5 5 5 5 3 5 5 5 3 5 5 5 5 5 5 5 5 5 3 5 5 3 5 3 5 3 5 5 5 3 3 5 5 5 5 5 5 5 5 5 5 5 3 5 5 5 5 5 3 5 5 5 5 5 5 5 5 5 5 5 5 5 5 5 5 5 3 5 5 5 5 5 5 3 5 5 5 3 5 5 3 5 5 5 3 5 3 3 5 5 5 5 5 5 5 5 5 3 5 5 5 5 5 5 5 3 5 3 5 3 5 5 5 5 5 5 5 5 5 5 5 5 5 5 5 5 5 5 5 5 5 5 5 5 5 5 5 5 5 5 5 5 5 5 5 5 5 3 5 5 3 3 5 5 5 5 3 5 5 5 5 5 3 5 5 3 3 5 5 5 5 5 5 3 5 3 5 5 3 3 5 3 5 5 5 3 5 5 5 5 3 5 5 5 3 5 5 3 3 5 5 5 3 5 5 5 5 3 5 5 3 5 5 5 3 5 5 3 5 5 5 3 5 3 5 5 3 5 5 3 3 5 5 3 5 3 3 5 5 5 5 3 5 5 5 5 3 5 5 5 5 5 5 5 5 5 5 5 5 3 5 5 5 5 3 5 3 5 5 5 5 5 3 3 3 5 5 5 5 5 5 5 5 3 5 5 5 5 5 5 3 5 5 5 5 3 5 5 5 5 5 5 5 5 5 5 5 5 5 5 5 5 5 5 3 5 3 5 5 3 3 5 3 5 5 3 5 3 5 3 5 3 5 5 5 5 3 5 5 5 3 5 5 5 5 5 5 5 5 5 5 5 5 5 5 5 5 5 5 5 5 5 5 5 5 5 3 5 5 5 5 5 3 5 5 5 5 5 5 5 5 5 5 5 3 5 5 5 5 5 3 5 5 3 3 5 5 5 3 5 5 3 3 5 3 5 5 5 5 5 5 5 5 5 5 5 5 5 5 5 5 3 5 5 5 5 3 5 5 5 5 5 5 5 5 3 3 5 5 3 5 5 5 5 5 5 5 5 5 3 3 5 5 3 5 5 5 3 5 5 5 5 5 5 5 5 5 5 5 5 5 5 5 5 5 5 5 5 5 5 5 5 5 5 3 5 5 5 5 5 5 5 5 5 5 5 5 5 5 5 5 5 5 5 5 3 5 5 5 3 3 5 5 5 3 5 5 3 5 5 5 5 5 3 5 3 5 5 5 5 5 5 5 5 3 5 5 5 3 5 5 3 5 3 5 5 5 3 5 5 5 3 5 5 5 5 5 5 5 5 5 5 5 5 5 5 5 5 5 3 5 5 5 5 5 5 5 5 5 3 5 5 5 5 5 5 5 5 3 5 5 5 5 5 5 5 5 5 5 5 5 5 3 5 5 5 3 5 5 5 5 5 5 5 5 5 5 5 5 5 5 5 5 5 5 5 3 5 5 5 3 5 3 5 5 5 3 5 5 5 3 3 5 5 5 5 5 5 5 5 5 5 5 5 5 5 5 5 5 5 5 5 5 5 3 5 5 5 5 3 5 5 5 5 3 5 5 5 5 5 5 5 3 5 5 5 5 3 5 5 5 5 5 5 3 5 5 5 5 5 5 3 5 5 5 3 5 5 5 5 5 5 5 5 5 3 5 5 5 5 5 5 3 5 5 5 5 5 5 5 5 5 5 5 3 5 5 3 5 5 5 5 5 3 5 5 3 5 5 5 5 5 5 5 3 3 5 5 5 5 3 5 5 5 5 5 5 3 5 5 5 5 5 5 5 5 5 5 3 5 5 5 5 5 5 5 5 5 5 5 5 3 5 3 5 5 5 3 5 5 3 5 5 5 5 3 5 5 5 5 5 3 5 5 5 5 5 5 5 5 3 5 5 5 5 3 5 5 5 5 5 5 5 3 5 5 5 5 5 5 5 5 5 5 3 5 5 5 3 5 3 5 5 5 5 5 5 3 5 3 5 3 5 5 5 5 3 5 5 5 5 5 5 5 5 5 5 5 5 5 5 3 5 3 5 5 5 5 5 5 5 3 5 5 5 5 5 5 5 5 5 5 5 5 5 3 5 5 5 5 3 5 5 5 5 5 5 5 5 5 5 5 5 5 5 5 5 5 5 5 5 5 5 5 5 3 5 5 5 5 3 5 5 5 3 5 5 3 5 5 3 5 5 5 5 5 5 5 5 5 5 5 5 5 5 5 3 5 5 3 5 5 5 5 5 5 5 3 5 5 5 5 5 3 5 5 5 3 5 5 5 3 5 5 5 5 5 5 5 3 5 5 5 3 5 3 3 5 5 5 5 5 3 5 5 5 5 5 5 5 5 5 5 3 5 5 5 5 5 5 5 5 5 5 5 5 5 5 5 5 5 5 5 5 5 5 5 5 5 5 5 5 5 5 5 5 5 5 5 5 5 3 5 5 5 5 5 5 5 5 5 5 5 5 5 5 5 5 3 5 5 5 5 5 5 5 5 5 3 5 5 5 5 5 5 5 3 5 5 5 5 5 5 5 5 5 5 5 5 5 5 5 5 5 5 5 5 5 3 5 5 5 5 5 5 5 5 5 5 5 5 5 5 5 5 5 3 5 5 5 5 5 5 5 5 5 5 5 5 5 5 5 5 5 5 5 5 5 5 5 5 5 5 5 5 5 5 5 5 5 5 5 5 5 5 5 5 5 5 5 5 5 5 3 5 5 5 5 5 5 5 5 5 5 5 5 5 3 5 3 5 5 5 5 5 3 5 5 5 5 5 3 3 5 5 5 5 5 5 5 5 5 5 5 5 5 5 5 5 5 3 3 5 5 5 5 5 5 3 5 3 5 5 5 5 5 5 5 5 5 3 5 5 5 5 5 5 5 5 5 5 5 5 5 5 5 5 5 5 5 3 5 5 5 5 5 3 5 3 5 5 5 5 5 5 5 3 5 5 5 3 5 5 5 3 5 5 3 5 5 5 3 5 5 3 5 3 5 3 5 5 3 5 5 5 5 5 5 5 5 5 5 5 5 5 5 5 5 5 5 5 5 5 3 5 3 5 5 5 5 5 5 5 3 5 5 5 5 5 5 5 5 5 5 5 5 5 5 5 5 5 5 5 3 5 5 5 3 5 5 5 5 5 5 5 5 5 5 3 5 5 5 5 3 5 5 3 5 5 5 5 5 3 5 5 5 5 3 5 3 5 5 3 5 5 5 5 5 5 5 3 5 5 3 5 3 5 5 5 5 5 5 5 5 5 5 5 5 5 5 5 5 5 5 3 5 5 5 5 5 5 5 3 5 5 5 5 3 5 5 5 5 5 5 5 5 5 3 5 5 5 5 3 5 5 5 5 5 5 5 5 5 5 5 5 3 5 5 5 5 5 5 5 5 5 3 5 5 5 5 5 5 5 5 5 5 5 5 3 5 5 3 5 5 5 5 5 5 5 5 5 3 3 3 5 5 5 3 5 5 5 5 5 5 3 5 5 5 3 3 5 5 5 5 5 5 5 5 5 5 5 5 3 5 5 5 3 3 5 5 5 5 5 3 5 5 5 5 3 5 5 5 5 3 5 5 5 5 5 3 3 3 5 5 5 3 3 5 5 5 5 5 5 5 5 5 3 3 5 5 5 3 3 5 5 5 5 5 5 5 5 5 5 5 5 5 5 5 5 5 3 5 3 5 5 5 5 3 5 5 5 5 5 5 5 3 5 5 5 5 5 5 5 3 5 5 3 5 3 3 5 5 5 3 3 5 5 5 3 3 5 5 5 5 5 5 5 5 5 5 3 5 5 5 5 5 5 5 3 5 5 5 5 3 5 5 5 5 5 5 3 5 5 5 5 3 5 3 5 5 5 5 5 5 5 5 5 5 5 5 5 5 3 5 5 5 5 5 5 5 3 5 5 5 5 3 5 5 5 3 5 5 5 5 5 5 5 5 5 5 5 5 5 5 5 5 5 5 5 5 5 5 3 5 3 5 5 3 5 5 5 3 5 5 3 5 5 5 5 5 5 5 5 5 5 5 5 5 5 5 5 5 5 5 5 3 3 3 5 5 5 5 5 5 5 5 5 5 5 5 5 3 5 5 5 3 5 5 3 5 5 5 5 3 5 5 3 3 5 5 5 5 3 5 5 3 5 3 5 5 5 5 5 5 5 5 5 5 5 5 3 5 5 5 5 5 5 5 3 5 3 5 5 5 5 3 5 5 5 5 5 5 5 5 5 5 5 5 5 5 5 5 5 5 5 5 5 5 5 3 5 5 5 3 5 3 5 5 5 3 5 5 5 5 5 3 5 5 3 5 5 5 5 5 5 5 5 3 5 5 5 5 5 3 5 5 5 5 5 5 5 5 5 5 5 5 5 5 3 5 5 5 5 3 5 5 5 5 5 5 5 5 5 5 5 5 3 5 5 5 5 3 5 5 5 5 5 5 5 5 5 5 5 5 5 3 5 5 3 5 5 5 3 5 5 5 5 5 5 5 5 5 5 5 5 5 3 3 5 3 3 5 5 5 3 3 5 3 5 3 5 3 5 5 5 3 5 3 5 5 5 5 3 5 5 5 5 5 5 3 5 5 5 5 5 3 5 5 3 5 5 3 5 5 3 5 5 5 5 5 3 5 3 5 5 5 5 5 5 5 5 5 5 5 5 5 3 5 5 3 5 5 5 5 5 5 5 5 5 3 5 5 5 5 5 5 5 5 5 3 5 5 3 5 3 5 5 5 5 5 5 5 3 5 5 5 5 5 5 5 3 5 3 5 5 3 5 5 5 3 5 5 5 5 3 5 5 5 5 5 3 5 5 5 5 5 5 5 5 5 5 5 5 5 5 5 5 5 5 5 5 5 3 5 5 3 5 5 5 3 5 5 5 5 3 5 5 5 5 5 5 5 5 5 5 5 5 5 5 5 5 5 5 5 5 5 5 5 3 5 5 5 5 5 5 3 5 5 5 5 5 5 5 5 5 5 5 5 5 3 5 3 5 5 3 5 5 5 5 3 3 5 3 5 3 5 5 5 5 5 3 5 5 3 3 5 5 5 5 5 3 5 5 3 5 5 5 5 5 5 5 5 3 3 5 5 5 3 5 3 5 5 5 5 5 3 5 3 5 5 5 5 5 3 3 5 5 5 5 3 5 5 5 5 3 5 5 5 5 5 5 5 5 5 5 5 5 5 5 5 5 5 3 5 5 3 5 5 5 3 5 5 5 5 5 5 5 5 5 5 5 5 5 5 5 5 5 5 5 3 5 5 5 5 5 5 5 5 5 5 5 5 5 5 3 3 5 5 5 3 5 5 5 5 5 3 5 5 5 5 5 5 5 5 5 5 5 3 5 5 3 5 5 5 5 5 5 5 5 5 5 3 5 5 5 3 5 3 5 3 5 5 5 3 3 5 3 5 5 3 5 5 3 3 5 5 5 3 5 5 3 5 3 5 5 5 3 5 5 3 3 5 3 5 5 3 5 3 5 5 5 5 5 5 5 5 5 3 5 5 5 5 5 3 5 5 5 5 5 5 5 5 5 5 3 5 5 5 5 3 3 5 5 3 5 3 5 5 5 5 5 3 5 5 3 5 3 5 5 5 5 5 5 5 3 5 5 5 5 5 5 5 5 5 3 5 3 5 3 5 3 5 5 5 5 3 5 5 5 5 5 3 3 5 5 5 5 5 5 3 5 5 5 5 5 3 5 5 5 5 3 5 5 3 5 3 5 5 5 3 5 3 5 5 3 3 3 5 5 5 5 5 5 3 3 3 5 5 5 5 3 5 3 5 3 5 5 5 5 5 5 3 5 5 5 5 5 5 5 5 5 5 5 5 5 5 5 5 5 5 5 5 5 5 5 5 5 5 5 5 5 5 5 5 5 5 5 5 5 5 5 5 5 5 5 5 5 5 5 5 5 3 5 5 5 3 3 5 5 5 5 5 5 5 5 5 5 5 5 5 5 5 5 5 5 5 3 5 5 5 5 5 5 5 3 5 5 3 5 5 3 5 5 3 5 3 5 5 3 5 5 5 3 5 3 5 3 3 5 5 5 3 3 5 5 3 5 5 3 5 5 5 5 5 5 5 5 5 5 5 5 3 5 5 5 5 3 5 5 5 5 3 5 5 5 5 5 5 5 5 5 3 5 3 5 5 5 5 3 5 5 5 3 5 5 5 5 5 5 3 5 5 3 5 5 5 3 5 5 5 5 5 5 5 3 5 5 5 5 5 3 5 5 5 5 5 5 5 5 5 5 5 5 5 5 5 3 5 5 5 5 5 3 5 5 3 5 3 5 5 5 5 3 3 5 5 3 5 5 5 5 5 5 5 5 5 5 5 3 5 3 5 5 5 5 5 3 5 5 5 3 5 5 5 3 5 5 5 5 5 5 5 5 5 5 5 5 5 3 5 5 5 5 5 5 5 3 5 3 5 5 5 5 5 5 5 3 3 5 5 5 5 5 5 5 5 5 3 5 5 5 5 5 5 3 3 3 5 3 5 5 5 5 5 5 3 5 3 5 3 5 3 5 5 5 5 5 5 3 5 5 3 5 5 5 5 3 5 5 5 5 5 5 5 5 5 5 5 5 5 5 5 5 5 5 5 5 5 3 5 3 5 5 5 5 5 5 5 5 5 5 5 5 5 5 5 5 5 5 5 5 5 5 5 5 5 5 5 5 5 5 5 5 5 5 5 5 5 5 5 5 5 5 5 5 5 5 5 5 5 5 5 5 5 5 5 5 5 5 3 5 5 5 5 5 5 5 5 5 5 5 5 5 5 5 5 5 5 5 5 5 5 5 3 5 5 5 3 5 3 5 5 5 5 5 5 5 5 5 5 5 5 5 5 5 5 5 5 5 5 5 5 5 5 5 5 5 5 5 5 5 5 5 5 5 5 5 5 5 3 5 3 5 5 5 5 5 5 5 5 5 5 5 5 5 5 5 5 5 5 5 5 5 5 5 5 5 3 5 5 5 5 5 5 5 5 5 5 5 5 5 5 5 5 5 5 5 5 5 5 5 5 5 5 5 5 5 5 5 5 5 5 5 5 5 5 5 5 5 5 5 5 5 5 5 5 5 5 5 5 5 5 5 5 5 5 5 5 5 5 5 5 5 5 5 5 5 3 5 5 5 5 5 5 5 3 5 5 3 5 5 5 5 5 5 5 5 5 5 5 5 5 5 5 5 5 5 5 5 3 5 5 5 5 5 5 5 5 5 5 5 5 5 5 5 5 5 5 5 5 5 5 5 5 5 5 5 5 5 5 5 5 3 5 5 5 5 3 5 3 5 5 5 5 5 5 3 5 5 3 5 5 3 3 5 3 5 5 5 3 5 5 5 5 5 5 5 5 5 5 5 5 5 5 5 3 5 5 5 5 5 5 5 5 3 5 5 5 5 5 5 5 5 5 5 5 5 5 5 5 5 5 5 5 5 5 5 5 5 5 5 5 5 5 5 5 5 5 5 5 5 3 5 5 5 5 5 5 5 3 5 5 3 5 3 5 5 5 5 5 5 5 5 5 5 5 3 3 5 5 3 5 5 3 3 5 5 5 5 3 5 3 5 5 3 5 3 3 5 3 5 3 5 5 5 5 5 5 5 3 5 3 5 5 5 5 5 3 5 5 5 3 5 5 3 5 3 5 3 3 5 5 3 5 5 5 5 5 5 3 5 5 5 5 5 5 5 5 3 3 5 5 5 3 5 5 5 5 3 3 5 3 5 5 5 3 5 5 5 5 5 5 5 5 5 5 5 5 5 5 5 5 3 5 5 5 5 5 5 3 5 3 5 5 5 3 3 5 5 3 5 3 5 5 5 5 5 5 5 5 5 5 5 5 3 3 5 5 5 5 5 3 5 5 5 5 5 5 5 3 5 5 5 3 5 3 5 5 3 5 5 5 5 5 5 5 5 5 3 5 5 3 5 5 5 5 5 5 5 5 5 5 5 3 5 5 5 5 5 5 5 5 5 5 5 5 5 5 5 5 5 5 5 5 5 5 3 5 5 5 5 5 5 5 5 5 5 5 3 5 5 5 5 3 5 5 5 5 5 5 5 5 5 5 5 3 5 5 5 5 5 3 5 3 5 5 5 5 5 5 5 5 5 3 5 5 3 5 5 3 5 5 5 5 3 5 5 5 5 5 5 5 5 5 5 5 5 5 5 5 5 5 5 5 5 5 3 5 5 3 5 3 5 5 5 5 5 5 5 5 5 3 5 5 3 3 3 5 5 5 3 5 5 5 5 5 5 3 3 5 3 5 5 3 5 5 3 5 5 5 5 3 5 5 5 5 3 5 5 5 5 5 5 5 5 5 5 5 3 5 5 3 5 3 3 5 5 3 3 3 5 5 5 5 5 5 5 5 5 5 3 5 5 5 5 5 5 5 5 5 3 5 5 5 5 5 3 5 5 5 5 5 5 5 5 5 5 3 5 5 5 5 5 5 5 5 5 5 5 5 5 5 5 5 5 5 5 5 5 5 5 5 3 3 5 5 5 5 5 5 5 5 3 5 5 5 5 5 5 5 5 5 5 5 5 5 5 5 5 3 5 5 5 5 3 5 5 5 3 3 5 5 5 5 5 5 3 5 3 5 5 5 3 5 5 5 5 5 5 5 5 3 5 3 3 5 5 5 5 5 5 5 5 5 5 5 5 3 5 5 3 5 3 5 5 5 5 5 5 5 5 5 5 5 5 5 5 5 5 5 5 5 5 5 5 5 3 5 5 5 5 5 3 5 5 5 5 5 5 5 5 5 5 3 5 5 5 3 5 5 5 5 5 5 5 5 5 5 5 3 3 5 5 5 5 5 3 5 5 5 3 5 5 5 5 5 5 5 5 5 5 3 5 5 5 5 5 5 5 3 3 5 3 5 5 5 5 3 5 5 5 5 5 3 5 5 5 5 5 5 5 5 5 5 3 5 5 5 5 5 5 5 5 5 5 3 5 5 5 5 5 5 5 3 5 5 5 5 5 5 5 5 5 5 5 5 5 5 5 5 5 5 5 5 3 5 5 5 3 5 5 5 5 5 5 5 5 5 5 5 5 5 3 5 3 3 5 3 3 5 5 5 5 5 3 5 5 5 5 5 5 5 3 5 5 3 5 5 3 5 5 3 5 5 3 3 3 3 5 5 3 3 5 5 3 5 5 3 5 5 5 5 3 3 3 3 5 5 5 3 5 3 5 3 5 3 3 5 5 5 5 5 5 5 3 5 5 3 5 3 5 5 3 3 5 5 5 5 5 5 5 5 5 5 5 5 5 5 5 5 5 3 5 5 5 5 5 5 5 5 5 5 5 5 5 5 5 5 5 3 5 5 5 5 5 5 5 5 5 5 5 5 5 5 3 3 5 5 5 5 3 5 3 5 5 5 3 3 5 3 5 5 5 5 5 5 5 5 5 5 5 5 5 5 5 5 5 5 5 3 5 3 5 5 5 5 3 5 5 5 5 5 5 5 5 5 5 5 5 5 5 5 5 5 5 5 5 3 5 5 5 5 5 5 5 5 5 5 5 5 5 5 3 5 5 5 5 5 5 5 5 5 5 5 5 5 5 5 5 5 5 5 5 5 5 5 5 5 5 5 5 5 5 5 5 5 5 5 5 5 5 5 5 5 5 5 5 5 5 5 5 5 5 5 5 5 5 5 5 5 5 5 5 5 5 3 5 5 5 3 5 5 3 5 5 5 5 5 5 5 5 5 5 5 3 5 5 5 5 3 5 5 5 5 5 5 5 5 5 5 5 5 5 5 5 5 5 5 5 5 5 5 5 5 5 5 5 5 5 3 5 5 5 5 3 5 5 5 5 5 5 5 5 5 5 3 5 5 3 5 5 5 5 5 5 5 5 5 5 5 5 3 5 5 5 5 5 5 5 5 3 5 5 5 5 5 5 5 5 5 5 3 5 3 5 5 5 3 5 5 5 3 5 3 5 3 3 5 5 5 5 5 3 5 5 5 5 5 5 5 5 5 5 5 5 5 5 5 5 5 5 5 5 5 5 5 3 5 5 3 5 5 5 3 5 3 5 5 5 5 5 5 5 5 5 5 5 5 3 5 5 5 5 5 5 5 5 5 5 5 5 5 5 5 5 5 5 5 3 5 5 5 5 5 5 5 5 5 5 5 5 5 5 5 5 5 5 5 5 5 5 5 5 5 5 5 3 5 5 5 5 5 5 5 5 5 5 5 5 5 5 5 5 5 5 3 5 5 5 3 5 5 5 3 3 5 5 5 5 5 3 5 5 5 5 5 5 5 3 3 5 5 5 3 5 3 5 5 5 5 5 5 3 3 5 5 3 3 5 5 5 5 5 5 5 5 5 5 3 5 5 5 5 5 5 3 5 5 5 5 5 5 5 5 5 5 5 5 5 5 5 5 5 3 5 5 5 5 3 5 5 3 5 5 5 5 5 5 5 5 5 5 5 3 5 3 5 3 5 5 5 5 5 5 5 5 5 5 5 5 5 5 5 5 5 5 5 3 5 5 3 5 5 5 3 5 5 3 5 5 5 5 3 5 5 5 5 5 5 5 3 5 5 5 5 5 5 5 5 5 5 5 5 5 5 5 5 5 5 5 5 5 5 5 5 5 5 5 5 5 3 5 5 5 5 5 5 5 5 5 5 5 5 5 5 5 5 5 5 5 5 5 5 5 5 5 5 5 5 5 5 5 5 5 5 5 5 5 3 3 3 5 5 3 5 5 5 3 5 3 5 5 5 5 5 3 5 5 5 5 5 5 5 3 5 5 5 5 5 5 5 5 5 5 5 5 5 5 3 5 5 5 3 5 3 5 5 5 5 5 5 5 5 3 5 5 5 5 5 5 5 3 5 3 5 3 5 5 5 5 5 5 5 5 3 5 5 3 3 3 5 3 5 3 5 5 5 5 5 5 5 5 5 5 5 5 5 5 5 5 5 5 5 5 5 3 5 5 3 3 5 5 5 3 5 5 5 5 5 5 5 3 5 3 5 5 5 5 3 5 5 3 5 5 5 5 5 5 5 3 5 5 3 5 5 5 3 5 5 5 5 5 5 5 5 5 3 5 5 5 5 5 5 3 5 5 3 5 5 5 5 3 5 5 5 5 5 5 3 3 3 5 5 5 3 5 3 5 3 5 5 5 5 5 5 3 5 5 5 3 5 5 5 3 5 5 5 5 5 5 5 5 5 5 5 5 3 5 5 5 3 5 5 5 5 5 3 3 5 5 3 5 3 3 3 5 5 5 3 5 5 5 5 5 3 5 5 5 5 5 5 5 5 5 5 5 5 3 5 5 5 5 5 5 3 5 5 3 5 5 3 5 5 5 5 5 3 5 5 3 5 3 5 3 5 5 5 5 5 5 3 5 5 5 5 3 5 5 5 5 5 5 5 5 5 5 3 5 5 5 5 5 3 5 5 5 5 5 5 5 5 5 5 5 5 5 5 5 3 5 5 5 5 5 3 5 3 5 5 5 5 5 3 5 5 5 5 5 3 5 5 5 5 5 3 5 5 5 5 5 5 5 5 5 5 3 5 3 5 3 5 5 3 5 5 5 5 5 5 5 5 3 5 3 5 5 5 5 5 5 5 5 5 5 3 5 5 5 5 5 5 5 5 5 5 3 5 5 5 3 5 3 3 5 5 5 3 5 5 5 3 3 5 5 5 5 5 5 5 5 5 5 3 3 5 5 5 5 5 3 5 5 5 5 5 5 5 5 5 5 3 5 3 3 3 5 5 5 5 5 5 5 5 3 5 5 5 5 5 5 5 5 5 5 5 5 5 5 5 5 5 5 5 5 5 5 5 5 5 5 5 5 5 3 5 5 5 5 3 5 5 5 5 5 5 5 5 3 5 5 5 5 5 5 5 5 3 5 5 5 5 5 5 5 5 5 5 5 5 5 5 5 5 5 5 5 5 5 5 5 5 5 5 3 5 5 5 5 5 5 3 5 3 5 5 3 5 5 5 3 5 3 5 5 5 3 5 5 5 3 5 5 5 5 5 5 3 5 5 5 5 5 5 5 5 5 5 5 5 5 5 5 5 5 5 5 5 5 5 5 5 5 5 5 3 5 3 5 5 5 5 3 5 5 5 5 5 5 5 5 5 5 5 5 5 3 5 5 3 5 5 3 5 5 5 5 5 3 5 5 5 5 5 5 5 5 3 5 3 5 5 5 5 5 3 3 5 5 3 5 5 5 3 5 5 5 5 5 5 5 3 5 5 5 5 5 5 5 5 5 5 5 5 5 5 5 5 3 5 5 5 5 5 3 5 3 5 5 5 5 5 5 5 5 5 5 5 5 3 5 3 5 5 5 5 5 5 3 3 5 5 5 5 5 5 5 5 5 5 5 5 5 5 5 5 5 5 5 5 5 3 5 5 3 5 5 5 5 5 3 5 5 5 5 5 5 3 5 5 5 5 5 5 5 5 5 5 5 5 5 5 5 5 3 5 5 3 5 5 5 5 3 5 5 5 5 5 5 5 5 5 5 5 3 5 5 5 5 5 5 5 5 5 5 5 5 5 5 5 5 5 5 5 3 5 5 5 5 5 5 5 5 5 5 5 5 3 5 5 5 5 5 5 5 5 5 5 5 5 5 3 3 5 5 5 5 5 5 3 5 5 5 5 5 5 5 5 5 5 5 5 5 5 5 5 5 5 5 5 5 5 5 5 5 5 5 5 5 5 5 5 5 5 5 3 5 5 5 5 5 5 5 5 3 5 5 5 5 5 5 5 5 5 5 5 5 3 5 5 5 5 3 5 3 5 5 5 5 5 5 5 5 3 5 5 5 5 5 5 5 5 5 5 3 5 5 5 3 5 5 3 5 5 5 5 3 5 5 3 5 5 5 5 5 5 5 5 3 5 5 5 3 5 5 5 5 5 5 5 3 5 3 5 3 5 3 3 5 5 5 3 3 3 5 5 3 5 5 5 3 5 5 5 5 3 5 5 5 5 5 5 5 5 5 5 5 5 5 5 5 5 5 5 5 5 5 5 5 5 5 5 5 5 5 5 5 5 5 5 5 5 5 5 3 5 5 5 5 5 5 5 5 3 5 5 5 5 3 5 5 3 5 5 3 5 5 5 5 3 5 5 5 5 5 3 5 5 5 5 5 5 5 5 5 5 5 5 5 3 3 5 5 5 3 5 5 5 5 5 5 5 5 5 5 5 5 5 5 3 5 5 5 5 5 5 3 5 5 3 5 5 5 5 5 5 5 5 5 5 3 5 5 5 5 5 3 5 5 5 5 5 5 5 5 5 5 3 5 5 5 5 5 5 5 5 5 5 5 5 5 5 5 3 5 5 5 5 5 5 5 5 5 5 5 5 5 5 5 5 5 5 5 5 5 5 5 3 5 3 5 5 5 3 5 5 5 5 5 5 5 5 5 3 5 5 5 3 5 5 5 5 5 5 5 5 5 5 5 5 5 5 5 5 3 5 5 5 5 5 3 5 5 5 3 5 3 5 5 5 5 5 5 3 5 5 5 5 5 5 5 5 5 5 5 5 5 5 5 5 5 5 5 5 5 5 5 5 5 5 5 3 5 5 3 5 5 5 5 5 5 5 3 5 5 5 5 3 5 5 3 5 5 5 5 5 5 3 5 5 5 3 5 5 5 3 5 5 5 5 5 3 5 5 5 5 5 3 5 5 5 5 5 5 5 5 3 5 5 3 5 5 5 5 3 5 5 5 5 3 5 5 5 5 3 5 5 5 3 5 3 5 5 5 5 5 5 5 5 5 5 3 5 5 5 5 5 5 5 3 3 5 5 5 5 5 3 5 5 5 5 5 3 5 5 5 3 5 5 3 5 5 3 5 5 5 3 5 5 5 5 5 5 3 5 5 5 5 5 3 5 5 5 5 5 3 5 5 5 5 5 5 3 5 5 5 5 3 5 5 5 5 5 3 5 5 5 5 5 5 5 5 5 5 3 5 5 5 5 5 5 5 3 5 5 5 5 3 3 5 5 3 5 5 5 5 5 5 5 3 5 5 5 5 5 5 5 3 5 3 5 5 3 5 5 5 5 3 5 3 5 5 5 5 5 5 5 5 5 5 3 5 5 5 5 5 3 5 5 5 3 5 5 5 5 3 5 5 3 5 5 5 5 5 3 5 3 5 3 3 5 5 5 5 3 3 5 5 5 5 5 5 5 5 5 5 5 5 5 3 5 5 5 5 5 5 3 3 5 5 5 5 5 5 5 5 5 5 5 5 5 3 5 5 5 5 5 5 5 5 5 5 5 5 5 5 5 5 5 5 5 5 5 5 5 5 5 5 5 5 5 5 5 5 5 3 5 5 3 5 5 5 5 5 5 5 3 5 5 5 3 5 5 3 5 5 5 3 3 5 5 5 5 3 3 5 5 5 5 5 5 5 5 5 5 5 5 5 5 3 5 5 3 5 5 5 3 5 5 5 5 3 5 5 3 5 5 5 5 5 5 5 5 5 5 5 3 5 5 5 5 5 5 5 3 5 5 5 5 5 5 5 5 5 5 5 5 5 5 5 5 5 5 3 5 5 5 5 5 5 3 5 3 5 5 5 5 5 3 5 5 3 5 5 5 3 5 5 5 3 5 5 5 5 5 5 5 5 5 5 5 5 5 5 3 5 5 5 5 3 3 5 5 5 5 5 5 5 5 5 5 5 5 5 5 5 5 5 5 5 3 5 5 5 5 5 5 5 5 3 5 3 5 5 5 5 5 5 5 3 5 3 5 5 5 5 5 3 5 5 5 5 5 5 3 5 5 5 5 5 3 3 5 5 5 3 3 3 5 5 5 5 5 3 5 5 5 5 5 3 5 5 5 5 3 5 3 3 5 3 3 5 5 5 3 5 5 5 3 5 5 5 3 5 5 5 3 5 5 5 5 5 5 5 5 3 5 5 5 3 5 5 5 5 5 5 3 5 5 5 5 5 5 3 5 5 5 5 5 5 5 5 5 5 5 5 5 5 3 5 3 5 5 5 3 5 5 3 5 3 5 3 5 5 3 5 5 5 5 5 5 3 5 5 5 5 3 5 5 5 5 5 5 3 5 5 5 5 5 5 5 5 5 5 3 5 5 5 5 5 5 5 5 5 5 5 5 5 5 5 5 5 5 5 3 3 5 5 5 3 5 5 3 5 5 3 5 5 3 5 5 3 3 5 5 5 5 3 5 5 5 5 5 5 5 5 5 5 5 3 3 5 5 5 3 5 3 5 3 5 5 5 5 5 3 5 5 3 5 3 5 5 3 3 3 5 5 5 5 3 5 5 3 5 3 5 5 3 5 5 5 5 5 5 5 5 3 5 3 3 5 5 5 5 5 3 3 5 5 5 3 3 5 5 5 5 5 5 5 5 3 5 3 5 5 5 5 5 5 5 5 5 5 5 5 5 5 5 5 5 5 5 5 5 5 5 5 5 5 5 5 5 3 5 5 5 5 5 5 5 5 5 5 5 5 5 5 5 3 5 5 3 5 5 5 5 5 3 5 5 5 5 5 5 5 5 5 5 5 5 5 3 5 5 5 5 5 5 5 5 5 3 5 5 3 5 5 5 5 3 3 3 5 5 5 5 5 3 5 5 5 
</DataArray>
</Cells>
<PointData Scalars="" Vectors="displacement," Tensors="">
<DataArray type="Float64" Name="displacement" NumberOfComponents="3" format="ascii">
-0.10499937054173054 2.8992334712107675e-07 0 -0.10499792117170544 -5.8570491687925091e-07 0 -0.1018568095309994 9.84305814530522e-08 0 -0.10499792117170544 -5.8570491687925091e-07 0 -0.1018568095309994 9.84305814530522e-08 0 -0.097147763254729638 8.7968152299634909e-07 0 -0.10499071058628248 -1.5165710040257605e-06 0 -0.10113388208614037 -0.00014054554786219924 0 -0.10499402032685565 -1.8356192067853364e-06 0 -0.10241255564072559 -0.00075418693566055208 0 -0.10086958595662669 -0.00089238487397303909 0 -0.10499402032685565 -1.8356192067853364e-06 0 -0.10241255564072559 -0.00075418693566055208 0 -0.10499844734650343 -1.3398007205828548e-07 0 -0.10241255564072559 -0.00075418693566055208 0 -0.099744013413921639 -0.0006356765225136471 0 -0.10060206848156547 -0.00086848541347497659 0 -0.10241255564072559 -0.00075418693566055208 0 -0.10086958595662669 -0.00089238487397303909 0 -0.099744013413921639 -0.0006356765225136471 0 -0.10113388208614037 -0.00014054554786219924 0 -0.097152549448178374 1.0003654929396145e-06 0 -0.10086958595662669 -0.00089238487397303909 0 -0.097141593088192896 -3.3547207164817648e-06 0 -0.099744013413921639 -0.0006356765225136471 0 -0.097141593088192896 -3.3547207164817648e-06 0 -0.099744013413921639 -0.0006356765225136471 0 -0.09716790992913743 -0.00056498193633418704 0 -0.099744013413921639 -0.0006356765225136471 0 -0.09716790992913743 -0.00056498193633418704 0 -0.10060206848156547 -0.00086848541347497659 0 -0.09817455301918937 -0.00047877530962032631 0 -0.09716790992913743 -0.00056498193633418704 0 -0.10060206848156547 -0.00086848541347497659 0 -0.09817455301918937 -0.00047877530962032631 0 -0.09716790992913743 -0.00056498193633418704 0 -0.095194462871318136 -0.0001947283786989482 0 -0.09716790992913743 -0.00056498193633418704 0 -0.090882875580660064 -7.0485464548295175e-07 0 -0.095194462871318136 -0.0001947283786989482 0 -0.097141593088192896 -3.3547207164817648e-06 0 -0.09716790992913743 -0.00056498193633418704 0 -0.090882875580660064 -7.0485464548295175e-07 0 -0.099885911084726928 -0.00042066310423655748 0 -0.10133286293096368 6.8930630102306641e-05 0 -0.099781484814587845 0.00039919094003637584 0 -0.09817455301918937 -0.00047877530962032631 0 -0.099885911084726928 -0.00042066310423655748 0 -0.10060206848156547 -0.00086848541347497659 0 -0.09817455301918937 -0.00047877530962032631 0 -0.099885911084726928 -0.00042066310423655748 0 -0.097989345411972503 0.00030793697991784563 0 -0.099885911084726928 -0.00042066310423655748 0 -0.10060206848156547 -0.00086848541347497659 0 -0.10193558728788726 -0.0010213841534026803 0 -0.099885911084726928 -0.00042066310423655748 0 -0.10193558728788726 -0.0010213841534026803 0 -0.10133286293096368 6.8930630102306641e-05 0 -0.10377011055796838 -0.00038948255379163399 0 -0.10327012816272306 -0.00010981446530809032 0 -0.10060206848156547 -0.00086848541347497659 0 -0.10193558728788726 -0.0010213841534026803 0 -0.10303713055872904 -0.00063458707655009736 0 -0.10241255564072559 -0.00075418693566055208 0 -0.10060206848156547 -0.00086848541347497659 0 -0.10303713055872904 -0.00063458707655009736 0 -0.10241255564072559 -0.00075418693566055208 0 -0.10303713055872904 -0.00063458707655009736 0 -0.10499844734650343 -1.3398007205828548e-07 0 -0.10303713055872904 -0.00063458707655009736 0 -0.10499844734650343 -1.3398007205828548e-07 0 -0.10499556332617101 -8.7614528577165825e-07 0 -0.10377011055796838 -0.00038948255379163399 0 -0.10499772555096787 -7.1859233852679027e-07 0 -0.10380795153483682 -0.0002509142672001332 0 -0.10499924897005253 -1.0706049440320157e-07 0 -0.1045024755533813 -0.0001361082232545054 0 -0.10193558728788726 -0.0010213841534026803 0 -0.10303713055872904 -0.00063458707655009736 0 -0.10499556332617101 -8.7614528577165825e-07 0 -0.10499924897005253 -1.0706049440320157e-07 0 -0.1045024755533813 -0.0001361082232545054 0 -0.10499904419616536 -2.6404576300868423e-07 0 -0.1045024755533813 -0.0001361082232545054 0 -0.10499904419616536 -2.6404576300868423e-07 0 -0.10419915220450168 -0.00023153019698791342 0 -0.10499904419616536 -2.6404576300868423e-07 0 -0.10419915220450168 -0.00023153019698791342 0 -0.10474465864447741 -0.00015579811907313169 0 -0.10380795153483682 -0.0002509142672001332 0 -0.1045024755533813 -0.0001361082232545054 0 -0.10419915220450168 -0.00023153019698791342 0 -0.10499909595064376 -2.0859702131201509e-07 0 -0.1047546122975557 -0.00017787258311277517 0 -0.10459244573259571 -0.00013752025588689313 0 -0.10267416568538326 0.00055444972832764585 0 -0.10310464370641746 0.00027986481758218132 0 -0.10499909595064376 -2.0859702131201509e-07 0 -0.10474465864447741 -0.00015579811907313169 0 -0.1047546122975557 -0.00017787258311277517 0 -0.10499904419616536 -2.6404576300868423e-07 0 -0.10499909595064376 -2.0859702131201509e-07 0 -0.10474465864447741 -0.00015579811907313169 0 -0.10419915220450168 -0.00023153019698791342 0 -0.10474465864447741 -0.00015579811907313169 0 -0.1047546122975557 -0.00017787258311277517 0 -0.10419915220450168 -0.00023153019698791342 0 -0.1047546122975557 -0.00017787258311277517 0 -0.10394885363319406 4.3513363515577055e-06 0 -0.10110718153633191 0.00045618631390340368 0 -0.10345708087184237 0.00033078789323093949 0 -0.10241895878961324 0.0011842638896854031 0 -0.10110718153633191 0.00045618631390340368 0 -0.10459244573259571 -0.00013752025588689313 0 -0.10345708087184237 0.00033078789323093949 0 -0.10074503259581302 0.0023620597250744776 0 -0.10241895878961324 0.0011842638896854031 0 -0.10198369092355727 0.0022522839778834256 0 -0.10110718153633191 0.00045618631390340368 0 -0.10074503259581302 0.0023620597250744776 0 -0.10241895878961324 0.0011842638896854031 0 -0.10267416568538326 0.00055444972832764585 0 -0.10189122705629276 0.0012050211821545832 0 -0.10110718153633191 0.00045618631390340368 0 -0.10074503259581302 0.0023620597250744776 0 -0.09909039132982396 0.0021819916130873568 0 -0.099429048875576798 0.0032131880178612889 0 -0.098556593273749438 0.0030664045564933354 0 -0.099447476885895669 0.0041060250395656816 0 -0.10074503259581302 0.0023620597250744776 0 -0.099429048875576798 0.0032131880178612889 0 -0.099884695055179468 0.0037433497215355587 0 -0.10074503259581302 0.0023620597250744776 0 -0.099429048875576798 0.0032131880178612889 0 -0.09909039132982396 0.0021819916130873568 0 -0.10074503259581302 0.0023620597250744776 0 -0.10065932452559354 0.0036941687127977295 0 -0.099884695055179468 0.0037433497215355587 0 -0.10074503259581302 0.0023620597250744776 0 -0.10065932452559354 0.0036941687127977295 0 -0.10198369092355727 0.0022522839778834256 0 -0.10380795153483682 -0.0002509142672001332 0 -0.10300652139666847 -0.00016196869836126207 0 -0.10133286293096368 6.8930630102306641e-05 0 -0.10380795153483682 -0.0002509142672001332 0 -0.10419915220450168 -0.00023153019698791342 0 -0.10300652139666847 -0.00016196869836126207 0 -0.10300652139666847 -0.00016196869836126207 0 -0.10394885363319406 4.3513363515577055e-06 0 -0.10310562003252757 0.00025420555284304686 0 -0.10419915220450168 -0.00023153019698791342 0 -0.10300652139666847 -0.00016196869836126207 0 -0.10394885363319406 4.3513363515577055e-06 0 -0.099429048875576798 0.0032131880178612889 0 -0.09909039132982396 0.0021819916130873568 0 -0.098556593273749438 0.0030664045564933354 0 -0.10189122705629276 0.0012050211821545832 0 -0.10148596738568259 0.0016371165742032844 0 -0.10148596738568259 0.0016371165742032844 0 -0.10169634932450165 0.0013641455681591053 0 -0.10300652139666847 -0.00016196869836126207 0 -0.10170297000439678 0.00049128395592672994 0 -0.10133286293096368 6.8930630102306641e-05 0 -0.10300652139666847 -0.00016196869836126207 0 -0.10310562003252757 0.00025420555284304686 0 -0.10170297000439678 0.00049128395592672994 0 -0.10170297000439678 0.00049128395592672994 0 -0.10133286293096368 6.8930630102306641e-05 0 -0.10083855254117306 0.00065539913643162075 0 -0.10083855254117306 0.00065539913643162075 0 -0.10120373654995393 0.00094725798347149311 0 -0.10001353999012146 0.0012078835072214889 0 -0.10170297000439678 0.00049128395592672994 0 -0.10083855254117306 0.00065539913643162075 0 -0.10120373654995393 0.00094725798347149311 0 -0.098556593273749438 0.0030664045564933354 0 -0.099183852941374245 0.0045739264625100735 0 -0.099447476885895669 0.0041060250395656816 0 -0.10198683184028706 0.00016397072102928935 0 -0.10170297000439678 0.00049128395592672994 0 -0.10120373654995393 0.00094725798347149311 0 -0.10198683184028706 0.00016397072102928935 0 -0.10120373654995393 0.00094725798347149311 0 -0.10126415179594445 0.0013815744505800485 0 -0.10148596738568259 0.0016371165742032844 0 -0.10067273785309609 0.0023587758852268276 0 -0.10120373654995393 0.00094725798347149311 0 -0.10126415179594445 0.0013815744505800485 0 -0.10055444910044052 0.0015656772558821622 0 -0.10126415179594445 0.0013815744505800485 0 -0.10055444910044052 0.0015656772558821622 0 -0.10002139007963398 0.0023354641071988828 0 -0.10055444910044052 0.0015656772558821622 0 -0.10002139007963398 0.0023354641071988828 0 -0.10001353999012146 0.0012078835072214889 0 -0.10120373654995393 0.00094725798347149311 0 -0.10055444910044052 0.0015656772558821622 0 -0.10001353999012146 0.0012078835072214889 0 -0.10065932452559354 0.0036941687127977295 0 -0.099696827862096438 0.0043098466053839157 0 -0.099542785719550317 0.004819985778005716 0 -0.10065932452559354 0.0036941687127977295 0 -0.099696827862096438 0.0043098466053839157 0 -0.099884695055179468 0.0037433497215355587 0 -0.099696827862096438 0.0043098466053839157 0 -0.099884695055179468 0.0037433497215355587 0 -0.099447476885895669 0.0041060250395656816 0 -0.099429048875576798 0.0032131880178612889 0 -0.099884695055179468 0.0037433497215355587 0 -0.099447476885895669 0.0041060250395656816 0 -0.099183852941374245 0.0045739264625100735 0 -0.099254007784184431 0.0046773804298777732 0 -0.099192465009911926 0.0042075876814957761 0 -0.099696827862096438 0.0043098466053839157 0 -0.099447476885895669 0.0041060250395656816 0 -0.099254007784184431 0.0046773804298777732 0 -0.099183852941374245 0.0045739264625100735 0 -0.099447476885895669 0.0041060250395656816 0 -0.099254007784184431 0.0046773804298777732 0 -0.099696827862096438 0.0043098466053839157 0 -0.099254007784184431 0.0046773804298777732 0 -0.099542785719550317 0.004819985778005716 0 -0.099254007784184431 0.0046773804298777732 0 -0.099542785719550317 0.004819985778005716 0 -0.098798491735184221 0.0048336354809677667 0 -0.098454039859985507 0.0042491707119057739 0 -0.098798491735184221 0.0048336354809677667 0 -0.097828295288685377 0.0045132827813180662 0 -0.099254007784184431 0.0046773804298777732 0 -0.098454039859985507 0.0042491707119057739 0 -0.098798491735184221 0.0048336354809677667 0 -0.099254007784184431 0.0046773804298777732 0 -0.098454039859985507 0.0042491707119057739 0 -0.099192465009911926 0.0042075876814957761 0 -0.099192465009911926 0.0042075876814957761 0 -0.099681029673624688 0.0037750849494306324 0 -0.098991129590969784 0.0028955104687792021 0 -0.099192465009911926 0.0042075876814957761 0 -0.097782530461524769 0.002759534667069677 0 -0.098991129590969784 0.0028955104687792021 0 -0.098454039859985507 0.0042491707119057739 0 -0.099192465009911926 0.0042075876814957761 0 -0.097782530461524769 0.002759534667069677 0 -0.098454039859985507 0.0042491707119057739 0 -0.097782530461524769 0.002759534667069677 0 -0.097180929113333675 0.0035282115496846531 0 -0.10126415179594445 0.0013815744505800485 0 -0.10002139007963398 0.0023354641071988828 0 -0.10027744800067444 0.0028491387654980826 0 -0.099183852941374245 0.0045739264625100735 0 -0.099192465009911926 0.0042075876814957761 0 -0.099681029673624688 0.0037750849494306324 0 -0.10067273785309609 0.0023587758852268276 0 -0.10026277538726135 0.0026668121138849446 0 -0.10027744800067444 0.0028491387654980826 0 -0.099793443486959774 0.0029360844891528825 0 -0.099727317385486597 0.0026986662814845359 0 -0.099793443486959774 0.0029360844891528825 0 -0.098865446748947969 0.003154516690778369 0 -0.099436077537049292 0.0031592255174421303 0 -0.10002139007963398 0.0023354641071988828 0 -0.099793443486959774 0.0029360844891528825 0 -0.098865446748947969 0.003154516690778369 0 -0.10002139007963398 0.0023354641071988828 0 -0.10027744800067444 0.0028491387654980826 0 -0.099793443486959774 0.0029360844891528825 0 -0.098865446748947969 0.003154516690778369 0 -0.098557769820377422 0.0021287069157764579 0 -0.096968641783673454 0.0032290075084374522 0 -0.10002139007963398 0.0023354641071988828 0 -0.098865446748947969 0.003154516690778369 0 -0.098557769820377422 0.0021287069157764579 0 -0.098557769820377422 0.0021287069157764579 0 -0.096968641783673454 0.0032290075084374522 0 -0.096024710209734077 0.0023824667358996769 0 -0.098865446748947969 0.003154516690778369 0 -0.096968641783673454 0.0032290075084374522 0 -0.09744674172337589 0.0039008350190796407 0 -0.096968641783673454 0.0032290075084374522 0 -0.095378467758940863 0.0040341813902223349 0 -0.09744674172337589 0.0039008350190796407 0 -0.095378467758940863 0.0040341813902223349 0 -0.093156371490083142 0.0035921494117137332 0 -0.09501468531437901 0.0032209332371691537 0 -0.096968641783673454 0.0032290075084374522 0 -0.095378467758940863 0.0040341813902223349 0 -0.09501468531437901 0.0032209332371691537 0 -0.082184557287911783 -0.00031095604224717872 0 -0.078642708026653851 0.0016503386040887145 0 -0.082453660186625838 3.5208896659875647e-05 0 -0.08461547676595628 2.9371585770309849e-06 0 -0.078350196946900666 -6.7036127153323962e-07 0 -0.082453660186625838 3.5208896659875647e-05 0 -0.07866531861336809 0.00014431031419513178 0 -0.078350196946900666 -6.7036127153323962e-07 0 -0.095378467758940863 0.0040341813902223349 0 -0.093156371490083142 0.0035921494117137332 0 -0.093839806158136169 0.004878596466299779 0 -0.082184557287911783 -0.00031095604224717872 0 -0.083398239072032407 -0.0013736488950830533 0 -0.093156371490083142 0.0035921494117137332 0 -0.09501468531437901 0.0032209332371691537 0 -0.093704226471830854 0.0023845475385605645 0 -0.082453660186625838 3.5208896659875647e-05 0 -0.08461547676595628 2.9371585770309849e-06 0 -0.089857941412848905 0.00051835905859544179 0 -0.093156371490083142 0.0035921494117137332 0 -0.093704226471830854 0.0023845475385605645 0 -0.089857941412848905 0.00051835905859544179 0 -0.096968641783673454 0.0032290075084374522 0 -0.09501468531437901 0.0032209332371691537 0 -0.096024710209734077 0.0023824667358996769 0 -0.09501468531437901 0.0032209332371691537 0 -0.093704226471830854 0.0023845475385605645 0 -0.096024710209734077 0.0023824667358996769 0 -0.096024710209734077 0.0023824667358996769 0 -0.095226628384886949 0.00080109545552577079 0 -0.097466132253397661 0.0013176094968413181 0 -0.093704226471830854 0.0023845475385605645 0 -0.095226628384886949 0.00080109545552577079 0 -0.089857941412848905 0.00051835905859544179 0 -0.093704226471830854 0.0023845475385605645 0 -0.096024710209734077 0.0023824667358996769 0 -0.095226628384886949 0.00080109545552577079 0 -0.095226628384886949 0.00080109545552577079 0 -0.089857941412848905 0.00051835905859544179 0 -0.092641624818202151 0.00019937855110389917 0 -0.08461547676595628 2.9371585770309849e-06 0 -0.089857941412848905 0.00051835905859544179 0 -0.090882875580660064 -7.0485464548295175e-07 0 -0.089857941412848905 0.00051835905859544179 0 -0.092641624818202151 0.00019937855110389917 0 -0.090882875580660064 -7.0485464548295175e-07 0 -0.092641624818202151 0.00019937855110389917 0 -0.090882875580660064 -7.0485464548295175e-07 0 -0.095194462871318136 -0.0001947283786989482 0 -0.09817455301918937 -0.00047877530962032631 0 -0.095194462871318136 -0.0001947283786989482 0 -0.097989345411972503 0.00030793697991784563 0 -0.095226628384886949 0.00080109545552577079 0 -0.095194462871318136 -0.0001947283786989482 0 -0.097989345411972503 0.00030793697991784563 0 -0.095226628384886949 0.00080109545552577079 0 -0.092641624818202151 0.00019937855110389917 0 -0.095194462871318136 -0.0001947283786989482 0 -0.099885911084726928 -0.00042066310423655748 0 -0.097989345411972503 0.00030793697991784563 0 -0.099781484814587845 0.00039919094003637584 0 -0.097989345411972503 0.00030793697991784563 0 -0.098864325296802322 0.0010565513431336827 0 -0.097466132253397661 0.0013176094968413181 0 -0.097989345411972503 0.00030793697991784563 0 -0.099781484814587845 0.00039919094003637584 0 -0.098864325296802322 0.0010565513431336827 0 -0.10133286293096368 6.8930630102306641e-05 0 -0.10083855254117306 0.00065539913643162075 0 -0.099781484814587845 0.00039919094003637584 0 -0.10083855254117306 0.00065539913643162075 0 -0.099781484814587845 0.00039919094003637584 0 -0.10001353999012146 0.0012078835072214889 0 -0.099781484814587845 0.00039919094003637584 0 -0.098864325296802322 0.0010565513431336827 0 -0.10001353999012146 0.0012078835072214889 0 -0.10002139007963398 0.0023354641071988828 0 -0.098557769820377422 0.0021287069157764579 0 -0.10001353999012146 0.0012078835072214889 0 -0.098557769820377422 0.0021287069157764579 0 -0.098864325296802322 0.0010565513431336827 0 -0.10001353999012146 0.0012078835072214889 0 -0.098557769820377422 0.0021287069157764579 0 -0.098864325296802322 0.0010565513431336827 0 -0.097466132253397661 0.0013176094968413181 0 -0.098557769820377422 0.0021287069157764579 0 -0.096024710209734077 0.0023824667358996769 0 -0.097466132253397661 0.0013176094968413181 0 -0.095226628384886949 0.00080109545552577079 0 -0.097989345411972503 0.00030793697991784563 0 -0.097466132253397661 0.0013176094968413181 0 -0.10466812734590511 -9.601016667403396e-05 0 -0.1046878790431182 -2.0652957955661568e-05 0 -0.10466121725013847 -7.1727483480799246e-05 0 -0.10466812734590511 -9.601016667403396e-05 0 -0.10474373920908132 2.8924128308093201e-05 0 -0.1046878790431182 -2.0652957955661568e-05 0 -0.10466812734590511 -9.601016667403396e-05 0 -0.10466121725013847 -7.1727483480799246e-05 0 -0.10459013260094256 -0.00017052202090253341 0 -0.10466812734590511 -9.601016667403396e-05 0 -0.10474373920908132 2.8924128308093201e-05 0 -0.10482731982776033 3.2834114400669985e-05 0 -0.10474373920908132 2.8924128308093201e-05 0 -0.10482731982776033 3.2834114400669985e-05 0 -0.10483991907151249 0.00017608465956645502 0 -0.10482731982776033 3.2834114400669985e-05 0 -0.10478653376682558 6.4808267802652037e-05 0 -0.10460051921060926 -0.00013560393063809646 0 -0.10466812734590511 -9.601016667403396e-05 0 -0.10482731982776033 3.2834114400669985e-05 0 -0.10460051921060926 -0.00013560393063809646 0 -0.10466812734590511 -9.601016667403396e-05 0 -0.10460051921060926 -0.00013560393063809646 0 -0.10459013260094256 -0.00017052202090253341 0 -0.10478653376682558 6.4808267802652037e-05 0 -0.10499999699286056 -4.2137128264283349e-08 0 -0.10499896041617847 6.2011267255803602e-07 0 -0.10478653376682558 6.4808267802652037e-05 0 -0.10499999699286056 -4.2137128264283349e-08 0 -0.10494357366657546 7.809041576916029e-05 0 -0.10482731982776033 3.2834114400669985e-05 0 -0.10478653376682558 6.4808267802652037e-05 0 -0.10494357366657546 7.809041576916029e-05 0 -0.10482731982776033 3.2834114400669985e-05 0 -0.10494357366657546 7.809041576916029e-05 0 -0.10492590218281841 0.00018144061125352661 0 -0.10494357366657546 7.809041576916029e-05 0 -0.10499991038504761 1.1654828438668379e-07 0 -0.10492590218281841 0.00018144061125352661 0 -0.10499999699286056 -4.2137128264283349e-08 0 -0.10494357366657546 7.809041576916029e-05 0 -0.10499991038504761 1.1654828438668379e-07 0 -0.10499991038504761 1.1654828438668379e-07 0 -0.10492590218281841 0.00018144061125352661 0 -0.1049147534560612 0.00025234504237385877 0 -0.10492590218281841 0.00018144061125352661 0 -0.10483991907151249 0.00017608465956645502 0 -0.10480002608155202 0.00052123240201309626 0 -0.10482731982776033 3.2834114400669985e-05 0 -0.10492590218281841 0.00018144061125352661 0 -0.10483991907151249 0.00017608465956645502 0 -0.10474373920908132 2.8924128308093201e-05 0 -0.10483991907151249 0.00017608465956645502 0 -0.10479809054211423 8.3740193104946985e-05 0 -0.10483991907151249 0.00017608465956645502 0 -0.10480002608155202 0.00052123240201309626 0 -0.10484339004571655 0.00014335080492041809 0 -0.10181485635873332 0.0029377416015878557 0 -0.10090631494316206 0.0035412750357077145 0 -0.10480002608155202 0.00052123240201309626 0 -0.10455074777078786 0.00078837131078166294 0 -0.10466945008310712 0.00064618447402919226 0 -0.10194825007122348 0.0016128714688438818 0 -0.1011821871612953 0.0021031645123322962 0 -0.10480002608155202 0.00052123240201309626 0 -0.10455074777078786 0.00078837131078166294 0 -0.1049147534560612 0.00025234504237385877 0 -0.10492590218281841 0.00018144061125352661 0 -0.10480002608155202 0.00052123240201309626 0 -0.1049147534560612 0.00025234504237385877 0 -0.10499991038504761 1.1654828438668379e-07 0 -0.1049147534560612 0.00025234504237385877 0 -0.10500006720708402 1.3609390826082967e-07 0 -0.1049147534560612 0.00025234504237385877 0 -0.10500006720708402 1.3609390826082967e-07 0 -0.10472594783699567 0.00010726543419040715 0 -0.10500006720708402 1.3609390826082967e-07 0 -0.1049981384858335 -2.5348811172386473e-07 0 -0.10472594783699567 0.00010726543419040715 0 -0.10455074777078786 0.00078837131078166294 0 -0.1049147534560612 0.00025234504237385877 0 -0.10472594783699567 0.00010726543419040715 0 -0.10455074777078786 0.00078837131078166294 0 -0.10396392526545642 0.00044480437800360707 0 -0.10472594783699567 0.00010726543419040715 0 -0.10396392526545642 0.00044480437800360707 0 -0.10472594783699567 0.00010726543419040715 0 -0.10438423940200547 7.230664350897825e-05 0 -0.1049981384858335 -2.5348811172386473e-07 0 -0.10472594783699567 0.00010726543419040715 0 -0.10438423940200547 7.230664350897825e-05 0 -0.1049981384858335 -2.5348811172386473e-07 0 -0.10459244573259571 -0.00013752025588689313 0 -0.10438423940200547 7.230664350897825e-05 0 -0.10499909595064376 -2.0859702131201509e-07 0 -0.1049981384858335 -2.5348811172386473e-07 0 -0.10459244573259571 -0.00013752025588689313 0 -0.10459244573259571 -0.00013752025588689313 0 -0.10438423940200547 7.230664350897825e-05 0 -0.10345708087184237 0.00033078789323093949 0 -0.10396392526545642 0.00044480437800360707 0 -0.10345708087184237 0.00033078789323093949 0 -0.10241895878961324 0.0011842638896854031 0 -0.10396392526545642 0.00044480437800360707 0 -0.10438423940200547 7.230664350897825e-05 0 -0.10345708087184237 0.00033078789323093949 0 -0.10241895878961324 0.0011842638896854031 0 -0.10320668815310466 0.0013735720134012152 0 -0.10198369092355727 0.0022522839778834256 0 -0.10396392526545642 0.00044480437800360707 0 -0.10241895878961324 0.0011842638896854031 0 -0.10320668815310466 0.0013735720134012152 0 -0.10455074777078786 0.00078837131078166294 0 -0.10396392526545642 0.00044480437800360707 0 -0.10320668815310466 0.0013735720134012152 0 -0.10455074777078786 0.00078837131078166294 0 -0.10320668815310466 0.0013735720134012152 0 -0.10264745944227617 0.0028693647725141882 0 -0.10455074777078786 0.00078837131078166294 0 -0.10264745944227617 0.0028693647725141882 0 -0.10444197089969434 0.0033981129457067542 0 -0.10065932452559354 0.0036941687127977295 0 -0.10264745944227617 0.0028693647725141882 0 -0.10198369092355727 0.0022522839778834256 0 -0.10320668815310466 0.0013735720134012152 0 -0.10264745944227617 0.0028693647725141882 0 -0.10198369092355727 0.0022522839778834256 0 -0.10065932452559354 0.0036941687127977295 0 -0.099542785719550317 0.004819985778005716 0 -0.1008103521303159 0.0046673516544861538 0 -0.10065932452559354 0.0036941687127977295 0 -0.10264745944227617 0.0028693647725141882 0 -0.1008103521303159 0.0046673516544861538 0 -0.10264745944227617 0.0028693647725141882 0 -0.1008103521303159 0.0046673516544861538 0 -0.10306494939219057 0.0050060249461745965 0 -0.10264745944227617 0.0028693647725141882 0 -0.10306494939219057 0.0050060249461745965 0 -0.10444197089969434 0.0033981129457067542 0 -0.1008103521303159 0.0046673516544861538 0 -0.10306494939219057 0.0050060249461745965 0 -0.10170232136610761 0.006895754458734844 0 -0.098521812720417143 0.0018536341974576683 0 -0.098163511663975953 0.0016019380115467696 0 -0.10306494939219057 0.0050060249461745965 0 -0.10170232136610761 0.006895754458734844 0 -0.10482918129470357 0.0064998165019052581 0 -0.1008103521303159 0.0046673516544861538 0 -0.099337158271433509 0.0053179256933223338 0 -0.098633210119178527 0.0053230633855323615 0 -0.098521812720417143 0.0018536341974576683 0 -0.098481876001379101 0.0019403754530324768 0 -0.099542785719550317 0.004819985778005716 0 -0.1008103521303159 0.0046673516544861538 0 -0.098633210119178527 0.0053230633855323615 0 -0.098946486158142957 0.0027958523193048839 0 -0.098521812720417143 0.0018536341974576683 0 -0.099542785719550317 0.004819985778005716 0 -0.098798491735184221 0.0048336354809677667 0 -0.098633210119178527 0.0053230633855323615 0 -0.098798491735184221 0.0048336354809677667 0 -0.098633210119178527 0.0053230633855323615 0 -0.097828295288685377 0.0045132827813180662 0 -0.096823084248891286 0.0057195882284550425 0 -0.097444143448149279 0.0048383919392104239 0 -0.096268398642307018 0.0039565240990379171 0 -0.098633210119178527 0.0053230633855323615 0 -0.097444143448149279 0.0048383919392104239 0 -0.097828295288685377 0.0045132827813180662 0 -0.096823084248891286 0.0057195882284550425 0 -0.098633210119178527 0.0053230633855323615 0 -0.097444143448149279 0.0048383919392104239 0 -0.096268398642307018 0.0039565240990379171 0 -0.097828295288685377 0.0045132827813180662 0 -0.097180929113333675 0.0035282115496846531 0 -0.097444143448149279 0.0048383919392104239 0 -0.096268398642307018 0.0039565240990379171 0 -0.097828295288685377 0.0045132827813180662 0 -0.098454039859985507 0.0042491707119057739 0 -0.097828295288685377 0.0045132827813180662 0 -0.097180929113333675 0.0035282115496846531 0 -0.096268398642307018 0.0039565240990379171 0 -0.097180929113333675 0.0035282115496846531 0 -0.095915382617651535 0.0024323562574844549 0 -0.097782530461524769 0.002759534667069677 0 -0.097180929113333675 0.0035282115496846531 0 -0.095915382617651535 0.0024323562574844549 0 -0.096268398642307018 0.0039565240990379171 0 -0.095915382617651535 0.0024323562574844549 0 -0.093668886643241689 0.0027879317087370768 0 -0.096823084248891286 0.0057195882284550425 0 -0.096268398642307018 0.0039565240990379171 0 -0.093668886643241689 0.0027879317087370768 0 -0.092495633676086472 -0.005221021616551285 0 -0.092751115380981755 -0.0042953792678321924 0 -0.092995121245133539 -0.0048292792950124447 0 -0.092495633676086472 -0.005221021616551285 0 -0.092995121245133539 -0.0048292792950124447 0 -0.093307895144169747 -0.0052942579805933575 0 -0.098521812720417143 0.0018536341974576683 0 -0.095116536721917083 -0.0010167273400412489 0 -0.092995121245133539 -0.0048292792950124447 0 -0.093441398017714963 -0.0044800702072396708 0 -0.093307895144169747 -0.0052942579805933575 0 -0.096241594687284701 -0.00070282587980463715 0 -0.098163511663975953 0.0016019380115467696 0 -0.092751115380981755 -0.0042953792678321924 0 -0.092995121245133539 -0.0048292792950124447 0 -0.093441398017714963 -0.0044800702072396708 0 -0.092751115380981755 -0.0042953792678321924 0 -0.093441398017714963 -0.0044800702072396708 0 -0.093224121849919087 -0.0038314943992958867 0 -0.095405154869914716 0.0015185387229171507 0 -0.09532240714822704 0.0014591749712040219 0 -0.095308130173354461 0.0015724209297343266 0 -0.09532240714822704 0.0014591749712040219 0 -0.095308130173354461 0.0015724209297343266 0 -0.095264017629820022 0.0014699552613059645 0 -0.095405154869914716 0.0015185387229171507 0 -0.095308130173354461 0.0015724209297343266 0 -0.095434912156996135 0.0016721251015525303 0 -0.095308130173354461 0.0015724209297343266 0 -0.095434912156996135 0.0016721251015525303 0 -0.09529117448668771 0.0016881095576892853 0 -0.10467582497966078 0.00080199581914878625 0 -0.10475940885503897 0.00070439702515821009 0 -0.10480781714993147 0.0007846567112897735 0 -0.098163511663975953 0.0016019380115467696 0 -0.099088873259863611 0.002990887103350159 0 -0.10306494939219057 0.0050060249461745965 0 -0.10482918129470357 0.0064998165019052581 0 -0.10444197089969434 0.0033981129457067542 0 -0.098163511663975953 0.0016019380115467696 0 -0.1011821871612953 0.0021031645123322962 0 -0.10467582497966078 0.00080199581914878625 0 -0.10466945008310712 0.00064618447402919226 0 -0.10475940885503897 0.00070439702515821009 0 -0.10475940885503897 0.00070439702515821009 0 -0.10485143848270626 0.00067452861285748728 0 -0.10480781714993147 0.0007846567112897735 0 -0.10480002608155202 0.00052123240201309626 0 -0.10466945008310712 0.00064618447402919226 0 -0.10475940885503897 0.00070439702515821009 0 -0.10480002608155202 0.00052123240201309626 0 -0.10475940885503897 0.00070439702515821009 0 -0.10485143848270626 0.00067452861285748728 0 -0.10483991907151249 0.00017608465956645502 0 -0.10484339004571655 0.00014335080492041809 0 -0.10479809054211423 8.3740193104946985e-05 0 -0.10484339004571655 0.00014335080492041809 0 -0.10479809054211423 8.3740193104946985e-05 0 -0.10476440465426726 5.0707506229900193e-06 0 -0.10090631494316206 0.0035412750357077145 0 -0.097365519795698116 0.0053923821130829868 0 -0.10474373920908132 2.8924128308093201e-05 0 -0.10479809054211423 8.3740193104946985e-05 0 -0.10476440465426726 5.0707506229900193e-06 0 -0.10485143848270626 0.00067452861285748728 0 -0.10490351770088942 0.00077887081300726121 0 -0.10480781714993147 0.0007846567112897735 0 -0.097365519795698116 0.0053923821130829868 0 -0.099088873259863611 0.002990887103350159 0 -0.095150236139915204 0.0017125953700526592 0 -0.09529117448668771 0.0016881095576892853 0 -0.095187668443784734 0.0015803020828355247 0 -0.095308130173354461 0.0015724209297343266 0 -0.09529117448668771 0.0016881095576892853 0 -0.095187668443784734 0.0015803020828355247 0 -0.095308130173354461 0.0015724209297343266 0 -0.095264017629820022 0.0014699552613059645 0 -0.095187668443784734 0.0015803020828355247 0 -0.095187668443784734 0.0015803020828355247 0 -0.095031024357572338 0.0016007088079775004 0 -0.09511688431758232 0.0014525652695300075 0 -0.095264017629820022 0.0014699552613059645 0 -0.095187668443784734 0.0015803020828355247 0 -0.09511688431758232 0.0014525652695300075 0 -0.095150236139915204 0.0017125953700526592 0 -0.095187668443784734 0.0015803020828355247 0 -0.095031024357572338 0.0016007088079775004 0 -0.097365519795698116 0.0053923821130829868 0 -0.090945563566066187 0.010929962590188016 0 -0.090945563566066187 0.010929962590188016 0 -0.089054094233317935 0.011987224611968 0 -0.081955038992986812 0.023840770053898109 0 -0.081671298996869479 0.023562302456505781 0 -0.082149379452266746 0.023553996739834316 0 -0.080771058916133467 0.023519598782140005 0 -0.081671298996869479 0.023562302456505781 0 -0.083114653766222582 0.022946051917865858 0 -0.090945563566066187 0.010929962590188016 0 -0.089831752879310112 0.014141385496801969 0 -0.080771058916133467 0.023519598782140005 0 -0.083114653766222582 0.022946051917865858 0 -0.082685924831750718 0.017991206045472396 0 -0.090945563566066187 0.010929962590188016 0 -0.093968930768550132 0.0082103433926620437 0 -0.083114653766222582 0.022946051917865858 0 -0.082685924831750718 0.017991206045472396 0 -0.087839886995592101 0.017087109589125717 0 -0.093968930768550132 0.0082103433926620437 0 -0.092499168580710903 0.0087673969709237756 0 -0.097365519795698116 0.0053923821130829868 0 -0.093968930768550132 0.0082103433926620437 0 -0.10476440465426726 5.0707506229900193e-06 0 -0.10467707704168924 -2.002415004883557e-05 0 -0.1046878790431182 -2.0652957955661568e-05 0 -0.094072751373817473 0.0074970373211680815 0 -0.093552363699282146 0.0069361774940283113 0 -0.093218888713272705 0.0075692211665294544 0 -0.10474373920908132 2.8924128308093201e-05 0 -0.10476440465426726 5.0707506229900193e-06 0 -0.1046878790431182 -2.0652957955661568e-05 0 -0.093968930768550132 0.0082103433926620437 0 -0.096316739558243977 0.0057358865953382361 0 -0.10467707704168924 -2.002415004883557e-05 0 -0.1046878790431182 -2.0652957955661568e-05 0 -0.10466121725013847 -7.1727483480799246e-05 0 -0.084016878039245194 0.017393491684651478 0 -0.08908996733852681 0.010487659176310978 0 -0.087839886995592101 0.017087109589125717 0 -0.080596338430576689 0.021490321438826145 0 -0.08072135014028918 0.022361220095628954 0 -0.079779384079474838 0.021606538023937933 0 -0.080596338430576689 0.021490321438826145 0 -0.081579237079218894 0.02106258646328368 0 -0.080472363773619174 0.02058986231967511 0 -0.080596338430576689 0.021490321438826145 0 -0.081579237079218894 0.02106258646328368 0 -0.081667940738141556 0.022207290322063141 0 -0.081579237079218894 0.02106258646328368 0 -0.081667940738141556 0.022207290322063141 0 -0.082607850826023815 0.021608638565774125 0 -0.081667940738141556 0.022207290322063141 0 -0.08072135014028918 0.022361220095628954 0 -0.081541043037319447 0.023085549082908611 0 -0.080596338430576689 0.021490321438826145 0 -0.081667940738141556 0.022207290322063141 0 -0.08072135014028918 0.022361220095628954 0 -0.08072135014028918 0.022361220095628954 0 -0.081541043037319447 0.023085549082908611 0 -0.080811338558882451 0.023037415973561733 0 -0.081671298996869479 0.023562302456505781 0 -0.081541043037319447 0.023085549082908611 0 -0.080811338558882451 0.023037415973561733 0 -0.081671298996869479 0.023562302456505781 0 -0.081541043037319447 0.023085549082908611 0 -0.082149379452266746 0.023553996739834316 0 -0.081541043037319447 0.023085549082908611 0 -0.082779315717595323 0.022958330634780116 0 -0.082149379452266746 0.023553996739834316 0 -0.081667940738141556 0.022207290322063141 0 -0.081541043037319447 0.023085549082908611 0 -0.082779315717595323 0.022958330634780116 0 -0.088058726456435935 0.011469064804855279 0 -0.089054094233317935 0.011987224611968 0 -0.095264017629820022 0.0014699552613059645 0 -0.09511688431758232 0.0014525652695300075 0 -0.095247264254818942 0.0013892540825523197 0 -0.09526121308059228 0.0013345497154896933 0 -0.09511688431758232 0.0014525652695300075 0 -0.095247264254818942 0.0013892540825523197 0 -0.095264017629820022 0.0014699552613059645 0 -0.095247264254818942 0.0013892540825523197 0 -0.095291535729760929 0.0013964164639129249 0 -0.095247264254818942 0.0013892540825523197 0 -0.095277556975513433 0.0013336414446897835 0 -0.095291535729760929 0.0013964164639129249 0 -0.09526121308059228 0.0013345497154896933 0 -0.095297019719575313 0.0013387143205934775 0 -0.095277556975513433 0.0013336414446897835 0 -0.09526121308059228 0.0013345497154896933 0 -0.095247264254818942 0.0013892540825523197 0 -0.095277556975513433 0.0013336414446897835 0 -0.09526121308059228 0.0013345497154896933 0 -0.095534504993420102 0.0014531933957822399 0 -0.095297019719575313 0.0013387143205934775 0 -0.088058726456435935 0.011469064804855279 0 -0.08656923058246703 0.010452395084003462 0 -0.095534504993420102 0.0014531933957822399 0 -0.095202599279235439 0.0014722326081962524 0 -0.095297019719575313 0.0013387143205934775 0 -0.081667940738141556 0.022207290322063141 0 -0.082779315717595323 0.022958330634780116 0 -0.082607850826023815 0.021608638565774125 0 -0.082779315717595323 0.022958330634780116 0 -0.082607850826023815 0.021608638565774125 0 -0.083843941770647398 0.021847698336296285 0 -0.082607850826023815 0.021608638565774125 0 -0.083534745941630031 0.020920380269623493 0 -0.08267192543940094 0.020407554446143842 0 -0.081579237079218894 0.02106258646328368 0 -0.082607850826023815 0.021608638565774125 0 -0.08267192543940094 0.020407554446143842 0 -0.083843941770647398 0.021847698336296285 0 -0.085193674457409233 0.02023322696423643 0 -0.083534745941630031 0.020920380269623493 0 -0.082607850826023815 0.021608638565774125 0 -0.083843941770647398 0.021847698336296285 0 -0.083534745941630031 0.020920380269623493 0 -0.08656923058246703 0.010452395084003462 0 -0.083008843015814515 0.00934101322123977 0 -0.094802661007228312 0.0019473968236045668 0 -0.093474323485696106 -0.00014584311196550329 0 -0.094167136172793153 -0.0015422085187523126 0 -0.095534504993420102 0.0014531933957822399 0 -0.094802661007228312 0.0019473968236045668 0 -0.09542365136508861 0.0032310146298746242 0 -0.094802661007228312 0.0019473968236045668 0 -0.095160303872810117 0.0012987932812935669 0 -0.095202599279235439 0.0014722326081962524 0 -0.095534504993420102 0.0014531933957822399 0 -0.094802661007228312 0.0019473968236045668 0 -0.095202599279235439 0.0014722326081962524 0 -0.095164976143819607 0.00082189704457888034 0 -0.095187181311592442 0.00011279537763102711 0 -0.094802661007228312 0.0019473968236045668 0 -0.093004411031913203 0.0019788219896851185 0 -0.093474323485696106 -0.00014584311196550329 0 -0.093474323485696106 -0.00014584311196550329 0 -0.091429743870929683 -0.00023721120588420576 0 -0.091738095717973686 0.0014505247350598887 0 -0.093004411031913203 0.0019788219896851185 0 -0.093474323485696106 -0.00014584311196550329 0 -0.091738095717973686 0.0014505247350598887 0 -0.093004411031913203 0.0019788219896851185 0 -0.091738095717973686 0.0014505247350598887 0 -0.091557029899902831 0.0028648727971026565 0 -0.093474323485696106 -0.00014584311196550329 0 -0.094167136172793153 -0.0015422085187523126 0 -0.09292743444041969 -0.0029491868695473576 0 -0.093474323485696106 -0.00014584311196550329 0 -0.091631873175052947 -0.0015150737683949423 0 -0.092074606184893451 -0.0013595863925323921 0 -0.093782162942016745 -0.00094525549889220098 0 -0.093843863329526572 -0.0015369111036565876 0 -0.093474323485696106 -0.00014584311196550329 0 -0.092074606184893451 -0.0013595863925323921 0 -0.091429743870929683 -0.00023721120588420576 0 -0.095160303872810117 0.0012987932812935669 0 -0.095202599279235439 0.0014722326081962524 0 -0.095297019719575313 0.0013387143205934775 0 -0.095160303872810117 0.0012987932812935669 0 -0.095297019719575313 0.0013387143205934775 0 -0.095277556975513433 0.0013336414446897835 0 -0.095187181311592442 0.00011279537763102711 0 -0.095450350302193954 -0.00068115546362747801 0 -0.095160303872810117 0.0012987932812935669 0 -0.095277556975513433 0.0013336414446897835 0 -0.095334449166606258 0.0013666633724691518 0 -0.095405154869914716 0.0015185387229171507 0 -0.09532240714822704 0.0014591749712040219 0 -0.095334449166606258 0.0013666633724691518 0 -0.095277556975513433 0.0013336414446897835 0 -0.095291535729760929 0.0013964164639129249 0 -0.095334449166606258 0.0013666633724691518 0 -0.09532240714822704 0.0014591749712040219 0 -0.095291535729760929 0.0013964164639129249 0 -0.095334449166606258 0.0013666633724691518 0 -0.09532240714822704 0.0014591749712040219 0 -0.095264017629820022 0.0014699552613059645 0 -0.095291535729760929 0.0013964164639129249 0 -0.093441398017714963 -0.0044800702072396708 0 -0.093224121849919087 -0.0038314943992958867 0 -0.093716568242359022 -0.0034602270243973285 0 -0.093224121849919087 -0.0038314943992958867 0 -0.093716568242359022 -0.0034602270243973285 0 -0.09292743444041969 -0.0029491868695473576 0 -0.096241594687284701 -0.00070282587980463715 0 -0.095450350302193954 -0.00068115546362747801 0 -0.092751115380981755 -0.0042953792678321924 0 -0.093224121849919087 -0.0038314943992958867 0 -0.09292743444041969 -0.0029491868695473576 0 -0.094167136172793153 -0.0015422085187523126 0 -0.093716568242359022 -0.0034602270243973285 0 -0.09292743444041969 -0.0029491868695473576 0 -0.091631873175052947 -0.0015150737683949423 0 -0.093801819426181501 0.00037383596907876839 0 -0.091790349758979956 -0.0029008064954505917 0 -0.091631873175052947 -0.0015150737683949423 0 -0.091790349758979956 -0.0029008064954505917 0 -0.092074606184893451 -0.0013595863925323921 0 -0.095915382617651535 0.0024323562574844549 0 -0.093668886643241689 0.0027879317087370768 0 -0.093801819426181501 0.00037383596907876839 0 -0.093668886643241689 0.0027879317087370768 0 -0.091631873175052947 -0.0015150737683949423 0 -0.093801819426181501 0.00037383596907876839 0 -0.095116536721917083 -0.0010167273400412489 0 -0.093843863329526572 -0.0015369111036565876 0 -0.097782530461524769 0.002759534667069677 0 -0.095915382617651535 0.0024323562574844549 0 -0.096279630115958803 0.000867215645470067 0 -0.095915382617651535 0.0024323562574844549 0 -0.093801819426181501 0.00037383596907876839 0 -0.096279630115958803 0.000867215645470067 0 -0.093801819426181501 0.00037383596907876839 0 -0.096279630115958803 0.000867215645470067 0 -0.091790349758979956 -0.0029008064954505917 0 -0.096279630115958803 0.000867215645470067 0 -0.091790349758979956 -0.0029008064954505917 0 -0.09751617105819417 -0.0012036183063286745 0 -0.091790349758979956 -0.0029008064954505917 0 -0.091429743870929683 -0.00023721120588420576 0 -0.085947403409699571 0.00080506151993052684 0 -0.091790349758979956 -0.0029008064954505917 0 -0.085947403409699571 0.00080506151993052684 0 -0.081628481066074121 -0.0064933162229187718 0 -0.088493645030141607 -0.0024991131053158293 0 -0.086952692556799438 -0.0023147115344582664 0 -0.091790349758979956 -0.0029008064954505917 0 -0.092074606184893451 -0.0013595863925323921 0 -0.091429743870929683 -0.00023721120588420576 0 -0.091429743870929683 -0.00023721120588420576 0 -0.089760369832457276 0.0017305022384950747 0 -0.085947403409699571 0.00080506151993052684 0 -0.091429743870929683 -0.00023721120588420576 0 -0.091738095717973686 0.0014505247350598887 0 -0.089760369832457276 0.0017305022384950747 0 -0.091738095717973686 0.0014505247350598887 0 -0.089760369832457276 0.0017305022384950747 0 -0.090286016599170557 0.0029013665383584458 0 -0.089760369832457276 0.0017305022384950747 0 -0.085947403409699571 0.00080506151993052684 0 -0.088877701630752565 0.0031887847493326975 0 -0.085947403409699571 0.00080506151993052684 0 -0.088083549575055417 0.0048819292948796599 0 -0.088877701630752565 0.0031887847493326975 0 -0.085947403409699571 0.00080506151993052684 0 -0.087080709238477258 0.010320829757462763 0 -0.082694533589294544 0.0053292566490188214 0 -0.079241898357401752 0.0052763839408984338 0 -0.077425844269371533 0.0075522342555921036 0 -0.088083549575055417 0.0048819292948796599 0 -0.089054684912561979 0.0044806492524500944 0 -0.088877701630752565 0.0031887847493326975 0 -0.087080709238477258 0.010320829757462763 0 -0.083903380485002427 0.010779007567642693 0 -0.082694533589294544 0.0053292566490188214 0 -0.089760369832457276 0.0017305022384950747 0 -0.088877701630752565 0.0031887847493326975 0 -0.090286016599170557 0.0029013665383584458 0 -0.088877701630752565 0.0031887847493326975 0 -0.090286016599170557 0.0029013665383584458 0 -0.089763038047420057 0.0039236104589030407 0 -0.091738095717973686 0.0014505247350598887 0 -0.090286016599170557 0.0029013665383584458 0 -0.091557029899902831 0.0028648727971026565 0 -0.090286016599170557 0.0029013665383584458 0 -0.091557029899902831 0.0028648727971026565 0 -0.090997102766861682 0.0041229540418875272 0 -0.091557029899902831 0.0028648727971026565 0 -0.090997102766861682 0.0041229540418875272 0 -0.092302637845979058 0.0035026001719364727 0 -0.090286016599170557 0.0029013665383584458 0 -0.090997102766861682 0.0041229540418875272 0 -0.089763038047420057 0.0039236104589030407 0 -0.089054684912561979 0.0044806492524500944 0 -0.088877701630752565 0.0031887847493326975 0 -0.089763038047420057 0.0039236104589030407 0 -0.090997102766861682 0.0041229540418875272 0 -0.089763038047420057 0.0039236104589030407 0 -0.090093405996525683 0.0047384384099605475 0 -0.089054684912561979 0.0044806492524500944 0 -0.089763038047420057 0.0039236104589030407 0 -0.090093405996525683 0.0047384384099605475 0 -0.089054684912561979 0.0044806492524500944 0 -0.090093405996525683 0.0047384384099605475 0 -0.089528035721745253 0.0058202174241958953 0 -0.089528035721745253 0.0058202174241958953 0 -0.090441335287395355 0.0068533286532601774 0 -0.089001671103351623 0.0084862422081078501 0 -0.090093405996525683 0.0047384384099605475 0 -0.089528035721745253 0.0058202174241958953 0 -0.090676347644890687 0.005387359659688562 0 -0.090676347644890687 0.005387359659688562 0 -0.091654683997360015 0.0063127979465636697 0 -0.092104281291066376 0.0047231740175801822 0 -0.090997102766861682 0.0041229540418875272 0 -0.090093405996525683 0.0047384384099605475 0 -0.090676347644890687 0.005387359659688562 0 -0.090997102766861682 0.0041229540418875272 0 -0.090676347644890687 0.005387359659688562 0 -0.092104281291066376 0.0047231740175801822 0 -0.090676347644890687 0.005387359659688562 0 -0.090441335287395355 0.0068533286532601774 0 -0.091654683997360015 0.0063127979465636697 0 -0.090441335287395355 0.0068533286532601774 0 -0.091151237211519007 0.0077420352884112727 0 -0.091654683997360015 0.0063127979465636697 0 -0.089528035721745253 0.0058202174241958953 0 -0.090676347644890687 0.005387359659688562 0 -0.090441335287395355 0.0068533286532601774 0 -0.086804825990962078 0.012147967973976942 0 -0.089062406835075922 0.019269051620449101 0 -0.08109195719804782 0.015269757176552396 0 -0.077425844269371533 0.0075522342555921036 0 -0.068291296087308398 0.0045897609931006174 0 -0.071779696469630297 0.00530346478108157 0 -0.066549323642945399 0.0060373734864674023 0 -0.086804825990962078 0.012147967973976942 0 -0.083903380485002427 0.010779007567642693 0 -0.080611209803346046 0.015895144199517826 0 -0.088083549575055417 0.0048819292948796599 0 -0.089528035721745253 0.0058202174241958953 0 -0.089001671103351623 0.0084862422081078501 0 -0.087080709238477258 0.010320829757462763 0 -0.086804825990962078 0.012147967973976942 0 -0.089062406835075922 0.019269051620449101 0 -0.088083549575055417 0.0048819292948796599 0 -0.089054684912561979 0.0044806492524500944 0 -0.089528035721745253 0.0058202174241958953 0 -0.087080709238477258 0.010320829757462763 0 -0.086804825990962078 0.012147967973976942 0 -0.083903380485002427 0.010779007567642693 0 -0.068291296087308398 0.0045897609931006174 0 -0.066549323642945399 0.0060373734864674023 0 -0.049797127991737675 -0.0014099698902397804 0 -0.049413765358807121 -0.0016254533523158054 0 -0.049439336772397924 -0.0012290561704586009 0 -0.049797127991737675 -0.0014099698902397804 0 -0.049670999513967452 -0.0012012528864606183 0 -0.049439336772397924 -0.0012290561704586009 0 -0.049797127991737675 -0.0014099698902397804 0 -0.049670999513967452 -0.0012012528864606183 0 -0.049824321143569918 -0.0011017798373982657 0 -0.049670999513967452 -0.0012012528864606183 0 -0.049607074887252321 -0.0010740150373955888 0 -0.049824321143569918 -0.0011017798373982657 0 -0.049670999513967452 -0.0012012528864606183 0 -0.049439336772397924 -0.0012290561704586009 0 -0.049607074887252321 -0.0010740150373955888 0 -0.052093760795243575 -0.00049605793925851748 0 -0.052047437213926573 -0.00054034286713356338 0 -0.052021237434146571 -0.00052029467901815066 0 -0.052093760795243575 -0.00049605793925851748 0 -0.052052530423017558 -0.00052385149216307915 0 -0.052047437213926573 -0.00054034286713356338 0 -0.068291296087308398 0.0045897609931006174 0 -0.059240497651691482 -0.00047288841291310218 0 -0.089001671103351623 0.0084862422081078501 0 -0.091151237211519007 0.0077420352884112727 0 -0.092119443386491612 0.010085741457152145 0 -0.068291296087308398 0.0045897609931006174 0 -0.069107584661593849 0.0022665486759276244 0 -0.090441335287395355 0.0068533286532601774 0 -0.089001671103351623 0.0084862422081078501 0 -0.091151237211519007 0.0077420352884112727 0 -0.091151237211519007 0.0077420352884112727 0 -0.092343574262075984 0.0074526535503366183 0 -0.091654683997360015 0.0063127979465636697 0 -0.091151237211519007 0.0077420352884112727 0 -0.092343574262075984 0.0074526535503366183 0 -0.092119443386491612 0.010085741457152145 0 -0.074228759841469913 0.0091130463199393334 0 -0.069107584661593849 0.0022665486759276244 0 -0.054981862120677051 0.0035591003277952076 0 -0.056139281269348397 0.0012988095263070203 0 -0.05474452976607392 0.001993367296423825 0 -0.092343574262075984 0.0074526535503366183 0 -0.093763106497355031 0.0070934144828792524 0 -0.092119443386491612 0.010085741457152145 0 -0.056139281269348397 0.0012988095263070203 0 -0.054269610632556538 0.0012342393511111831 0 -0.05474452976607392 0.001993367296423825 0 -0.069107584661593849 0.0022665486759276244 0 -0.059573275946345441 -0.00080572140746557454 0 -0.052080431999973219 -0.00061362756611984398 0 -0.052114545786044832 -0.00055355946921819784 0 -0.05223115343744366 -0.00059685315367766364 0 -0.069107584661593849 0.0022665486759276244 0 -0.068553488875663288 0.0025128379796097093 0 -0.052114545786044832 -0.00055355946921819784 0 -0.052047437213926573 -0.00054034286713356338 0 -0.05207109300019451 -0.00050234882346007694 0 -0.052080431999973219 -0.00061362756611984398 0 -0.052114545786044832 -0.00055355946921819784 0 -0.052047437213926573 -0.00054034286713356338 0 -0.054175439214303456 0.0004126629480455842 0 -0.053409934363617934 0.0011799777396848128 0 -0.052561383497921811 -0.00025139261760154491 0 -0.056139281269348397 0.0012988095263070203 0 -0.054175439214303456 0.0004126629480455842 0 -0.054269610632556538 0.0012342393511111831 0 -0.054269610632556538 0.0012342393511111831 0 -0.053409934363617934 0.0011799777396848128 0 -0.05474452976607392 0.001993367296423825 0 -0.054175439214303456 0.0004126629480455842 0 -0.054269610632556538 0.0012342393511111831 0 -0.053409934363617934 0.0011799777396848128 0 -0.086464029172476004 0.018220310394924118 0 -0.08537380793815455 0.016267094376083212 0 -0.085386269512031127 0.017608524785193438 0 -0.074228759841469913 0.0091130463199393334 0 -0.071482461338072317 0.0075842346481297257 0 -0.08537380793815455 0.016267094376083212 0 -0.085386269512031127 0.017608524785193438 0 -0.084872533162400662 0.016984243410867669 0 -0.054981862120677051 0.0035591003277952076 0 -0.053409934363617934 0.0011799777396848128 0 -0.05474452976607392 0.001993367296423825 0 -0.086464029172476004 0.018220310394924118 0 -0.085386269512031127 0.017608524785193438 0 -0.08563989697695841 0.018250596073840455 0 -0.085386269512031127 0.017608524785193438 0 -0.084973959929693352 0.018379234944633002 0 -0.08563989697695841 0.018250596073840455 0 -0.084973959929693352 0.018379234944633002 0 -0.085339011648785226 0.018890394429005357 0 -0.084538501920338099 0.01936132804175061 0 -0.086464029172476004 0.018220310394924118 0 -0.085339011648785226 0.018890394429005357 0 -0.085193674457409233 0.02023322696423643 0 -0.093854848359705312 0.0070990435959795654 0 -0.093597777341889427 0.0048403886358748668 0 -0.09542365136508861 0.0032310146298746242 0 -0.074228759841469913 0.0091130463199393334 0 -0.083008843015814515 0.00934101322123977 0 -0.084973959929693352 0.018379234944633002 0 -0.08563989697695841 0.018250596073840455 0 -0.085339011648785226 0.018890394429005357 0 -0.085339011648785226 0.018890394429005357 0 -0.085193674457409233 0.02023322696423643 0 -0.084538501920338099 0.01936132804175061 0 -0.086464029172476004 0.018220310394924118 0 -0.08563989697695841 0.018250596073840455 0 -0.085339011648785226 0.018890394429005357 0 -0.074228759841469913 0.0091130463199393334 0 -0.075144268284545401 0.009581963294834888 0 -0.092343574262075984 0.0074526535503366183 0 -0.093763106497355031 0.0070934144828792524 0 -0.093049434035683887 0.0059606562869448454 0 -0.093854848359705312 0.0070990435959795654 0 -0.093049434035683887 0.0059606562869448454 0 -0.093597777341889427 0.0048403886358748668 0 -0.092343574262075984 0.0074526535503366183 0 -0.093049434035683887 0.0059606562869448454 0 -0.091654683997360015 0.0063127979465636697 0 -0.093049434035683887 0.0059606562869448454 0 -0.091654683997360015 0.0063127979465636697 0 -0.092104281291066376 0.0047231740175801822 0 -0.093049434035683887 0.0059606562869448454 0 -0.092104281291066376 0.0047231740175801822 0 -0.093597777341889427 0.0048403886358748668 0 -0.092104281291066376 0.0047231740175801822 0 -0.093597777341889427 0.0048403886358748668 0 -0.093537431024588627 0.0033229379092788039 0 -0.090997102766861682 0.0041229540418875272 0 -0.092104281291066376 0.0047231740175801822 0 -0.092302637845979058 0.0035026001719364727 0 -0.092104281291066376 0.0047231740175801822 0 -0.093537431024588627 0.0033229379092788039 0 -0.092302637845979058 0.0035026001719364727 0 -0.093004411031913203 0.0019788219896851185 0 -0.091557029899902831 0.0028648727971026565 0 -0.092302637845979058 0.0035026001719364727 0 -0.094802661007228312 0.0019473968236045668 0 -0.093004411031913203 0.0019788219896851185 0 -0.093537431024588627 0.0033229379092788039 0 -0.093004411031913203 0.0019788219896851185 0 -0.093537431024588627 0.0033229379092788039 0 -0.092302637845979058 0.0035026001719364727 0 -0.094802661007228312 0.0019473968236045668 0 -0.093537431024588627 0.0033229379092788039 0 -0.09542365136508861 0.0032310146298746242 0 -0.093597777341889427 0.0048403886358748668 0 -0.093537431024588627 0.0033229379092788039 0 -0.09542365136508861 0.0032310146298746242 0 -0.085193674457409233 0.02023322696423643 0 -0.083801988115846993 0.020013650830963233 0 -0.083534745941630031 0.020920380269623493 0 -0.085193674457409233 0.02023322696423643 0 -0.083801988115846993 0.020013650830963233 0 -0.084538501920338099 0.01936132804175061 0 -0.083801988115846993 0.020013650830963233 0 -0.08267192543940094 0.020407554446143842 0 -0.083337664367309508 0.019041961285319094 0 -0.083801988115846993 0.020013650830963233 0 -0.083534745941630031 0.020920380269623493 0 -0.08267192543940094 0.020407554446143842 0 -0.083337664367309508 0.019041961285319094 0 -0.082290397008428176 0.018381645505314646 0 -0.081562332538674107 0.019675339553911979 0 -0.08267192543940094 0.020407554446143842 0 -0.083337664367309508 0.019041961285319094 0 -0.081562332538674107 0.019675339553911979 0 -0.083337664367309508 0.019041961285319094 0 -0.084188242442845368 0.018448505409068922 0 -0.083447360857147795 0.01762525147072359 0 -0.083337664367309508 0.019041961285319094 0 -0.084188242442845368 0.018448505409068922 0 -0.084538501920338099 0.01936132804175061 0 -0.083801988115846993 0.020013650830963233 0 -0.083337664367309508 0.019041961285319094 0 -0.084538501920338099 0.01936132804175061 0 -0.084973959929693352 0.018379234944633002 0 -0.084188242442845368 0.018448505409068922 0 -0.084538501920338099 0.01936132804175061 0 -0.085386269512031127 0.017608524785193438 0 -0.084973959929693352 0.018379234944633002 0 -0.084650265993092721 0.017700066122104913 0 -0.084973959929693352 0.018379234944633002 0 -0.084188242442845368 0.018448505409068922 0 -0.084650265993092721 0.017700066122104913 0 -0.084188242442845368 0.018448505409068922 0 -0.084650265993092721 0.017700066122104913 0 -0.083447360857147795 0.01762525147072359 0 -0.084281194633737164 0.017008327420077213 0 -0.083752730267317915 0.01644382372799141 0 -0.083447360857147795 0.01762525147072359 0 -0.084650265993092721 0.017700066122104913 0 -0.084281194633737164 0.017008327420077213 0 -0.083447360857147795 0.01762525147072359 0 -0.085386269512031127 0.017608524785193438 0 -0.084650265993092721 0.017700066122104913 0 -0.084872533162400662 0.016984243410867669 0 -0.084650265993092721 0.017700066122104913 0 -0.084281194633737164 0.017008327420077213 0 -0.084872533162400662 0.016984243410867669 0 -0.084281194633737164 0.017008327420077213 0 -0.084872533162400662 0.016984243410867669 0 -0.084497984520270311 0.0164654916597676 0 -0.08537380793815455 0.016267094376083212 0 -0.084170999188747722 0.015606338218765191 0 -0.084308991595857238 0.013931715433374967 0 -0.071482461338072317 0.0075842346481297257 0 -0.070200422480574343 0.0059969046651336608 0 -0.08537380793815455 0.016267094376083212 0 -0.084497984520270311 0.0164654916597676 0 -0.084170999188747722 0.015606338218765191 0 -0.08537380793815455 0.016267094376083212 0 -0.084872533162400662 0.016984243410867669 0 -0.084497984520270311 0.0164654916597676 0 -0.084497984520270311 0.0164654916597676 0 -0.083752730267317915 0.01644382372799141 0 -0.084170999188747722 0.015606338218765191 0 -0.083752730267317915 0.01644382372799141 0 -0.084170999188747722 0.015606338218765191 0 -0.083260884385516307 0.015815386030396662 0 -0.084281194633737164 0.017008327420077213 0 -0.084497984520270311 0.0164654916597676 0 -0.083752730267317915 0.01644382372799141 0 -0.08232756822446545 0.015764590851028118 0 -0.083260884385516307 0.015815386030396662 0 -0.083118898495357474 0.014739023482145739 0 -0.084170999188747722 0.015606338218765191 0 -0.083260884385516307 0.015815386030396662 0 -0.083118898495357474 0.014739023482145739 0 -0.083752730267317915 0.01644382372799141 0 -0.083260884385516307 0.015815386030396662 0 -0.082921947253405362 0.016572179919704676 0 -0.08232756822446545 0.015764590851028118 0 -0.082921947253405362 0.016572179919704676 0 -0.082065889277305015 0.017216320658601625 0 -0.08232756822446545 0.015764590851028118 0 -0.083260884385516307 0.015815386030396662 0 -0.082921947253405362 0.016572179919704676 0 -0.082921947253405362 0.016572179919704676 0 -0.083447360857147795 0.01762525147072359 0 -0.082065889277305015 0.017216320658601625 0 -0.083752730267317915 0.01644382372799141 0 -0.082921947253405362 0.016572179919704676 0 -0.083447360857147795 0.01762525147072359 0 -0.083337664367309508 0.019041961285319094 0 -0.083447360857147795 0.01762525147072359 0 -0.082290397008428176 0.018381645505314646 0 -0.083447360857147795 0.01762525147072359 0 -0.082290397008428176 0.018381645505314646 0 -0.082065889277305015 0.017216320658601625 0 -0.080822805653715857 0.018256738322100077 0 -0.082065889277305015 0.017216320658601625 0 -0.081094041900604069 0.016222670283405946 0 -0.082290397008428176 0.018381645505314646 0 -0.080822805653715857 0.018256738322100077 0 -0.082065889277305015 0.017216320658601625 0 -0.08232756822446545 0.015764590851028118 0 -0.082065889277305015 0.017216320658601625 0 -0.081094041900604069 0.016222670283405946 0 -0.08232756822446545 0.015764590851028118 0 -0.081094041900604069 0.016222670283405946 0 -0.08150635321478146 0.014340813401102643 0 -0.079533175401734671 0.016862634585705846 0 -0.079024476875236158 0.014291327015807667 0 -0.077583400728979651 0.016534171031132253 0 -0.081094041900604069 0.016222670283405946 0 -0.079533175401734671 0.016862634585705846 0 -0.079024476875236158 0.014291327015807667 0 -0.080822805653715857 0.018256738322100077 0 -0.079533175401734671 0.016862634585705846 0 -0.078927802678944975 0.018519898299772419 0 -0.080822805653715857 0.018256738322100077 0 -0.081094041900604069 0.016222670283405946 0 -0.079533175401734671 0.016862634585705846 0 -0.080822805653715857 0.018256738322100077 0 -0.079922639832354508 0.019594081129289356 0 -0.078927802678944975 0.018519898299772419 0 -0.082290397008428176 0.018381645505314646 0 -0.080822805653715857 0.018256738322100077 0 -0.081562332538674107 0.019675339553911979 0 -0.080822805653715857 0.018256738322100077 0 -0.079922639832354508 0.019594081129289356 0 -0.081562332538674107 0.019675339553911979 0 -0.081579237079218894 0.02106258646328368 0 -0.081562332538674107 0.019675339553911979 0 -0.080472363773619174 0.02058986231967511 0 -0.081579237079218894 0.02106258646328368 0 -0.08267192543940094 0.020407554446143842 0 -0.081562332538674107 0.019675339553911979 0 -0.079922639832354508 0.019594081129289356 0 -0.081562332538674107 0.019675339553911979 0 -0.080472363773619174 0.02058986231967511 0 -0.079922639832354508 0.019594081129289356 0 -0.080472363773619174 0.02058986231967511 0 -0.079389921765234975 0.020787482314772791 0 -0.080596338430576689 0.021490321438826145 0 -0.080472363773619174 0.02058986231967511 0 -0.079389921765234975 0.020787482314772791 0 -0.061509523416166362 0.00068734586597443237 0 -0.061771006387397763 -7.7178303304986689e-05 0 -0.061925339718040567 -1.9909112196283089e-05 0 -0.061509523416166362 0.00068734586597443237 0 -0.061925339718040567 -1.9909112196283089e-05 0 -0.063627248716140131 0.000457728247390678 0 -0.064720227119498791 0.00095434224074058963 0 -0.073778279735921562 8.2112588151789128e-05 0 -0.061509523416166362 0.00068734586597443237 0 -0.062202113492024293 -0.00077644422883499267 0 -0.061771006387397763 -7.7178303304986689e-05 0 -0.061509523416166362 0.00068734586597443237 0 -0.062202113492024293 -0.00077644422883499267 0 -0.063170459927580816 -0.0026964068756169593 0 -0.062202113492024293 -0.00077644422883499267 0 -0.061771006387397763 -7.7178303304986689e-05 0 -0.061790461839168288 8.0616270229868961e-05 0 -0.062202113492024293 -0.00077644422883499267 0 -0.061790461839168288 8.0616270229868961e-05 0 -0.062599211907484215 -5.6826987536369486e-05 0 -0.061790461839168288 8.0616270229868961e-05 0 -0.061951553658822885 0.00067765578288665914 0 -0.062599211907484215 -5.6826987536369486e-05 0 -0.061790461839168288 8.0616270229868961e-05 0 -0.061951553658822885 0.00067765578288665914 0 -0.061515776340896243 0.0002914672467338823 0 -0.061925339718040567 -1.9909112196283089e-05 0 -0.061956810040727617 -0.00013392872794502989 0 -0.061515776340896243 0.0002914672467338823 0 -0.061925339718040567 -1.9909112196283089e-05 0 -0.061956810040727617 -0.00013392872794502989 0 -0.06340562729664688 -7.5987382840809025e-05 0 -0.061790461839168288 8.0616270229868961e-05 0 -0.061925339718040567 -1.9909112196283089e-05 0 -0.061515776340896243 0.0002914672467338823 0 -0.061771006387397763 -7.7178303304986689e-05 0 -0.061790461839168288 8.0616270229868961e-05 0 -0.061925339718040567 -1.9909112196283089e-05 0 -0.061956810040727617 -0.00013392872794502989 0 -0.06340562729664688 -7.5987382840809025e-05 0 -0.062275968607020393 -0.00042466196201506728 0 -0.06340562729664688 -7.5987382840809025e-05 0 -0.065391477762511682 -5.1520454136641813e-05 0 -0.062275968607020393 -0.00042466196201506728 0 -0.061925339718040567 -1.9909112196283089e-05 0 -0.06340562729664688 -7.5987382840809025e-05 0 -0.063627248716140131 0.000457728247390678 0 -0.06340562729664688 -7.5987382840809025e-05 0 -0.065391477762511682 -5.1520454136641813e-05 0 -0.065400363102198197 0.00043669947493324277 0 -0.067209215072815881 -4.7830855820411298e-07 0 -0.065391477762511682 -5.1520454136641813e-05 0 -0.062275968607020393 -0.00042466196201506728 0 -0.067209215072815881 -4.7830855820411298e-07 0 -0.065391477762511682 -5.1520454136641813e-05 0 -0.069344759609143908 0.00033908361117041951 0 -0.067209215072815881 -4.7830855820411298e-07 0 -0.069344759609143908 0.00033908361117041951 0 -0.072779709176982149 1.9771454906849635e-06 0 -0.069344759609143908 0.00033908361117041951 0 -0.066894160818825363 0.0022955414232928599 0 -0.068113928728703171 0.0048107663318262706 0 -0.065391477762511682 -5.1520454136641813e-05 0 -0.069344759609143908 0.00033908361117041951 0 -0.065400363102198197 0.00043669947493324277 0 -0.069344759609143908 0.00033908361117041951 0 -0.065400363102198197 0.00043669947493324277 0 -0.066894160818825363 0.0022955414232928599 0 -0.064720227119498791 0.00095434224074058963 0 -0.065372657752484825 0.0012858747845532344 0 -0.061509523416166362 0.00068734586597443237 0 -0.066894160818825363 0.0022955414232928599 0 -0.063627248716140131 0.000457728247390678 0 -0.065400363102198197 0.00043669947493324277 0 -0.066894160818825363 0.0022955414232928599 0 -0.063627248716140131 0.000457728247390678 0 -0.06340562729664688 -7.5987382840809025e-05 0 -0.065400363102198197 0.00043669947493324277 0 -0.063627248716140131 0.000457728247390678 0 -0.066894160818825363 0.0022955414232928599 0 -0.063818963429712688 0.00404594825729952 0 -0.06585040826194398 0.0046358647912452186 0 -0.061938746785203787 0.0028126789653107795 0 -0.066894160818825363 0.0022955414232928599 0 -0.063818963429712688 0.00404594825729952 0 -0.06585040826194398 0.0046358647912452186 0 -0.06646217115360846 0.0058126209547148533 0 -0.06405779761785628 0.0059710702201437862 0 -0.063818963429712688 0.00404594825729952 0 -0.06585040826194398 0.0046358647912452186 0 -0.06405779761785628 0.0059710702201437862 0 -0.075847130638520055 0.00028404372829772751 0 -0.076559995923197996 0.00094351814527188563 0 -0.069344759609143908 0.00033908361117041951 0 -0.072779709176982149 1.9771454906849635e-06 0 -0.074275836606605958 -4.6395869289380366e-05 0 -0.072779709176982149 1.9771454906849635e-06 0 -0.074275836606605958 -4.6395869289380366e-05 0 -0.07834508526019425 -8.4326800192416748e-07 0 -0.066894160818825363 0.0022955414232928599 0 -0.06585040826194398 0.0046358647912452186 0 -0.068113928728703171 0.0048107663318262706 0 -0.06585040826194398 0.0046358647912452186 0 -0.068113928728703171 0.0048107663318262706 0 -0.06646217115360846 0.0058126209547148533 0 -0.068113928728703171 0.0048107663318262706 0 -0.06646217115360846 0.0058126209547148533 0 -0.067869736032897643 0.0077882885852180485 0 -0.076559995923197996 0.00094351814527188563 0 -0.078642708026653851 0.0016503386040887145 0 -0.06646217115360846 0.0058126209547148533 0 -0.067869736032897643 0.0077882885852180485 0 -0.06405779761785628 0.0059710702201437862 0 -0.074275836606605958 -4.6395869289380366e-05 0 -0.077359841630816328 4.7944114540136118e-05 0 -0.07834508526019425 -8.4326800192416748e-07 0 -0.078642708026653851 0.0016503386040887145 0 -0.078346353426777648 1.1437879249294631e-05 0 -0.095378467758940863 0.0040341813902223349 0 -0.093839806158136169 0.004878596466299779 0 -0.09614651322453556 0.0050623035768850907 0 -0.078642708026653851 0.0016503386040887145 0 -0.079585748316431046 0.0031068721304004492 0 -0.095378467758940863 0.0040341813902223349 0 -0.09614651322453556 0.0050623035768850907 0 -0.09744674172337589 0.0039008350190796407 0 -0.09744674172337589 0.0039008350190796407 0 -0.097690916360719901 0.0042590129111555854 0 -0.098692306628122325 0.0037730552384188224 0 -0.09614651322453556 0.0050623035768850907 0 -0.09744674172337589 0.0039008350190796407 0 -0.097690916360719901 0.0042590129111555854 0 -0.09614651322453556 0.0050623035768850907 0 -0.097690916360719901 0.0042590129111555854 0 -0.098341483714025443 0.0043281022573704751 0 -0.079585748316431046 0.0031068721304004492 0 -0.078223090238604021 0.0025538344411771617 0 -0.063818963429712688 0.00404594825729952 0 -0.06405779761785628 0.0059710702201437862 0 -0.060690161683983147 0.0042528825279041348 0 -0.061938746785203787 0.0028126789653107795 0 -0.063818963429712688 0.00404594825729952 0 -0.060690161683983147 0.0042528825279041348 0 -0.078223090238604021 0.0025538344411771617 0 -0.073778279735921562 8.2112588151789128e-05 0 -0.098341483714025443 0.0043281022573704751 0 -0.098692306628122325 0.0037730552384188224 0 -0.099482188498351595 0.0031787689887405051 0 -0.061938746785203787 0.0028126789653107795 0 -0.060690161683983147 0.0042528825279041348 0 -0.057651912724297767 0.0028697350473447319 0 -0.098865446748947969 0.003154516690778369 0 -0.098692306628122325 0.0037730552384188224 0 -0.099436077537049292 0.0031592255174421303 0 -0.098865446748947969 0.003154516690778369 0 -0.09744674172337589 0.0039008350190796407 0 -0.098692306628122325 0.0037730552384188224 0 -0.097690916360719901 0.0042590129111555854 0 -0.098341483714025443 0.0043281022573704751 0 -0.098692306628122325 0.0037730552384188224 0 -0.099793443486959774 0.0029360844891528825 0 -0.099436077537049292 0.0031592255174421303 0 -0.099727317385486597 0.0026986662814845359 0 -0.10026277538726135 0.0026668121138849446 0 -0.10007846886921649 0.0024170609995130647 0 -0.10027744800067444 0.0028491387654980826 0 -0.099727317385486597 0.0026986662814845359 0 -0.099547191876634786 0.0020972838435036451 0 -0.099624973227040128 0.002348085601946031 0 -0.099544284909005631 0.0013314055088281737 0 -0.099482188498351595 0.0031787689887405051 0 -0.099727317385486597 0.0026986662814845359 0 -0.099547191876634786 0.0020972838435036451 0 -0.099624973227040128 0.002348085601946031 0 -0.099547191876634786 0.0020972838435036451 0 -0.099624973227040128 0.002348085601946031 0 -0.099544284909005631 0.0013314055088281737 0 -0.098692306628122325 0.0037730552384188224 0 -0.099436077537049292 0.0031592255174421303 0 -0.099482188498351595 0.0031787689887405051 0 -0.099436077537049292 0.0031592255174421303 0 -0.099727317385486597 0.0026986662814845359 0 -0.099482188498351595 0.0031787689887405051 0 -0.099727317385486597 0.0026986662814845359 0 -0.099624973227040128 0.002348085601946031 0 -0.099482188498351595 0.0031787689887405051 0 -0.097782530461524769 0.002759534667069677 0 -0.098991129590969784 0.0028955104687792021 0 -0.09834500915376676 0.0014170534129504147 0 -0.097782530461524769 0.002759534667069677 0 -0.096279630115958803 0.000867215645470067 0 -0.09834500915376676 0.0014170534129504147 0 -0.099681029673624688 0.0037750849494306324 0 -0.099547191876634786 0.0020972838435036451 0 -0.098991129590969784 0.0028955104687792021 0 -0.099547191876634786 0.0020972838435036451 0 -0.098991129590969784 0.0028955104687792021 0 -0.09834500915376676 0.0014170534129504147 0 -0.099547191876634786 0.0020972838435036451 0 -0.098844584517833275 0.00097253500280521056 0 -0.09834500915376676 0.0014170534129504147 0 -0.098844584517833275 0.00097253500280521056 0 -0.09751617105819417 -0.0012036183063286745 0 -0.099544284909005631 0.0013314055088281737 0 -0.099547191876634786 0.0020972838435036451 0 -0.098844584517833275 0.00097253500280521056 0 -0.099544284909005631 0.0013314055088281737 0 -0.096279630115958803 0.000867215645470067 0 -0.09834500915376676 0.0014170534129504147 0 -0.09751617105819417 -0.0012036183063286745 0 -0.098844584517833275 0.00097253500280521056 0 -0.09834500915376676 0.0014170534129504147 0 -0.09751617105819417 -0.0012036183063286745 0 -0.085947403409699571 0.00080506151993052684 0 -0.081628481066074121 -0.0064933162229187718 0 -0.080238288143240327 -6.8322310276712554e-06 0 -0.081628481066074121 -0.0064933162229187718 0 -0.075718216750892908 -0.0029533761812697208 0 -0.080238288143240327 -6.8322310276712554e-06 0 -0.081628481066074121 -0.0064933162229187718 0 -0.075718216750892908 -0.0029533761812697208 0 -0.070520105889138082 -0.0074020110604699103 0 -0.086952692556799438 -0.0023147115344582664 0 -0.082541907619034308 -0.0015009478240554262 0 -0.075718216750892908 -0.0029533761812697208 0 -0.071908647564549677 -0.00095449280099732547 0 -0.068790793992369204 -0.0031476845594809724 0 -0.075718216750892908 -0.0029533761812697208 0 -0.070520105889138082 -0.0074020110604699103 0 -0.068790793992369204 -0.0031476845594809724 0 -0.071908647564549677 -0.00095449280099732547 0 -0.075618756054935815 0.0020843522657919594 0 -0.070255567141091185 0.0013461037560069716 0 -0.075618756054935815 0.0020843522657919594 0 -0.070255567141091185 0.0013461037560069716 0 -0.071549492609074644 0.0048201772575011976 0 -0.075718216750892908 -0.0029533761812697208 0 -0.071908647564549677 -0.00095449280099732547 0 -0.075618756054935815 0.0020843522657919594 0 -0.075718216750892908 -0.0029533761812697208 0 -0.075618756054935815 0.0020843522657919594 0 -0.080238288143240327 -6.8322310276712554e-06 0 -0.075618756054935815 0.0020843522657919594 0 -0.080238288143240327 -6.8322310276712554e-06 0 -0.082694533589294544 0.0053292566490188214 0 -0.085947403409699571 0.00080506151993052684 0 -0.080238288143240327 -6.8322310276712554e-06 0 -0.082694533589294544 0.0053292566490188214 0 -0.063170459927580816 -0.0026964068756169593 0 -0.064290426727474329 0.00026541024914574889 0 -0.062599211907484215 -5.6826987536369486e-05 0 -0.062202113492024293 -0.00077644422883499267 0 -0.063170459927580816 -0.0026964068756169593 0 -0.062599211907484215 -5.6826987536369486e-05 0 -0.063170459927580816 -0.0026964068756169593 0 -0.066874824842194897 -0.00079817432695197907 0 -0.064290426727474329 0.00026541024914574889 0 -0.073778279735921562 8.2112588151789128e-05 0 -0.070165133582928363 -0.0016043363641659659 0 -0.082541907619034308 -0.0015009478240554262 0 -0.073778279735921562 8.2112588151789128e-05 0 -0.063170459927580816 -0.0026964068756169593 0 -0.068790793992369204 -0.0031476845594809724 0 -0.066874824842194897 -0.00079817432695197907 0 -0.070520105889138082 -0.0074020110604699103 0 -0.059429837939994887 -0.0072538510041299841 0 -0.068790793992369204 -0.0031476845594809724 0 -0.071908647564549677 -0.00095449280099732547 0 -0.068790793992369204 -0.0031476845594809724 0 -0.066874824842194897 -0.00079817432695197907 0 -0.066874824842194897 -0.00079817432695197907 0 -0.06689670151029907 0.0018637869650619603 0 -0.064290426727474329 0.00026541024914574889 0 -0.071908647564549677 -0.00095449280099732547 0 -0.066874824842194897 -0.00079817432695197907 0 -0.070255567141091185 0.0013461037560069716 0 -0.066874824842194897 -0.00079817432695197907 0 -0.070255567141091185 0.0013461037560069716 0 -0.06689670151029907 0.0018637869650619603 0 -0.070255567141091185 0.0013461037560069716 0 -0.06689670151029907 0.0018637869650619603 0 -0.071549492609074644 0.0048201772575011976 0 -0.06689670151029907 0.0018637869650619603 0 -0.064290426727474329 0.00026541024914574889 0 -0.064406847722321511 0.002322398193452457 0 -0.064290426727474329 0.00026541024914574889 0 -0.062726371978134424 0.0015374818669222719 0 -0.064406847722321511 0.002322398193452457 0 -0.064290426727474329 0.00026541024914574889 0 -0.062599211907484215 -5.6826987536369486e-05 0 -0.062726371978134424 0.0015374818669222719 0 -0.061951553658822885 0.00067765578288665914 0 -0.062599211907484215 -5.6826987536369486e-05 0 -0.062726371978134424 0.0015374818669222719 0 -0.062726371978134424 0.0015374818669222719 0 -0.062328261392215305 0.0017354160854855382 0 -0.061762399212239687 0.0010026963685950832 0 -0.062726371978134424 0.0015374818669222719 0 -0.062328261392215305 0.0017354160854855382 0 -0.063289254234335346 0.003172153412091574 0 -0.062328261392215305 0.0017354160854855382 0 -0.063289254234335346 0.003172153412091574 0 -0.062116402878292808 0.0013915162030603474 0 -0.062726371978134424 0.0015374818669222719 0 -0.063289254234335346 0.003172153412091574 0 -0.064406847722321511 0.002322398193452457 0 -0.06689670151029907 0.0018637869650619603 0 -0.064406847722321511 0.002322398193452457 0 -0.066389208632835553 0.0045409180223137859 0 -0.063289254234335346 0.003172153412091574 0 -0.064406847722321511 0.002322398193452457 0 -0.066389208632835553 0.0045409180223137859 0 -0.06689670151029907 0.0018637869650619603 0 -0.066389208632835553 0.0045409180223137859 0 -0.071549492609074644 0.0048201772575011976 0 -0.066389208632835553 0.0045409180223137859 0 -0.071549492609074644 0.0048201772575011976 0 -0.070506399686759952 0.0079367482417689594 0 -0.066389208632835553 0.0045409180223137859 0 -0.066375348925251307 0.0087045884529383024 0 -0.070506399686759952 0.0079367482417689594 0 -0.063289254234335346 0.003172153412091574 0 -0.061618400472055294 0.0023422980241159376 0 -0.062116402878292808 0.0013915162030603474 0 -0.06332253522801827 0.0050719298646707805 0 -0.063258349353682575 0.0050973932115368362 0 -0.063289254234335346 0.003172153412091574 0 -0.066389208632835553 0.0045409180223137859 0 -0.066292628661525771 0.0060876845465628092 0 -0.06331385358397118 0.0051264566245932579 0 -0.063258349353682575 0.0050973932115368362 0 -0.063258349353682575 0.0050973932115368362 0 -0.066226554524275852 0.0064052125159081456 0 -0.062055725585148283 0.0046248203313629162 0 -0.062058669739492985 0.0048638301361885652 0 -0.062291121301172481 0.0047385687320022109 0 -0.061618400472055294 0.0023422980241159376 0 -0.061562537811311061 0.00096526136810589605 0 -0.062116402878292808 0.0013915162030603474 0 -0.063258349353682575 0.0050973932115368362 0 -0.061013360650480998 0.0038598030319887387 0 -0.061562537811311061 0.00096526136810589605 0 -0.062116402878292808 0.0013915162030603474 0 -0.061373960922123494 0.00084828722148897807 0 -0.062116402878292808 0.0013915162030603474 0 -0.061373960922123494 0.00084828722148897807 0 -0.061268894042446821 0.0007553530090535119 0 -0.062328261392215305 0.0017354160854855382 0 -0.062116402878292808 0.0013915162030603474 0 -0.061268894042446821 0.0007553530090535119 0 -0.075618756054935815 0.0020843522657919594 0 -0.082694533589294544 0.0053292566490188214 0 -0.077235701015917688 0.0072567722140029385 0 -0.083903380485002427 0.010779007567642693 0 -0.080997919431598384 0.010264731663534017 0 -0.082694533589294544 0.0053292566490188214 0 -0.080997919431598384 0.010264731663534017 0 -0.077235701015917688 0.0072567722140029385 0 -0.077919652847463564 0.011442822600293659 0 -0.080997919431598384 0.010264731663534017 0 -0.082694533589294544 0.0053292566490188214 0 -0.077235701015917688 0.0072567722140029385 0 -0.074009740110760086 0.0086986928640303291 0 -0.077235701015917688 0.0072567722140029385 0 -0.071549492609074644 0.0048201772575011976 0 -0.074009740110760086 0.0086986928640303291 0 -0.077235701015917688 0.0072567722140029385 0 -0.077919652847463564 0.011442822600293659 0 -0.075618756054935815 0.0020843522657919594 0 -0.077235701015917688 0.0072567722140029385 0 -0.071549492609074644 0.0048201772575011976 0 -0.074009740110760086 0.0086986928640303291 0 -0.070506399686759952 0.0079367482417689594 0 -0.073938421281127861 0.012790232097369634 0 -0.074009740110760086 0.0086986928640303291 0 -0.071549492609074644 0.0048201772575011976 0 -0.070506399686759952 0.0079367482417689594 0 -0.066375348925251307 0.0087045884529383024 0 -0.070506399686759952 0.0079367482417689594 0 -0.073938421281127861 0.012790232097369634 0 -0.066226554524275852 0.0064052125159081456 0 -0.066549323642945399 0.0060373734864674023 0 -0.062291121301172481 0.0047385687320022109 0 -0.062532917207662644 0.0048535656647771272 0 -0.062293597656281438 0.0049812897167205205 0 -0.062058669739492985 0.0048638301361885652 0 -0.062291121301172481 0.0047385687320022109 0 -0.062293597656281438 0.0049812897167205205 0 -0.074009740110760086 0.0086986928640303291 0 -0.073938421281127861 0.012790232097369634 0 -0.077919652847463564 0.011442822600293659 0 -0.073938421281127861 0.012790232097369634 0 -0.077919652847463564 0.011442822600293659 0 -0.080611209803346046 0.015895144199517826 0 -0.080997919431598384 0.010264731663534017 0 -0.077919652847463564 0.011442822600293659 0 -0.080611209803346046 0.015895144199517826 0 -0.083903380485002427 0.010779007567642693 0 -0.080997919431598384 0.010264731663534017 0 -0.080611209803346046 0.015895144199517826 0 -0.049413765358807121 -0.0016254533523158054 0 -0.049100990526528415 -0.001489536511916454 0 -0.049439336772397924 -0.0012290561704586009 0 -0.066549323642945399 0.0060373734864674023 0 -0.060769769475467639 0.0049544769980687173 0 -0.060769769475467639 0.0049544769980687173 0 -0.058602249834391697 0.0034036717621411606 0 -0.049100990526528415 -0.001489536511916454 0 -0.049024298103554485 -0.0012130261726315433 0 -0.048727413727888108 -0.0013283774364051502 0 -0.049024298103554485 -0.0012130261726315433 0 -0.049439336772397924 -0.0012290561704586009 0 -0.0491365345262747 -0.00094817537686378681 0 -0.049100990526528415 -0.001489536511916454 0 -0.049024298103554485 -0.0012130261726315433 0 -0.049439336772397924 -0.0012290561704586009 0 -0.049024298103554485 -0.0012130261726315433 0 -0.048679116032554016 -0.00085532413674606681 0 -0.0491365345262747 -0.00094817537686378681 0 -0.061373960922123494 0.00084828722148897807 0 -0.06047006609342194 0.0014684133348136774 0 -0.06060985332735265 0.00074071107806983057 0 -0.061373960922123494 0.00084828722148897807 0 -0.06060985332735265 0.00074071107806983057 0 -0.061268894042446821 0.0007553530090535119 0 -0.061562537811311061 0.00096526136810589605 0 -0.061373960922123494 0.00084828722148897807 0 -0.061682928873892359 0.0011084240582423005 0 -0.062058669739492985 0.0048638301361885652 0 -0.062293597656281438 0.0049812897167205205 0 -0.062059403295922792 0.0051060179609667316 0 -0.061013360650480998 0.0038598030319887387 0 -0.058602249834391697 0.0034036717621411606 0 -0.058602249834391697 0.0034036717621411606 0 -0.055552423672764459 0.0018578618190468637 0 -0.048775751236935595 0.0064140024975899452 0 -0.052420175266599769 0.0044235941179125507 0 -0.048688315132748759 0.0034463319664159242 0 -0.049024298103554485 -0.0012130261726315433 0 -0.048727413727888108 -0.0013283774364051502 0 -0.048679116032554016 -0.00085532413674606681 0 -0.061373960922123494 0.00084828722148897807 0 -0.061682928873892359 0.0011084240582423005 0 -0.06047006609342194 0.0014684133348136774 0 -0.058602249834391697 0.0034036717621411606 0 -0.057032520434105359 0.0032940602849013865 0 -0.06047006609342194 0.0014684133348136774 0 -0.057461553301680665 0.00057319304334730529 0 -0.059490374864458538 0.00031093653000504782 0 -0.06047006609342194 0.0014684133348136774 0 -0.059490374864458538 0.00031093653000504782 0 -0.06060985332735265 0.00074071107806983057 0 -0.06047006609342194 0.0014684133348136774 0 -0.057461553301680665 0.00057319304334730529 0 -0.056021914172768014 0.0017258360825676781 0 -0.059490374864458538 0.00031093653000504782 0 -0.06025585145787498 0.00011965678833441338 0 -0.058692163315360174 -6.1329004188016574e-05 0 -0.057461553301680665 0.00057319304334730529 0 -0.059490374864458538 0.00031093653000504782 0 -0.058692163315360174 -6.1329004188016574e-05 0 -0.059490374864458538 0.00031093653000504782 0 -0.06060985332735265 0.00074071107806983057 0 -0.061268894042446821 0.0007553530090535119 0 -0.061268894042446821 0.0007553530090535119 0 -0.061115106838570278 0.00040975895040326594 0 -0.06025585145787498 0.00011965678833441338 0 -0.061268894042446821 0.0007553530090535119 0 -0.061115106838570278 0.00040975895040326594 0 -0.061762399212239687 0.0010026963685950832 0 -0.059490374864458538 0.00031093653000504782 0 -0.061268894042446821 0.0007553530090535119 0 -0.06025585145787498 0.00011965678833441338 0 -0.062328261392215305 0.0017354160854855382 0 -0.061268894042446821 0.0007553530090535119 0 -0.061762399212239687 0.0010026963685950832 0 -0.06025585145787498 0.00011965678833441338 0 -0.060184698789196169 -0.0002347805756170795 0 -0.058692163315360174 -6.1329004188016574e-05 0 -0.06025585145787498 0.00011965678833441338 0 -0.061070030421415331 -7.5934417105705411e-05 0 -0.060184698789196169 -0.0002347805756170795 0 -0.061115106838570278 0.00040975895040326594 0 -0.06025585145787498 0.00011965678833441338 0 -0.061070030421415331 -7.5934417105705411e-05 0 -0.061115106838570278 0.00040975895040326594 0 -0.061070030421415331 -7.5934417105705411e-05 0 -0.061515776340896243 0.0002914672467338823 0 -0.061956810040727617 -0.00013392872794502989 0 -0.061070030421415331 -7.5934417105705411e-05 0 -0.061515776340896243 0.0002914672467338823 0 -0.061951553658822885 0.00067765578288665914 0 -0.061515776340896243 0.0002914672467338823 0 -0.061762399212239687 0.0010026963685950832 0 -0.061951553658822885 0.00067765578288665914 0 -0.062726371978134424 0.0015374818669222719 0 -0.061762399212239687 0.0010026963685950832 0 -0.061115106838570278 0.00040975895040326594 0 -0.061515776340896243 0.0002914672467338823 0 -0.061762399212239687 0.0010026963685950832 0 -0.067209215072815881 -4.7830855820411298e-07 0 -0.062275968607020393 -0.00042466196201506728 0 -0.061645635601227142 -1.3017157527848717e-06 0 -0.061070030421415331 -7.5934417105705411e-05 0 -0.062275968607020393 -0.00042466196201506728 0 -0.060184698789196169 -0.0002347805756170795 0 -0.061956810040727617 -0.00013392872794502989 0 -0.061070030421415331 -7.5934417105705411e-05 0 -0.062275968607020393 -0.00042466196201506728 0 -0.062275968607020393 -0.00042466196201506728 0 -0.060184698789196169 -0.0002347805756170795 0 -0.05870210936706613 -0.00023152019423874833 0 -0.062275968607020393 -0.00042466196201506728 0 -0.061645635601227142 -1.3017157527848717e-06 0 -0.05870210936706613 -0.00023152019423874833 0 -0.056079224415839075 1.3637744247718416e-07 0 -0.05870210936706613 -0.00023152019423874833 0 -0.056405808427576198 5.7406072386824764e-05 0 -0.061645635601227142 -1.3017157527848717e-06 0 -0.056079224415839075 1.3637744247718416e-07 0 -0.05870210936706613 -0.00023152019423874833 0 -0.05870210936706613 -0.00023152019423874833 0 -0.058692163315360174 -6.1329004188016574e-05 0 -0.056405808427576198 5.7406072386824764e-05 0 -0.060184698789196169 -0.0002347805756170795 0 -0.05870210936706613 -0.00023152019423874833 0 -0.058692163315360174 -6.1329004188016574e-05 0 -0.057461553301680665 0.00057319304334730529 0 -0.058692163315360174 -6.1329004188016574e-05 0 -0.056405808427576198 5.7406072386824764e-05 0 -0.057461553301680665 0.00057319304334730529 0 -0.056405808427576198 5.7406072386824764e-05 0 -0.054333196681464198 0.00086306134774642967 0 -0.056079224415839075 1.3637744247718416e-07 0 -0.056405808427576198 5.7406072386824764e-05 0 -0.050510557454978587 -1.0544670807655054e-06 0 -0.056405808427576198 5.7406072386824764e-05 0 -0.050510557454978587 -1.0544670807655054e-06 0 -0.054333196681464198 0.00086306134774642967 0 -0.050510557454978587 -1.0544670807655054e-06 0 -0.054333196681464198 0.00086306134774642967 0 -0.050937756133216293 0.0001127238002346151 0 -0.054333196681464198 0.00086306134774642967 0 -0.050937756133216293 0.0001127238002346151 0 -0.050150395147279578 0.00067857418055782372 0 -0.050510557454978587 -1.0544670807655054e-06 0 -0.050937756133216293 0.0001127238002346151 0 -0.044956498723550439 4.7262772780101652e-06 0 -0.052420175266599769 0.0044235941179125507 0 -0.05347339178531138 0.0019203328097553961 0 -0.056021914172768014 0.0017258360825676781 0 -0.057032520434105359 0.0032940602849013865 0 -0.056924569898527705 0.0029517278821439828 0 -0.057461553301680665 0.00057319304334730529 0 -0.054333196681464198 0.00086306134774642967 0 -0.056021914172768014 0.0017258360825676781 0 -0.054333196681464198 0.00086306134774642967 0 -0.056021914172768014 0.0017258360825676781 0 -0.055684974538075492 0.0012662847487904822 0 -0.052616349998837034 0.00068579798721051433 0 -0.051964517861429353 0.00044318059332792314 0 -0.050937756133216293 0.0001127238002346151 0 -0.050150395147279578 0.00067857418055782372 0 -0.05011135737594892 0.00029248839361711837 0 -0.05347339178531138 0.0019203328097553961 0 -0.056021914172768014 0.0017258360825676781 0 -0.055684974538075492 0.0012662847487904822 0 -0.05347339178531138 0.0019203328097553961 0 -0.055684974538075492 0.0012662847487904822 0 -0.051692604751354072 0.00074396394176247827 0 -0.050150395147279578 0.00067857418055782372 0 -0.05011135737594892 0.00029248839361711837 0 -0.047997536411829529 -0.0003973717163223751 0 -0.051964517861429353 0.00044318059332792314 0 -0.050302176881333927 -0.00048105708388071971 0 -0.05011135737594892 0.00029248839361711837 0 -0.049292237316736626 -0.00077823003077295068 0 -0.047997536411829529 -0.0003973717163223751 0 -0.055684974538075492 0.0012662847487904822 0 -0.051177316538677776 -0.0017499284435766075 0 -0.051692604751354072 0.00074396394176247827 0 -0.05011135737594892 0.00029248839361711837 0 -0.049292237316736626 -0.00077823003077295068 0 -0.050626730522206509 0.00098864158401064904 0 -0.046109067259631445 -0.00057376389898112416 0 -0.045443665475800532 -0.00029009098599469372 0 -0.040954640743621075 -0.0011828470680699656 0 -0.042638610926126606 -0.0023288234199123087 0 -0.040275014527333647 -0.00079916385664078704 0 -0.040954640743621075 -0.0011828470680699656 0 -0.042638610926126606 -0.0023288234199123087 0 -0.042323528752337213 -0.00083820911606798782 0 -0.049292237316736626 -0.00077823003077295068 0 -0.047997536411829529 -0.0003973717163223751 0 -0.047372515391244756 -0.0008691706790864397 0 -0.046109067259631445 -0.00057376389898112416 0 -0.046603863789881746 -0.00057864418194435315 0 -0.042638610926126606 -0.0023288234199123087 0 -0.044216831287664841 -0.00097858877389448156 0 -0.047372515391244756 -0.0008691706790864397 0 -0.042638610926126606 -0.0023288234199123087 0 -0.042323528752337213 -0.00083820911606798782 0 -0.044216831287664841 -0.00097858877389448156 0 -0.044944271429355413 -7.5672576906704486e-07 0 -0.045443665475800532 -0.00029009098599469372 0 -0.044935764528111967 2.1625678679109266e-06 0 -0.040275014527333647 -0.00079916385664078704 0 -0.040020854812364046 -0.0010214191920716606 0 -0.050937756133216293 0.0001127238002346151 0 -0.044956498723550439 4.7262772780101652e-06 0 -0.050626730522206509 0.00098864158401064904 0 -0.050937756133216293 0.0001127238002346151 0 -0.05011135737594892 0.00029248839361711837 0 -0.050626730522206509 0.00098864158401064904 0 -0.040954640743621075 -0.0011828470680699656 0 -0.040275014527333647 -0.00079916385664078704 0 -0.040020854812364046 -0.0010214191920716606 0 -0.040954640743621075 -0.0011828470680699656 0 -0.040020854812364046 -0.0010214191920716606 0 -0.040596315682213856 -0.00053333694709403062 0 -0.044935764528111967 2.1625678679109266e-06 0 -0.040020854812364046 -0.0010214191920716606 0 -0.03868187195219968 -4.9582639386253804e-06 0 -0.040020854812364046 -0.0010214191920716606 0 -0.03868187195219968 -4.9582639386253804e-06 0 -0.038274455584116025 -0.0002141552749911539 0 -0.03868187195219968 -4.9582639386253804e-06 0 -0.038274455584116025 -0.0002141552749911539 0 -0.032426738597349826 7.1923853750771655e-06 0 -0.039090604818943171 0.0021808175773874706 0 -0.038274455584116025 -0.0002141552749911539 0 -0.032426738597349826 7.1923853750771655e-06 0 -0.039090604818943171 0.0021808175773874706 0 -0.038274455584116025 -0.0002141552749911539 0 -0.040619401861267994 0.00076439065186111586 0 -0.038274455584116025 -0.0002141552749911539 0 -0.040596315682213856 -0.00053333694709403062 0 -0.040619401861267994 0.00076439065186111586 0 -0.040020854812364046 -0.0010214191920716606 0 -0.038274455584116025 -0.0002141552749911539 0 -0.040596315682213856 -0.00053333694709403062 0 -0.040954640743621075 -0.0011828470680699656 0 -0.040596315682213856 -0.00053333694709403062 0 -0.042323528752337213 -0.00083820911606798782 0 -0.040596315682213856 -0.00053333694709403062 0 -0.042323528752337213 -0.00083820911606798782 0 -0.042338188052998375 0.00042021704890368722 0 -0.040596315682213856 -0.00053333694709403062 0 -0.042338188052998375 0.00042021704890368722 0 -0.040619401861267994 0.00076439065186111586 0 -0.044216831287664841 -0.00097858877389448156 0 -0.044110573135872154 -0.00013390087671125744 0 -0.045508686021451181 -0.00044957212368973312 0 -0.042323528752337213 -0.00083820911606798782 0 -0.044216831287664841 -0.00097858877389448156 0 -0.044110573135872154 -0.00013390087671125744 0 -0.042338188052998375 0.00042021704890368722 0 -0.044110573135872154 -0.00013390087671125744 0 -0.044379531332802473 0.00071151172277383662 0 -0.042323528752337213 -0.00083820911606798782 0 -0.042338188052998375 0.00042021704890368722 0 -0.044110573135872154 -0.00013390087671125744 0 -0.044110573135872154 -0.00013390087671125744 0 -0.044379531332802473 0.00071151172277383662 0 -0.046322788495361512 -2.4386713949044608e-05 0 -0.031977557322649348 -0.0019260897029700524 0 -0.036103669450246491 0.0010739803946931553 0 -0.040017407414299301 -0.001828885503595156 0 -0.037967973272747466 5.0518311858363724e-05 0 -0.041277496555178525 -0.00016609783920913868 0 -0.044379531332802473 0.00071151172277383662 0 -0.042798330464998299 0.0021828111590402868 0 -0.045995082900236836 0.0011124163960937925 0 -0.042338188052998375 0.00042021704890368722 0 -0.044379531332802473 0.00071151172277383662 0 -0.042798330464998299 0.0021828111590402868 0 -0.039090604818943171 0.0021808175773874706 0 -0.040619401861267994 0.00076439065186111586 0 -0.042798330464998299 0.0021828111590402868 0 -0.035054676576274313 0.00016203479581363353 0 -0.037967973272747466 5.0518311858363724e-05 0 -0.042338188052998375 0.00042021704890368722 0 -0.040619401861267994 0.00076439065186111586 0 -0.042798330464998299 0.0021828111590402868 0 -0.028840091715227396 9.3461942108254601e-05 0 -0.031977557322649348 -0.0019260897029700524 0 -0.030114148722438353 0.00046911576059419113 0 -0.031977557322649348 -0.0019260897029700524 0 -0.030114148722438353 0.00046911576059419113 0 -0.036103669450246491 0.0010739803946931553 0 -0.030114148722438353 0.00046911576059419113 0 -0.036103669450246491 0.0010739803946931553 0 -0.037668180882720892 0.0060389065757185693 0 -0.030138186300966985 0.00017213621737396825 0 -0.029503096918354062 0.00018179387224392512 0 -0.029772461717744916 0.00083633115824794529 0 -0.03237580023681827 0.0018857254419660636 0 -0.033857580462713456 0.0029046607878273731 0 -0.030114148722438353 0.00046911576059419113 0 -0.029503096918354062 0.00018179387224392512 0 -0.028527723151867145 -0.00036560169084964812 0 -0.030114148722438353 0.00046911576059419113 0 -0.030138186300966985 0.00017213621737396825 0 -0.029503096918354062 0.00018179387224392512 0 -0.028527723151867145 -0.00036560169084964812 0 -0.028401843407996598 0.00022760792018686673 0 -0.026824280954992577 -0.00017915189262417971 0 -0.029503096918354062 0.00018179387224392512 0 -0.028527723151867145 -0.00036560169084964812 0 -0.028401843407996598 0.00022760792018686673 0 -0.028527723151867145 -0.00036560169084964812 0 -0.027536163838523819 -3.1782862975186394e-06 0 -0.026824280954992577 -0.00017915189262417971 0 -0.028840091715227396 9.3461942108254601e-05 0 -0.028527723151867145 -0.00036560169084964812 0 -0.032408997108365256 2.0056636488538875e-06 0 -0.035054676576274313 0.00016203479581363353 0 -0.032421478627901991 7.280180216231884e-07 0 -0.028527723151867145 -0.00036560169084964812 0 -0.027536163838523819 -3.1782862975186394e-06 0 -0.032408997108365256 2.0056636488538875e-06 0 -0.028840091715227396 9.3461942108254601e-05 0 -0.030114148722438353 0.00046911576059419113 0 -0.028527723151867145 -0.00036560169084964812 0 -0.047145484476288538 0.0043792109798527342 0 -0.045535568130334103 0.002174452276245666 0 -0.048611536685556574 0.0012197101425878011 0 -0.04924166096583165 0.0043695551516106023 0 -0.047145484476288538 0.0043792109798527342 0 -0.048611536685556574 0.0012197101425878011 0 -0.04924166096583165 0.0043695551516106023 0 -0.048611536685556574 0.0012197101425878011 0 -0.050962287904844139 0.0028083932934704022 0 -0.04924166096583165 0.0043695551516106023 0 -0.047880039096035727 0.0062824893220509246 0 -0.047145484476288538 0.0043792109798527342 0 -0.04924166096583165 0.0043695551516106023 0 -0.051229000562368732 0.0053366062582891529 0 -0.049528018790617988 0.0066945489397931962 0 -0.04924166096583165 0.0043695551516106023 0 -0.047880039096035727 0.0062824893220509246 0 -0.049528018790617988 0.0066945489397931962 0 -0.047880039096035727 0.0062824893220509246 0 -0.047145484476288538 0.0043792109798527342 0 -0.045879314933675801 0.0063654961858700581 0 -0.047145484476288538 0.0043792109798527342 0 -0.045879314933675801 0.0063654961858700581 0 -0.044023756590540315 0.004953486501760025 0 -0.047145484476288538 0.0043792109798527342 0 -0.044023756590540315 0.004953486501760025 0 -0.045535568130334103 0.002174452276245666 0 -0.045879314933675801 0.0063654961858700581 0 -0.044023756590540315 0.004953486501760025 0 -0.0433184451445894 0.0083966851318067123 0 -0.037668180882720892 0.0060389065757185693 0 -0.044023756590540315 0.004953486501760025 0 -0.040702163436265808 0.0026178558978978998 0 -0.037668180882720892 0.0060389065757185693 0 -0.044023756590540315 0.004953486501760025 0 -0.0433184451445894 0.0083966851318067123 0 -0.036103669450246491 0.0010739803946931553 0 -0.040702163436265808 0.0026178558978978998 0 -0.040017407414299301 -0.001828885503595156 0 -0.036103669450246491 0.0010739803946931553 0 -0.037668180882720892 0.0060389065757185693 0 -0.040702163436265808 0.0026178558978978998 0 -0.040702163436265808 0.0026178558978978998 0 -0.045535568130334103 0.002174452276245666 0 -0.040017407414299301 -0.001828885503595156 0 -0.044023756590540315 0.004953486501760025 0 -0.040702163436265808 0.0026178558978978998 0 -0.045535568130334103 0.002174452276245666 0 -0.04297891928970856 -0.00025739753393188994 0 -0.041277496555178525 -0.00016609783920913868 0 -0.045535568130334103 0.002174452276245666 0 -0.046622033793044464 -3.8690409552704851e-05 0 -0.040017407414299301 -0.001828885503595156 0 -0.046622033793044464 -3.8690409552704851e-05 0 -0.045995082900236836 0.0011124163960937925 0 -0.046322788495361512 -2.4386713949044608e-05 0 -0.044379531332802473 0.00071151172277383662 0 -0.045995082900236836 0.0011124163960937925 0 -0.046322788495361512 -2.4386713949044608e-05 0 -0.044216831287664841 -0.00097858877389448156 0 -0.045508686021451181 -0.00044957212368973312 0 -0.047372515391244756 -0.0008691706790864397 0 -0.044110573135872154 -0.00013390087671125744 0 -0.046322788495361512 -2.4386713949044608e-05 0 -0.045508686021451181 -0.00044957212368973312 0 -0.046322788495361512 -2.4386713949044608e-05 0 -0.047198067444285202 -0.00094233998866890569 0 -0.047372515391244756 -0.0008691706790864397 0 -0.046322788495361512 -2.4386713949044608e-05 0 -0.045508686021451181 -0.00044957212368973312 0 -0.047372515391244756 -0.0008691706790864397 0 -0.047198067444285202 -0.00094233998866890569 0 -0.048275317823287568 -0.00067556957110317072 0 -0.048217074853727025 -0.0010337243302683441 0 -0.046622033793044464 -3.8690409552704851e-05 0 -0.046322788495361512 -2.4386713949044608e-05 0 -0.047198067444285202 -0.00094233998866890569 0 -0.046622033793044464 -3.8690409552704851e-05 0 -0.047198067444285202 -0.00094233998866890569 0 -0.048275317823287568 -0.00067556957110317072 0 -0.046622033793044464 -3.8690409552704851e-05 0 -0.048275317823287568 -0.00067556957110317072 0 -0.048611536685556574 0.0012197101425878011 0 -0.045535568130334103 0.002174452276245666 0 -0.046622033793044464 -3.8690409552704851e-05 0 -0.048611536685556574 0.0012197101425878011 0 -0.048611536685556574 0.0012197101425878011 0 -0.049507897077852525 -0.00038972266671094189 0 -0.050290893811489899 0.00062691854545900258 0 -0.048275317823287568 -0.00067556957110317072 0 -0.048611536685556574 0.0012197101425878011 0 -0.049507897077852525 -0.00038972266671094189 0 -0.048275317823287568 -0.00067556957110317072 0 -0.049507897077852525 -0.00038972266671094189 0 -0.049130114552778964 -0.00079571586342395289 0 -0.048275317823287568 -0.00067556957110317072 0 -0.048614999289404319 -0.0008677767951785916 0 -0.048217074853727025 -0.0010337243302683441 0 -0.048275317823287568 -0.00067556957110317072 0 -0.049130114552778964 -0.00079571586342395289 0 -0.048614999289404319 -0.0008677767951785916 0 -0.048614999289404319 -0.0008677767951785916 0 -0.048758147630530782 -0.00060060165440810039 0 -0.048930521436507904 -0.00063671986174931383 0 -0.049130114552778964 -0.00079571586342395289 0 -0.048614999289404319 -0.0008677767951785916 0 -0.048930521436507904 -0.00063671986174931383 0 -0.049130114552778964 -0.00079571586342395289 0 -0.048930521436507904 -0.00063671986174931383 0 -0.049547377089573838 -0.00084834729429110337 0 -0.047198067444285202 -0.00094233998866890569 0 -0.047997536411829529 -0.0003973717163223751 0 -0.047372515391244756 -0.0008691706790864397 0 -0.049391747277248203 -0.00089176487757808807 0 -0.050302176881333927 -0.00048105708388071971 0 -0.051177316538677776 -0.0017499284435766075 0 -0.048478027313668452 -0.0011714846326145562 0 -0.049444388306986796 -0.0011476326385685691 0 -0.047198067444285202 -0.00094233998866890569 0 -0.051177316538677776 -0.0017499284435766075 0 -0.048478027313668452 -0.0011714846326145562 0 -0.048478027313668452 -0.0011714846326145562 0 -0.048735506275685465 -0.001009836698475357 0 -0.049444388306986796 -0.0011476326385685691 0 -0.047198067444285202 -0.00094233998866890569 0 -0.048478027313668452 -0.0011714846326145562 0 -0.048217074853727025 -0.0010337243302683441 0 -0.048478027313668452 -0.0011714846326145562 0 -0.048217074853727025 -0.0010337243302683441 0 -0.048735506275685465 -0.001009836698475357 0 -0.048614999289404319 -0.0008677767951785916 0 -0.048217074853727025 -0.0010337243302683441 0 -0.048735506275685465 -0.001009836698475357 0 -0.048614999289404319 -0.0008677767951785916 0 -0.048735506275685465 -0.001009836698475357 0 -0.048758147630530782 -0.00060060165440810039 0 -0.048758147630530782 -0.00060060165440810039 0 -0.049771047224904282 -0.00062157271611399442 0 -0.048792826376983608 0.00013416252991984789 0 -0.048735506275685465 -0.001009836698475357 0 -0.049444388306986796 -0.0011476326385685691 0 -0.049771047224904282 -0.00062157271611399442 0 -0.048735506275685465 -0.001009836698475357 0 -0.048758147630530782 -0.00060060165440810039 0 -0.049771047224904282 -0.00062157271611399442 0 -0.051177316538677776 -0.0017499284435766075 0 -0.049771047224904282 -0.00062157271611399442 0 -0.051692604751354072 0.00074396394176247827 0 -0.051177316538677776 -0.0017499284435766075 0 -0.049444388306986796 -0.0011476326385685691 0 -0.049771047224904282 -0.00062157271611399442 0 -0.05347339178531138 0.0019203328097553961 0 -0.051692604751354072 0.00074396394176247827 0 -0.050695133657893833 0.0019796218187970041 0 -0.051692604751354072 0.00074396394176247827 0 -0.048792826376983608 0.00013416252991984789 0 -0.050695133657893833 0.0019796218187970041 0 -0.049771047224904282 -0.00062157271611399442 0 -0.051692604751354072 0.00074396394176247827 0 -0.048792826376983608 0.00013416252991984789 0 -0.054633516582803361 0.0012613664174601995 0 -0.055552423672764459 0.0018578618190468637 0 -0.048792826376983608 0.00013416252991984789 0 -0.048688315132748759 0.0034463319664159242 0 -0.050695133657893833 0.0019796218187970041 0 -0.048792826376983608 0.00013416252991984789 0 -0.048679116032554016 -0.00085532413674606681 0 -0.049051339175105194 -0.00054471356616060977 0 -0.052420175266599769 0.0044235941179125507 0 -0.048688315132748759 0.0034463319664159242 0 -0.050695133657893833 0.0019796218187970041 0 -0.052420175266599769 0.0044235941179125507 0 -0.05347339178531138 0.0019203328097553961 0 -0.050695133657893833 0.0019796218187970041 0 -0.048930521436507904 -0.00063671986174931383 0 -0.049315685117851241 -0.00084614134372820097 0 -0.049547377089573838 -0.00084834729429110337 0 -0.048930521436507904 -0.00063671986174931383 0 -0.049051339175105194 -0.00054471356616060977 0 -0.049315685117851241 -0.00084614134372820097 0 -0.048758147630530782 -0.00060060165440810039 0 -0.048792826376983608 0.00013416252991984789 0 -0.048930521436507904 -0.00063671986174931383 0 -0.048792826376983608 0.00013416252991984789 0 -0.048930521436507904 -0.00063671986174931383 0 -0.049051339175105194 -0.00054471356616060977 0 -0.049051339175105194 -0.00054471356616060977 0 -0.0491365345262747 -0.00094817537686378681 0 -0.049315685117851241 -0.00084614134372820097 0 -0.048679116032554016 -0.00085532413674606681 0 -0.049051339175105194 -0.00054471356616060977 0 -0.0491365345262747 -0.00094817537686378681 0 -0.049439336772397924 -0.0012290561704586009 0 -0.0491365345262747 -0.00094817537686378681 0 -0.049315685117851241 -0.00084614134372820097 0 -0.049439336772397924 -0.0012290561704586009 0 -0.049315685117851241 -0.00084614134372820097 0 -0.049607074887252321 -0.0010740150373955888 0 -0.049315685117851241 -0.00084614134372820097 0 -0.049607074887252321 -0.0010740150373955888 0 -0.049666333832056014 -0.00097517962649306712 0 -0.049607074887252321 -0.0010740150373955888 0 -0.049666333832056014 -0.00097517962649306712 0 -0.049824321143569918 -0.0011017798373982657 0 -0.049666333832056014 -0.00097517962649306712 0 -0.049547377089573838 -0.00084834729429110337 0 -0.050022082286200191 -0.00097098698109495437 0 -0.049315685117851241 -0.00084614134372820097 0 -0.049666333832056014 -0.00097517962649306712 0 -0.049547377089573838 -0.00084834729429110337 0 -0.051917518453837609 -0.00037784324349291306 0 -0.052021237434146571 -0.00052029467901815066 0 -0.052022656255122868 -0.00048310133819293871 0 -0.049666333832056014 -0.00097517962649306712 0 -0.050022082286200191 -0.00097098698109495437 0 -0.049824321143569918 -0.0011017798373982657 0 -0.055270114235045568 -0.00097524459787099089 0 -0.059240497651691482 -0.00047288841291310218 0 -0.052047437213926573 -0.00054034286713356338 0 -0.052021237434146571 -0.00052029467901815066 0 -0.052022656255122868 -0.00048310133819293871 0 -0.052047437213926573 -0.00054034286713356338 0 -0.052022656255122868 -0.00048310133819293871 0 -0.05207109300019451 -0.00050234882346007694 0 -0.052114545786044832 -0.00055355946921819784 0 -0.05207109300019451 -0.00050234882346007694 0 -0.052157351229761062 -0.0004724724354073793 0 -0.05204642250192848 -0.0004303303917152061 0 -0.052157351229761062 -0.0004724724354073793 0 -0.05213214170839077 -0.00040439906932647116 0 -0.05207109300019451 -0.00050234882346007694 0 -0.05204642250192848 -0.0004303303917152061 0 -0.052157351229761062 -0.0004724724354073793 0 -0.052022656255122868 -0.00048310133819293871 0 -0.05207109300019451 -0.00050234882346007694 0 -0.05204642250192848 -0.0004303303917152061 0 -0.05223115343744366 -0.00059685315367766364 0 -0.052383870426351661 -0.00039060332425839742 0 -0.052561383497921811 -0.00025139261760154491 0 -0.059573275946345441 -0.00080572140746557454 0 -0.057209535459047334 -0.0014658506148119252 0 -0.05223115343744366 -0.00059685315367766364 0 -0.052383870426351661 -0.00039060332425839742 0 -0.052261792584031436 -0.00045499415615169299 0 -0.05223115343744366 -0.00059685315367766364 0 -0.052157351229761062 -0.0004724724354073793 0 -0.052261792584031436 -0.00045499415615169299 0 -0.052114545786044832 -0.00055355946921819784 0 -0.05223115343744366 -0.00059685315367766364 0 -0.052157351229761062 -0.0004724724354073793 0 -0.052157351229761062 -0.0004724724354073793 0 -0.052261792584031436 -0.00045499415615169299 0 -0.052277214855510248 -0.00042293642000002283 0 -0.052157351229761062 -0.0004724724354073793 0 -0.052277214855510248 -0.00042293642000002283 0 -0.05213214170839077 -0.00040439906932647116 0 -0.052383870426351661 -0.00039060332425839742 0 -0.052277214855510248 -0.00042293642000002283 0 -0.0523986110463735 -0.00044105392124410244 0 -0.052383870426351661 -0.00039060332425839742 0 -0.052261792584031436 -0.00045499415615169299 0 -0.052277214855510248 -0.00042293642000002283 0 -0.052153553748742802 -0.00036479878972780995 0 -0.052305014087615287 -0.00043543074818704893 0 -0.05225479244021064 -0.00025809158309039791 0 -0.052277214855510248 -0.00042293642000002283 0 -0.052153553748742802 -0.00036479878972780995 0 -0.052305014087615287 -0.00043543074818704893 0 -0.052277214855510248 -0.00042293642000002283 0 -0.05213214170839077 -0.00040439906932647116 0 -0.052153553748742802 -0.00036479878972780995 0 -0.05213214170839077 -0.00040439906932647116 0 -0.052153553748742802 -0.00036479878972780995 0 -0.052002563929118922 -0.00034194236379636518 0 -0.051917518453837609 -0.00037784324349291306 0 -0.05204642250192848 -0.0004303303917152061 0 -0.052002563929118922 -0.00034194236379636518 0 -0.051917518453837609 -0.00037784324349291306 0 -0.052022656255122868 -0.00048310133819293871 0 -0.05204642250192848 -0.0004303303917152061 0 -0.05204642250192848 -0.0004303303917152061 0 -0.05213214170839077 -0.00040439906932647116 0 -0.052002563929118922 -0.00034194236379636518 0 -0.052002563929118922 -0.00034194236379636518 0 -0.052028967298447623 -0.0002298432215290878 0 -0.051747396433799067 -0.00017543861256278181 0 -0.051917518453837609 -0.00037784324349291306 0 -0.052002563929118922 -0.00034194236379636518 0 -0.051747396433799067 -0.00017543861256278181 0 -0.052153553748742802 -0.00036479878972780995 0 -0.052028967298447623 -0.0002298432215290878 0 -0.05225479244021064 -0.00025809158309039791 0 -0.052153553748742802 -0.00036479878972780995 0 -0.052002563929118922 -0.00034194236379636518 0 -0.052028967298447623 -0.0002298432215290878 0 -0.052028967298447623 -0.0002298432215290878 0 -0.05209527166699493 -6.0350259915321413e-05 0 -0.05225479244021064 -0.00025809158309039791 0 -0.052028967298447623 -0.0002298432215290878 0 -0.05209527166699493 -6.0350259915321413e-05 0 -0.051836543764898602 -8.8976031565548959e-05 0 -0.05209527166699493 -6.0350259915321413e-05 0 -0.051836543764898602 -8.8976031565548959e-05 0 -0.051877809055173439 0.0001174280731027898 0 -0.053626801771973757 -0.00062572527095701945 0 -0.053206303963766403 -0.00033804268078252507 0 -0.051836543764898602 -8.8976031565548959e-05 0 -0.051747396433799067 -0.00017543861256278181 0 -0.051356959873671698 0.00017534473002980881 0 -0.052028967298447623 -0.0002298432215290878 0 -0.051836543764898602 -8.8976031565548959e-05 0 -0.051747396433799067 -0.00017543861256278181 0 -0.050568317577420648 -0.00069566969974178838 0 -0.049915042146529143 -0.00072167698100940477 0 -0.050250429409858272 -0.00024951516318210857 0 -0.050568317577420648 -0.00069566969974178838 0 -0.050250429409858272 -0.00024951516318210857 0 -0.051356959873671698 0.00017534473002980881 0 -0.049507897077852525 -0.00038972266671094189 0 -0.049130114552778964 -0.00079571586342395289 0 -0.049915042146529143 -0.00072167698100940477 0 -0.049507897077852525 -0.00038972266671094189 0 -0.049915042146529143 -0.00072167698100940477 0 -0.050250429409858272 -0.00024951516318210857 0 -0.049547377089573838 -0.00084834729429110337 0 -0.050022082286200191 -0.00097098698109495437 0 -0.049915042146529143 -0.00072167698100940477 0 -0.049130114552778964 -0.00079571586342395289 0 -0.049547377089573838 -0.00084834729429110337 0 -0.049915042146529143 -0.00072167698100940477 0 -0.050022082286200191 -0.00097098698109495437 0 -0.050568317577420648 -0.00069566969974178838 0 -0.049915042146529143 -0.00072167698100940477 0 -0.055270114235045568 -0.00097524459787099089 0 -0.053626801771973757 -0.00062572527095701945 0 -0.079024476875236158 0.014291327015807667 0 -0.080499926081122469 0.012730208776038556 0 -0.078666040247071745 0.01087199076732563 0 -0.080499926081122469 0.012730208776038556 0 -0.081013337246473735 0.011053693818765009 0 -0.078666040247071745 0.01087199076732563 0 -0.079024476875236158 0.014291327015807667 0 -0.08150635321478146 0.014340813401102643 0 -0.080499926081122469 0.012730208776038556 0 -0.081094041900604069 0.016222670283405946 0 -0.079024476875236158 0.014291327015807667 0 -0.08150635321478146 0.014340813401102643 0 -0.08150635321478146 0.014340813401102643 0 -0.080499926081122469 0.012730208776038556 0 -0.08219029477065054 0.013021244353435199 0 -0.08288722293738722 0.011260306965120481 0 -0.08219029477065054 0.013021244353435199 0 -0.081013337246473735 0.011053693818765009 0 -0.080499926081122469 0.012730208776038556 0 -0.08219029477065054 0.013021244353435199 0 -0.081013337246473735 0.011053693818765009 0 -0.08288722293738722 0.011260306965120481 0 -0.08219029477065054 0.013021244353435199 0 -0.084308991595857238 0.013931715433374967 0 -0.070465427389032886 0.0048330634018348313 0 -0.070200422480574343 0.0059969046651336608 0 -0.052619895351026735 -0.00036524656147708282 0 -0.052237757614988813 -0.0005881928426133842 0 -0.052389061234948936 -0.00036491914320856638 0 -0.08150635321478146 0.014340813401102643 0 -0.08219029477065054 0.013021244353435199 0 -0.083118898495357474 0.014739023482145739 0 -0.08219029477065054 0.013021244353435199 0 -0.083118898495357474 0.014739023482145739 0 -0.084308991595857238 0.013931715433374967 0 -0.08232756822446545 0.015764590851028118 0 -0.08150635321478146 0.014340813401102643 0 -0.083118898495357474 0.014739023482145739 0 -0.053409934363617934 0.0011799777396848128 0 -0.052237757614988813 -0.0005881928426133842 0 -0.052561383497921811 -0.00025139261760154491 0 -0.084170999188747722 0.015606338218765191 0 -0.083118898495357474 0.014739023482145739 0 -0.084308991595857238 0.013931715433374967 0 -0.052237757614988813 -0.0005881928426133842 0 -0.0523986110463735 -0.00044105392124410244 0 -0.052305014087615287 -0.00043543074818704893 0 -0.052383870426351661 -0.00039060332425839742 0 -0.052561383497921811 -0.00025139261760154491 0 -0.0523986110463735 -0.00044105392124410244 0 -0.052237757614988813 -0.0005881928426133842 0 -0.052561383497921811 -0.00025139261760154491 0 -0.0523986110463735 -0.00044105392124410244 0 -0.052277214855510248 -0.00042293642000002283 0 -0.0523986110463735 -0.00044105392124410244 0 -0.052305014087615287 -0.00043543074818704893 0 -0.052305014087615287 -0.00043543074818704893 0 -0.052389061234948936 -0.00036491914320856638 0 -0.05225479244021064 -0.00025809158309039791 0 -0.052237757614988813 -0.0005881928426133842 0 -0.052305014087615287 -0.00043543074818704893 0 -0.052389061234948936 -0.00036491914320856638 0 -0.052389061234948936 -0.00036491914320856638 0 -0.05225479244021064 -0.00025809158309039791 0 -0.052504305200803666 -0.00010874252441545862 0 -0.05225479244021064 -0.00025809158309039791 0 -0.05229798862825917 -0.00010080203434852167 0 -0.052504305200803666 -0.00010874252441545862 0 -0.05209527166699493 -6.0350259915321413e-05 0 -0.05225479244021064 -0.00025809158309039791 0 -0.05229798862825917 -0.00010080203434852167 0 -0.05234166537558782 7.6827249555514899e-05 0 -0.052504305200803666 -0.00010874252441545862 0 -0.052558183613768947 0.00025766227942597159 0 -0.05209527166699493 -6.0350259915321413e-05 0 -0.05229798862825917 -0.00010080203434852167 0 -0.05234166537558782 7.6827249555514899e-05 0 -0.05209527166699493 -6.0350259915321413e-05 0 -0.05234166537558782 7.6827249555514899e-05 0 -0.052109238363511327 0.00024142596046306837 0 -0.05229798862825917 -0.00010080203434852167 0 -0.05234166537558782 7.6827249555514899e-05 0 -0.052504305200803666 -0.00010874252441545862 0 -0.073553514441147411 0.0053552771112173369 0 -0.06661952071439195 0.0043327430333809785 0 -0.052504305200803666 -0.00010874252441545862 0 -0.052900130089877838 -5.8772081982650715e-05 0 -0.052558183613768947 0.00025766227942597159 0 -0.052619895351026735 -0.00036524656147708282 0 -0.052504305200803666 -0.00010874252441545862 0 -0.052900130089877838 -5.8772081982650715e-05 0 -0.052619895351026735 -0.00036524656147708282 0 -0.052389061234948936 -0.00036491914320856638 0 -0.052504305200803666 -0.00010874252441545862 0 -0.081013337246473735 0.011053693818765009 0 -0.081227044445210089 0.0087066658094804104 0 -0.078666040247071745 0.01087199076732563 0 -0.08288722293738722 0.011260306965120481 0 -0.081013337246473735 0.011053693818765009 0 -0.081227044445210089 0.0087066658094804104 0 -0.070465427389032886 0.0048330634018348313 0 -0.073553514441147411 0.0053552771112173369 0 -0.078093311155249007 0.0068611116334994053 0 -0.077637436944182278 0.0067842627240368636 0 -0.078341499399425224 0.0062996419239746623 0 -0.078093311155249007 0.0068611116334994053 0 -0.07814278884212103 0.0069216394382472894 0 -0.078341499399425224 0.0062996419239746623 0 -0.078093311155249007 0.0068611116334994053 0 -0.07829724820093012 0.0069926430738956455 0 -0.077637436944182278 0.0067842627240368636 0 -0.073598937947592633 0.0054013500181117613 0 -0.073553514441147411 0.0053552771112173369 0 -0.07829724820093012 0.0069926430738956455 0 -0.077637436944182278 0.0067842627240368636 0 -0.077015801212096752 0.0074166814847745994 0 -0.077637436944182278 0.0067842627240368636 0 -0.076247924009897564 0.0060907741353924232 0 -0.076780022677957874 0.0047489059511736115 0 -0.077637436944182278 0.0067842627240368636 0 -0.076247924009897564 0.0060907741353924232 0 -0.077015801212096752 0.0074166814847745994 0 -0.076247924009897564 0.0060907741353924232 0 -0.077015801212096752 0.0074166814847745994 0 -0.075232925407371892 0.0069032924528963585 0 -0.07829724820093012 0.0069926430738956455 0 -0.077015801212096752 0.0074166814847745994 0 -0.077019008060694102 0.0092889538535606934 0 -0.077015801212096752 0.0074166814847745994 0 -0.077019008060694102 0.0092889538535606934 0 -0.075232925407371892 0.0069032924528963585 0 -0.073553514441147411 0.0053552771112173369 0 -0.075217990666304038 0.0082080261699256415 0 -0.078075689506432608 0.0011316150596847783 0 -0.076294119662225615 0.0024719072678611748 0 -0.073483088684058603 -0.0015957417481366712 0 -0.078075689506432608 0.0011316150596847783 0 -0.079836738119822573 -0.00015065120416194217 0 -0.073483088684058603 -0.0015957417481366712 0 -0.078075689506432608 0.0011316150596847783 0 -0.076294119662225615 0.0024719072678611748 0 -0.078125031676800738 0.0031032681198915183 0 -0.076294119662225615 0.0024719072678611748 0 -0.076780022677957874 0.0047489059511736115 0 -0.074476001912114051 0.0039337083373227819 0 -0.076247924009897564 0.0060907741353924232 0 -0.076780022677957874 0.0047489059511736115 0 -0.074476001912114051 0.0039337083373227819 0 -0.077637436944182278 0.0067842627240368636 0 -0.076780022677957874 0.0047489059511736115 0 -0.078732726985694543 0.0047471074987012933 0 -0.076294119662225615 0.0024719072678611748 0 -0.076780022677957874 0.0047489059511736115 0 -0.078125031676800738 0.0031032681198915183 0 -0.076780022677957874 0.0047489059511736115 0 -0.078125031676800738 0.0031032681198915183 0 -0.078732726985694543 0.0047471074987012933 0 -0.077637436944182278 0.0067842627240368636 0 -0.078732726985694543 0.0047471074987012933 0 -0.081415427168301593 0.0038592997491808593 0 -0.078125031676800738 0.0031032681198915183 0 -0.079594205365591475 0.0034719281338122941 0 -0.080120903730751744 0.0021500059989797266 0 -0.075445661761078753 0.0028262630205249857 0 -0.074506894010835018 0.0016821753389626986 0 -0.078125031676800738 0.0031032681198915183 0 -0.079594205365591475 0.0034719281338122941 0 -0.078732726985694543 0.0047471074987012933 0 -0.079594205365591475 0.0034719281338122941 0 -0.078732726985694543 0.0047471074987012933 0 -0.081415427168301593 0.0038592997491808593 0 -0.079594205365591475 0.0034719281338122941 0 -0.080120903730751744 0.0021500059989797266 0 -0.081415427168301593 0.0038592997491808593 0 -0.080120903730751744 0.0021500059989797266 0 -0.081373868754448242 0.0021765445300801836 0 -0.081415427168301593 0.0038592997491808593 0 -0.080120903730751744 0.0021500059989797266 0 -0.08143331690022379 0.0010663586467621832 0 -0.081373868754448242 0.0021765445300801836 0 -0.078075689506432608 0.0011316150596847783 0 -0.078125031676800738 0.0031032681198915183 0 -0.080120903730751744 0.0021500059989797266 0 -0.078075689506432608 0.0011316150596847783 0 -0.080120903730751744 0.0021500059989797266 0 -0.080070471120364778 0.00096850663569289009 0 -0.078075689506432608 0.0011316150596847783 0 -0.080070471120364778 0.00096850663569289009 0 -0.079836738119822573 -0.00015065120416194217 0 -0.080070471120364778 0.00096850663569289009 0 -0.08143331690022379 0.0010663586467621832 0 -0.079836738119822573 -0.00015065120416194217 0 -0.080120903730751744 0.0021500059989797266 0 -0.080070471120364778 0.00096850663569289009 0 -0.08143331690022379 0.0010663586467621832 0 -0.08143331690022379 0.0010663586467621832 0 -0.082514002423954999 0.0016221866188307105 0 -0.085021774461384605 0.00055071844090057609 0 -0.08143331690022379 0.0010663586467621832 0 -0.085021774461384605 0.00055071844090057609 0 -0.079836738119822573 -0.00015065120416194217 0 -0.065953980725308517 0.0020210711127431513 0 -0.068395179102636441 -0.00016477372475172329 0 -0.082514002423954999 0.0016221866188307105 0 -0.081415427168301593 0.0038592997491808593 0 -0.085021774461384605 0.00055071844090057609 0 -0.074506894010835018 0.0016821753389626986 0 -0.065953980725308517 0.0020210711127431513 0 -0.082514002423954999 0.0016221866188307105 0 -0.081373868754448242 0.0021765445300801836 0 -0.081415427168301593 0.0038592997491808593 0 -0.08143331690022379 0.0010663586467621832 0 -0.082514002423954999 0.0016221866188307105 0 -0.081373868754448242 0.0021765445300801836 0 -0.078341499399425224 0.0062996419239746623 0 -0.078490730891806082 0.006331226595439869 0 -0.078492093843478397 0.0061525980419314197 0 -0.07814278884212103 0.0069216394382472894 0 -0.078341499399425224 0.0062996419239746623 0 -0.078490730891806082 0.006331226595439869 0 -0.052558183613768947 0.00025766227942597159 0 -0.052285328473020004 0.00032480133388828583 0 -0.052128084890273922 0.0007860571974390065 0 -0.05234166537558782 7.6827249555514899e-05 0 -0.052558183613768947 0.00025766227942597159 0 -0.052285328473020004 0.00032480133388828583 0 -0.05234166537558782 7.6827249555514899e-05 0 -0.052285328473020004 0.00032480133388828583 0 -0.052109238363511327 0.00024142596046306837 0 -0.06661952071439195 0.0043327430333809785 0 -0.061175409562984048 0.0034538564073853008 0 -0.078490730891806082 0.006331226595439869 0 -0.078492093843478397 0.0061525980419314197 0 -0.078535640732719653 0.0061511959921273221 0 -0.065953980725308517 0.0020210711127431513 0 -0.061175409562984048 0.0034538564073853008 0 -0.056312686682269845 -0.0028389232389449633 0 -0.056137559217012932 -0.0023123490955623102 0 -0.054940164811581975 -0.0023873391409822936 0 -0.056479614924517738 -0.00376705400822682 0 -0.056312686682269845 -0.0028389232389449633 0 -0.054940164811581975 -0.0023873391409822936 0 -0.056479614924517738 -0.00376705400822682 0 -0.056312686682269845 -0.0028389232389449633 0 -0.057080426763460444 -0.003140775945795799 0 -0.056933401287064277 -0.0025869265975678748 0 -0.056312686682269845 -0.0028389232389449633 0 -0.057080426763460444 -0.003140775945795799 0 -0.056933401287064277 -0.0025869265975678748 0 -0.056312686682269845 -0.0028389232389449633 0 -0.056137559217012932 -0.0023123490955623102 0 -0.056137559217012932 -0.0023123490955623102 0 -0.056727958069211618 -0.0018580193655939156 0 -0.055716344839448144 -0.0015414004184665505 0 -0.056727958069211618 -0.0018580193655939156 0 -0.055716344839448144 -0.0015414004184665505 0 -0.056762178592218458 -0.00099354095306167039 0 -0.056933401287064277 -0.0025869265975678748 0 -0.056137559217012932 -0.0023123490955623102 0 -0.056727958069211618 -0.0018580193655939156 0 -0.056933401287064277 -0.0025869265975678748 0 -0.056727958069211618 -0.0018580193655939156 0 -0.057551586775305599 -0.0022930139102867006 0 -0.056727958069211618 -0.0018580193655939156 0 -0.057551586775305599 -0.0022930139102867006 0 -0.057497429195030515 -0.0015259521867840283 0 -0.056727958069211618 -0.0018580193655939156 0 -0.057497429195030515 -0.0015259521867840283 0 -0.056762178592218458 -0.00099354095306167039 0 -0.057497429195030515 -0.0015259521867840283 0 -0.058286116130101762 -0.0020477893423990808 0 -0.058214611576539697 -0.0012305938942888447 0 -0.057497429195030515 -0.0015259521867840283 0 -0.058214611576539697 -0.0012305938942888447 0 -0.057669602976016664 -0.00074055168180662688 0 -0.057551586775305599 -0.0022930139102867006 0 -0.057497429195030515 -0.0015259521867840283 0 -0.058286116130101762 -0.0020477893423990808 0 -0.056479614924517738 -0.00376705400822682 0 -0.057789131374271885 -0.0031833665642740099 0 -0.058868119002363252 -0.0035359214396492667 0 -0.057551586775305599 -0.0022930139102867006 0 -0.058132037469876247 -0.0027264016917822194 0 -0.058286116130101762 -0.0020477893423990808 0 -0.056479614924517738 -0.00376705400822682 0 -0.057080426763460444 -0.003140775945795799 0 -0.057789131374271885 -0.0031833665642740099 0 -0.058132037469876247 -0.0027264016917822194 0 -0.057588893937664032 -0.0028123496650374379 0 -0.057789131374271885 -0.0031833665642740099 0 -0.057551586775305599 -0.0022930139102867006 0 -0.058132037469876247 -0.0027264016917822194 0 -0.057588893937664032 -0.0028123496650374379 0 -0.056933401287064277 -0.0025869265975678748 0 -0.057588893937664032 -0.0028123496650374379 0 -0.057080426763460444 -0.003140775945795799 0 -0.056933401287064277 -0.0025869265975678748 0 -0.057551586775305599 -0.0022930139102867006 0 -0.057588893937664032 -0.0028123496650374379 0 -0.057588893937664032 -0.0028123496650374379 0 -0.057080426763460444 -0.003140775945795799 0 -0.057789131374271885 -0.0031833665642740099 0 -0.058132037469876247 -0.0027264016917822194 0 -0.057789131374271885 -0.0031833665642740099 0 -0.05859809859168371 -0.0031161239713837752 0 -0.057789131374271885 -0.0031833665642740099 0 -0.05859809859168371 -0.0031161239713837752 0 -0.058868119002363252 -0.0035359214396492667 0 -0.05859809859168371 -0.0031161239713837752 0 -0.058856402959309342 -0.0032044795641383381 0 -0.058856557494700541 -0.0029488334565374516 0 -0.05859809859168371 -0.0031161239713837752 0 -0.058856402959309342 -0.0032044795641383381 0 -0.058868119002363252 -0.0035359214396492667 0 -0.058856557494700541 -0.0029488334565374516 0 -0.059103070660856516 -0.0032486675687836428 0 -0.059103273148685638 -0.002558224325285787 0 -0.058856402959309342 -0.0032044795641383381 0 -0.058868119002363252 -0.0035359214396492667 0 -0.059103070660856516 -0.0032486675687836428 0 -0.058856402959309342 -0.0032044795641383381 0 -0.058856557494700541 -0.0029488334565374516 0 -0.059103070660856516 -0.0032486675687836428 0 -0.058856557494700541 -0.0029488334565374516 0 -0.059103273148685638 -0.002558224325285787 0 -0.058649030498970536 -0.0025939546573805904 0 -0.059103273148685638 -0.002558224325285787 0 -0.058649030498970536 -0.0025939546573805904 0 -0.05885322529787837 -0.0021588792374811886 0 -0.058132037469876247 -0.0027264016917822194 0 -0.058649030498970536 -0.0025939546573805904 0 -0.058286116130101762 -0.0020477893423990808 0 -0.05859809859168371 -0.0031161239713837752 0 -0.058856557494700541 -0.0029488334565374516 0 -0.058649030498970536 -0.0025939546573805904 0 -0.058132037469876247 -0.0027264016917822194 0 -0.05859809859168371 -0.0031161239713837752 0 -0.058649030498970536 -0.0025939546573805904 0 -0.058286116130101762 -0.0020477893423990808 0 -0.058860505793741746 -0.0015399173969528645 0 -0.05885322529787837 -0.0021588792374811886 0 -0.058649030498970536 -0.0025939546573805904 0 -0.058286116130101762 -0.0020477893423990808 0 -0.05885322529787837 -0.0021588792374811886 0 -0.058286116130101762 -0.0020477893423990808 0 -0.058214611576539697 -0.0012305938942888447 0 -0.058860505793741746 -0.0015399173969528645 0 -0.058860505793741746 -0.0015399173969528645 0 -0.059329636625959879 -0.0019726218525916907 0 -0.059575419186234893 -0.0015016379325382425 0 -0.059103273148685638 -0.002558224325285787 0 -0.05885322529787837 -0.0021588792374811886 0 -0.059329636625959879 -0.0019726218525916907 0 -0.058860505793741746 -0.0015399173969528645 0 -0.05885322529787837 -0.0021588792374811886 0 -0.059329636625959879 -0.0019726218525916907 0 -0.059329636625959879 -0.0019726218525916907 0 -0.059575419186234893 -0.0015016379325382425 0 -0.059914797028817253 -0.0020832865042292887 0 -0.059103273148685638 -0.002558224325285787 0 -0.059329636625959879 -0.0019726218525916907 0 -0.059914797028817253 -0.0020832865042292887 0 -0.059575419186234893 -0.0015016379325382425 0 -0.059914797028817253 -0.0020832865042292887 0 -0.060787792405070526 -0.0011447577036656619 0 -0.059103070660856516 -0.0032486675687836428 0 -0.060897746879817305 -0.0017858023231856254 0 -0.062061196949727414 -0.0030784559240865134 0 -0.058868119002363252 -0.0035359214396492667 0 -0.059103070660856516 -0.0032486675687836428 0 -0.062061196949727414 -0.0030784559240865134 0 -0.068395179102636441 -0.00016477372475172329 0 -0.067183113684755782 -0.0012552957349373827 0 -0.055580703841662138 -0.0010923511764494309 0 -0.053977047774348294 -0.0015513017509961432 0 -0.059103070660856516 -0.0032486675687836428 0 -0.059103273148685638 -0.002558224325285787 0 -0.059914797028817253 -0.0020832865042292887 0 -0.050290893811489899 0.00062691854545900258 0 -0.054232202205311837 0.0008425237271244432 0 -0.052502386493543045 0.0021168190404138336 0 -0.052130763255576591 0.0014670383633122064 0 -0.054039389233665178 0.0018846073350472139 0 -0.050290893811489899 0.00062691854545900258 0 -0.050751281252331415 0.00035045711911981767 0 -0.051167802264746133 0.00074941824894947536 0 -0.050290893811489899 0.00062691854545900258 0 -0.052502386493543045 0.0021168190404138336 0 -0.050962287904844139 0.0028083932934704022 0 -0.048611536685556574 0.0012197101425878011 0 -0.050290893811489899 0.00062691854545900258 0 -0.050962287904844139 0.0028083932934704022 0 -0.049507897077852525 -0.00038972266671094189 0 -0.050290893811489899 0.00062691854545900258 0 -0.050250429409858272 -0.00024951516318210857 0 -0.050290893811489899 0.00062691854545900258 0 -0.050250429409858272 -0.00024951516318210857 0 -0.050751281252331415 0.00035045711911981767 0 -0.050250429409858272 -0.00024951516318210857 0 -0.050751281252331415 0.00035045711911981767 0 -0.051356959873671698 0.00017534473002980881 0 -0.050751281252331415 0.00035045711911981767 0 -0.051356959873671698 0.00017534473002980881 0 -0.051167802264746133 0.00074941824894947536 0 -0.051836543764898602 -8.8976031565548959e-05 0 -0.051356959873671698 0.00017534473002980881 0 -0.051877809055173439 0.0001174280731027898 0 -0.051356959873671698 0.00017534473002980881 0 -0.051877809055173439 0.0001174280731027898 0 -0.051757547422584711 0.00039698904437536768 0 -0.051356959873671698 0.00017534473002980881 0 -0.051757547422584711 0.00039698904437536768 0 -0.051167802264746133 0.00074941824894947536 0 -0.052285328473020004 0.00032480133388828583 0 -0.052109238363511327 0.00024142596046306837 0 -0.052128084890273922 0.0007860571974390065 0 -0.05209527166699493 -6.0350259915321413e-05 0 -0.052109238363511327 0.00024142596046306837 0 -0.051877809055173439 0.0001174280731027898 0 -0.052109238363511327 0.00024142596046306837 0 -0.051877809055173439 0.0001174280731027898 0 -0.051757547422584711 0.00039698904437536768 0 -0.052109238363511327 0.00024142596046306837 0 -0.051757547422584711 0.00039698904437536768 0 -0.052128084890273922 0.0007860571974390065 0 -0.051757547422584711 0.00039698904437536768 0 -0.052128084890273922 0.0007860571974390065 0 -0.051167802264746133 0.00074941824894947536 0 -0.057834569176102496 0.0012514755803696639 0 -0.054232202205311837 0.0008425237271244432 0 -0.055926121418186717 0.002982325879351906 0 -0.061175409562984048 0.0034538564073853008 0 -0.054039389233665178 0.0018846073350472139 0 -0.054232202205311837 0.0008425237271244432 0 -0.054159027232594546 0.0026395133751293057 0 -0.055926121418186717 0.002982325879351906 0 -0.055926121418186717 0.002982325879351906 0 -0.056864380697595016 0.0038420503478855069 0 -0.055587466364872849 0.0040225577631221813 0 -0.055926121418186717 0.002982325879351906 0 -0.054636291700657369 0.003885288336567475 0 -0.055587466364872849 0.0040225577631221813 0 -0.054159027232594546 0.0026395133751293057 0 -0.055926121418186717 0.002982325879351906 0 -0.054636291700657369 0.003885288336567475 0 -0.065953980725308517 0.0020210711127431513 0 -0.056650371067577435 0.0016814883246966323 0 -0.057834153618977223 0.0012437221278442097 0 -0.055926121418186717 0.002982325879351906 0 -0.056864380697595016 0.0038420503478855069 0 -0.059567033979656896 0.0014309794630952828 0 -0.057834153618977223 0.0012437221278442097 0 -0.056864380697595016 0.0038420503478855069 0 -0.061175409562984048 0.0034538564073853008 0 -0.060007095501985908 0.0038326777187421184 0 -0.054940164811581975 -0.0023873391409822936 0 -0.054777690775608734 -0.0013281488980096054 0 -0.055716344839448144 -0.0015414004184665505 0 -0.056137559217012932 -0.0023123490955623102 0 -0.054940164811581975 -0.0023873391409822936 0 -0.055716344839448144 -0.0015414004184665505 0 -0.054940164811581975 -0.0023873391409822936 0 -0.054777690775608734 -0.0013281488980096054 0 -0.053861340329531417 -0.0014281111647568622 0 -0.054777690775608734 -0.0013281488980096054 0 -0.053861340329531417 -0.0014281111647568622 0 -0.053336652348281527 -0.00095135858361048787 0 -0.054636291700657369 0.003885288336567475 0 -0.055000590544741761 0.0054496109285029843 0 -0.053555337878498033 0.0048541466032215449 0 -0.054636291700657369 0.003885288336567475 0 -0.055587466364872849 0.0040225577631221813 0 -0.055000590544741761 0.0054496109285029843 0 -0.056650371067577435 0.0016814883246966323 0 -0.051014218743913403 0.0016048781087364473 0 -0.056864380697595016 0.0038420503478855069 0 -0.055587466364872849 0.0040225577631221813 0 -0.055000590544741761 0.0054496109285029843 0 -0.051014218743913403 0.0016048781087364473 0 -0.047555807921908916 0.0019476690866117832 0 -0.055000590544741761 0.0054496109285029843 0 -0.053555337878498033 0.0048541466032215449 0 -0.054124165226382241 0.0061921893114174056 0 -0.053555337878498033 0.0048541466032215449 0 -0.051229000562368732 0.0053366062582891529 0 -0.054124165226382241 0.0061921893114174056 0 -0.05058316706758504 0.0033546022634519117 0 -0.047555807921908916 0.0019476690866117832 0 -0.053555337878498033 0.0048541466032215449 0 -0.052970507615263417 0.0035428060644055949 0 -0.051229000562368732 0.0053366062582891529 0 -0.054636291700657369 0.003885288336567475 0 -0.053555337878498033 0.0048541466032215449 0 -0.052970507615263417 0.0035428060644055949 0 -0.054159027232594546 0.0026395133751293057 0 -0.054636291700657369 0.003885288336567475 0 -0.052970507615263417 0.0035428060644055949 0 -0.052970507615263417 0.0035428060644055949 0 -0.052502386493543045 0.0021168190404138336 0 -0.050962287904844139 0.0028083932934704022 0 -0.054232202205311837 0.0008425237271244432 0 -0.054159027232594546 0.0026395133751293057 0 -0.052502386493543045 0.0021168190404138336 0 -0.054159027232594546 0.0026395133751293057 0 -0.052970507615263417 0.0035428060644055949 0 -0.052502386493543045 0.0021168190404138336 0 -0.052970507615263417 0.0035428060644055949 0 -0.050962287904844139 0.0028083932934704022 0 -0.051229000562368732 0.0053366062582891529 0 -0.04924166096583165 0.0043695551516106023 0 -0.050962287904844139 0.0028083932934704022 0 -0.051229000562368732 0.0053366062582891529 0 -0.051229000562368732 0.0053366062582891529 0 -0.051261086030186802 0.0075607828666307397 0 -0.054246648018621821 0.0070929605599623574 0 -0.051229000562368732 0.0053366062582891529 0 -0.051261086030186802 0.0075607828666307397 0 -0.049528018790617988 0.0066945489397931962 0 -0.037222014450454109 0.00021406571500760232 0 -0.032690690081804502 0.0023106925508702657 0 -0.051261086030186802 0.0075607828666307397 0 -0.051962658642352104 0.0095708743332476778 0 -0.049512034871186349 0.0086135751067046695 0 -0.032704925985163801 0.00079391158300779483 0 -0.031139509021157367 0.00084969061183824376 0 -0.031628722963352181 0.0012706477355887509 0 -0.032704925985163801 0.00079391158300779483 0 -0.031931442472696463 0.0016281790563577577 0 -0.031628722963352181 0.0012706477355887509 0 -0.034182193272311784 -0.001411234468235613 0 -0.033942162277150488 -0.00044515803150350599 0 -0.032883571356197246 -7.276579267389549e-06 0 -0.034182193272311784 -0.001411234468235613 0 -0.033942162277150488 -0.00044515803150350599 0 -0.034855383205380008 -0.00064293781414089587 0 -0.037222014450454109 0.00021406571500760232 0 -0.030061899476621756 -1.43398116223262e-06 0 -0.037222014450454109 0.00021406571500760232 0 -0.036793019934198916 -0.00018283861428301023 0 -0.034985599421252574 -0.0013676656005022717 0 -0.036372154396023634 -0.00141894269262483 0 -0.036263792006017377 -0.0027878485926174285 0 -0.034182193272311784 -0.001411234468235613 0 -0.034855383205380008 -0.00064293781414089587 0 -0.036055450883813171 -0.0014477782594544573 0 -0.034855383205380008 -0.00064293781414089587 0 -0.036055450883813171 -0.0014477782594544573 0 -0.036530635317780585 -0.00040393603159047511 0 -0.051261086030186802 0.0075607828666307397 0 -0.051962658642352104 0.0095708743332476778 0 -0.054246648018621821 0.0070929605599623574 0 -0.037222014450454109 0.00021406571500760232 0 -0.045572844797241913 0.0016792154555136018 0 -0.051229000562368732 0.0053366062582891529 0 -0.054246648018621821 0.0070929605599623574 0 -0.054818863813718297 0.0064652757846414286 0 -0.036372154396023634 -0.00141894269262483 0 -0.036263792006017377 -0.0027878485926174285 0 -0.036576206928678676 -0.0031402008694602825 0 -0.045572844797241913 0.0016792154555136018 0 -0.047555807921908916 0.0019476690866117832 0 -0.036372154396023634 -0.00141894269262483 0 -0.037256588319507122 -0.0023477046071035939 0 -0.036576206928678676 -0.0031402008694602825 0 -0.047555807921908916 0.0019476690866117832 0 -0.045875360233635962 -0.00090799010607273286 0 -0.037256588319507122 -0.0023477046071035939 0 -0.036576206928678676 -0.0031402008694602825 0 -0.039008069708875333 -0.0025797479845019013 0 -0.054777690775608734 -0.0013281488980096054 0 -0.053336652348281527 -0.00095135858361048787 0 -0.055488411805162355 -0.0004289731990020725 0 -0.037256588319507122 -0.0023477046071035939 0 -0.039008069708875333 -0.0025797479845019013 0 -0.037752175128262143 -0.0014503818272633652 0 -0.054777690775608734 -0.0013281488980096054 0 -0.055716344839448144 -0.0015414004184665505 0 -0.055488411805162355 -0.0004289731990020725 0 -0.039008069708875333 -0.0025797479845019013 0 -0.039079562364732041 -0.0012124169969576256 0 -0.037752175128262143 -0.0014503818272633652 0 -0.032480322164588162 -0.003121998607530842 0 -0.029298794546287879 -0.0023001302234627978 0 -0.023419690906489161 -0.0064335710984296142 0 -0.021304274068866161 -0.0056997636592755595 0 -0.022272549969755591 -0.0052663292985557775 0 -0.039079562364732041 -0.0012124169969576256 0 -0.037752175128262143 -0.0014503818272633652 0 -0.036530635317780585 -0.00040393603159047511 0 -0.036793019934198916 -0.00018283861428301023 0 -0.036947801377949556 -0.00031404551618853055 0 -0.036055450883813171 -0.0014477782594544573 0 -0.037752175128262143 -0.0014503818272633652 0 -0.036530635317780585 -0.00040393603159047511 0 -0.036372154396023634 -0.00141894269262483 0 -0.037256588319507122 -0.0023477046071035939 0 -0.037752175128262143 -0.0014503818272633652 0 -0.021304274068866161 -0.0056997636592755595 0 -0.022272549969755591 -0.0052663292985557775 0 -0.021489395688625221 -0.0047403527964559201 0 -0.022272549969755591 -0.0052663292985557775 0 -0.021489395688625221 -0.0047403527964559201 0 -0.022200118080638469 -0.0044738349246418573 0 -0.021304274068866161 -0.0056997636592755595 0 -0.021489395688625221 -0.0047403527964559201 0 -0.020647908593466827 -0.0046907795692137204 0 -0.023419690906489161 -0.0064335710984296142 0 -0.02304629251507069 -0.005108187048858041 0 -0.023760202642547225 -0.0056751688199015533 0 -0.023419690906489161 -0.0064335710984296142 0 -0.022272549969755591 -0.0052663292985557775 0 -0.02304629251507069 -0.005108187048858041 0 -0.02304629251507069 -0.005108187048858041 0 -0.022932567390522459 -0.0044173152942170325 0 -0.022200118080638469 -0.0044738349246418573 0 -0.022272549969755591 -0.0052663292985557775 0 -0.02304629251507069 -0.005108187048858041 0 -0.022200118080638469 -0.0044738349246418573 0 -0.02304629251507069 -0.005108187048858041 0 -0.022932567390522459 -0.0044173152942170325 0 -0.023810498546252654 -0.0045344559977695559 0 -0.02304629251507069 -0.005108187048858041 0 -0.023760202642547225 -0.0056751688199015533 0 -0.023810498546252654 -0.0045344559977695559 0 -0.022583499390076523 -0.0036446976845684168 0 -0.023810498546252654 -0.0045344559977695559 0 -0.022951684422266187 -0.0026727506934289599 0 -0.017746661917144361 -0.0068457173295396303 0 -0.012194546043663809 -0.0076795659697569338 0 -0.022932567390522459 -0.0044173152942170325 0 -0.022583499390076523 -0.0036446976845684168 0 -0.023810498546252654 -0.0045344559977695559 0 -0.022932567390522459 -0.0044173152942170325 0 -0.022583499390076523 -0.0036446976845684168 0 -0.022200118080638469 -0.0044738349246418573 0 -0.022583499390076523 -0.0036446976845684168 0 -0.021329035998932901 -0.0039034826791983822 0 -0.021352740337451961 -0.0027011240565691223 0 -0.022583499390076523 -0.0036446976845684168 0 -0.022200118080638469 -0.0044738349246418573 0 -0.021329035998932901 -0.0039034826791983822 0 -0.021489395688625221 -0.0047403527964559201 0 -0.022200118080638469 -0.0044738349246418573 0 -0.021329035998932901 -0.0039034826791983822 0 -0.021489395688625221 -0.0047403527964559201 0 -0.021329035998932901 -0.0039034826791983822 0 -0.020647908593466827 -0.0046907795692137204 0 -0.021329035998932901 -0.0039034826791983822 0 -0.020118620812539314 -0.0036205780279244823 0 -0.021352740337451961 -0.0027011240565691223 0 -0.021329035998932901 -0.0039034826791983822 0 -0.020118620812539314 -0.0036205780279244823 0 -0.020647908593466827 -0.0046907795692137204 0 -0.020118620812539314 -0.0036205780279244823 0 -0.01985653355513832 -0.0043863631951692114 0 -0.020647908593466827 -0.0046907795692137204 0 -0.020118620812539314 -0.0036205780279244823 0 -0.019340689171927786 -0.0041702174659250133 0 -0.019138601946025735 -0.0030038417968308701 0 -0.019340689171927786 -0.0041702174659250133 0 -0.019138601946025735 -0.0030038417968308701 0 -0.018313992058788194 -0.0047598570565168981 0 -0.020118620812539314 -0.0036205780279244823 0 -0.019340689171927786 -0.0041702174659250133 0 -0.01985653355513832 -0.0043863631951692114 0 -0.019340689171927786 -0.0041702174659250133 0 -0.01985653355513832 -0.0043863631951692114 0 -0.019323144356547077 -0.0050585640393225016 0 -0.028613663636886347 -0.001782128511824275 0 -0.027841590100289051 -0.0020109729300229963 0 -0.027270850837283495 -0.0013881787974483984 0 -0.019340689171927786 -0.0041702174659250133 0 -0.019323144356547077 -0.0050585640393225016 0 -0.018313992058788194 -0.0047598570565168981 0 -0.026930481645578128 -0.0011379165975529278 0 -0.026845199049101817 -0.00058171234359835817 0 -0.033942162277150488 -0.00044515803150350599 0 -0.033544817700424244 0.00051399250982603903 0 -0.032870137397718852 -6.9388223703466177e-06 0 -0.030526995966273576 -0.00014818998208123083 0 -0.030061899476621756 -1.43398116223262e-06 0 -0.033544817700424244 0.00051399250982603903 0 -0.032870137397718852 -6.9388223703466177e-06 0 -0.032634043021830254 0.00024922792243764778 0 -0.026930481645578128 -0.0011379165975529278 0 -0.028983791594767109 -4.2428567647373972e-05 0 -0.030061899476621756 -1.43398116223262e-06 0 -0.028983791594767109 -4.2428567647373972e-05 0 -0.033942162277150488 -0.00044515803150350599 0 -0.034855383205380008 -0.00064293781414089587 0 -0.033544817700424244 0.00051399250982603903 0 -0.029298794546287879 -0.0023001302234627978 0 -0.026930481645578128 -0.0011379165975529278 0 -0.01985653355513832 -0.0043863631951692114 0 -0.019323144356547077 -0.0050585640393225016 0 -0.020647908593466827 -0.0046907795692137204 0 -0.021304274068866161 -0.0056997636592755595 0 -0.019345659523449049 -0.0050635527239418247 0 -0.020647908593466827 -0.0046907795692137204 0 -0.026930481645578128 -0.0011379165975529278 0 -0.024152137683902519 -0.0021739875964807026 0 -0.034855383205380008 -0.00064293781414089587 0 -0.036530635317780585 -0.00040393603159047511 0 -0.033544817700424244 0.00051399250982603903 0 -0.021549390946492976 -0.017511979578506556 0 -0.020778347474541103 -0.014890915749060847 0 -0.024761649824253065 -0.016753801054415377 0 -0.021549390946492976 -0.017511979578506556 0 -0.022270834207537886 -0.019817649947915877 0 -0.024761649824253065 -0.016753801054415377 0 -0.059575419186234893 -0.0015016379325382425 0 -0.059800793464220896 -0.00083420361514663832 0 -0.058699340193462235 -0.00053096027747759995 0 -0.059575419186234893 -0.0015016379325382425 0 -0.059800793464220896 -0.00083420361514663832 0 -0.060787792405070526 -0.0011447577036656619 0 -0.021549390946492976 -0.017511979578506556 0 -0.022270834207537886 -0.019817649947915877 0 -0.019262374467660277 -0.018958996713727388 0 -0.04203675812169768 -0.0067750462736598203 0 -0.039136853126375791 -0.0062301278468327803 0 -0.058214611576539697 -0.0012305938942888447 0 -0.058860505793741746 -0.0015399173969528645 0 -0.058706971823072301 -0.00026922587577869528 0 -0.043657734273015947 -0.0075023945075633697 0 -0.039136853126375791 -0.0062301278468327803 0 -0.058860505793741746 -0.0015399173969528645 0 -0.059575419186234893 -0.0015016379325382425 0 -0.058706971823072301 -0.00026922587577869528 0 -0.058214611576539697 -0.0012305938942888447 0 -0.058706971823072301 -0.00026922587577869528 0 -0.057669602976016664 -0.00074055168180662688 0 -0.039136853126375791 -0.0062301278468327803 0 -0.039548660665323435 -0.0043734160777021075 0 -0.019262374467660277 -0.018958996713727388 0 -0.016429057463738676 -0.015450328836048768 0 -0.020778347474541103 -0.014890915749060847 0 -0.021549390946492976 -0.017511979578506556 0 -0.019262374467660277 -0.018958996713727388 0 -0.020778347474541103 -0.014890915749060847 0 -0.027424348917828273 -0.0076191949472678659 0 -0.026501691459215583 -0.0070313532904992615 0 -0.025871709508576205 -0.0057394728730345585 0 -0.039136853126375791 -0.0062301278468327803 0 -0.027086425447716212 -0.0070131084627855491 0 -0.025895428543938299 -0.007186684399487631 0 -0.024803160107336356 -0.0066462071375711406 0 -0.025871709508576205 -0.0057394728730345585 0 -0.027424348917828273 -0.0076191949472678659 0 -0.025920792189202388 -0.0071971853084489834 0 -0.026501691459215583 -0.0070313532904992615 0 -0.039548660665323435 -0.0043734160777021075 0 -0.038776827752909297 -0.004575551873694946 0 -0.025895428543938299 -0.007186684399487631 0 -0.026501691459215583 -0.0070313532904992615 0 -0.025871709508576205 -0.0057394728730345585 0 -0.058706971823072301 -0.00026922587577869528 0 -0.057550882043186528 0.00010284188713981864 0 -0.057669602976016664 -0.00074055168180662688 0 -0.057497429195030515 -0.0015259521867840283 0 -0.057669602976016664 -0.00074055168180662688 0 -0.056762178592218458 -0.00099354095306167039 0 -0.057550882043186528 0.00010284188713981864 0 -0.057669602976016664 -0.00074055168180662688 0 -0.056762178592218458 -0.00099354095306167039 0 -0.055488411805162355 -0.0004289731990020725 0 -0.057550882043186528 0.00010284188713981864 0 -0.056762178592218458 -0.00099354095306167039 0 -0.045875360233635962 -0.00090799010607273286 0 -0.039548660665323435 -0.0043734160777021075 0 -0.055716344839448144 -0.0015414004184665505 0 -0.055488411805162355 -0.0004289731990020725 0 -0.056762178592218458 -0.00099354095306167039 0 -0.039008069708875333 -0.0025797479845019013 0 -0.039079562364732041 -0.0012124169969576256 0 -0.041424517698507787 -0.0019244982459985292 0 -0.032480322164588162 -0.003121998607530842 0 -0.039548660665323435 -0.0043734160777021075 0 -0.023419690906489161 -0.0064335710984296142 0 -0.025895428543938299 -0.007186684399487631 0 -0.024803160107336356 -0.0066462071375711406 0 -0.023419690906489161 -0.0064335710984296142 0 -0.024803160107336356 -0.0066462071375711406 0 -0.023760202642547225 -0.0056751688199015533 0 -0.023820325170379596 -0.0043708671602235433 0 -0.024353503679819762 -0.0039191735146845647 0 -0.025871709508576205 -0.0057394728730345585 0 -0.024803160107336356 -0.0066462071375711406 0 -0.023820325170379596 -0.0043708671602235433 0 -0.025871709508576205 -0.0057394728730345585 0 -0.024803160107336356 -0.0066462071375711406 0 -0.023760202642547225 -0.0056751688199015533 0 -0.023810498546252654 -0.0045344559977695559 0 -0.019554437551067647 -0.0072506726604529949 0 -0.017746661917144361 -0.0068457173295396303 0 -0.023820325170379596 -0.0043708671602235433 0 -0.024353503679819762 -0.0039191735146845647 0 -0.022820527717432624 -0.002104522170846319 0 -0.019510531845679472 -0.0074856520902440316 0 -0.012194546043663809 -0.0076795659697569338 0 -0.013589119080430893 -0.011940942139952804 0 -0.017082664379087689 -0.011472756084357032 0 -0.01402676507375049 -0.0086936787233509154 0 -0.013589119080430893 -0.011940942139952804 0 -0.017082664379087689 -0.011472756084357032 0 -0.016429057463738676 -0.015450328836048768 0 -0.019510531845679472 -0.0074856520902440316 0 -0.027086425447716212 -0.0070131084627855491 0 -0.017082664379087689 -0.011472756084357032 0 -0.016429057463738676 -0.015450328836048768 0 -0.020778347474541103 -0.014890915749060847 0 -0.017082664379087689 -0.011472756084357032 0 -0.020884532035266756 -0.010080115909210787 0 -0.020778347474541103 -0.014890915749060847 0 -0.0019290274015273438 -0.021664007343652508 0 -0.0089353058319185767 -0.021900982825751248 0 -0.020884532035266756 -0.010080115909210787 0 -0.020778347474541103 -0.014890915749060847 0 -0.024980071476692327 -0.012388230573322155 0 0.023673259990916289 -0.036007316702563949 0 0.025542267905848508 -0.037833835906162794 0 0.025073167951271381 -0.033541182598017624 0 0.020566409365731779 -0.036186387709913212 0 0.0219700592644308 -0.036186748095098517 0 0.02096967190997296 -0.034923307034635996 0 0.0219700592644308 -0.036186748095098517 0 0.022624987322448893 -0.034911366355749048 0 0.02096967190997296 -0.034923307034635996 0 0.0219700592644308 -0.036186748095098517 0 0.021091234076027785 -0.037515432771498797 0 0.023239355763830023 -0.037695610776673112 0 0.020566409365731779 -0.036186387709913212 0 0.0219700592644308 -0.036186748095098517 0 0.021091234076027785 -0.037515432771498797 0 0.022479081335268037 -0.040187800452988774 0 0.021091234076027785 -0.037515432771498797 0 0.019318866542262562 -0.039419018682548275 0 0.022479081335268037 -0.040187800452988774 0 0.021091234076027785 -0.037515432771498797 0 0.023239355763830023 -0.037695610776673112 0 -0.0019290274015273438 -0.021664007343652508 0 0.0023471801290346366 -0.020056450466269526 0 -0.017082664379087689 -0.011472756084357032 0 -0.020884532035266756 -0.010080115909210787 0 -0.016784716947057965 -0.007775746960986085 0 0.022479081335268037 -0.040187800452988774 0 0.023239355763830023 -0.037695610776673112 0 0.025542267905848508 -0.037833835906162794 0 0.023239355763830023 -0.037695610776673112 0 0.023673259990916289 -0.036007316702563949 0 0.025542267905848508 -0.037833835906162794 0 0.0219700592644308 -0.036186748095098517 0 0.023239355763830023 -0.037695610776673112 0 0.023673259990916289 -0.036007316702563949 0 0.0219700592644308 -0.036186748095098517 0 0.023673259990916289 -0.036007316702563949 0 0.022624987322448893 -0.034911366355749048 0 0.025542267905848508 -0.037833835906162794 0 0.028263575235384451 -0.035994742029732067 0 0.025073167951271381 -0.033541182598017624 0 -0.017082664379087689 -0.011472756084357032 0 -0.016784716947057965 -0.007775746960986085 0 -0.01402676507375049 -0.0086936787233509154 0 -0.013589119080430893 -0.011940942139952804 0 -0.01402676507375049 -0.0086936787233509154 0 -0.010755860488898867 -0.0084294148916675381 0 -0.01402676507375049 -0.0086936787233509154 0 -0.012683989871891326 -0.0054767723227761873 0 -0.010755860488898867 -0.0084294148916675381 0 -0.016784716947057965 -0.007775746960986085 0 -0.01402676507375049 -0.0086936787233509154 0 -0.012683989871891326 -0.0054767723227761873 0 0.0023471801290346366 -0.020056450466269526 0 0.0048964880037097687 -0.017128731313813289 0 0.028263575235384451 -0.035994742029732067 0 0.028380961142721917 -0.033074172474313025 0 0.025073167951271381 -0.033541182598017624 0 0.026735299495643648 -0.023708461437356547 0 0.026987040094284067 -0.023326604132822514 0 0.02651749199689309 -0.023334392226572964 0 0.026735299495643648 -0.023708461437356547 0 0.026105380237560569 -0.023864806997464912 0 0.02651749199689309 -0.023334392226572964 0 0.026105380237560569 -0.023864806997464912 0 0.02604869587173464 -0.023456740013475537 0 0.02651749199689309 -0.023334392226572964 0 0.024560795370887949 -0.023313081187965875 0 0.024620148085573081 -0.026515927112504997 0 0.023673259990916289 -0.036007316702563949 0 0.025073167951271381 -0.033541182598017624 0 0.022624987322448893 -0.034911366355749048 0 0.025073167951271381 -0.033541182598017624 0 0.021400620625466618 -0.033939965014314469 0 0.022624987322448893 -0.034911366355749048 0 0.024620148085573081 -0.026515927112504997 0 0.022242116493960185 -0.028544495883465696 0 0.026105380237560569 -0.023864806997464912 0 0.02578212876682438 -0.023648422030452542 0 0.025388842450403726 -0.024008153559573635 0 0.026105380237560569 -0.023864806997464912 0 0.02604869587173464 -0.023456740013475537 0 0.02578212876682438 -0.023648422030452542 0 0.02604869587173464 -0.023456740013475537 0 0.02578212876682438 -0.023648422030452542 0 0.025648221268929672 -0.023258476311140724 0 0.021273032253686375 -0.032130674610077188 0 0.021540453312392661 -0.033444535897354355 0 0.023398013846100879 -0.029182157836405195 0 0.02578212876682438 -0.023648422030452542 0 0.025388842450403726 -0.024008153559573635 0 0.025648221268929672 -0.023258476311140724 0 0.022242116493960185 -0.028544495883465696 0 0.023989384157084934 -0.026044580012072441 0 0.021273032253686375 -0.032130674610077188 0 0.020371838399371917 -0.031207576446432149 0 0.023398013846100879 -0.029182157836405195 0 0.021273032253686375 -0.032130674610077188 0 0.020235398496440921 -0.0328492984597058 0 0.020371838399371917 -0.031207576446432149 0 0.021273032253686375 -0.032130674610077188 0 0.021540453312392661 -0.033444535897354355 0 0.021305202653757294 -0.033486421874556187 0 0.021273032253686375 -0.032130674610077188 0 0.021305202653757294 -0.033486421874556187 0 0.020235398496440921 -0.0328492984597058 0 0.021305202653757294 -0.033486421874556187 0 0.020203327836531015 -0.034037907527055995 0 0.020235398496440921 -0.0328492984597058 0 0.022242116493960185 -0.028544495883465696 0 0.02223709266506332 -0.028549531017849138 0 0.021400620625466618 -0.033939965014314469 0 0.022624987322448893 -0.034911366355749048 0 0.02096967190997296 -0.034923307034635996 0 0.022242116493960185 -0.028544495883465696 0 0.022045633636347425 -0.029162185744278105 0 0.021583255928571559 -0.033444636384786272 0 0.021305202653757294 -0.033486421874556187 0 0.02096967190997296 -0.034923307034635996 0 0.021305202653757294 -0.033486421874556187 0 0.02096967190997296 -0.034923307034635996 0 0.020203327836531015 -0.034037907527055995 0 -0.020745465678256015 -0.0016601643301245037 0 -0.019962638605981093 -0.0012175414166306893 0 -0.020284348405507913 -0.0024616344687916512 0 -0.020745465678256015 -0.0016601643301245037 0 -0.02165126090791758 -0.0011364996366454664 0 -0.020478965550534543 -0.00081028396371093535 0 -0.020745465678256015 -0.0016601643301245037 0 -0.019962638605981093 -0.0012175414166306893 0 -0.020478965550534543 -0.00081028396371093535 0 -0.019962638605981093 -0.0012175414166306893 0 -0.019182323923863424 -0.0014924374012952415 0 -0.019562174781374606 -0.00028442264594989643 0 -0.021998164783706382 -0.0027724650556551819 0 -0.022688351259844811 -0.0030485594013206648 0 -0.019962638605981093 -0.0012175414166306893 0 -0.019182323923863424 -0.0014924374012952415 0 -0.019326760638467038 -0.0024444709867736665 0 -0.019182323923863424 -0.0014924374012952415 0 -0.019326760638467038 -0.0024444709867736665 0 -0.018813897939999828 -0.0024469924447290932 0 -0.019962638605981093 -0.0012175414166306893 0 -0.019138601946025735 -0.0030038417968308701 0 -0.020284348405507913 -0.0024616344687916512 0 -0.020118620812539314 -0.0036205780279244823 0 -0.019138601946025735 -0.0030038417968308701 0 -0.020284348405507913 -0.0024616344687916512 0 -0.020118620812539314 -0.0036205780279244823 0 -0.020284348405507913 -0.0024616344687916512 0 -0.021352740337451961 -0.0027011240565691223 0 -0.020745465678256015 -0.0016601643301245037 0 -0.020284348405507913 -0.0024616344687916512 0 -0.021352740337451961 -0.0027011240565691223 0 -0.022583499390076523 -0.0036446976845684168 0 -0.021352740337451961 -0.0027011240565691223 0 -0.022951684422266187 -0.0026727506934289599 0 -0.021352740337451961 -0.0027011240565691223 0 -0.022951684422266187 -0.0026727506934289599 0 -0.02165126090791758 -0.0011364996366454664 0 -0.012194546043663809 -0.0076795659697569338 0 -0.0042491983129382032 -0.0097740919231428421 0 -0.012194546043663809 -0.0076795659697569338 0 -0.0089903100872561065 -0.0078745200999953968 0 0.0048964880037097687 -0.017128731313813289 0 0.004263364897093504 -0.012932387804000035 0 -0.0071272119757013431 -0.010109546780280209 0 -0.0065888755541845707 -0.0088049543702902761 0 -0.0056584848027783144 -0.0082800714771719876 0 -0.012683989871891326 -0.0054767723227761873 0 -0.010755860488898867 -0.0084294148916675381 0 -0.0096715755033365981 -0.0058071018724164935 0 -0.012683989871891326 -0.0054767723227761873 0 -0.0096715755033365981 -0.0058071018724164935 0 -0.00858732028138404 -0.0031869523325975761 0 -0.020745465678256015 -0.0016601643301245037 0 -0.021352740337451961 -0.0027011240565691223 0 -0.02165126090791758 -0.0011364996366454664 0 -0.0042491983129382032 -0.0097740919231428421 0 0.004263364897093504 -0.012932387804000035 0 -0.0065888755541845707 -0.0088049543702902761 0 -0.0056584848027783144 -0.0082800714771719876 0 -0.0060525595739678072 -0.0074993082222835636 0 0.004263364897093504 -0.012932387804000035 0 -0.0022566943633570012 -0.0090086785378088053 0 -0.0056584848027783144 -0.0082800714771719876 0 -0.0060525595739678072 -0.0074993082222835636 0 -0.0042058257913920958 -0.0064470973809584251 0 0.0063900888381500653 -0.014946700818543521 0 0.0070912867864147107 -0.013201328020608789 0 0.010059505452037891 -0.012844099401454583 0 0.030820040440483604 -0.034313861586256718 0 0.030344893203272987 -0.034051740158235692 0 0.031236894250235403 -0.033155526130483233 0 0.004263364897093504 -0.012932387804000035 0 0.012650358641448482 -0.017148907656688944 0 0.013674803328412687 -0.017750399491334997 0 0.012650358641448482 -0.017148907656688944 0 0.028263575235384451 -0.035994742029732067 0 0.028380961142721917 -0.033074172474313025 0 0.030344893203272987 -0.034051740158235692 0 0.028263575235384451 -0.035994742029732067 0 0.030820040440483604 -0.034313861586256718 0 0.030344893203272987 -0.034051740158235692 0 0.028380961142721917 -0.033074172474313025 0 0.030344893203272987 -0.034051740158235692 0 0.031264455002956132 -0.033166506627230537 0 0.024560795370887949 -0.023313081187965875 0 0.015409092609750564 -0.017813471587672727 0 0.028380961142721917 -0.033074172474313025 0 0.031492104973402629 -0.032572919212928424 0 0.031264455002956132 -0.033166506627230537 0 0.026735299495643648 -0.023708461437356547 0 0.027309082976126615 -0.023589392091200263 0 0.026987040094284067 -0.023326604132822514 0 0.016557748283467618 -0.016917587140995047 0 0.017202633044248454 -0.016818271663987368 0 0.017669193087135732 -0.014157271670621824 0 0.015409092609750564 -0.017813471587672727 0 0.01904974249803866 -0.01658555584349497 0 0.0081989581586146606 -0.012185135749926999 0 0.0070912867864147107 -0.013201328020608789 0 0.010059505452037891 -0.012844099401454583 0 0.015409092609750564 -0.017813471587672727 0 0.013876099144511603 -0.016782387710650108 0 0.012523862401632098 -0.014465008893549569 0 0.013859049084079823 -0.014260450455613931 0 0.011875798162939427 -0.016084501087614479 0 0.013876099144511603 -0.016782387710650108 0 0.012650358641448482 -0.017148907656688944 0 0.015409092609750564 -0.017813471587672727 0 0.012650358641448482 -0.017148907656688944 0 0.027309082976126615 -0.023589392091200263 0 0.027234314979855335 -0.023283233906600191 0 0.026987040094284067 -0.023326604132822514 0 0.013876099144511603 -0.016782387710650108 0 0.012752666927334746 -0.016341830455189166 0 0.0081989581586146606 -0.012185135749926999 0 0.011257106220813913 -0.011715164245338552 0 0.010059505452037891 -0.012844099401454583 0 0.008253579260617646 -0.012190840062023738 0 0.011257106220813913 -0.011715164245338552 0 0.011989993840743068 -0.0087275129181341917 0 -0.02165126090791758 -0.0011364996366454664 0 -0.020399285252073438 0.0003191634352826293 0 -0.020478965550534543 -0.00081028396371093535 0 -0.020399285252073438 0.0003191634352826293 0 -0.020478965550534543 -0.00081028396371093535 0 -0.019562174781374606 -0.00028442264594989643 0 -0.0089903100872561065 -0.0078745200999953968 0 -0.0022566943633570012 -0.0090086785378088053 0 -0.019962638605981093 -0.0012175414166306893 0 -0.020478965550534543 -0.00081028396371093535 0 -0.019562174781374606 -0.00028442264594989643 0 -0.018912822904907811 -0.0016578400042607017 0 -0.019562174781374606 -0.00028442264594989643 0 -0.018505390420813481 -0.00062761197475760377 0 -0.019562174781374606 -0.00028442264594989643 0 -0.018911159404666554 0.0011368392289250598 0 -0.018505390420813481 -0.00062761197475760377 0 -0.021342153644296084 -0.0020075445957905657 0 -0.021105960313934108 -0.0016891201960314911 0 -0.020399285252073438 0.0003191634352826293 0 -0.019562174781374606 -0.00028442264594989643 0 -0.018911159404666554 0.0011368392289250598 0 -0.0022566943633570012 -0.0090086785378088053 0 0.0032703944940368121 -0.0046016684808932269 0 0.011257106220813913 -0.011715164245338552 0 0.010059505452037891 -0.012844099401454583 0 0.013529103317079362 -0.010849469894175687 0 0.0032703944940368121 -0.0046016684808932269 0 -0.0061131062361015733 -0.00033082946139428426 0 0.003235342263351051 -0.00055538766529930129 0 0.0033139261269895673 -0.00055028315698458011 0 0.0036553408068186583 -0.00013185800133907728 0 0.0033139261269895673 -0.00055028315698458011 0 0.0037650799793459214 -0.00039497926930854611 0 0.0030410648054337635 -0.0007700779517033074 0 0.0033139261269895673 -0.00055028315698458011 0 0.0030410648054337635 -0.0007700779517033074 0 0.0036553408068186583 -0.00013185800133907728 0 0.0030410648054337635 -0.0007700779517033074 0 0.0036553408068186583 -0.00013185800133907728 0 0.0022124222476583972 0.00098025962351450655 0 -0.018911159404666554 0.0011368392289250598 0 -0.017667311186725456 -0.0006372482917686073 0 -0.018505390420813481 -0.00062761197475760377 0 -0.017667311186725456 -0.0006372482917686073 0 -0.018505390420813481 -0.00062761197475760377 0 -0.018029835103115708 -0.0011114247586276455 0 -0.018505390420813481 -0.00062761197475760377 0 -0.01833908514546315 -0.0016913536958498363 0 -0.018029835103115708 -0.0011114247586276455 0 -0.021336600333681583 -0.0016161424148108689 0 -0.021638206718075044 -0.0018223638686727162 0 -0.018912822904907811 -0.0016578400042607017 0 -0.018505390420813481 -0.00062761197475760377 0 -0.018413365911560314 -0.0018287530258999979 0 -0.01833908514546315 -0.0016913536958498363 0 -0.017611523962643646 -0.0014682980637844194 0 -0.017786636906883323 -0.0021105109355870071 0 -0.01833908514546315 -0.0016913536958498363 0 -0.017611523962643646 -0.0014682980637844194 0 -0.018029835103115708 -0.0011114247586276455 0 -0.017667311186725456 -0.0006372482917686073 0 -0.017611523962643646 -0.0014682980637844194 0 -0.018029835103115708 -0.0011114247586276455 0 -0.0061131062361015733 -0.00033082946139428426 0 -0.012088349804240853 0.00026099340773573022 0 -0.017611523962643646 -0.0014682980637844194 0 -0.017192396656519719 -0.0020557875229717019 0 -0.016558641574006466 -0.0022061258277363571 0 -0.017667311186725456 -0.0006372482917686073 0 -0.017611523962643646 -0.0014682980637844194 0 -0.016558641574006466 -0.0022061258277363571 0 0.0036553408068186583 -0.00013185800133907728 0 0.0022124222476583972 0.00098025962351450655 0 0.0019383788561446902 0.0031801574746973551 0 -0.017611523962643646 -0.0014682980637844194 0 -0.017192396656519719 -0.0020557875229717019 0 -0.017786636906883323 -0.0021105109355870071 0 -0.017192396656519719 -0.0020557875229717019 0 -0.01734154408010977 -0.0025142537785340269 0 -0.017786636906883323 -0.0021105109355870071 0 -0.01734154408010977 -0.0025142537785340269 0 -0.016493946318761367 -0.0023224072203525971 0 -0.01777477885614798 -0.0036885167804624449 0 -0.017192396656519719 -0.0020557875229717019 0 -0.01734154408010977 -0.0025142537785340269 0 -0.016585002746586024 -0.002195989270360727 0 -0.01734154408010977 -0.0025142537785340269 0 -0.016493946318761367 -0.0023224072203525971 0 -0.016585002746586024 -0.002195989270360727 0 -0.012711819307914743 0.00027179499094762014 0 -0.012088349804240853 0.00026099340773573022 0 -0.018912822904907811 -0.0016578400042607017 0 -0.018413365911560314 -0.0018287530258999979 0 -0.018309967418828319 -0.0029892131924220237 0 -0.021638206718075044 -0.0018223638686727162 0 -0.022672734626743987 -0.0018700952510162722 0 -0.021342153644296084 -0.0020075445957905657 0 -0.022672734626743987 -0.0018700952510162722 0 -0.01833908514546315 -0.0016913536958498363 0 -0.018224438024041174 -0.0027073285954314955 0 -0.017786636906883323 -0.0021105109355870071 0 -0.01734154408010977 -0.0025142537785340269 0 -0.018224438024041174 -0.0027073285954314955 0 -0.017786636906883323 -0.0021105109355870071 0 -0.015521706872620788 0.0020452355111172872 0 -0.015349035161553835 0.0020140350589235522 0 -0.015564716803540891 0.0019198508385757018 0 -0.011367975470424114 0.0011740361162313323 0 -0.01371989436157545 0.0021406077965614944 0 -0.0015446102999865784 0.00194002330634297 0 -0.0019256876702189261 0.0010046853663603355 0 -0.0025630599600058217 0.0014858347740282069 0 -0.015521706872620788 0.0020452355111172872 0 -0.015612693458175383 0.0020028430530215895 0 -0.015564716803540891 0.0019198508385757018 0 -0.015521706872620788 0.0020452355111172872 0 -0.015612693458175383 0.0020028430530215895 0 -0.015698623705573251 0.0020617528332075763 0 -0.0015446102999865784 0.00194002330634297 0 -0.00031774817474253768 0.001724499925842244 0 -0.0011000302115454475 0.00084345535654438203 0 -0.011367975470424114 0.0011740361162313323 0 -0.012565921637680111 0.0003970166493239957 0 -0.012565921637680111 0.0003970166493239957 0 -0.020218325635202768 0.0018866074326671356 0 -0.015612693458175383 0.0020028430530215895 0 -0.015698623705573251 0.0020617528332075763 0 -0.015591080525728565 0.0019122724345561469 0 0.0017439043750182655 0.0034386708923027877 0 0.0019383788561446902 0.0031801574746973551 0 0.0014253807161610451 0.0020616941796837919 0 -0.012565921637680111 0.0003970166493239957 0 -0.012088349804240853 0.00026099340773573022 0 -0.012565921637680111 0.0003970166493239957 0 -0.0071543650719718375 0.0027820418845551547 0 0.0022124222476583972 0.00098025962351450655 0 0.0019383788561446902 0.0031801574746973551 0 0.0014253807161610451 0.0020616941796837919 0 0.0017439043750182655 0.0034386708923027877 0 0.0014253807161610451 0.0020616941796837919 0 -3.8399793857884578e-06 0.0017827397236995638 0 0.0022124222476583972 0.00098025962351450655 0 0.0014253807161610451 0.0020616941796837919 0 0.00067341836136910408 0.00043942103985173981 0 0.0014253807161610451 0.0020616941796837919 0 -3.8399793857884578e-06 0.0017827397236995638 0 0.00067341836136910408 0.00043942103985173981 0 -0.0015446102999865784 0.00194002330634297 0 -0.0011000302115454475 0.00084345535654438203 0 -0.0019256876702189261 0.0010046853663603355 0 -0.0071543650719718375 0.0027820418845551547 0 -0.0061637048154442745 0.002933128396983915 0 -0.0011000302115454475 0.00084345535654438203 0 -0.0019256876702189261 0.0010046853663603355 0 -0.0017037044071952674 0.00010035045953011291 0 -0.0019256876702189261 0.0010046853663603355 0 -0.0017037044071952674 0.00010035045953011291 0 -0.0026959914631797663 0.00056272905313076464 0 -0.0017037044071952674 0.00010035045953011291 0 0.00067341836136910408 0.00043942103985173981 0 -0.00093760068954782923 -0.0016528679282813963 0 -0.0017037044071952674 0.00010035045953011291 0 -0.00093760068954782923 -0.0016528679282813963 0 -0.0028974379648664811 -0.00045754537654168635 0 -3.8399793857884578e-06 0.0017827397236995638 0 -0.0017037044071952674 0.00010035045953011291 0 0.00067341836136910408 0.00043942103985173981 0 0.0030410648054337635 -0.0007700779517033074 0 0.00067341836136910408 0.00043942103985173981 0 -0.00093760068954782923 -0.0016528679282813963 0 0.0030410648054337635 -0.0007700779517033074 0 0.0022124222476583972 0.00098025962351450655 0 0.00067341836136910408 0.00043942103985173981 0 0.0037650799793459214 -0.00039497926930854611 0 0.0030410648054337635 -0.0007700779517033074 0 0.0051211382156930562 -0.0009150305888260766 0 0.0027038697148800426 -0.00066263077922098092 0 0.0023219119124415154 -0.0007082540770580512 0 0.0037650799793459214 -0.00039497926930854611 0 0.0051211382156930562 -0.0009150305888260766 0 0.004439398818111253 3.0862224778109751e-05 0 0.0023219119124415154 -0.0007082540770580512 0 0.0019171725375975691 -0.00056313944112843396 0 0.0051211382156930562 -0.0009150305888260766 0 0.0064442879931181684 -0.000242480385828122 0 0.0055633265510623758 6.4053705360811214e-05 0 -0.00093760068954782923 -0.0016528679282813963 0 -0.0033491045880375027 -0.0012051261660343789 0 -0.0028974379648664811 -0.00045754537654168635 0 -0.0033491045880375027 -0.0012051261660343789 0 -0.0037752307577607071 -0.00073871981692522233 0 -0.0028974379648664811 -0.00045754537654168635 0 -0.0033491045880375027 -0.0012051261660343789 0 -0.0037752307577607071 -0.00073871981692522233 0 -0.0034065394108143228 0.00011797870165209228 0 -0.0037752307577607071 -0.00073871981692522233 0 -0.004337931470924308 -0.00031871451273305339 0 -0.0035178953219028061 5.6616122797102776e-05 0 -0.0037752307577607071 -0.00073871981692522233 0 -0.0035178953219028061 5.6616122797102776e-05 0 -0.0028974379648664811 -0.00045754537654168635 0 -0.0035178953219028061 5.6616122797102776e-05 0 -0.0028974379648664811 -0.00045754537654168635 0 -0.0026959914631797663 0.00056272905313076464 0 -0.0017037044071952674 0.00010035045953011291 0 -0.0028974379648664811 -0.00045754537654168635 0 -0.0026959914631797663 0.00056272905313076464 0 -0.0031971375567936564 -2.6020090805088289e-06 0 -0.0036943862228789996 -0.00070805825240462304 0 -0.0007923301761756864 -0.00035514762233878738 0 -0.0036943862228789996 -0.00070805825240462304 0 -0.0034065394108143228 0.00011797870165209228 0 -0.0007923301761756864 -0.00035514762233878738 0 -0.0037752307577607071 -0.00073871981692522233 0 -0.0036943862228789996 -0.00070805825240462304 0 -0.0034065394108143228 0.00011797870165209228 0 -0.0037752307577607071 -0.00073871981692522233 0 -0.004337931470924308 -0.00031871451273305339 0 -0.0036943862228789996 -0.00070805825240462304 0 -0.004337931470924308 -0.00031871451273305339 0 -0.0036943862228789996 -0.00070805825240462304 0 -0.0051146170273404243 -0.00043573931436817292 0 -0.0031971375567936564 -2.6020090805088289e-06 0 -0.0051146170273404243 -0.00043573931436817292 0 -0.0069427313017440418 -8.8668216785413431e-05 0 -0.0031971375567936564 -2.6020090805088289e-06 0 -0.0036943862228789996 -0.00070805825240462304 0 -0.0051146170273404243 -0.00043573931436817292 0 -0.0031971375567936564 -2.6020090805088289e-06 0 -0.0092334462460965227 -1.2329183989463492e-06 0 -0.0069427313017440418 -8.8668216785413431e-05 0 -0.0092334462460965227 -1.2329183989463492e-06 0 -0.0069427313017440418 -8.8668216785413431e-05 0 -0.00853338849064764 -0.000204278211146047 0 -0.011502020543762278 0.0031731472969112424 0 -0.012250631384201637 0.0032522028821525351 0 -0.0069427313017440418 -8.8668216785413431e-05 0 -0.0085070033016667566 -0.0002048397615341779 0 -0.00853338849064764 -0.000204278211146047 0 -0.0051146170273404243 -0.00043573931436817292 0 -0.0069427313017440418 -8.8668216785413431e-05 0 -0.0048478471894837774 0.00036811580976542666 0 -0.004337931470924308 -0.00031871451273305339 0 -0.0051146170273404243 -0.00043573931436817292 0 -0.0048478471894837774 0.00036811580976542666 0 -0.0048478471894837774 0.00036811580976542666 0 -0.0048708699656093276 0.0016265775786150378 0 -0.004388763406084655 0.0011973694416116689 0 -0.0069427313017440418 -8.8668216785413431e-05 0 -0.0048478471894837774 0.00036811580976542666 0 -0.0048708699656093276 0.0016265775786150378 0 -0.0085070033016667566 -0.0002048397615341779 0 -0.0085006416914792642 -9.6660167729197928e-06 0 -0.00853338849064764 -0.000204278211146047 0 -0.0085070033016667566 -0.0002048397615341779 0 -0.0085006416914792642 -9.6660167729197928e-06 0 -0.0081249873647204155 0.00013608511112088307 0 -0.0085006416914792642 -9.6660167729197928e-06 0 -0.0089029894578632369 0.00017897142649576971 0 -0.0080170289255998093 0.00059446387148207015 0 -0.0089029894578632369 0.00017897142649576971 0 -0.00853338849064764 -0.000204278211146047 0 -0.010362442821027485 -0.00010283336724299553 0 -0.0085006416914792642 -9.6660167729197928e-06 0 -0.0089029894578632369 0.00017897142649576971 0 -0.00853338849064764 -0.000204278211146047 0 -0.0089029894578632369 0.00017897142649576971 0 -0.010362442821027485 -0.00010283336724299553 0 -0.0095809677396994052 0.0011902005865356998 0 -0.0092334462460965227 -1.2329183989463492e-06 0 -0.010362442821027485 -0.00010283336724299553 0 -0.015265172086479801 4.1536457848132782e-06 0 -0.0092334462460965227 -1.2329183989463492e-06 0 -0.00853338849064764 -0.000204278211146047 0 -0.010362442821027485 -0.00010283336724299553 0 -0.0032802989739143746 0.0011876385938584728 0 -0.0026959914631797663 0.00056272905313076464 0 -0.0025630599600058217 0.0014858347740282069 0 -0.0019256876702189261 0.0010046853663603355 0 -0.0026959914631797663 0.00056272905313076464 0 -0.0025630599600058217 0.0014858347740282069 0 -0.0035178953219028061 5.6616122797102776e-05 0 -0.0032802989739143746 0.0011876385938584728 0 -0.0026959914631797663 0.00056272905313076464 0 -0.0035178953219028061 5.6616122797102776e-05 0 -0.0032802989739143746 0.0011876385938584728 0 -0.0040144497426976783 0.00067727333888090656 0 -0.004337931470924308 -0.00031871451273305339 0 -0.0035178953219028061 5.6616122797102776e-05 0 -0.0040144497426976783 0.00067727333888090656 0 -0.004337931470924308 -0.00031871451273305339 0 -0.0048478471894837774 0.00036811580976542666 0 -0.0040144497426976783 0.00067727333888090656 0 -0.0048478471894837774 0.00036811580976542666 0 -0.0040144497426976783 0.00067727333888090656 0 -0.004388763406084655 0.0011973694416116689 0 -0.0040144497426976783 0.00067727333888090656 0 -0.004388763406084655 0.0011973694416116689 0 -0.0038474384503390099 0.0013527530809666344 0 -0.0032802989739143746 0.0011876385938584728 0 -0.0040144497426976783 0.00067727333888090656 0 -0.0038474384503390099 0.0013527530809666344 0 -0.0032802989739143746 0.0011876385938584728 0 -0.0033801108255658028 0.001622067941087347 0 -0.0038474384503390099 0.0013527530809666344 0 -0.0033801108255658028 0.001622067941087347 0 -0.0038474384503390099 0.0013527530809666344 0 -0.0044981396144468614 0.0018053002265016049 0 -0.0044981396144468614 0.0018053002265016049 0 -0.0039940069100077276 0.0022536531588922622 0 -0.0031590437946737988 0.0022807271049969965 0 -0.0094698682237458719 0.0032191410839073368 0 -0.01371989436157545 0.0021406077965614944 0 -0.0033801108255658028 0.001622067941087347 0 -0.0044981396144468614 0.0018053002265016049 0 -0.0028309791238035707 0.0023368236304728619 0 -0.012250631384201637 0.0032522028821525351 0 -0.015414645081461465 0.0027800925085764579 0 -0.0048708699656093276 0.0016265775786150378 0 -0.0044981396144468614 0.0018053002265016049 0 -0.0039940069100077276 0.0022536531588922622 0 -0.0048708699656093276 0.0016265775786150378 0 -0.004388763406084655 0.0011973694416116689 0 -0.0044981396144468614 0.0018053002265016049 0 -0.004388763406084655 0.0011973694416116689 0 -0.0038474384503390099 0.0013527530809666344 0 -0.0044981396144468614 0.0018053002265016049 0 -0.0085006416914792642 -9.6660167729197928e-06 0 -0.0081249873647204155 0.00013608511112088307 0 -0.0080170289255998093 0.00059446387148207015 0 -0.0085070033016667566 -0.0002048397615341779 0 -0.0081249873647204155 0.00013608511112088307 0 -0.0077825018925111646 0.0001879499149336152 0 -0.015004072694336954 0.0028202307970317114 0 -0.015414645081461465 0.0027800925085764579 0 -0.017504901464486924 0.0015554531611958427 0 -0.017909363646257375 0.0018673193397536478 0 -0.0081249873647204155 0.00013608511112088307 0 -0.0078498925610587019 0.00025915859790527195 0 -0.0080170289255998093 0.00059446387148207015 0 -0.0081249873647204155 0.00013608511112088307 0 -0.0078498925610587019 0.00025915859790527195 0 -0.0077312434234391783 0.00025647757024710742 0 -0.0078498925610587019 0.00025915859790527195 0 -0.0075103362105407023 0.00045215580763047827 0 -0.0081361244009802557 0.00060597521319728006 0 -0.0078498925610587019 0.00025915859790527195 0 -0.0077312434234391783 0.00025647757024710742 0 -0.0075103362105407023 0.00045215580763047827 0 -0.015414645081461465 0.0027800925085764579 0 -0.017466826521795448 0.0022176775958161433 0 -0.015414645081461465 0.0027800925085764579 0 -0.016310531192086915 0.0023213627667388942 0 -0.017448603188784158 0.0018553175140598838 0 -0.017268134100044644 0.0020117670767177882 0 -0.017064210226369187 0.0019608026683284839 0 -0.017466826521795448 0.0022176775958161433 0 -0.016310531192086915 0.0023213627667388942 0 -0.0015446102999865784 0.00194002330634297 0 -0.0028309791238035707 0.0023368236304728619 0 -0.0025630599600058217 0.0014858347740282069 0 -0.0039940069100077276 0.0022536531588922622 0 -0.0035148385122939704 0.0023758402008953808 0 -0.0031590437946737988 0.0022807271049969965 0 -0.016310531192086915 0.0023213627667388942 0 -0.01371989436157545 0.0021406077965614944 0 -0.0033801108255658028 0.001622067941087347 0 -0.0028309791238035707 0.0023368236304728619 0 -0.0025630599600058217 0.0014858347740282069 0 -0.0032802989739143746 0.0011876385938584728 0 -0.0033801108255658028 0.001622067941087347 0 -0.0025630599600058217 0.0014858347740282069 0 -0.016310531192086915 0.0023213627667388942 0 -0.0197250190831018 0.0018737881597722082 0 -0.028504735835479821 0.005767250052435475 0 -0.028912148329258237 0.005864425681620552 0 -0.0303084529450399 0.0042178096506256101 0 -0.02941001687955646 0.0058008065883566051 0 -0.030956390361748461 0.0042715748316335678 0 -0.029066858145511999 0.0047397978736419752 0 -0.028912148329258237 0.005864425681620552 0 -0.0303084529450399 0.0042178096506256101 0 -0.031846484500190814 0.0050129770415876483 0 -0.014336490638929271 0.002818633295860394 0 -0.015273981461386624 0.0030372228579162836 0 -0.019293921808184778 0.0013585332232880281 0 -0.017466826521795448 0.0022176775958161433 0 -0.024799460446263431 0.00094374590136174486 0 -0.017466826521795448 0.0022176775958161433 0 -0.017909363646257375 0.0018673193397536478 0 -0.02941001687955646 0.0058008065883566051 0 -0.028537838968302403 0.0056081718716092964 0 -0.029066858145511999 0.0047397978736419752 0 -0.029293560770006104 0.0036963295945322866 0 -0.026724610068589151 0.0039012710178223972 0 -0.029043985100171355 0.0020777913778411176 0 -0.029066858145511999 0.0047397978736419752 0 -0.029293560770006104 0.0036963295945322866 0 -0.026724610068589151 0.0039012710178223972 0 -0.029293560770006104 0.0036963295945322866 0 -0.030267721529121366 0.0031701450733492144 0 -0.029043985100171355 0.0020777913778411176 0 -0.030956390361748461 0.0042715748316335678 0 -0.029293560770006104 0.0036963295945322866 0 -0.030267721529121366 0.0031701450733492144 0 -0.030956390361748461 0.0042715748316335678 0 -0.029066858145511999 0.0047397978736419752 0 -0.029293560770006104 0.0036963295945322866 0 -0.030267721529121366 0.0031701450733492144 0 -0.030874424058034863 0.002360196286459421 0 -0.03105637916692832 0.0031864709981678048 0 -0.030956390361748461 0.0042715748316335678 0 -0.030267721529121366 0.0031701450733492144 0 -0.03105637916692832 0.0031864709981678048 0 -0.015271869420751727 1.7874671205667199e-06 0 -0.015422384531334642 0.00072685734534618125 0 -0.010362442821027485 -0.00010283336724299553 0 -0.015265172086479801 4.1536457848132782e-06 0 -0.0095809677396994052 0.0011902005865356998 0 -0.015279314345905225 9.4457464115366866e-07 0 -0.017427658696835959 0.00091840956028057402 0 -0.017615045061380126 -0.00031335063506793086 0 -0.017909363646257375 0.0018673193397536478 0 -0.015422384531334642 0.00072685734534618125 0 -0.0089029894578632369 0.00017897142649576971 0 -0.0080170289255998093 0.00059446387148207015 0 -0.0095809677396994052 0.0011902005865356998 0 -0.028537838968302403 0.0056081718716092964 0 -0.029066858145511999 0.0047397978736419752 0 -0.026724610068589151 0.0039012710178223972 0 -0.018612131233451866 0.0012082205535443185 0 -0.017427658696835959 0.00091840956028057402 0 -0.017615045061380126 -0.00031335063506793086 0 -0.017909363646257375 0.0018673193397536478 0 -0.021146188168125461 0.0015207629410840225 0 -0.015279314345905225 9.4457464115366866e-07 0 -0.017615045061380126 -0.00031335063506793086 0 -0.018961499288669598 -9.4060501696190303e-07 0 -0.017615045061380126 -0.00031335063506793086 0 -0.018961499288669598 -9.4060501696190303e-07 0 -0.022646563703167262 9.3956942358305927e-07 0 -0.021146188168125461 0.0015207629410840225 0 -0.022648374456099261 1.8614769335761439e-06 0 -0.026724610068589151 0.0039012710178223972 0 -0.022659859214205727 5.5769493069382642e-06 0 -0.027129769797604762 0.0012024349341545888 0 -0.026724610068589151 0.0039012710178223972 0 -0.027129769797604762 0.0012024349341545888 0 -0.029043985100171355 0.0020777913778411176 0 -0.027129769797604762 0.0012024349341545888 0 -0.028401843407996598 0.00022760792018686673 0 -0.029043985100171355 0.0020777913778411176 0 -0.027129769797604762 0.0012024349341545888 0 -0.028401843407996598 0.00022760792018686673 0 -0.026824280954992577 -0.00017915189262417971 0 -0.027536163838523819 -3.1782862975186394e-06 0 -0.022659859214205727 5.5769493069382642e-06 0 -0.026824280954992577 -0.00017915189262417971 0 -0.022659859214205727 5.5769493069382642e-06 0 -0.027129769797604762 0.0012024349341545888 0 -0.026824280954992577 -0.00017915189262417971 0 -0.03060869962229389 0.0023386718455821703 0 -0.030007492721733198 0.002309437792305562 0 -0.030364381714905134 0.0018285810265375672 0 -0.029043985100171355 0.0020777913778411176 0 -0.029772461717744916 0.00083633115824794529 0 -0.030267721529121366 0.0031701450733492144 0 -0.030874424058034863 0.002360196286459421 0 -0.029043985100171355 0.0020777913778411176 0 -0.028401843407996598 0.00022760792018686673 0 -0.029043985100171355 0.0020777913778411176 0 -0.029772461717744916 0.00083633115824794529 0 -0.029503096918354062 0.00018179387224392512 0 -0.028401843407996598 0.00022760792018686673 0 -0.029772461717744916 0.00083633115824794529 0 -0.030138186300966985 0.00017213621737396825 0 -0.029772461717744916 0.00083633115824794529 0 -0.030638974933210439 0.0010967851738995188 0 -0.030364381714905134 0.0018285810265375672 0 -0.029772461717744916 0.00083633115824794529 0 -0.030638974933210439 0.0010967851738995188 0 -0.033857580462713456 0.0029046607878273731 0 -0.035636644499271057 0.0041249289430964949 0 -0.030138186300966985 0.00017213621737396825 0 -0.030638974933210439 0.0010967851738995188 0 -0.031428532930942887 0.00089788283489551169 0 -0.030638974933210439 0.0010967851738995188 0 -0.031407349057799995 0.0013790543305928287 0 -0.031428532930942887 0.00089788283489551169 0 -0.030874424058034863 0.002360196286459421 0 -0.032385602083371851 0.0023262191444425521 0 -0.03208265946556757 0.0029423373909281589 0 -0.030874424058034863 0.002360196286459421 0 -0.03105637916692832 0.0031864709981678048 0 -0.03208265946556757 0.0029423373909281589 0 -0.030364381714905134 0.0018285810265375672 0 -0.030638974933210439 0.0010967851738995188 0 -0.031069089547999754 0.0016573291578445004 0 -0.03060869962229389 0.0023386718455821703 0 -0.031445525985331055 0.0024647053535927824 0 -0.030364381714905134 0.0018285810265375672 0 -0.031069089547999754 0.0016573291578445004 0 -0.031439723403050089 0.0017573977021760447 0 -0.030638974933210439 0.0010967851738995188 0 -0.031069089547999754 0.0016573291578445004 0 -0.031407349057799995 0.0013790543305928287 0 -0.031445525985331055 0.0024647053535927824 0 -0.033593144321813435 0.0029646487619054648 0 -0.035636644499271057 0.0041249289430964949 0 -0.033593144321813435 0.0029646487619054648 0 -0.032385602083371851 0.0023262191444425521 0 -0.033948913382410975 0.0027902837531619492 0 -0.032959175250966873 0.0032430499179362956 0 -0.031483473263158687 0.0017877761096842467 0 -0.031407349057799995 0.0013790543305928287 0 -0.032628842994072219 0.0017496032713240968 0 -0.031445525985331055 0.0024647053535927824 0 -0.029104209351748438 0.0018687699281016265 0 -0.031407349057799995 0.0013790543305928287 0 -0.031428532930942887 0.00089788283489551169 0 -0.032628842994072219 0.0017496032713240968 0 -0.031069089547999754 0.0016573291578445004 0 -0.031483473263158687 0.0017877761096842467 0 -0.031407349057799995 0.0013790543305928287 0 -0.031411021555106361 0.0024375608832708532 0 -0.031445525985331055 0.0024647053535927824 0 -0.045879314933675801 0.0063654961858700581 0 -0.0433184451445894 0.0083966851318067123 0 -0.046671085205021827 0.0080319683066168747 0 -0.0433184451445894 0.0083966851318067123 0 -0.046671085205021827 0.0080319683066168747 0 -0.046924370874836502 0.010091559182555415 0 -0.047880039096035727 0.0062824893220509246 0 -0.045879314933675801 0.0063654961858700581 0 -0.046671085205021827 0.0080319683066168747 0 -0.047880039096035727 0.0062824893220509246 0 -0.046671085205021827 0.0080319683066168747 0 -0.048254614240918897 0.0079252485122398349 0 -0.046671085205021827 0.0080319683066168747 0 -0.048254614240918897 0.0079252485122398349 0 -0.047452539241483488 0.0090564650826682001 0 -0.047880039096035727 0.0062824893220509246 0 -0.049528018790617988 0.0066945489397931962 0 -0.048254614240918897 0.0079252485122398349 0 -0.048254614240918897 0.0079252485122398349 0 -0.049512034871186349 0.0086135751067046695 0 -0.048335516056825116 0.0090108422481678645 0 -0.048254614240918897 0.0079252485122398349 0 -0.048335516056825116 0.0090108422481678645 0 -0.047452539241483488 0.0090564650826682001 0 -0.049528018790617988 0.0066945489397931962 0 -0.048254614240918897 0.0079252485122398349 0 -0.049512034871186349 0.0086135751067046695 0 -0.051261086030186802 0.0075607828666307397 0 -0.049528018790617988 0.0066945489397931962 0 -0.049512034871186349 0.0086135751067046695 0 -0.051962658642352104 0.0095708743332476778 0 -0.049512034871186349 0.0086135751067046695 0 -0.048678174139917978 0.0097699249378944107 0 -0.049512034871186349 0.0086135751067046695 0 -0.048678174139917978 0.0097699249378944107 0 -0.048335516056825116 0.0090108422481678645 0 -0.032690690081804502 0.0023106925508702657 0 -0.032923724825476973 0.0028813879560970405 0 -0.048678174139917978 0.0097699249378944107 0 -0.048335516056825116 0.0090108422481678645 0 -0.04788844816135493 0.0098233022296642988 0 -0.032690690081804502 0.0023106925508702657 0 -0.029816908707378187 0.0010353561689933626 0 -0.031206669226283856 0.0018562820764643311 0 -0.030126604478895241 0.001892292585961952 0 -0.030836671471706392 0.0033542654500587927 0 -0.031206669226283856 0.0018562820764643311 0 -0.03139505948603042 0.0037589459788093331 0 -0.030836671471706392 0.0033542654500587927 0 -0.032923724825476973 0.0028813879560970405 0 -0.030598438251380589 0.0015479547891949867 0 -0.031139509021157367 0.00084969061183824376 0 -0.031628722963352181 0.0012706477355887509 0 -0.03120670742897046 0.0015317815668156908 0 -0.031543744747493614 0.0022969170566120517 0 -0.031204515357322264 0.0022974347703138566 0 -0.031241406090219598 0.0022681416977177061 0 -0.031543744747493614 0.0022969170566120517 0 -0.031202014735068478 0.0021839069610883506 0 -0.031241406090219598 0.0022681416977177061 0 -0.046671085205021827 0.0080319683066168747 0 -0.047452539241483488 0.0090564650826682001 0 -0.046924370874836502 0.010091559182555415 0 -0.048335516056825116 0.0090108422481678645 0 -0.047452539241483488 0.0090564650826682001 0 -0.04788844816135493 0.0098233022296642988 0 -0.047452539241483488 0.0090564650826682001 0 -0.046924370874836502 0.010091559182555415 0 -0.047928365502825115 0.010041008563914286 0 -0.033501420651574666 0.0036101055746161599 0 -0.032923724825476973 0.0028813879560970405 0 -0.031204515357322264 0.0022974347703138566 0 -0.031202034569056302 0.0021732542002999133 0 -0.031241406090219598 0.0022681416977177061 0 -0.031204515357322264 0.0022974347703138566 0 -0.031202034569056302 0.0021732542002999133 0 -0.031016985071459179 0.0021537431852902598 0 -0.031783248659134136 0.0026337077853619256 0 -0.032348992825932836 0.0026135756813239143 0 -0.032669702412123608 0.0032754484775797369 0 -0.033593144321813435 0.0029646487619054648 0 -0.030598438251380589 0.0015479547891949867 0 -0.033593144321813435 0.0029646487619054648 0 -0.032923724825476973 0.0028813879560970405 0 -0.029104209351748438 0.0018687699281016265 0 -0.029147313279095394 0.0019116279822987659 0 -0.033948913382410975 0.0027902837531619492 0 -0.033635930973148154 0.0034879538533728605 0 -0.032959175250966873 0.0032430499179362956 0 -0.033948913382410975 0.0027902837531619492 0 -0.034377658435223377 0.0037157681893783944 0 -0.033635930973148154 0.0034879538533728605 0 -0.027587279580309276 0.00074654982035797393 0 -0.027637824791504294 0.00085637870783684532 0 -0.02769791185955665 0.00077631199243178282 0 -0.029104209351748438 0.0018687699281016265 0 -0.026204094565578921 0.00055970207097586898 0 -0.029104209351748438 0.0018687699281016265 0 -0.029673592393188685 0.0011294479327481689 0 -0.026048172892501116 -0.00013096426826583472 0 -0.026335876930827708 0.0004941450914259537 0 -0.023568868744422666 0.0012999735018495917 0 -0.026204094565578921 0.00055970207097586898 0 -0.025053394239769228 -6.6490782045955794e-05 0 -0.026204094565578921 0.00055970207097586898 0 -0.024502375469091477 0.00099937716816683167 0 -0.034377658435223377 0.0037157681893783944 0 -0.033635930973148154 0.0034879538533728605 0 -0.03325104383625993 0.0042116482909182375 0 -0.033635930973148154 0.0034879538533728605 0 -0.03325104383625993 0.0042116482909182375 0 -0.032959175250966873 0.0032430499179362956 0 -0.030061899476621756 -1.43398116223262e-06 0 -0.029233409796665413 0.00015930612838703775 0 -0.027553177146069221 -0.00027946012408649649 0 -0.027898443901768048 -0.00017653324048827023 0 -0.026856489231869399 0.00095367335983854919 0 -0.029011910653468299 0.0012803526001003709 0 -0.029430159801680893 0.001109387041124696 0 -0.029226247926951322 0.0010477679804533338 0 -0.029233409796665413 0.00015930612838703775 0 -0.028983791594767109 -4.2428567647373972e-05 0 -0.031931442472696463 0.0016281790563577577 0 -0.031628722963352181 0.0012706477355887509 0 -0.03166466497187255 0.0017383156939664119 0 -0.029233409796665413 0.00015930612838703775 0 -0.029816908707378187 0.0010353561689933626 0 -0.031628722963352181 0.0012706477355887509 0 -0.03166466497187255 0.0017383156939664119 0 -0.03120670742897046 0.0015317815668156908 0 -0.029233409796665413 0.00015930612838703775 0 -0.028161382488631044 0.00028894534724443788 0 -0.029169800825219524 -0.00098824232866806159 0 -0.028157793514467906 -0.00068106428427636406 0 -0.028078015590129669 -0.0014821220748890672 0 -0.027637824791504294 0.00085637870783684532 0 -0.027717984633572178 0.00081697512731230203 0 -0.02769791185955665 0.00077631199243178282 0 -0.031202034569056302 0.0021732542002999133 0 -0.030993168746836362 0.0021035387487415742 0 -0.031016985071459179 0.0021537431852902598 0 -0.028161382488631044 0.00028894534724443788 0 -0.029816908707378187 0.0010353561689933626 0 -0.028161382488631044 0.00028894534724443788 0 -0.029673592393188685 0.0011294479327481689 0 -0.028535940397260505 0.0019239544553106393 0 -0.028470046691718858 0.0012539012329697355 0 -0.02824695277679139 0.0013288569661539197 0 -0.030673969359761747 0.0005884668331829218 0 -0.02987167832626797 0.00085842556355369016 0 -0.029232071951222422 -0.00045681555754824575 0 -0.029673592393188685 0.0011294479327481689 0 -0.030598438251380589 0.0015479547891949867 0 -0.029816908707378187 0.0010353561689933626 0 -0.030598438251380589 0.0015479547891949867 0 -0.029816908707378187 0.0010353561689933626 0 -0.029673592393188685 0.0011294479327481689 0 -0.026204094565578921 0.00055970207097586898 0 -0.028161382488631044 0.00028894534724443788 0 -0.026051994963897578 0.0006400541433535399 0 -0.02733781162340548 4.8604955741042424e-06 0 -0.027422023370598275 0.00085485628365357868 0 -0.026051994963897578 0.0006400541433535399 0 -0.026300049619655701 0.0011790913942991115 0 -0.027422023370598275 0.00085485628365357868 0 -0.02388120630446226 6.156114266392599e-05 0 -0.02419071956966096 -2.8136695653011707e-05 0 -0.023975354928288489 0.00026728803254869884 0 -0.025053394239769228 -6.6490782045955794e-05 0 -0.02627055247284215 -0.00047250999650977072 0 -0.028161382488631044 0.00028894534724443788 0 -0.02627055247284215 -0.00047250999650977072 0 -0.027553177146069221 -0.00027946012408649649 0 -0.02642257096487579 6.3461072797128861e-05 0 -0.026856489231869399 0.00095367335983854919 0 -0.027757862405712104 -0.00055233273612641004 0 -0.027612340723849851 -0.0019917904086231698 0 -0.027123640355986942 -0.001851524648994226 0 -0.028161382488631044 0.00028894534724443788 0 -0.026845199049101817 -0.00058171234359835817 0 -0.02627055247284215 -0.00047250999650977072 0 -0.026845199049101817 -0.00058171234359835817 0 -0.028983791594767109 -4.2428567647373972e-05 0 -0.026845199049101817 -0.00058171234359835817 0 -0.01734154408010977 -0.0025142537785340269 0 -0.018224438024041174 -0.0027073285954314955 0 -0.01777477885614798 -0.0036885167804624449 0 -0.022672734626743987 -0.0018700952510162722 0 -0.023860221625273403 -0.00065529218952520534 0 -0.022688351259844811 -0.0030485594013206648 0 -0.026845199049101817 -0.00058171234359835817 0 -0.019326760638467038 -0.0024444709867736665 0 -0.018744353542964609 -0.003467047317869947 0 -0.01882873894379871 -0.0034907840576105871 0 -0.024512379399849817 -0.0018241335265423543 0 -0.024707739175995964 3.6331903983710494e-05 0 -0.025113470156508451 -0.0005306556753323598 0 -0.022672734626743987 -0.0018700952510162722 0 -0.02627055247284215 -0.00047250999650977072 0 -0.019326760638467038 -0.0024444709867736665 0 -0.018813897939999828 -0.0024469924447290932 0 -0.018744353542964609 -0.003467047317869947 0 -0.02627055247284215 -0.00047250999650977072 0 -0.023860221625273403 -0.00065529218952520534 0 -0.025053394239769228 -6.6490782045955794e-05 0 -0.023860221625273403 -0.00065529218952520534 0 -0.019997281254284724 -0.00052726319778672172 0 -0.020231173228553712 -1.6070040600700048e-05 0 -0.018364639807717669 -5.4203518207390128e-05 0 -0.012565921637680111 0.0003970166493239957 0 -0.023860221625273403 -0.00065529218952520534 0 -0.018086824716494337 0.0022968185337036875 0 -0.020231173228553712 -1.6070040600700048e-05 0 -0.018364639807717669 -5.4203518207390128e-05 0 -0.026048172892501116 -0.00013096426826583472 0 -0.023568868744422666 0.0012999735018495917 0 -0.023407054878668961 0.00096250319669561463 0 -0.025053394239769228 -6.6490782045955794e-05 0 -0.02214774523448124 0.00097805976741352865 0 -0.018086824716494337 0.0022968185337036875 0 -0.018364639807717669 -5.4203518207390128e-05 0 -0.016738411988671591 0.00041930180619535631 0 -0.024502375469091477 0.00099937716816683167 0 -0.020218325635202768 0.0018866074326671356 0 -0.02214774523448124 0.00097805976741352865 0 -0.020218325635202768 0.0018866074326671356 0 -0.023568868744422666 0.0012999735018495917 0 -0.023407054878668961 0.00096250319669561463 0 -0.020802153935764917 0.0021143114709464045 0 -0.032070458796056585 0.0047779431864822947 0 -0.031627562441939851 0.0042229354392237075 0 -0.032254885627240548 0.0041120559252634846 0 -0.03325104383625993 0.0042116482909182375 0 -0.032070458796056585 0.0047779431864822947 0 -0.032254885627240548 0.0041120559252634846 0 -0.015612693458175383 0.0020028430530215895 0 -0.015591080525728565 0.0019122724345561469 0 -0.015564716803540891 0.0019198508385757018 0 -0.01371989436157545 0.0021406077965614944 0 -0.0197250190831018 0.0018737881597722082 0 -0.020218325635202768 0.0018866074326671356 0 -0.0197250190831018 0.0018737881597722082 0 -0.0303084529450399 0.0042178096506256101 0 -0.031846484500190814 0.0050129770415876483 0 -0.031627562441939851 0.0042229354392237075 0 -0.03213451501893639 0.0049272040279926101 0 -0.031846484500190814 0.0050129770415876483 0 -0.031627562441939851 0.0042229354392237075 0 -0.020218325635202768 0.0018866074326671356 0 -0.020974249431421354 0.0025402016962591699 0 -0.031627562441939851 0.0042229354392237075 0 -0.031814085494755659 0.0037192524199446508 0 -0.032254885627240548 0.0041120559252634846 0 -0.0303084529450399 0.0042178096506256101 0 -0.031814085494755659 0.0037192524199446508 0 -0.03208265946556757 0.0029423373909281589 0 -0.030956390361748461 0.0042715748316335678 0 -0.03105637916692832 0.0031864709981678048 0 -0.03208265946556757 0.0029423373909281589 0 -0.024799460446263431 0.00094374590136174486 0 -0.026876307542828871 0.00062070904335370116 0 -0.0303084529450399 0.0042178096506256101 0 -0.031627562441939851 0.0042229354392237075 0 -0.031814085494755659 0.0037192524199446508 0 -0.032385602083371851 0.0023262191444425521 0 -0.03208265946556757 0.0029423373909281589 0 -0.032959175250966873 0.0032430499179362956 0 -0.031814085494755659 0.0037192524199446508 0 -0.03208265946556757 0.0029423373909281589 0 -0.032473247545562953 0.0036396652521809153 0 -0.03208265946556757 0.0029423373909281589 0 -0.032959175250966873 0.0032430499179362956 0 -0.032473247545562953 0.0036396652521809153 0 -0.03325104383625993 0.0042116482909182375 0 -0.032959175250966873 0.0032430499179362956 0 -0.032473247545562953 0.0036396652521809153 0 -0.03325104383625993 0.0042116482909182375 0 -0.032254885627240548 0.0041120559252634846 0 -0.032473247545562953 0.0036396652521809153 0 -0.031814085494755659 0.0037192524199446508 0 -0.032254885627240548 0.0041120559252634846 0 -0.032473247545562953 0.0036396652521809153 0 -0.030518477306718628 -0.0053577218833522353 0 -0.0320159217582743 -0.0062058289976156611 0 -0.031642506209774796 -0.0051435862617947243 0 -0.030518477306718628 -0.0053577218833522353 0 -0.031642506209774796 -0.0051435862617947243 0 -0.030857592727227084 -0.0043091460205728627 0 -0.030518477306718628 -0.0053577218833522353 0 -0.030857592727227084 -0.0043091460205728627 0 -0.029767650273273397 -0.0041054485391956892 0 -0.030518477306718628 -0.0053577218833522353 0 -0.029051734602862481 -0.0047545563517370189 0 -0.029233788000441963 -0.0056766264642261893 0 -0.030518477306718628 -0.0053577218833522353 0 -0.029051734602862481 -0.0047545563517370189 0 -0.029767650273273397 -0.0041054485391956892 0 -0.029051734602862481 -0.0047545563517370189 0 -0.029767650273273397 -0.0041054485391956892 0 -0.028712427487881911 -0.0039671311187389723 0 -0.029051734602862481 -0.0047545563517370189 0 -0.029233788000441963 -0.0056766264642261893 0 -0.028350226975558591 -0.0053450575228774699 0 -0.030518477306718628 -0.0053577218833522353 0 -0.029233788000441963 -0.0056766264642261893 0 -0.029812246342313213 -0.0063829045060996214 0 -0.029812246342313213 -0.0063829045060996214 0 -0.028546676360844445 -0.0064469933382238307 0 -0.029682070876493331 -0.0071562763070859795 0 -0.029233788000441963 -0.0056766264642261893 0 -0.029812246342313213 -0.0063829045060996214 0 -0.028546676360844445 -0.0064469933382238307 0 -0.029812246342313213 -0.0063829045060996214 0 -0.030784872176113736 -0.0065936752831344007 0 -0.029682070876493331 -0.0071562763070859795 0 -0.030518477306718628 -0.0053577218833522353 0 -0.030784872176113736 -0.0065936752831344007 0 -0.0320159217582743 -0.0062058289976156611 0 -0.030518477306718628 -0.0053577218833522353 0 -0.029812246342313213 -0.0063829045060996214 0 -0.030784872176113736 -0.0065936752831344007 0 -0.030784872176113736 -0.0065936752831344007 0 -0.0320159217582743 -0.0062058289976156611 0 -0.032254807417053527 -0.0073070444597374716 0 -0.0320159217582743 -0.0062058289976156611 0 -0.033292987240941388 -0.0070709336729892804 0 -0.032254807417053527 -0.0073070444597374716 0 -0.0320159217582743 -0.0062058289976156611 0 -0.033292987240941388 -0.0070709336729892804 0 -0.033257585614766799 -0.0061675400716221752 0 -0.033292987240941388 -0.0070709336729892804 0 -0.034410961700753986 -0.007538322798652632 0 -0.034232306917353947 -0.0068055043362803269 0 -0.033257585614766799 -0.0061675400716221752 0 -0.034245217405482531 -0.0059199057559303821 0 -0.034232306917353947 -0.0068055043362803269 0 -0.033292987240941388 -0.0070709336729892804 0 -0.033257585614766799 -0.0061675400716221752 0 -0.034232306917353947 -0.0068055043362803269 0 -0.033257585614766799 -0.0061675400716221752 0 -0.034245217405482531 -0.0059199057559303821 0 -0.032749629667772076 -0.0052256962291341632 0 -0.034245217405482531 -0.0059199057559303821 0 -0.032749629667772076 -0.0052256962291341632 0 -0.033747679244482853 -0.0045132139339685885 0 -0.034245217405482531 -0.0059199057559303821 0 -0.033747679244482853 -0.0045132139339685885 0 -0.035182041517278495 -0.004633485484070895 0 -0.031642506209774796 -0.0051435862617947243 0 -0.032749629667772076 -0.0052256962291341632 0 -0.032156953448421968 -0.0036613083167196009 0 -0.0320159217582743 -0.0062058289976156611 0 -0.031642506209774796 -0.0051435862617947243 0 -0.032749629667772076 -0.0052256962291341632 0 -0.0320159217582743 -0.0062058289976156611 0 -0.033257585614766799 -0.0061675400716221752 0 -0.032749629667772076 -0.0052256962291341632 0 -0.031642506209774796 -0.0051435862617947243 0 -0.032156953448421968 -0.0036613083167196009 0 -0.030857592727227084 -0.0043091460205728627 0 -0.032749629667772076 -0.0052256962291341632 0 -0.032156953448421968 -0.0036613083167196009 0 -0.033747679244482853 -0.0045132139339685885 0 -0.032156953448421968 -0.0036613083167196009 0 -0.033747679244482853 -0.0045132139339685885 0 -0.033915799813698119 -0.0029908511231412707 0 -0.033747679244482853 -0.0045132139339685885 0 -0.033915799813698119 -0.0029908511231412707 0 -0.035182041517278495 -0.004633485484070895 0 -0.033915799813698119 -0.0029908511231412707 0 -0.032476602689666303 -0.0019363593770281324 0 -0.034208969198512747 -0.00089065128164354031 0 -0.032156953448421968 -0.0036613083167196009 0 -0.032476602689666303 -0.0019363593770281324 0 -0.030813414393419988 -0.0020112044692671468 0 -0.032156953448421968 -0.0036613083167196009 0 -0.033915799813698119 -0.0029908511231412707 0 -0.032476602689666303 -0.0019363593770281324 0 -0.030813414393419988 -0.0020112044692671468 0 -0.030305331447673597 -0.0032622837130818773 0 -0.029341128674761317 -0.0025158859324808918 0 -0.032156953448421968 -0.0036613083167196009 0 -0.030813414393419988 -0.0020112044692671468 0 -0.030305331447673597 -0.0032622837130818773 0 -0.032156953448421968 -0.0036613083167196009 0 -0.030305331447673597 -0.0032622837130818773 0 -0.030857592727227084 -0.0043091460205728627 0 -0.030305331447673597 -0.0032622837130818773 0 -0.030857592727227084 -0.0043091460205728627 0 -0.029767650273273397 -0.0041054485391956892 0 -0.029767650273273397 -0.0041054485391956892 0 -0.029297245286421275 -0.0033954122253417257 0 -0.028712427487881911 -0.0039671311187389723 0 -0.030305331447673597 -0.0032622837130818773 0 -0.029297245286421275 -0.0033954122253417257 0 -0.029341128674761317 -0.0025158859324808918 0 -0.030305331447673597 -0.0032622837130818773 0 -0.029767650273273397 -0.0041054485391956892 0 -0.029297245286421275 -0.0033954122253417257 0 -0.029297245286421275 -0.0033954122253417257 0 -0.028712427487881911 -0.0039671311187389723 0 -0.028395477868596648 -0.0031217819739311628 0 -0.029297245286421275 -0.0033954122253417257 0 -0.029341128674761317 -0.0025158859324808918 0 -0.028395477868596648 -0.0031217819739311628 0 -0.030813414393419988 -0.0020112044692671468 0 -0.029341128674761317 -0.0025158859324808918 0 -0.029325107602703543 -0.001142950977898021 0 -0.029341128674761317 -0.0025158859324808918 0 -0.028252237716437065 -0.0023728394211382574 0 -0.029325107602703543 -0.001142950977898021 0 -0.028252237716437065 -0.0023728394211382574 0 -0.027354560396064886 -0.0020374193430162247 0 -0.029325107602703543 -0.001142950977898021 0 -0.044409112073667843 0.0017342099996339438 0 -0.043496316025488348 0.00088343088882387978 0 -0.047610209506922962 0.0021605445774033152 0 -0.028252237716437065 -0.0023728394211382574 0 -0.027616241243842637 -0.0029175660156244214 0 -0.028395477868596648 -0.0031217819739311628 0 -0.029341128674761317 -0.0025158859324808918 0 -0.028252237716437065 -0.0023728394211382574 0 -0.028395477868596648 -0.0031217819739311628 0 -0.028252237716437065 -0.0023728394211382574 0 -0.027616241243842637 -0.0029175660156244214 0 -0.027538205460106418 -0.0025125925988209999 0 -0.028252237716437065 -0.0023728394211382574 0 -0.027538205460106418 -0.0025125925988209999 0 -0.027354560396064886 -0.0020374193430162247 0 -0.044409112073667843 0.0017342099996339438 0 -0.043496316025488348 0.00088343088882387978 0 -0.034838990874068117 0.0029681503407191657 0 -0.026953005947776075 -0.0027168730719815278 0 -0.02645944642333628 -0.0030973195103797765 0 -0.025607819552829859 -0.0029095282741545734 0 -0.03477100562954278 -0.00032924084608287093 0 -0.030554774126594065 -0.0017842281062330169 0 -0.027354560396064886 -0.0020374193430162247 0 -0.026953005947776075 -0.0027168730719815278 0 -0.025607819552829859 -0.0029095282741545734 0 -0.040685627276788018 0.0019393770584878404 0 -0.038495309364925075 0.0019162456555254154 0 -0.027538205460106418 -0.0025125925988209999 0 -0.027354560396064886 -0.0020374193430162247 0 -0.026953005947776075 -0.0027168730719815278 0 -0.027616241243842637 -0.0029175660156244214 0 -0.027538205460106418 -0.0025125925988209999 0 -0.026953005947776075 -0.0027168730719815278 0 -0.027616241243842637 -0.0029175660156244214 0 -0.026953005947776075 -0.0027168730719815278 0 -0.026954908804448195 -0.0033284464940759118 0 -0.027616241243842637 -0.0029175660156244214 0 -0.026954908804448195 -0.0033284464940759118 0 -0.027680176623737132 -0.0036914629183311233 0 -0.026954908804448195 -0.0033284464940759118 0 -0.02645944642333628 -0.0030973195103797765 0 -0.026173772876707826 -0.0036122857158625192 0 -0.026953005947776075 -0.0027168730719815278 0 -0.026954908804448195 -0.0033284464940759118 0 -0.02645944642333628 -0.0030973195103797765 0 -0.026916465618727556 -0.0039137291511482123 0 -0.026173772876707826 -0.0036122857158625192 0 -0.02641476399714909 -0.0043064426033242523 0 -0.026954908804448195 -0.0033284464940759118 0 -0.026916465618727556 -0.0039137291511482123 0 -0.026173772876707826 -0.0036122857158625192 0 -0.026954908804448195 -0.0033284464940759118 0 -0.026916465618727556 -0.0039137291511482123 0 -0.027680176623737132 -0.0036914629183311233 0 -0.026916465618727556 -0.0039137291511482123 0 -0.027680176623737132 -0.0036914629183311233 0 -0.027257023013018987 -0.0047186469709764199 0 -0.027680176623737132 -0.0036914629183311233 0 -0.028712427487881911 -0.0039671311187389723 0 -0.028395477868596648 -0.0031217819739311628 0 -0.027680176623737132 -0.0036914629183311233 0 -0.028712427487881911 -0.0039671311187389723 0 -0.028159695479249715 -0.0045083233353481389 0 -0.027616241243842637 -0.0029175660156244214 0 -0.027680176623737132 -0.0036914629183311233 0 -0.028395477868596648 -0.0031217819739311628 0 -0.025672730191380531 0.002510284336596209 0 -0.033492567157500118 -0.0016121140186924018 0 -0.024544661958478368 -0.0033370580920302289 0 -0.035881573057625349 0.0016908703089171734 0 -0.038495309364925075 0.0019162456555254154 0 -0.025672730191380531 0.002510284336596209 0 -0.033492567157500118 -0.0016121140186924018 0 -0.034838990874068117 0.0029681503407191657 0 -0.043496316025488348 0.00088343088882387978 0 -0.033492567157500118 -0.0016121140186924018 0 -0.034838990874068117 0.0029681503407191657 0 -0.02645944642333628 -0.0030973195103797765 0 -0.025607819552829859 -0.0029095282741545734 0 -0.026173772876707826 -0.0036122857158625192 0 -0.026173772876707826 -0.0036122857158625192 0 -0.025698825330076332 -0.0043570430003011962 0 -0.02641476399714909 -0.0043064426033242523 0 -0.026173772876707826 -0.0036122857158625192 0 -0.025317079268136453 -0.0036515568238241437 0 -0.025698825330076332 -0.0043570430003011962 0 -0.025317079268136453 -0.0036515568238241437 0 -0.024867737201335036 -0.0041872309223252606 0 -0.025698825330076332 -0.0043570430003011962 0 -0.025607819552829859 -0.0029095282741545734 0 -0.026173772876707826 -0.0036122857158625192 0 -0.025317079268136453 -0.0036515568238241437 0 -0.025317079268136453 -0.0036515568238241437 0 -0.024867737201335036 -0.0041872309223252606 0 -0.024544661958478368 -0.0033370580920302289 0 -0.025607819552829859 -0.0029095282741545734 0 -0.025317079268136453 -0.0036515568238241437 0 -0.024544661958478368 -0.0033370580920302289 0 -0.024867737201335036 -0.0041872309223252606 0 -0.024544661958478368 -0.0033370580920302289 0 -0.023907617719886604 -0.0047092502466485799 0 -0.030554774126594065 -0.0017842281062330169 0 -0.02814213162525488 -0.002561721960914233 0 -0.024867737201335036 -0.0041872309223252606 0 -0.024921583285947683 -0.0053280228576409365 0 -0.023907617719886604 -0.0047092502466485799 0 -0.024867737201335036 -0.0041872309223252606 0 -0.025698825330076332 -0.0043570430003011962 0 -0.024921583285947683 -0.0053280228576409365 0 -0.025698825330076332 -0.0043570430003011962 0 -0.025821828439949221 -0.0056837523048675342 0 -0.024921583285947683 -0.0053280228576409365 0 -0.025698825330076332 -0.0043570430003011962 0 -0.025821828439949221 -0.0056837523048675342 0 -0.026521140877855127 -0.0050659560773014794 0 -0.025698825330076332 -0.0043570430003011962 0 -0.02641476399714909 -0.0043064426033242523 0 -0.026521140877855127 -0.0050659560773014794 0 -0.025821828439949221 -0.0056837523048675342 0 -0.024921583285947683 -0.0053280228576409365 0 -0.024959688971636421 -0.0067055784506922754 0 -0.025821828439949221 -0.0056837523048675342 0 -0.024959688971636421 -0.0067055784506922754 0 -0.026157713714324519 -0.0067380410129676211 0 -0.024921583285947683 -0.0053280228576409365 0 -0.023907617719886604 -0.0047092502466485799 0 -0.023675318867969124 -0.0063003849808314855 0 -0.024921583285947683 -0.0053280228576409365 0 -0.024959688971636421 -0.0067055784506922754 0 -0.023675318867969124 -0.0063003849808314855 0 -0.028350226975558591 -0.0053450575228774699 0 -0.027257023013018987 -0.0047186469709764199 0 -0.027520814333525261 -0.0056866395763752429 0 -0.028350226975558591 -0.0053450575228774699 0 -0.028159695479249715 -0.0045083233353481389 0 -0.027257023013018987 -0.0047186469709764199 0 -0.029051734602862481 -0.0047545563517370189 0 -0.028350226975558591 -0.0053450575228774699 0 -0.028159695479249715 -0.0045083233353481389 0 -0.029051734602862481 -0.0047545563517370189 0 -0.028712427487881911 -0.0039671311187389723 0 -0.028159695479249715 -0.0045083233353481389 0 -0.027680176623737132 -0.0036914629183311233 0 -0.028159695479249715 -0.0045083233353481389 0 -0.027257023013018987 -0.0047186469709764199 0 -0.026916465618727556 -0.0039137291511482123 0 -0.027257023013018987 -0.0047186469709764199 0 -0.02641476399714909 -0.0043064426033242523 0 -0.027257023013018987 -0.0047186469709764199 0 -0.02641476399714909 -0.0043064426033242523 0 -0.026521140877855127 -0.0050659560773014794 0 -0.027257023013018987 -0.0047186469709764199 0 -0.026521140877855127 -0.0050659560773014794 0 -0.027520814333525261 -0.0056866395763752429 0 -0.026521140877855127 -0.0050659560773014794 0 -0.02666700896622776 -0.0059513456054564725 0 -0.027520814333525261 -0.0056866395763752429 0 -0.025821828439949221 -0.0056837523048675342 0 -0.026521140877855127 -0.0050659560773014794 0 -0.02666700896622776 -0.0059513456054564725 0 -0.025821828439949221 -0.0056837523048675342 0 -0.02666700896622776 -0.0059513456054564725 0 -0.026157713714324519 -0.0067380410129676211 0 -0.02666700896622776 -0.0059513456054564725 0 -0.027175370809152517 -0.0066852364778583386 0 -0.026157713714324519 -0.0067380410129676211 0 -0.02666700896622776 -0.0059513456054564725 0 -0.027520814333525261 -0.0056866395763752429 0 -0.027175370809152517 -0.0066852364778583386 0 -0.027520814333525261 -0.0056866395763752429 0 -0.028546676360844445 -0.0064469933382238307 0 -0.027175370809152517 -0.0066852364778583386 0 -0.028350226975558591 -0.0053450575228774699 0 -0.027520814333525261 -0.0056866395763752429 0 -0.028546676360844445 -0.0064469933382238307 0 -0.029233788000441963 -0.0056766264642261893 0 -0.028350226975558591 -0.0053450575228774699 0 -0.028546676360844445 -0.0064469933382238307 0 -0.028546676360844445 -0.0064469933382238307 0 -0.027733213300743142 -0.0074717703274394774 0 -0.028750450590230608 -0.0072792019701371589 0 -0.028546676360844445 -0.0064469933382238307 0 -0.027733213300743142 -0.0074717703274394774 0 -0.027175370809152517 -0.0066852364778583386 0 -0.027733213300743142 -0.0074717703274394774 0 -0.028823245161662573 -0.0080372967827234791 0 -0.028750450590230608 -0.0072792019701371589 0 -0.027175370809152517 -0.0066852364778583386 0 -0.02672016930786375 -0.0077129545666690313 0 -0.026157713714324519 -0.0067380410129676211 0 -0.027733213300743142 -0.0074717703274394774 0 -0.027175370809152517 -0.0066852364778583386 0 -0.02672016930786375 -0.0077129545666690313 0 -0.02672016930786375 -0.0077129545666690313 0 -0.027687648791950906 -0.0083969265979401218 0 -0.026282432139394275 -0.0089688916050082515 0 -0.027687648791950906 -0.0083969265979401218 0 -0.027270920177894783 -0.0094263844653876463 0 -0.026282432139394275 -0.0089688916050082515 0 -0.02672016930786375 -0.0077129545666690313 0 -0.025244681219926953 -0.0079946460059204996 0 -0.026282432139394275 -0.0089688916050082515 0 -0.027687648791950906 -0.0083969265979401218 0 -0.028249844250768159 -0.0091408199384173227 0 -0.027270920177894783 -0.0094263844653876463 0 -0.027687648791950906 -0.0083969265979401218 0 -0.028249844250768159 -0.0091408199384173227 0 -0.028823245161662573 -0.0080372967827234791 0 -0.027733213300743142 -0.0074717703274394774 0 -0.027687648791950906 -0.0083969265979401218 0 -0.028823245161662573 -0.0080372967827234791 0 -0.027733213300743142 -0.0074717703274394774 0 -0.02672016930786375 -0.0077129545666690313 0 -0.027687648791950906 -0.0083969265979401218 0 -0.024959688971636421 -0.0067055784506922754 0 -0.025244681219926953 -0.0079946460059204996 0 -0.023662643339376677 -0.0079070943389016272 0 -0.024959688971636421 -0.0067055784506922754 0 -0.023662643339376677 -0.0079070943389016272 0 -0.023675318867969124 -0.0063003849808314855 0 -0.02672016930786375 -0.0077129545666690313 0 -0.026157713714324519 -0.0067380410129676211 0 -0.025244681219926953 -0.0079946460059204996 0 -0.024959688971636421 -0.0067055784506922754 0 -0.026157713714324519 -0.0067380410129676211 0 -0.025244681219926953 -0.0079946460059204996 0 -0.025244681219926953 -0.0079946460059204996 0 -0.024257923986743979 -0.009374862608769588 0 -0.026282432139394275 -0.0089688916050082515 0 -0.025244681219926953 -0.0079946460059204996 0 -0.023662643339376677 -0.0079070943389016272 0 -0.024257923986743979 -0.009374862608769588 0 -0.024257923986743979 -0.009374862608769588 0 -0.025273129508104231 -0.010642134059840219 0 -0.023834017441675015 -0.010963856502694857 0 -0.024257923986743979 -0.009374862608769588 0 -0.023834017441675015 -0.010963856502694857 0 -0.02264842836786286 -0.010399005922416903 0 -0.024257923986743979 -0.009374862608769588 0 -0.025273129508104231 -0.010642134059840219 0 -0.026282432139394275 -0.0089688916050082515 0 -0.023986212177095956 -0.01037918190200387 0 -0.02468679564283878 -0.0097679793287224464 0 -0.024381186827947432 -0.010041201854709665 0 -0.022687658891695318 -0.011366382392177684 0 -0.024821761425375559 -0.011160990935417787 0 -0.024381186827947432 -0.010041201854709665 0 -0.026328184955846282 -0.010276749681211417 0 -0.024821761425375559 -0.011160990935417787 0 -0.025273129508104231 -0.010642134059840219 0 -0.023834017441675015 -0.010963856502694857 0 -0.024033453543149511 -0.012470673032345878 0 -0.023986212177095956 -0.01037918190200387 0 -0.022523991048094553 -0.011416356789662737 0 -0.027270920177894783 -0.0094263844653876463 0 -0.026328184955846282 -0.010276749681211417 0 -0.027961666799064221 -0.010027354122763052 0 -0.027901929175250476 -0.0097338586664388275 0 -0.027875326725118516 -0.0098758759241723611 0 -0.028249844250768159 -0.0091408199384173227 0 -0.027270920177894783 -0.0094263844653876463 0 -0.027961666799064221 -0.010027354122763052 0 -0.027270920177894783 -0.0094263844653876463 0 -0.026282432139394275 -0.0089688916050082515 0 -0.026328184955846282 -0.010276749681211417 0 -0.024381186827947432 -0.010041201854709665 0 -0.026282432139394275 -0.0089688916050082515 0 -0.026328184955846282 -0.010276749681211417 0 -0.026328184955846282 -0.010276749681211417 0 -0.026278151570261973 -0.011830547388360623 0 -0.027912239072204734 -0.011159233099665801 0 -0.026328184955846282 -0.010276749681211417 0 -0.027961666799064221 -0.010027354122763052 0 -0.027912239072204734 -0.011159233099665801 0 -0.027875326725118516 -0.0098758759241723611 0 -0.027781434140958055 -0.0096609324468889691 0 -0.034187333781051543 -0.0089130854998672616 0 -0.034264399773387987 -0.0080058557850718453 0 -0.035128378829357605 -0.008260233786434935 0 -0.031060546443785982 -0.0091383420674407013 0 -0.027781434140958055 -0.0096609324468889691 0 -0.028355777227456965 -0.01069046032976006 0 -0.030669479308156673 -0.0110061934234395 0 -0.028409203423087146 -0.012193568617611901 0 -0.034187333781051543 -0.0089130854998672616 0 -0.033566595238571827 -0.008338072043411849 0 -0.034264399773387987 -0.0080058557850718453 0 -0.030669479308156673 -0.0110061934234395 0 -0.031253921844718653 -0.0092008653545362952 0 -0.032812769832463291 -0.009568779191423113 0 -0.030669479308156673 -0.0110061934234395 0 -0.031253921844718653 -0.0092008653545362952 0 -0.029832345211403502 -0.0096312617860928821 0 -0.028355777227456965 -0.01069046032976006 0 -0.030669479308156673 -0.0110061934234395 0 -0.029832345211403502 -0.0096312617860928821 0 -0.028249844250768159 -0.0091408199384173227 0 -0.028355777227456965 -0.01069046032976006 0 -0.029832345211403502 -0.0096312617860928821 0 -0.028249844250768159 -0.0091408199384173227 0 -0.029832345211403502 -0.0096312617860928821 0 -0.030155380894420287 -0.0083816418590516549 0 -0.028249844250768159 -0.0091408199384173227 0 -0.028823245161662573 -0.0080372967827234791 0 -0.030155380894420287 -0.0083816418590516549 0 -0.031253921844718653 -0.0092008653545362952 0 -0.029832345211403502 -0.0096312617860928821 0 -0.030155380894420287 -0.0083816418590516549 0 -0.031253921844718653 -0.0092008653545362952 0 -0.030155380894420287 -0.0083816418590516549 0 -0.031861642794773624 -0.0080852442171256891 0 -0.030155380894420287 -0.0083816418590516549 0 -0.030827429507003339 -0.0075322107347184503 0 -0.029682070876493331 -0.0071562763070859795 0 -0.030155380894420287 -0.0083816418590516549 0 -0.030827429507003339 -0.0075322107347184503 0 -0.031861642794773624 -0.0080852442171256891 0 -0.030784872176113736 -0.0065936752831344007 0 -0.030827429507003339 -0.0075322107347184503 0 -0.032254807417053527 -0.0073070444597374716 0 -0.030784872176113736 -0.0065936752831344007 0 -0.030827429507003339 -0.0075322107347184503 0 -0.029682070876493331 -0.0071562763070859795 0 -0.028823245161662573 -0.0080372967827234791 0 -0.030155380894420287 -0.0083816418590516549 0 -0.029682070876493331 -0.0071562763070859795 0 -0.028546676360844445 -0.0064469933382238307 0 -0.029682070876493331 -0.0071562763070859795 0 -0.028750450590230608 -0.0072792019701371589 0 -0.028823245161662573 -0.0080372967827234791 0 -0.029682070876493331 -0.0071562763070859795 0 -0.028750450590230608 -0.0072792019701371589 0 -0.033292987240941388 -0.0070709336729892804 0 -0.033258039166108803 -0.0082147999610610277 0 -0.032254807417053527 -0.0073070444597374716 0 -0.033292987240941388 -0.0070709336729892804 0 -0.033258039166108803 -0.0082147999610610277 0 -0.034410961700753986 -0.007538322798652632 0 -0.033258039166108803 -0.0082147999610610277 0 -0.032254807417053527 -0.0073070444597374716 0 -0.031861642794773624 -0.0080852442171256891 0 -0.030827429507003339 -0.0075322107347184503 0 -0.032254807417053527 -0.0073070444597374716 0 -0.031861642794773624 -0.0080852442171256891 0 -0.033258039166108803 -0.0082147999610610277 0 -0.031861642794773624 -0.0080852442171256891 0 -0.032812769832463291 -0.009568779191423113 0 -0.031253921844718653 -0.0092008653545362952 0 -0.031861642794773624 -0.0080852442171256891 0 -0.032812769832463291 -0.009568779191423113 0 -0.033258039166108803 -0.0082147999610610277 0 -0.032812769832463291 -0.009568779191423113 0 -0.033509638251728091 -0.0090746215206199184 0 -0.032812769832463291 -0.009568779191423113 0 -0.032739297553014711 -0.0093615667519777804 0 -0.033509638251728091 -0.0090746215206199184 0 -0.031060546443785982 -0.0091383420674407013 0 -0.031807284393879066 -0.0090663393059325411 0 -0.032812769832463291 -0.009568779191423113 0 -0.032800511665119325 -0.0087122148953304428 0 -0.033566595238571827 -0.008338072043411849 0 -0.034187333781051543 -0.0089130854998672616 0 -0.032812769832463291 -0.009568779191423113 0 -0.033566595238571827 -0.008338072043411849 0 -0.032812769832463291 -0.009568779191423113 0 -0.032739297553014711 -0.0093615667519777804 0 -0.032800511665119325 -0.0087122148953304428 0 -0.032739297553014711 -0.0093615667519777804 0 -0.033276408681162037 -0.0094310709520816424 0 -0.030994640936327374 -0.0089909776364324508 0 -0.032739297553014711 -0.0093615667519777804 0 -0.030994640936327374 -0.0089909776364324508 0 -0.032800511665119325 -0.0087122148953304428 0 -0.032739297553014711 -0.0093615667519777804 0 -0.033509638251728091 -0.0090746215206199184 0 -0.033276408681162037 -0.0094310709520816424 0 -0.030589412016938784 -0.01527072885323276 0 -0.029333484185510485 -0.019810489931138129 0 -0.033509638251728091 -0.0090746215206199184 0 -0.033276408681162037 -0.0094310709520816424 0 -0.035071693430573529 -0.0088063245154983601 0 -0.030589412016938784 -0.01527072885323276 0 -0.031265622044880967 -0.012788451621632438 0 -0.027793813515258593 -0.01990753222643717 0 -0.024276338878477424 -0.012043679246429705 0 -0.030994640936327374 -0.0089909776364324508 0 -0.027793813515258593 -0.01990753222643717 0 -0.012562887621554948 -0.01344912816728077 0 -0.024276338878477424 -0.012043679246429705 0 -0.027793813515258593 -0.01990753222643717 0 -0.012562887621554948 -0.01344912816728077 0 -0.01122199085289919 -0.028876036482865648 0 -0.00026666711470459299 -0.022480765205949788 0 0.0064965008863995827 -0.028652862549216767 0 -0.012562887621554948 -0.01344912816728077 0 -0.01122199085289919 -0.028876036482865648 0 0.00075671806726747303 -0.024023729034945065 0 -0.027793813515258593 -0.01990753222643717 0 -0.01122199085289919 -0.028876036482865648 0 -0.023122279128442506 -0.032142000870168309 0 -0.029333484185510485 -0.019810489931138129 0 -0.02852139103240027 -0.02323808335182518 0 -0.01122199085289919 -0.028876036482865648 0 -0.023122279128442506 -0.032142000870168309 0 -0.018338437113163655 -0.045028258285493457 0 -0.01122199085289919 -0.028876036482865648 0 -0.0052366968397705238 -0.039729488914304625 0 -0.0029195808667996869 -0.03152385715698066 0 -0.01122199085289919 -0.028876036482865648 0 -0.0052366968397705238 -0.039729488914304625 0 -0.018338437113163655 -0.045028258285493457 0 -0.0052366968397705238 -0.039729488914304625 0 -0.018338437113163655 -0.045028258285493457 0 -0.0090750230417597586 -0.048742285052701645 0 -0.035071693430573529 -0.0088063245154983601 0 -0.03640128223550624 -0.0075391914445644267 0 -0.035553392291317043 -0.0075023584371043516 0 -0.035071693430573529 -0.0088063245154983601 0 -0.035553392291317043 -0.0075023584371043516 0 -0.034352223949618288 -0.008246573535011131 0 -0.033258039166108803 -0.0082147999610610277 0 -0.034352223949618288 -0.008246573535011131 0 -0.034410961700753986 -0.007538322798652632 0 -0.035553392291317043 -0.0075023584371043516 0 -0.034352223949618288 -0.008246573535011131 0 -0.034410961700753986 -0.007538322798652632 0 -0.033258039166108803 -0.0082147999610610277 0 -0.033509638251728091 -0.0090746215206199184 0 -0.034352223949618288 -0.008246573535011131 0 -0.033509638251728091 -0.0090746215206199184 0 -0.035071693430573529 -0.0088063245154983601 0 -0.034352223949618288 -0.008246573535011131 0 0.02096967190997296 -0.034923307034635996 0 0.020203327836531015 -0.034037907527055995 0 0.019436516243375938 -0.035212750255305257 0 0.020203327836531015 -0.034037907527055995 0 0.019148553636138568 -0.033721913064629974 0 0.019436516243375938 -0.035212750255305257 0 0.017998394480439234 -0.034479382630789389 0 0.019148553636138568 -0.033721913064629974 0 0.017532792389654429 -0.033015352312705276 0 0.017998394480439234 -0.034479382630789389 0 0.019148553636138568 -0.033721913064629974 0 0.019436516243375938 -0.035212750255305257 0 0.019148553636138568 -0.033721913064629974 0 0.018979734785925875 -0.032463968101572774 0 0.017532792389654429 -0.033015352312705276 0 0.019148553636138568 -0.033721913064629974 0 0.018979734785925875 -0.032463968101572774 0 0.020235398496440921 -0.0328492984597058 0 0.020203327836531015 -0.034037907527055995 0 0.019148553636138568 -0.033721913064629974 0 0.020235398496440921 -0.0328492984597058 0 0.018979734785925875 -0.032463968101572774 0 0.020235398496440921 -0.0328492984597058 0 0.020371838399371917 -0.031207576446432149 0 0.020371838399371917 -0.031207576446432149 0 0.018554118618616749 -0.031250859510687123 0 0.01982234850943039 -0.029206550344339669 0 0.018979734785925875 -0.032463968101572774 0 0.018554118618616749 -0.031250859510687123 0 0.017532792389654429 -0.033015352312705276 0 0.018979734785925875 -0.032463968101572774 0 0.020371838399371917 -0.031207576446432149 0 0.018554118618616749 -0.031250859510687123 0 0.018554118618616749 -0.031250859510687123 0 0.015907897757568179 -0.031109998690192351 0 0.017789036947370915 -0.029553017483684003 0 0.018554118618616749 -0.031250859510687123 0 0.015907897757568179 -0.031109998690192351 0 0.017532792389654429 -0.033015352312705276 0 0.015907897757568179 -0.031109998690192351 0 0.017532792389654429 -0.033015352312705276 0 0.015355213747882212 -0.033556236794209653 0 0.017998394480439234 -0.034479382630789389 0 0.017532792389654429 -0.033015352312705276 0 0.016263414117166169 -0.034690523968078278 0 0.017532792389654429 -0.033015352312705276 0 0.015355213747882212 -0.033556236794209653 0 0.016263414117166169 -0.034690523968078278 0 0.015907897757568179 -0.031109998690192351 0 0.015355213747882212 -0.033556236794209653 0 0.013080585594539172 -0.032970760754256333 0 0.015355213747882212 -0.033556236794209653 0 0.013080585594539172 -0.032970760754256333 0 0.014386034405087178 -0.036102117939596813 0 0.015907897757568179 -0.031109998690192351 0 0.013080585594539172 -0.032970760754256333 0 0.013601364608900192 -0.029523074202953279 0 0.010704987418420785 -0.030120161337931332 0 0.013080585594539172 -0.032970760754256333 0 0.013601364608900192 -0.029523074202953279 0 -0.01122199085289919 -0.028876036482865648 0 0.00075671806726747303 -0.024023729034945065 0 -0.0029195808667996869 -0.03152385715698066 0 0.00075671806726747303 -0.024023729034945065 0 -0.0029195808667996869 -0.03152385715698066 0 0.0036925112000156298 -0.035855878881000253 0 -0.0052366968397705238 -0.039729488914304625 0 -0.0029195808667996869 -0.03152385715698066 0 0.0036925112000156298 -0.035855878881000253 0 -0.0052366968397705238 -0.039729488914304625 0 0.0034341653714022435 -0.045494545190606486 0 -0.0090750230417597586 -0.048742285052701645 0 -0.0052366968397705238 -0.039729488914304625 0 0.0036925112000156298 -0.035855878881000253 0 0.0034341653714022435 -0.045494545190606486 0 0.0034341653714022435 -0.045494545190606486 0 0.011280202265553157 -0.038718591976428587 0 0.012628617967161646 -0.050246901969462784 0 0.0036925112000156298 -0.035855878881000253 0 0.0034341653714022435 -0.045494545190606486 0 0.011280202265553157 -0.038718591976428587 0 -0.012749626912244174 -0.03328523766022997 0 -0.016984313408194899 -0.026678802670144556 0 0.011280202265553157 -0.038718591976428587 0 0.014368521712274184 -0.038805838953732429 0 0.013089180033555806 -0.04279997082648522 0 0.0064965008863995827 -0.028652862549216767 0 0.010549698610604312 -0.032483302529849427 0 0.00075671806726747303 -0.024023729034945065 0 0.0036925112000156298 -0.035855878881000253 0 0.014386034405087178 -0.036102117939596813 0 0.0036925112000156298 -0.035855878881000253 0 0.011280202265553157 -0.038718591976428587 0 0.014386034405087178 -0.036102117939596813 0 0.011280202265553157 -0.038718591976428587 0 0.014386034405087178 -0.036102117939596813 0 0.014368521712274184 -0.038805838953732429 0 0.015355213747882212 -0.033556236794209653 0 0.016263414117166169 -0.034690523968078278 0 0.014386034405087178 -0.036102117939596813 0 0.016263414117166169 -0.034690523968078278 0 0.014386034405087178 -0.036102117939596813 0 0.015967137999825399 -0.036331994862743473 0 0.016263414117166169 -0.034690523968078278 0 0.015967137999825399 -0.036331994862743473 0 0.017621719721415609 -0.035862642603941536 0 0.017998394480439234 -0.034479382630789389 0 0.016263414117166169 -0.034690523968078278 0 0.017621719721415609 -0.035862642603941536 0 0.015967137999825399 -0.036331994862743473 0 0.016416497565040173 -0.038979448761827122 0 0.017621719721415609 -0.035862642603941536 0 0.014386034405087178 -0.036102117939596813 0 0.015967137999825399 -0.036331994862743473 0 0.014368521712274184 -0.038805838953732429 0 0.015967137999825399 -0.036331994862743473 0 0.014368521712274184 -0.038805838953732429 0 0.016416497565040173 -0.038979448761827122 0 0.004339943833687146 -0.026647244726529459 0 -0.016984313408194899 -0.026678802670144556 0 0.014368521712274184 -0.038805838953732429 0 0.016416497565040173 -0.038979448761827122 0 0.013089180033555806 -0.04279997082648522 0 0.016416497565040173 -0.038979448761827122 0 0.019318866542262562 -0.039419018682548275 0 0.013089180033555806 -0.04279997082648522 0 0.016416497565040173 -0.038979448761827122 0 0.019318866542262562 -0.039419018682548275 0 0.019136161149553459 -0.037323871856774972 0 0.021091234076027785 -0.037515432771498797 0 0.019318866542262562 -0.039419018682548275 0 0.019136161149553459 -0.037323871856774972 0 0.020566409365731779 -0.036186387709913212 0 0.021091234076027785 -0.037515432771498797 0 0.019136161149553459 -0.037323871856774972 0 0.016416497565040173 -0.038979448761827122 0 0.019136161149553459 -0.037323871856774972 0 0.017621719721415609 -0.035862642603941536 0 0.017998394480439234 -0.034479382630789389 0 0.017621719721415609 -0.035862642603941536 0 0.019436516243375938 -0.035212750255305257 0 0.019136161149553459 -0.037323871856774972 0 0.017621719721415609 -0.035862642603941536 0 0.019436516243375938 -0.035212750255305257 0 0.020566409365731779 -0.036186387709913212 0 0.02096967190997296 -0.034923307034635996 0 0.019436516243375938 -0.035212750255305257 0 0.020566409365731779 -0.036186387709913212 0 0.019136161149553459 -0.037323871856774972 0 0.019436516243375938 -0.035212750255305257 0 -0.024980071476692327 -0.012388230573322155 0 -0.026891342556220273 -0.015677765735008821 0 -0.024761649824253065 -0.016753801054415377 0 -0.020778347474541103 -0.014890915749060847 0 -0.024980071476692327 -0.012388230573322155 0 -0.024761649824253065 -0.016753801054415377 0 0.022479081335268037 -0.040187800452988774 0 0.019318866542262562 -0.039419018682548275 0 0.018844558124594287 -0.042524310127458026 0 0.019318866542262562 -0.039419018682548275 0 0.018844558124594287 -0.042524310127458026 0 0.016269423113391464 -0.042516929817341634 0 0.019318866542262562 -0.039419018682548275 0 0.016269423113391464 -0.042516929817341634 0 0.014385094922729975 -0.040760189629190639 0 0.016269423113391464 -0.042516929817341634 0 0.01491977213127885 -0.044699984275504756 0 0.014385094922729975 -0.040760189629190639 0 0.018844558124594287 -0.042524310127458026 0 0.016269423113391464 -0.042516929817341634 0 0.01491977213127885 -0.044699984275504756 0 -0.0089353058319185767 -0.021900982825751248 0 -0.024813272291835716 -0.021998001159436242 0 -0.024980071476692327 -0.012388230573322155 0 -0.029070543738056696 -0.014698205601774893 0 -0.026891342556220273 -0.015677765735008821 0 -0.061995599858566709 -0.0078550910200486483 0 -0.058580564827723128 -0.0080806192190996697 0 -0.061152662209769212 -0.014251550013100465 0 -0.061995599858566709 -0.0078550910200486483 0 -0.060764129032622051 -0.007175574693126143 0 -0.058580564827723128 -0.0080806192190996697 0 -0.024813272291835716 -0.021998001159436242 0 -0.025886594735381293 -0.022223538246712134 0 -0.024813272291835716 -0.021998001159436242 0 -0.016984313408194899 -0.026678802670144556 0 0.0034341653714022435 -0.045494545190606486 0 0.012628617967161646 -0.050246901969462784 0 -0.00056506042612432196 -0.05435053594729726 0 -0.016984313408194899 -0.026678802670144556 0 -0.026871850596463229 -0.025245309897002265 0 -0.058580564827723128 -0.0080806192190996697 0 -0.061152662209769212 -0.014251550013100465 0 -0.055252809375246639 -0.012409768456383643 0 0.0034341653714022435 -0.045494545190606486 0 -0.00056506042612432196 -0.05435053594729726 0 -0.0090750230417597586 -0.048742285052701645 0 -0.058580564827723128 -0.0080806192190996697 0 -0.055252809375246639 -0.012409768456383643 0 -0.053685822654899525 -0.0078387811670417775 0 -0.058580564827723128 -0.0080806192190996697 0 -0.053685822654899525 -0.0078387811670417775 0 -0.055788338476422443 -0.0049047161279626005 0 -0.053685822654899525 -0.0078387811670417775 0 -0.055788338476422443 -0.0049047161279626005 0 -0.051717809930024089 -0.0032790194597810953 0 -0.058580564827723128 -0.0080806192190996697 0 -0.055788338476422443 -0.0049047161279626005 0 -0.058821829869444474 -0.0037897720090846634 0 -0.055788338476422443 -0.0049047161279626005 0 -0.056116928203841822 -0.001500659515044873 0 -0.058821829869444474 -0.0037897720090846634 0 -0.055788338476422443 -0.0049047161279626005 0 -0.056116928203841822 -0.001500659515044873 0 -0.051717809930024089 -0.0032790194597810953 0 -0.043362795517060834 -0.0035809472102279376 0 -0.047037411490118052 0.0010979518182472122 0 -0.056116928203841822 -0.001500659515044873 0 -0.058644564519930234 0.0009208941471387721 0 -0.054727827698953353 0.0044477313786350347 0 -0.056116928203841822 -0.001500659515044873 0 -0.051717809930024089 -0.0032790194597810953 0 -0.054727827698953353 0.0044477313786350347 0 -0.056116928203841822 -0.001500659515044873 0 -0.060090442732609876 -0.0017270282767796355 0 -0.058644564519930234 0.0009208941471387721 0 -0.058644564519930234 0.0009208941471387721 0 -0.062731962973306798 -0.0017969978522047484 0 -0.059495735244665615 0.0056387197727383875 0 -0.061515174291268959 0.00046112542347050633 0 -0.060669104249201987 0.0020899498640516586 0 -0.062731962973306798 -0.0017969978522047484 0 -0.063135176478955987 -0.0013398581363388623 0 -0.063573568897519986 -0.0020561495975559606 0 -0.060090442732609876 -0.0017270282767796355 0 -0.058644564519930234 0.0009208941471387721 0 -0.062731962973306798 -0.0017969978522047484 0 -0.060090442732609876 -0.0017270282767796355 0 -0.063142625222479931 -0.0028127180251576191 0 -0.062731962973306798 -0.0017969978522047484 0 -0.060090442732609876 -0.0017270282767796355 0 -0.058821829869444474 -0.0037897720090846634 0 -0.063142625222479931 -0.0028127180251576191 0 -0.056116928203841822 -0.001500659515044873 0 -0.060090442732609876 -0.0017270282767796355 0 -0.058821829869444474 -0.0037897720090846634 0 -0.060764129032622051 -0.007175574693126143 0 -0.058580564827723128 -0.0080806192190996697 0 -0.062385371977163179 -0.0043307753985809003 0 -0.061862485104969611 -0.0078182685010471081 0 -0.060764129032622051 -0.007175574693126143 0 -0.062385371977163179 -0.0043307753985809003 0 -0.047610434669279521 -0.0058904132746163381 0 -0.040731323718873801 -0.01021006718019297 0 -0.058580564827723128 -0.0080806192190996697 0 -0.058821829869444474 -0.0037897720090846634 0 -0.063142625222479931 -0.0028127180251576191 0 -0.026891342556220273 -0.015677765735008821 0 -0.028719311807505601 -0.01722585321002254 0 -0.024761649824253065 -0.016753801054415377 0 -0.024813272291835716 -0.021998001159436242 0 -0.040731323718873801 -0.01021006718019297 0 -0.029070543738056696 -0.014698205601774893 0 -0.026891342556220273 -0.015677765735008821 0 -0.028719311807505601 -0.01722585321002254 0 -0.040731323718873801 -0.01021006718019297 0 -0.045181072379820685 -0.0064383870281468939 0 -0.063170217608043741 -0.00045070960495679661 0 -0.063135176478955987 -0.0013398581363388623 0 -0.062596089428617163 -0.0012010559381676498 0 -0.063170217608043741 -0.00045070960495679661 0 -0.062390136011798283 -0.0011445961456622662 0 -0.062596089428617163 -0.0012010559381676498 0 -0.040731323718873801 -0.01021006718019297 0 -0.044843338038540181 -0.0050491328746147604 0 -0.063142625222479931 -0.0028127180251576191 0 -0.062731962973306798 -0.0017969978522047484 0 -0.063135176478955987 -0.0013398581363388623 0 -0.022270834207537886 -0.019817649947915877 0 -0.0252759396440848 -0.020671334739804884 0 -0.024761649824253065 -0.016753801054415377 0 -0.04203675812169768 -0.0067750462736598203 0 -0.045181072379820685 -0.0064383870281468939 0 -0.045181072379820685 -0.0064383870281468939 0 -0.045828501805169369 -0.0065133586182280481 0 -0.028719311807505601 -0.01722585321002254 0 -0.0252759396440848 -0.020671334739804884 0 -0.024761649824253065 -0.016753801054415377 0 -0.037325701127994951 -0.0067674634825098025 0 -0.035726162450140944 -0.0061443386381447931 0 -0.036350537515217579 -0.0068705962616707498 0 -0.037325701127994951 -0.0067674634825098025 0 -0.036350537515217579 -0.0068705962616707498 0 -0.036459700105928278 -0.0069856100331619547 0 -0.037325701127994951 -0.0067674634825098025 0 -0.04280200454444566 -0.0054812476584071386 0 -0.038563913945648391 -0.0039253283092928991 0 -0.037325701127994951 -0.0067674634825098025 0 -0.035726162450140944 -0.0061443386381447931 0 -0.036458399503573886 -0.0049102554410203692 0 -0.035726162450140944 -0.0061443386381447931 0 -0.035182041517278495 -0.004633485484070895 0 -0.036458399503573886 -0.0049102554410203692 0 -0.034245217405482531 -0.0059199057559303821 0 -0.035726162450140944 -0.0061443386381447931 0 -0.035182041517278495 -0.004633485484070895 0 -0.034245217405482531 -0.0059199057559303821 0 -0.035726162450140944 -0.0061443386381447931 0 -0.035360979618111368 -0.0069047191141495285 0 -0.035726162450140944 -0.0061443386381447931 0 -0.035360979618111368 -0.0069047191141495285 0 -0.036350537515217579 -0.0068705962616707498 0 -0.035553392291317043 -0.0075023584371043516 0 -0.034410961700753986 -0.007538322798652632 0 -0.035360979618111368 -0.0069047191141495285 0 -0.034245217405482531 -0.0059199057559303821 0 -0.035360979618111368 -0.0069047191141495285 0 -0.034232306917353947 -0.0068055043362803269 0 -0.034410961700753986 -0.007538322798652632 0 -0.035360979618111368 -0.0069047191141495285 0 -0.034232306917353947 -0.0068055043362803269 0 -0.035553392291317043 -0.0075023584371043516 0 -0.035360979618111368 -0.0069047191141495285 0 -0.036350537515217579 -0.0068705962616707498 0 -0.03640128223550624 -0.0075391914445644267 0 -0.035553392291317043 -0.0075023584371043516 0 -0.036459700105928278 -0.0069856100331619547 0 -0.035553392291317043 -0.0075023584371043516 0 -0.036350537515217579 -0.0068705962616707498 0 -0.036459700105928278 -0.0069856100331619547 0 -0.02852139103240027 -0.02323808335182518 0 -0.030867316155904875 -0.018578145290249707 0 -0.03640128223550624 -0.0075391914445644267 0 -0.036459700105928278 -0.0069856100331619547 0 -0.036477035556423475 -0.0070125046294854179 0 -0.026871850596463229 -0.025245309897002265 0 -0.030867316155904875 -0.018578145290249707 0 -0.018338437113163655 -0.045028258285493457 0 -0.0090750230417597586 -0.048742285052701645 0 -0.013325993625452689 -0.058355113971202313 0 -0.00056506042612432196 -0.05435053594729726 0 -0.0090750230417597586 -0.048742285052701645 0 -0.013325993625452689 -0.058355113971202313 0 -0.055252809375246639 -0.012409768456383643 0 -0.053685822654899525 -0.0078387811670417775 0 -0.048995544439023993 -0.01044890276504822 0 -0.030867316155904875 -0.018578145290249707 0 -0.043362795517060834 -0.0035809472102279376 0 -0.053685822654899525 -0.0078387811670417775 0 -0.048995544439023993 -0.01044890276504822 0 -0.051717809930024089 -0.0032790194597810953 0 -0.034706016967345286 -0.016403891961841697 0 -0.030867316155904875 -0.018578145290249707 0 -0.049027728097291889 -0.01131043653234526 0 -0.04280200454444566 -0.0054812476584071386 0 -0.046341081373019476 -0.0038121427324034648 0 -0.037325701127994951 -0.0067674634825098025 0 -0.049027728097291889 -0.01131043653234526 0 -0.04280200454444566 -0.0054812476584071386 0 -0.037325701127994951 -0.0067674634825098025 0 -0.036459700105928278 -0.0069856100331619547 0 -0.036477035556423475 -0.0070125046294854179 0 -0.04280200454444566 -0.0054812476584071386 0 -0.046341081373019476 -0.0038121427324034648 0 -0.04331046573488629 -0.0024056623166873758 0 -0.046341081373019476 -0.0038121427324034648 0 -0.052281976727043267 -0.0016302332661245061 0 -0.045620512943515067 0.001269231794617816 0 -0.046341081373019476 -0.0038121427324034648 0 -0.04331046573488629 -0.0024056623166873758 0 -0.045620512943515067 0.001269231794617816 0 -0.049027728097291889 -0.01131043653234526 0 -0.046341081373019476 -0.0038121427324034648 0 -0.052281976727043267 -0.0016302332661245061 0 -0.052281976727043267 -0.0016302332661245061 0 -0.05010476658236266 0.0024766787613351767 0 -0.045620512943515067 0.001269231794617816 0 -0.052281976727043267 -0.0016302332661245061 0 -0.05010476658236266 0.0024766787613351767 0 -0.054727827698953353 0.0044477313786350347 0 -0.04331046573488629 -0.0024056623166873758 0 -0.045620512943515067 0.001269231794617816 0 -0.039162952965397041 0.0038539314652326971 0 -0.05010476658236266 0.0024766787613351767 0 -0.045620512943515067 0.001269231794617816 0 -0.046864138569228775 0.0041438383023885486 0 -0.045620512943515067 0.001269231794617816 0 -0.043888443731886773 0.0022979843912326928 0 -0.046864138569228775 0.0041438383023885486 0 -0.044147352133707476 0.0018441676809509212 0 -0.044084304300127157 0.0018622619840471166 0 -0.04331046573488629 -0.0024056623166873758 0 -0.039162952965397041 0.0038539314652326971 0 -0.038563913945648391 -0.0039253283092928991 0 -0.044084304300127157 0.0018622619840471166 0 -0.043448769086158329 0.00010473299444995476 0 -0.037810951144460279 -0.0016738680117745792 0 -0.038563913945648391 -0.0039253283092928991 0 -0.036359998827898386 -0.0029477672807762144 0 -0.037325701127994951 -0.0067674634825098025 0 -0.038563913945648391 -0.0039253283092928991 0 -0.036458399503573886 -0.0049102554410203692 0 -0.038563913945648391 -0.0039253283092928991 0 -0.036458399503573886 -0.0049102554410203692 0 -0.036359998827898386 -0.0029477672807762144 0 -0.04280200454444566 -0.0054812476584071386 0 -0.04331046573488629 -0.0024056623166873758 0 -0.038563913945648391 -0.0039253283092928991 0 -0.033915799813698119 -0.0029908511231412707 0 -0.035182041517278495 -0.004633485484070895 0 -0.036359998827898386 -0.0029477672807762144 0 -0.035182041517278495 -0.004633485484070895 0 -0.036458399503573886 -0.0049102554410203692 0 -0.036359998827898386 -0.0029477672807762144 0 -0.033915799813698119 -0.0029908511231412707 0 -0.036359998827898386 -0.0029477672807762144 0 -0.034208969198512747 -0.00089065128164354031 0 -0.037810951144460279 -0.0016738680117745792 0 -0.036359998827898386 -0.0029477672807762144 0 -0.034208969198512747 -0.00089065128164354031 0 -0.044084304300127157 0.0018622619840471166 0 -0.040676680577870272 0.002408400274180403 0 -0.044920280128091898 0.0037289542637349766 0 -0.044273710387478356 0.0032385627668228222 0 -0.04425385867721883 0.0042066208875309414 0 -0.045609645116036331 0.0027409444308437018 0 -0.044920280128091898 0.0037289542637349766 0 -0.044273710387478356 0.0032385627668228222 0 -0.049562046543434511 0.0070659163646324148 0 -0.047344204572565107 0.0050473991456206355 0 -0.044920280128091898 0.0037289542637349766 0 -0.045575207847927596 0.0046784460733999087 0 -0.04425385867721883 0.0042066208875309414 0 -0.04426365147238899 0.0064918607345541921 0 -0.046781640494413849 0.010266258770510727 0 -0.044333669291568234 0.011404910367716988 0 -0.044920280128091898 0.0037289542637349766 0 -0.045590872395327664 0.0037065913152881263 0 -0.045575207847927596 0.0046784460733999087 0 -0.046540683268540939 0.0047446775777401405 0 -0.049562046543434511 0.0070659163646324148 0 -0.044084304300127157 0.0018622619840471166 0 -0.046540683268540939 0.0047446775777401405 0 -0.043888443731886773 0.0022979843912326928 0 -0.04426365147238899 0.0064918607345541921 0 -0.046864138569228775 0.0041438383023885486 0 -0.045609645116036331 0.0027409444308437018 0 -0.044920280128091898 0.0037289542637349766 0 -0.045590872395327664 0.0037065913152881263 0 -0.05010476658236266 0.0024766787613351767 0 -0.046864138569228775 0.0041438383023885486 0 -0.050468251492426217 0.0054526141891429198 0 -0.046864138569228775 0.0041438383023885486 0 -0.050468251492426217 0.0054526141891429198 0 -0.047974782370115689 0.0075425616142577945 0 -0.050468251492426217 0.0054526141891429198 0 -0.050620570687209217 0.0085962572830010787 0 -0.047974782370115689 0.0075425616142577945 0 -0.04426365147238899 0.0064918607345541921 0 -0.046864138569228775 0.0041438383023885486 0 -0.047974782370115689 0.0075425616142577945 0 -0.05010476658236266 0.0024766787613351767 0 -0.050468251492426217 0.0054526141891429198 0 -0.054727827698953353 0.0044477313786350347 0 -0.050468251492426217 0.0054526141891429198 0 -0.052881927355974627 0.0074964749449535472 0 -0.054727827698953353 0.0044477313786350347 0 -0.050468251492426217 0.0054526141891429198 0 -0.052881927355974627 0.0074964749449535472 0 -0.050620570687209217 0.0085962572830010787 0 -0.052881927355974627 0.0074964749449535472 0 -0.052562597313898063 0.0094096916725662696 0 -0.054105582312668932 0.0099143970998029751 0 -0.052881927355974627 0.0074964749449535472 0 -0.052562597313898063 0.0094096916725662696 0 -0.050620570687209217 0.0085962572830010787 0 -0.052562597313898063 0.0094096916725662696 0 -0.050620570687209217 0.0085962572830010787 0 -0.05217822067430123 0.011180810661033337 0 -0.052562597313898063 0.0094096916725662696 0 -0.053393919930015639 0.011078047320522732 0 -0.05217822067430123 0.011180810661033337 0 -0.050620570687209217 0.0085962572830010787 0 -0.049650597238091648 0.010210942173002325 0 -0.05217822067430123 0.011180810661033337 0 -0.052562597313898063 0.0094096916725662696 0 -0.053393919930015639 0.011078047320522732 0 -0.054105582312668932 0.0099143970998029751 0 -0.053393919930015639 0.011078047320522732 0 -0.054324456430391133 0.011774151293535878 0 -0.054105582312668932 0.0099143970998029751 0 -0.04426365147238899 0.0064918607345541921 0 -0.047974782370115689 0.0075425616142577945 0 -0.046781640494413849 0.010266258770510727 0 -0.050620570687209217 0.0085962572830010787 0 -0.047974782370115689 0.0075425616142577945 0 -0.049650597238091648 0.010210942173002325 0 -0.049650597238091648 0.010210942173002325 0 -0.046781640494413849 0.010266258770510727 0 -0.049602308663878658 0.012440659019584658 0 -0.047974782370115689 0.0075425616142577945 0 -0.049650597238091648 0.010210942173002325 0 -0.046781640494413849 0.010266258770510727 0 -0.046781640494413849 0.010266258770510727 0 -0.049602308663878658 0.012440659019584658 0 -0.049372421669957686 0.012971990584241149 0 -0.051982325978887058 0.0086641389643121545 0 -0.049562046543434511 0.0070659163646324148 0 -0.046781640494413849 0.010266258770510727 0 -0.049372421669957686 0.012971990584241149 0 -0.044333669291568234 0.011404910367716988 0 -0.051279573789517821 0.011743725072516234 0 -0.049602308663878658 0.012440659019584658 0 -0.053885231555628792 0.01312565144343673 0 -0.049650597238091648 0.010210942173002325 0 -0.051279573789517821 0.011743725072516234 0 -0.049602308663878658 0.012440659019584658 0 -0.049602308663878658 0.012440659019584658 0 -0.049371500874044009 0.013093819793130262 0 -0.053885231555628792 0.01312565144343673 0 -0.049650597238091648 0.010210942173002325 0 -0.051279573789517821 0.011743725072516234 0 -0.05217822067430123 0.011180810661033337 0 -0.051971655770781187 0.0086890614312708208 0 -0.051982325978887058 0.0086641389643121545 0 -0.05605839964726235 0.013691089144387989 0 -0.053885231555628792 0.01312565144343673 0 -0.055631175213134071 0.011774542701079875 0 -0.051982325978887058 0.0086641389643121545 0 -0.052220118913628391 0.0089210012405182889 0 -0.053393919930015639 0.011078047320522732 0 -0.054324456430391133 0.011774151293535878 0 -0.053885231555628792 0.01312565144343673 0 -0.053393919930015639 0.011078047320522732 0 -0.05217822067430123 0.011180810661033337 0 -0.053885231555628792 0.01312565144343673 0 -0.051279573789517821 0.011743725072516234 0 -0.05217822067430123 0.011180810661033337 0 -0.053885231555628792 0.01312565144343673 0 -0.054324456430391133 0.011774151293535878 0 -0.053885231555628792 0.01312565144343673 0 -0.054053018375532322 0.012595019251860918 0 -0.057494455568123388 0.0076610359791132523 0 -0.056968988679159178 0.0087242817039186772 0 -0.055631175213134071 0.011774542701079875 0 -0.054053018375532322 0.012595019251860918 0 -0.056701753048555514 0.0097709477373994717 0 -0.053885231555628792 0.01312565144343673 0 -0.055631175213134071 0.011774542701079875 0 -0.054053018375532322 0.012595019251860918 0 -0.051982325978887058 0.0086641389643121545 0 -0.05346223770955031 0.0093417657242397222 0 -0.05240690228856109 0.0087335134381326483 0 -0.052267499312811272 0.0089146247706108923 0 -0.052338695599076765 0.0089400021799051783 0 -0.05605839964726235 0.013691089144387989 0 -0.055631175213134071 0.011774542701079875 0 -0.058065171118713052 0.010374343564598128 0 -0.055422412532012681 0.0076091364305775136 0 -0.053620130032998162 0.0056954432343793429 0 -0.052870448873466064 0.007435353009704309 0 -0.053620130032998162 0.0056954432343793429 0 -0.055433125907605955 0.0047898948706648591 0 -0.052736476885892093 0.0038469969144982233 0 -0.055422412532012681 0.0076091364305775136 0 -0.053620130032998162 0.0056954432343793429 0 -0.055433125907605955 0.0047898948706648591 0 -0.052284848085581585 0.0083313889230725319 0 -0.049562046543434511 0.0070659163646324148 0 -0.05240690228856109 0.0087335134381326483 0 -0.052267499312811272 0.0089146247706108923 0 -0.052265057154424852 0.0086827860500830467 0 -0.060897746879817305 -0.0017858023231856254 0 -0.062061196949727414 -0.0030784559240865134 0 -0.062344594990558146 -0.001703089765432247 0 -0.062061196949727414 -0.0030784559240865134 0 -0.062344594990558146 -0.001703089765432247 0 -0.063013626087842528 -0.0019979539400312493 0 -0.060897746879817305 -0.0017858023231856254 0 -0.062279319366092378 -0.0010063569386909972 0 -0.062344594990558146 -0.001703089765432247 0 -0.053977047774348294 -0.0015513017509961432 0 -0.045181072379820685 -0.0064383870281468939 0 -0.062596089428617163 -0.0012010559381676498 0 -0.062344594990558146 -0.001703089765432247 0 -0.062932252570855038 -0.0015989159182502183 0 -0.062279319366092378 -0.0010063569386909972 0 -0.062596089428617163 -0.0012010559381676498 0 -0.062344594990558146 -0.001703089765432247 0 -0.062344594990558146 -0.001703089765432247 0 -0.063013626087842528 -0.0019979539400312493 0 -0.062932252570855038 -0.0015989159182502183 0 -0.063135176478955987 -0.0013398581363388623 0 -0.062596089428617163 -0.0012010559381676498 0 -0.062932252570855038 -0.0015989159182502183 0 -0.063135176478955987 -0.0013398581363388623 0 -0.062932252570855038 -0.0015989159182502183 0 -0.06342742752274802 -0.0018156174001746903 0 -0.063013626087842528 -0.0019979539400312493 0 -0.062932252570855038 -0.0015989159182502183 0 -0.06342742752274802 -0.0018156174001746903 0 -0.063013626087842528 -0.0019979539400312493 0 -0.06342742752274802 -0.0018156174001746903 0 -0.064106030263422667 -0.0019263277341399895 0 -0.067183113684755782 -0.0012552957349373827 0 -0.065754037150392214 -0.0015862065974625577 0 -0.073483088684058603 -0.0015957417481366712 0 -0.064106030263422667 -0.0019263277341399895 0 -0.068602482825568592 0.002023067605392228 0 -0.062061196949727414 -0.0030784559240865134 0 -0.063013626087842528 -0.0019979539400312493 0 -0.064106030263422667 -0.0019263277341399895 0 -0.064106030263422667 -0.0019263277341399895 0 -0.063573568897519986 -0.0020561495975559606 0 -0.06160644607751023 -0.0010327673989544983 0 -0.060669104249201987 0.0020899498640516586 0 -0.059011513662217165 0.0049744284539166876 0 -0.06342742752274802 -0.0018156174001746903 0 -0.064106030263422667 -0.0019263277341399895 0 -0.063573568897519986 -0.0020561495975559606 0 -0.063135176478955987 -0.0013398581363388623 0 -0.06342742752274802 -0.0018156174001746903 0 -0.063573568897519986 -0.0020561495975559606 0 -0.058644564519930234 0.0009208941471387721 0 -0.059495735244665615 0.0056387197727383875 0 -0.054727827698953353 0.0044477313786350347 0 -0.059495735244665615 0.0056387197727383875 0 -0.054727827698953353 0.0044477313786350347 0 -0.055384808589391314 0.0076988319209834368 0 -0.052881927355974627 0.0074964749449535472 0 -0.054727827698953353 0.0044477313786350347 0 -0.055384808589391314 0.0076988319209834368 0 -0.059495735244665615 0.0056387197727383875 0 -0.055384808589391314 0.0076988319209834368 0 -0.056117342358592323 0.010999129727545739 0 -0.055384808589391314 0.0076988319209834368 0 -0.056117342358592323 0.010999129727545739 0 -0.054105582312668932 0.0099143970998029751 0 -0.052881927355974627 0.0074964749449535472 0 -0.055384808589391314 0.0076988319209834368 0 -0.054105582312668932 0.0099143970998029751 0 -0.054324456430391133 0.011774151293535878 0 -0.056117342358592323 0.010999129727545739 0 -0.054105582312668932 0.0099143970998029751 0 -0.054324456430391133 0.011774151293535878 0 -0.056117342358592323 0.010999129727545739 0 -0.054053018375532322 0.012595019251860918 0 -0.06160644607751023 -0.0010327673989544983 0 -0.058554482953830304 0.004518334080723059 0 -0.063601792372170618 0.002498526218783755 0 -0.059011513662217165 0.0049744284539166876 0 -0.057494455568123388 0.0076610359791132523 0 -0.058554482953830304 0.004518334080723059 0 -0.061957928520433948 0.0062723890385746302 0 -0.063601792372170618 0.002498526218783755 0 -0.058554482953830304 0.004518334080723059 0 -0.061957928520433948 0.0062723890385746302 0 -0.059363871743663615 0.0080999991179626137 0 -0.061957928520433948 0.0062723890385746302 0 -0.063601792372170618 0.002498526218783755 0 -0.067900312962166018 0.0073875379068851776 0 -0.064106030263422667 -0.0019263277341399895 0 -0.06160644607751023 -0.0010327673989544983 0 -0.063601792372170618 0.002498526218783755 0 -0.064106030263422667 -0.0019263277341399895 0 -0.063601792372170618 0.002498526218783755 0 -0.068602482825568592 0.002023067605392228 0 -0.063601792372170618 0.002498526218783755 0 -0.068602482825568592 0.002023067605392228 0 -0.067900312962166018 0.0073875379068851776 0 -0.068602482825568592 0.002023067605392228 0 -0.067900312962166018 0.0073875379068851776 0 -0.074476001912114051 0.0039337083373227819 0 -0.073176192959872044 0.0050140208947589797 0 -0.074476001912114051 0.0039337083373227819 0 -0.075232925407371892 0.0069032924528963585 0 -0.06971201116389221 0.0059693228900062024 0 -0.071601645423307131 0.0050200188372231695 0 -0.073483088684058603 -0.0015957417481366712 0 -0.068602482825568592 0.002023067605392228 0 -0.074476001912114051 0.0039337083373227819 0 -0.076294119662225615 0.0024719072678611748 0 -0.073483088684058603 -0.0015957417481366712 0 -0.074476001912114051 0.0039337083373227819 0 -0.077019008060694102 0.0092889538535606934 0 -0.075232925407371892 0.0069032924528963585 0 -0.073227102999996574 0.0087288062850343819 0 -0.076247924009897564 0.0060907741353924232 0 -0.074476001912114051 0.0039337083373227819 0 -0.075232925407371892 0.0069032924528963585 0 -0.073176192959872044 0.0050140208947589797 0 -0.075232925407371892 0.0069032924528963585 0 -0.073227102999996574 0.0087288062850343819 0 -0.073227102999996574 0.0087288062850343819 0 -0.070235305134311227 0.0059020869473236258 0 -0.06944997119145882 0.0086001388198534388 0 -0.06971201116389221 0.0059693228900062024 0 -0.066215178905587896 0.007569040515634463 0 -0.061957928520433948 0.0062723890385746302 0 -0.067900312962166018 0.0073875379068851776 0 -0.062219773007167745 0.0098024706755743644 0 -0.073176192959872044 0.0050140208947589797 0 -0.073227102999996574 0.0087288062850343819 0 -0.070235305134311227 0.0059020869473236258 0 -0.062219773007167745 0.0098024706755743644 0 -0.059363871743663615 0.0080999991179626137 0 -0.057537198297762902 0.010794079228551105 0 -0.061957928520433948 0.0062723890385746302 0 -0.062219773007167745 0.0098024706755743644 0 -0.059363871743663615 0.0080999991179626137 0 -0.06944997119145882 0.0086001388198534388 0 -0.065687101998319092 0.0070616424488271169 0 -0.065041608417489002 0.011457835764710631 0 -0.070235305134311227 0.0059020869473236258 0 -0.06944997119145882 0.0086001388198534388 0 -0.065687101998319092 0.0070616424488271169 0 -0.066215178905587896 0.007569040515634463 0 -0.062888090718649883 0.0089919159693616999 0 -0.06944997119145882 0.0086001388198534388 0 -0.070070640977817636 0.012084915231951305 0 -0.065041608417489002 0.011457835764710631 0 -0.067271973476894134 0.013848509458773889 0 -0.069665850958918293 0.016419675586984359 0 -0.064238518289701785 0.015507295299800191 0 -0.067271973476894134 0.013848509458773889 0 -0.070070640977817636 0.012084915231951305 0 -0.069665850958918293 0.016419675586984359 0 -0.067271973476894134 0.013848509458773889 0 -0.070070640977817636 0.012084915231951305 0 -0.065041608417489002 0.011457835764710631 0 -0.070070640977817636 0.012084915231951305 0 -0.075459206077294422 0.012903883948807674 0 -0.074516554960885745 0.01629079615842741 0 -0.070070640977817636 0.012084915231951305 0 -0.074516554960885745 0.01629079615842741 0 -0.069665850958918293 0.016419675586984359 0 -0.073227102999996574 0.0087288062850343819 0 -0.06944997119145882 0.0086001388198534388 0 -0.070070640977817636 0.012084915231951305 0 -0.073227102999996574 0.0087288062850343819 0 -0.070070640977817636 0.012084915231951305 0 -0.075459206077294422 0.012903883948807674 0 -0.079024476875236158 0.014291327015807667 0 -0.075459206077294422 0.012903883948807674 0 -0.077583400728979651 0.016534171031132253 0 -0.079024476875236158 0.014291327015807667 0 -0.078666040247071745 0.01087199076732563 0 -0.075459206077294422 0.012903883948807674 0 -0.077019008060694102 0.0092889538535606934 0 -0.073227102999996574 0.0087288062850343819 0 -0.075459206077294422 0.012903883948807674 0 -0.075217990666304038 0.0082080261699256415 0 -0.074677041146106113 0.0099550789687288289 0 -0.057874179146835479 0.0097862727499122316 0 -0.058065171118713052 0.010374343564598128 0 -0.058249154875648523 0.0097898612651155081 0 -0.058249154875648523 0.0097898612651155081 0 -0.059417731446147565 0.0098197454829965624 0 -0.057572537883738985 0.0099368816498964074 0 -0.057874179146835479 0.0097862727499122316 0 -0.058249154875648523 0.0097898612651155081 0 -0.057572537883738985 0.0099368816498964074 0 -0.053770041221083635 0.0098815124788613328 0 -0.053805187157193367 0.0098833780582539103 0 -0.053926007902350387 0.0091565803839517013 0 -0.0541482384911669 0.011573292671660884 0 -0.052583628821830139 0.010173860065246947 0 -0.055647077402107559 0.010552206668375027 0 -0.053926007902350387 0.0091565803839517013 0 -0.0541482384911669 0.011573292671660884 0 -0.055422412532012681 0.0076091364305775136 0 -0.053926007902350387 0.0091565803839517013 0 -0.052870448873466064 0.007435353009704309 0 -0.053770041221083635 0.0098815124788613328 0 -0.05346223770955031 0.0093417657242397222 0 -0.052267499312811272 0.0089146247706108923 0 -0.052272868289527825 0.009154053483549026 0 -0.052338695599076765 0.0089400021799051783 0 -0.052284848085581585 0.0083313889230725319 0 -0.053770041221083635 0.0098815124788613328 0 -0.055422412532012681 0.0076091364305775136 0 -0.055647077402107559 0.010552206668375027 0 -0.053926007902350387 0.0091565803839517013 0 -0.055631175213134071 0.011774542701079875 0 -0.058065171118713052 0.010374343564598128 0 -0.056701753048555514 0.0097709477373994717 0 -0.058065171118713052 0.010374343564598128 0 -0.056701753048555514 0.0097709477373994717 0 -0.057828487105983678 0.0099635655086550631 0 -0.058065171118713052 0.010374343564598128 0 -0.057828487105983678 0.0099635655086550631 0 -0.058249154875648523 0.0097898612651155081 0 -0.059363871743663615 0.0080999991179626137 0 -0.056701753048555514 0.0097709477373994717 0 -0.057537198297762902 0.010794079228551105 0 -0.058554482953830304 0.004518334080723059 0 -0.059363871743663615 0.0080999991179626137 0 -0.056701753048555514 0.0097709477373994717 0 -0.062888090718649883 0.0089919159693616999 0 -0.061417410718293465 0.0096347143350117154 0 -0.057537198297762902 0.010794079228551105 0 -0.057828487105983678 0.0099635655086550631 0 -0.059417731446147565 0.0098197454829965624 0 -0.056701753048555514 0.0097709477373994717 0 -0.057537198297762902 0.010794079228551105 0 -0.057828487105983678 0.0099635655086550631 0 -0.057828487105983678 0.0099635655086550631 0 -0.058249154875648523 0.0097898612651155081 0 -0.059417731446147565 0.0098197454829965624 0 -0.059417731446147565 0.0098197454829965624 0 -0.061220723686227226 0.013537461318531313 0 -0.058532436770619187 0.012224807555134054 0 -0.059417731446147565 0.0098197454829965624 0 -0.065041608417489002 0.011457835764710631 0 -0.061220723686227226 0.013537461318531313 0 -0.065687101998319092 0.0070616424488271169 0 -0.059417731446147565 0.0098197454829965624 0 -0.065041608417489002 0.011457835764710631 0 -0.065041608417489002 0.011457835764710631 0 -0.061220723686227226 0.013537461318531313 0 -0.064238518289701785 0.015507295299800191 0 -0.067271973476894134 0.013848509458773889 0 -0.065041608417489002 0.011457835764710631 0 -0.064238518289701785 0.015507295299800191 0 -0.061220723686227226 0.013537461318531313 0 -0.064238518289701785 0.015507295299800191 0 -0.06153716464318669 0.017089480797730674 0 -0.061220723686227226 0.013537461318531313 0 -0.058940213515027803 0.015132907992872164 0 -0.06153716464318669 0.017089480797730674 0 -0.061220723686227226 0.013537461318531313 0 -0.058940213515027803 0.015132907992872164 0 -0.058532436770619187 0.012224807555134054 0 -0.058940213515027803 0.015132907992872164 0 -0.055228616047479744 0.013673618631752996 0 -0.057570674133404255 0.016703071088941594 0 -0.058940213515027803 0.015132907992872164 0 -0.058532436770619187 0.012224807555134054 0 -0.055228616047479744 0.013673618631752996 0 -0.057706853590716978 0.0090392497911600932 0 -0.057572537883738985 0.0099368816498964074 0 -0.055228616047479744 0.013673618631752996 0 -0.059417731446147565 0.0098197454829965624 0 -0.058532436770619187 0.012224807555134054 0 -0.057572537883738985 0.0099368816498964074 0 -0.053770041221083635 0.0098815124788613328 0 -0.053921292057903553 0.011313468641979383 0 -0.058532436770619187 0.012224807555134054 0 -0.057572537883738985 0.0099368816498964074 0 -0.055228616047479744 0.013673618631752996 0 -0.055647077402107559 0.010552206668375027 0 -0.0541482384911669 0.011573292671660884 0 -0.055228616047479744 0.013673618631752996 0 -0.0541482384911669 0.011573292671660884 0 -0.055228616047479744 0.013673618631752996 0 -0.052451423057383477 0.013157823975583316 0 -0.055228616047479744 0.013673618631752996 0 -0.052451423057383477 0.013157823975583316 0 -0.05385692591480875 0.015577429551582022 0 -0.052405345612589006 0.011782256949946475 0 -0.051601279067783015 0.012593815718785394 0 -0.052399097642157055 0.013271593849221285 0 -0.057572405296364405 0.013008573635071923 0 -0.061037790294421503 0.015429632889894844 0 -0.052451423057383477 0.013157823975583316 0 -0.052325223783032233 0.017283925181636753 0 -0.05385692591480875 0.015577429551582022 0 -0.052405345612589006 0.011782256949946475 0 -0.051601279067783015 0.012593815718785394 0 -0.051492630350791865 0.011808621519326127 0 -0.050728469247496119 0.011991037496789031 0 -0.051492630350791865 0.011808621519326127 0 -0.051273633828424217 0.010999952399499274 0 -0.051601279067783015 0.012593815718785394 0 -0.050728469247496119 0.011991037496789031 0 -0.050792497689647997 0.013034281237019078 0 -0.051601279067783015 0.012593815718785394 0 -0.050728469247496119 0.011991037496789031 0 -0.051492630350791865 0.011808621519326127 0 -0.051273633828424217 0.010999952399499274 0 -0.050125480639453379 0.011087644439254973 0 -0.050269154554561837 0.0098616418389151968 0 -0.050728469247496119 0.011991037496789031 0 -0.051273633828424217 0.010999952399499274 0 -0.050125480639453379 0.011087644439254973 0 -0.0541482384911669 0.011573292671660884 0 -0.052451423057383477 0.013157823975583316 0 -0.052583628821830139 0.010173860065246947 0 -0.057572405296364405 0.013008573635071923 0 -0.056585746605403484 0.011825301291799898 0 -0.052405345612589006 0.011782256949946475 0 -0.051492630350791865 0.011808621519326127 0 -0.051273633828424217 0.010999952399499274 0 -0.052405345612589006 0.011782256949946475 0 -0.051273633828424217 0.010999952399499274 0 -0.052583628821830139 0.010173860065246947 0 -0.048952850927128942 0.012273443613544599 0 -0.049111292964737534 0.011194942509576162 0 -0.04821007524191321 0.011744133586262837 0 -0.048952850927128942 0.012273443613544599 0 -0.0498077109906244 0.011761877448661862 0 -0.049947892104697508 0.012623831109690219 0 -0.048952850927128942 0.012273443613544599 0 -0.0498077109906244 0.011761877448661862 0 -0.049111292964737534 0.011194942509576162 0 -0.050728469247496119 0.011991037496789031 0 -0.049947892104697508 0.012623831109690219 0 -0.050792497689647997 0.013034281237019078 0 -0.050728469247496119 0.011991037496789031 0 -0.0498077109906244 0.011761877448661862 0 -0.049947892104697508 0.012623831109690219 0 -0.050728469247496119 0.011991037496789031 0 -0.0498077109906244 0.011761877448661862 0 -0.050125480639453379 0.011087644439254973 0 -0.049637298183198217 0.010591729272192358 0 -0.050125480639453379 0.011087644439254973 0 -0.049111292964737534 0.011194942509576162 0 -0.0498077109906244 0.011761877448661862 0 -0.050125480639453379 0.011087644439254973 0 -0.049111292964737534 0.011194942509576162 0 -0.049637298183198217 0.010591729272192358 0 -0.050125480639453379 0.011087644439254973 0 -0.050269154554561837 0.0098616418389151968 0 -0.049111292964737534 0.011194942509576162 0 -0.049049575360106602 0.010217394046359898 0 -0.04776569531790055 0.010481681449704039 0 -0.049637298183198217 0.010591729272192358 0 -0.049111292964737534 0.011194942509576162 0 -0.049049575360106602 0.010217394046359898 0 -0.049111292964737534 0.011194942509576162 0 -0.047981860464895963 0.011047377123941918 0 -0.04821007524191321 0.011744133586262837 0 -0.047064062001119122 0.0093777113516825012 0 -0.047773514026190428 0.010432236832012099 0 -0.04839432966714844 0.0092525020284373073 0 -0.047773514026190428 0.010432236832012099 0 -0.050269154554561837 0.0098616418389151968 0 -0.04839432966714844 0.0092525020284373073 0 -0.048028576938136856 0.0099901413633615797 0 -0.048910622776412567 0.0098762641053593923 0 -0.049637298183198217 0.010591729272192358 0 -0.049049575360106602 0.010217394046359898 0 -0.050269154554561837 0.0098616418389151968 0 -0.050269154554561837 0.0098616418389151968 0 -0.048621997450918962 0.0079510938583908439 0 -0.04839432966714844 0.0092525020284373073 0 -0.050269154554561837 0.0098616418389151968 0 -0.048621997450918962 0.0079510938583908439 0 -0.050546673054550906 0.0075255770574692458 0 -0.047064062001119122 0.0093777113516825012 0 -0.048621997450918962 0.0079510938583908439 0 -0.04839432966714844 0.0092525020284373073 0 -0.046954572949927741 0.009443062694989934 0 -0.047550148869710498 0.0089086490882054701 0 -0.046744329132059829 0.0093966499580664768 0 -0.048621997450918962 0.0079510938583908439 0 -0.046459509284861714 0.0075758694007775724 0 -0.051273633828424217 0.010999952399499274 0 -0.052583628821830139 0.010173860065246947 0 -0.051543223799142897 0.008971184774234699 0 -0.053926007902350387 0.0091565803839517013 0 -0.052583628821830139 0.010173860065246947 0 -0.051543223799142897 0.008971184774234699 0 -0.051273633828424217 0.010999952399499274 0 -0.050269154554561837 0.0098616418389151968 0 -0.051543223799142897 0.008971184774234699 0 -0.050269154554561837 0.0098616418389151968 0 -0.051543223799142897 0.008971184774234699 0 -0.050546673054550906 0.0075255770574692458 0 -0.053926007902350387 0.0091565803839517013 0 -0.051543223799142897 0.008971184774234699 0 -0.052870448873466064 0.007435353009704309 0 -0.051543223799142897 0.008971184774234699 0 -0.052870448873466064 0.007435353009704309 0 -0.050546673054550906 0.0075255770574692458 0 -0.053620130032998162 0.0056954432343793429 0 -0.052870448873466064 0.007435353009704309 0 -0.051688897649025095 0.005751871872771987 0 -0.052870448873466064 0.007435353009704309 0 -0.051688897649025095 0.005751871872771987 0 -0.050546673054550906 0.0075255770574692458 0 -0.053620130032998162 0.0056954432343793429 0 -0.051688897649025095 0.005751871872771987 0 -0.052736476885892093 0.0038469969144982233 0 -0.051688897649025095 0.005751871872771987 0 -0.050043810189071711 0.0056501890579456916 0 -0.050289945579622443 0.0043180160192294158 0 -0.051688897649025095 0.005751871872771987 0 -0.050043810189071711 0.0056501890579456916 0 -0.050546673054550906 0.0075255770574692458 0 -0.050043810189071711 0.0056501890579456916 0 -0.050546673054550906 0.0075255770574692458 0 -0.048296383198510304 0.0063278324003620207 0 -0.048621997450918962 0.0079510938583908439 0 -0.050546673054550906 0.0075255770574692458 0 -0.048296383198510304 0.0063278324003620207 0 -0.048621997450918962 0.0079510938583908439 0 -0.048296383198510304 0.0063278324003620207 0 -0.046459509284861714 0.0075758694007775724 0 -0.048296383198510304 0.0063278324003620207 0 -0.04585423401387119 0.0059655822549046023 0 -0.046459509284861714 0.0075758694007775724 0 -0.048296383198510304 0.0063278324003620207 0 -0.047169406020248168 0.0047950288424454188 0 -0.04585423401387119 0.0059655822549046023 0 -0.048296383198510304 0.0063278324003620207 0 -0.048929447705921704 0.0046257922994171951 0 -0.047169406020248168 0.0047950288424454188 0 -0.050043810189071711 0.0056501890579456916 0 -0.048296383198510304 0.0063278324003620207 0 -0.048929447705921704 0.0046257922994171951 0 -0.050043810189071711 0.0056501890579456916 0 -0.048929447705921704 0.0046257922994171951 0 -0.050289945579622443 0.0043180160192294158 0 -0.048929447705921704 0.0046257922994171951 0 -0.048010120275558801 0.0035619789375835403 0 -0.04957335427715609 0.0030736738957775071 0 -0.048929447705921704 0.0046257922994171951 0 -0.04957335427715609 0.0030736738957775071 0 -0.050289945579622443 0.0043180160192294158 0 -0.049926672832962656 0.0029318590288822241 0 -0.04957335427715609 0.0030736738957775071 0 -0.050289945579622443 0.0043180160192294158 0 -0.048929447705921704 0.0046257922994171951 0 -0.047169406020248168 0.0047950288424454188 0 -0.048010120275558801 0.0035619789375835403 0 -0.047169406020248168 0.0047950288424454188 0 -0.048010120275558801 0.0035619789375835403 0 -0.046219832664560888 0.0032858549694631269 0 -0.048010120275558801 0.0035619789375835403 0 -0.047610209506922962 0.0021605445774033152 0 -0.046219832664560888 0.0032858549694631269 0 -0.038174327848557982 0.0010709346421103737 0 -0.041422666318822347 0.0027847257621453187 0 -0.047610209506922962 0.0021605445774033152 0 -0.049891888852384145 0.0029529039376060538 0 -0.04957335427715609 0.0030736738957775071 0 -0.030813414393419988 -0.0020112044692671468 0 -0.029325107602703543 -0.001142950977898021 0 -0.03146009686129507 -0.00019926539954300749 0 -0.048010120275558801 0.0035619789375835403 0 -0.047610209506922962 0.0021605445774033152 0 -0.04957335427715609 0.0030736738957775071 0 -0.041422666318822347 0.0027847257621453187 0 -0.041575027722019944 0.0027447882461286263 0 -0.032476602689666303 -0.0019363593770281324 0 -0.03146009686129507 -0.00019926539954300749 0 -0.034208969198512747 -0.00089065128164354031 0 -0.041422666318822347 0.0027847257621453187 0 -0.040676680577870272 0.002408400274180403 0 -0.032476602689666303 -0.0019363593770281324 0 -0.030813414393419988 -0.0020112044692671468 0 -0.03146009686129507 -0.00019926539954300749 0 -0.042928706442171949 0.0037317515527511566 0 -0.044273710387478356 0.0032385627668228222 0 -0.04425385867721883 0.0042066208875309414 0 -0.051688897649025095 0.005751871872771987 0 -0.052736476885892093 0.0038469969144982233 0 -0.050289945579622443 0.0043180160192294158 0 -0.049926672832962656 0.0029318590288822241 0 -0.052736476885892093 0.0038469969144982233 0 -0.050289945579622443 0.0043180160192294158 0 -0.041422666318822347 0.0027847257621453187 0 -0.047344204572565107 0.0050473991456206355 0 -0.043019090505493462 0.0043084052073792166 0 -0.041386459248189997 0.0050264552531542736 0 -0.042438524173366264 0.0054611837622545309 0 -0.041783389236646776 0.0047336493629486914 0 -0.040915424509437866 0.0049334474515458316 0 -0.043019090505493462 0.0043084052073792166 0 -0.042750836331689426 0.0030243995834821208 0 -0.043656058751151944 0.0030410043921961596 0 -0.040723178763736601 0.0047548060075839633 0 -0.041585023687860531 0.0028384510109099657 0 -0.040287857136420933 0.0032926602898275654 0 -0.043019090505493462 0.0043084052073792166 0 -0.040723178763736601 0.0047548060075839633 0 -0.041585023687860531 0.0028384510109099657 0 -0.040246646464741541 0.0019139293521494437 0 -0.042681898819533909 0.0019669789320898479 0 -0.041585023687860531 0.0028384510109099657 0 -0.040302225487757595 0.0020982941747192834 0 -0.041585023687860531 0.0028384510109099657 0 -0.040287857136420933 0.0032926602898275654 0 -0.035881573057625349 0.0016908703089171734 0 -0.037336106215389929 0.0024232128162703613 0 -0.042681898819533909 0.0019669789320898479 0 -0.041585023687860531 0.0028384510109099657 0 -0.042750836331689426 0.0030243995834821208 0 -0.043019090505493462 0.0043084052073792166 0 -0.041585023687860531 0.0028384510109099657 0 -0.042750836331689426 0.0030243995834821208 0 -0.042681898819533909 0.0019669789320898479 0 -0.042750836331689426 0.0030243995834821208 0 -0.043656058751151944 0.0030410043921961596 0 -0.044409112073667843 0.0017342099996339438 0 -0.042681898819533909 0.0019669789320898479 0 -0.043827009863790331 0.002378635290650054 0 -0.042681898819533909 0.0019669789320898479 0 -0.043827009863790331 0.002378635290650054 0 -0.043656058751151944 0.0030410043921961596 0 -0.044409112073667843 0.0017342099996339438 0 -0.043827009863790331 0.002378635290650054 0 -0.044709447789668261 0.0028948664647060842 0 -0.043827009863790331 0.002378635290650054 0 -0.043656058751151944 0.0030410043921961596 0 -0.044709447789668261 0.0028948664647060842 0 -0.043656058751151944 0.0030410043921961596 0 -0.044709447789668261 0.0028948664647060842 0 -0.045084918660291629 0.0040823472712233546 0 -0.044409112073667843 0.0017342099996339438 0 -0.047610209506922962 0.0021605445774033152 0 -0.046219832664560888 0.0032858549694631269 0 -0.03477100562954278 -0.00032924084608287093 0 -0.038174327848557982 0.0010709346421103737 0 -0.044409112073667843 0.0017342099996339438 0 -0.044709447789668261 0.0028948664647060842 0 -0.046219832664560888 0.0032858549694631269 0 -0.047169406020248168 0.0047950288424454188 0 -0.046219832664560888 0.0032858549694631269 0 -0.045084918660291629 0.0040823472712233546 0 -0.044709447789668261 0.0028948664647060842 0 -0.046219832664560888 0.0032858549694631269 0 -0.045084918660291629 0.0040823472712233546 0 -0.043019090505493462 0.0043084052073792166 0 -0.045084918660291629 0.0040823472712233546 0 -0.043874956216788372 0.0055900699638235397 0 -0.043019090505493462 0.0043084052073792166 0 -0.043656058751151944 0.0030410043921961596 0 -0.045084918660291629 0.0040823472712233546 0 -0.045084918660291629 0.0040823472712233546 0 -0.043874956216788372 0.0055900699638235397 0 -0.04585423401387119 0.0059655822549046023 0 -0.043874956216788372 0.0055900699638235397 0 -0.04585423401387119 0.0059655822549046023 0 -0.044563919008650289 0.0070290659821628763 0 -0.047169406020248168 0.0047950288424454188 0 -0.045084918660291629 0.0040823472712233546 0 -0.04585423401387119 0.0059655822549046023 0 -0.04585423401387119 0.0059655822549046023 0 -0.046459509284861714 0.0075758694007775724 0 -0.044563919008650289 0.0070290659821628763 0 -0.046459509284861714 0.0075758694007775724 0 -0.044563919008650289 0.0070290659821628763 0 -0.04483009838559561 0.0086202701212259869 0 -0.043874956216788372 0.0055900699638235397 0 -0.044563919008650289 0.0070290659821628763 0 -0.042706932433768989 0.0065805813512789775 0 -0.044563919008650289 0.0070290659821628763 0 -0.042706932433768989 0.0065805813512789775 0 -0.043425790374645126 0.0078682155327351178 0 -0.042706932433768989 0.0065805813512789775 0 -0.042207829130246413 0.0077455081870293546 0 -0.043425790374645126 0.0078682155327351178 0 -0.043019090505493462 0.0043084052073792166 0 -0.043874956216788372 0.0055900699638235397 0 -0.042438524173366264 0.0054611837622545309 0 -0.043874956216788372 0.0055900699638235397 0 -0.042706932433768989 0.0065805813512789775 0 -0.042438524173366264 0.0054611837622545309 0 -0.042706932433768989 0.0065805813512789775 0 -0.042438524173366264 0.0054611837622545309 0 -0.041610681848916475 0.0059225810663129843 0 -0.041386459248189997 0.0050264552531542736 0 -0.041610681848916475 0.0059225810663129843 0 -0.040726603475839146 0.0059837479206561062 0 -0.041386459248189997 0.0050264552531542736 0 -0.042438524173366264 0.0054611837622545309 0 -0.041610681848916475 0.0059225810663129843 0 -0.041610681848916475 0.0059225810663129843 0 -0.041550077589119008 0.0068554280660656011 0 -0.040726603475839146 0.0059837479206561062 0 -0.042706932433768989 0.0065805813512789775 0 -0.041610681848916475 0.0059225810663129843 0 -0.041550077589119008 0.0068554280660656011 0 -0.042706932433768989 0.0065805813512789775 0 -0.041550077589119008 0.0068554280660656011 0 -0.042207829130246413 0.0077455081870293546 0 -0.041550077589119008 0.0068554280660656011 0 -0.042207829130246413 0.0077455081870293546 0 -0.040885101909178601 0.0081047158786346201 0 -0.044159604460054014 0.0090077311895816244 0 -0.043383496029118514 0.0091821791960716003 0 -0.043213973215998028 0.0085044886764851415 0 -0.042207829130246413 0.0077455081870293546 0 -0.042881391043746241 0.0094154309049364511 0 -0.040885101909178601 0.0081047158786346201 0 -0.043909897004961125 0.0089015586248174516 0 -0.042252724419680067 0.0077718426267705644 0 -0.042816421562886543 0.0088505407451976263 0 -0.042252724419680067 0.0077718426267705644 0 -0.042207829130246413 0.0077455081870293546 0 -0.043425790374645126 0.0078682155327351178 0 -0.042881391043746241 0.0094154309049364511 0 -0.044159604460054014 0.0090077311895816244 0 -0.043850701508261786 0.0094377476817021563 0 -0.044307939312792671 0.0097025211810798494 0 -0.04224020054310676 0.008167944888147087 0 -0.04256628338252591 0.0093507404502158123 0 -0.041432387453699468 0.0085665783253768227 0 -0.043383496029118514 0.0091821791960716003 0 -0.043850701508261786 0.0094377476817021563 0 -0.043551924118039965 0.0098585909372895363 0 -0.044159604460054014 0.0090077311895816244 0 -0.043383496029118514 0.0091821791960716003 0 -0.043850701508261786 0.0094377476817021563 0 -0.042816421562886543 0.0088505407451976263 0 -0.043414762514741863 0.010103740273740593 0 -0.046744329132059829 0.0093966499580664768 0 -0.046459509284861714 0.0075758694007775724 0 -0.04483009838559561 0.0086202701212259869 0 -0.044563919008650289 0.0070290659821628763 0 -0.043425790374645126 0.0078682155327351178 0 -0.04483009838559561 0.0086202701212259869 0 -0.043425790374645126 0.0078682155327351178 0 -0.042881391043746241 0.0094154309049364511 0 -0.04483009838559561 0.0086202701212259869 0 -0.043909897004961125 0.0089015586248174516 0 -0.046298614086423814 0.010089933105558162 0 -0.044159604460054014 0.0090077311895816244 0 -0.04514495621435325 0.0095307528439143186 0 -0.045066658212095177 0.0095468459865689567 0 -0.042881391043746241 0.0094154309049364511 0 -0.04483009838559561 0.0086202701212259869 0 -0.045188951760311916 0.010778139777265723 0 -0.044159604460054014 0.0090077311895816244 0 -0.045066658212095177 0.0095468459865689567 0 -0.044307939312792671 0.0097025211810798494 0 -0.048028576938136856 0.0099901413633615797 0 -0.046298614086423814 0.010089933105558162 0 -0.047064062001119122 0.0093777113516825012 0 -0.047773514026190428 0.010432236832012099 0 -0.045496535186408518 0.010894057121052446 0 -0.046744329132059829 0.0093966499580664768 0 -0.04483009838559561 0.0086202701212259869 0 -0.045188951760311916 0.010778139777265723 0 -0.046954572949927741 0.009443062694989934 0 -0.046298614086423814 0.010089933105558162 0 -0.049111292964737534 0.011194942509576162 0 -0.047211771133824708 0.010007251908547374 0 -0.047981860464895963 0.011047377123941918 0 -0.047723870332792698 0.010741750467639633 0 -0.046298614086423814 0.010089933105558162 0 -0.047211771133824708 0.010007251908547374 0 -0.047981860464895963 0.011047377123941918 0 -0.04716821017012144 0.010495643594976086 0 -0.047981860464895963 0.011047377123941918 0 -0.047397977160855004 0.011091088670284951 0 -0.047474518262811662 0.011615991748683992 0 -0.047981860464895963 0.011047377123941918 0 -0.04716821017012144 0.010495643594976086 0 -0.047397977160855004 0.011091088670284951 0 -0.046786036241362385 0.010183496683841477 0 -0.045885930865800735 0.010980522061938419 0 -0.045495707337003227 0.01045039237922364 0 -0.04615037649936498 0.010116874862714247 0 -0.044832872390812545 0.010098545486335753 0 -0.04716821017012144 0.010495643594976086 0 -0.047397977160855004 0.011091088670284951 0 -0.046706176809642785 0.011310395785198048 0 -0.04716821017012144 0.010495643594976086 0 -0.046007020599176558 0.010938910449747865 0 -0.046706176809642785 0.011310395785198048 0 -0.04716821017012144 0.010495643594976086 0 -0.04705230885986058 0.01004574297922382 0 -0.046007020599176558 0.010938910449747865 0 -0.047211771133824708 0.010007251908547374 0 -0.04716821017012144 0.010495643594976086 0 -0.04705230885986058 0.01004574297922382 0 -0.046298614086423814 0.010089933105558162 0 -0.04615037649936498 0.010116874862714247 0 -0.04615037649936498 0.010116874862714247 0 -0.045815717247095961 0.010591374863865395 0 -0.046007020599176558 0.010938910449747865 0 -0.046706176809642785 0.011310395785198048 0 -0.045830124122139181 0.011745776895608363 0 -0.046277897974794195 0.012229986290842555 0 -0.046706176809642785 0.011310395785198048 0 -0.045830124122139181 0.011745776895608363 0 -0.046277897974794195 0.012229986290842555 0 -0.046960488458715248 0.011934592225849673 0 -0.046706176809642785 0.011310395785198048 0 -0.046277897974794195 0.012229986290842555 0 -0.046960488458715248 0.011934592225849673 0 -0.047496258678600148 0.012611195338893924 0 -0.046960488458715248 0.011934592225849673 0 -0.046706176809642785 0.011310395785198048 0 -0.047474518262811662 0.011615991748683992 0 -0.048952850927128942 0.012273443613544599 0 -0.04821007524191321 0.011744133586262837 0 -0.047496258678600148 0.012611195338893924 0 -0.047397977160855004 0.011091088670284951 0 -0.046706176809642785 0.011310395785198048 0 -0.047474518262811662 0.011615991748683992 0 -0.047474518262811662 0.011615991748683992 0 -0.04821007524191321 0.011744133586262837 0 -0.047496258678600148 0.012611195338893924 0 -0.046960488458715248 0.011934592225849673 0 -0.047474518262811662 0.011615991748683992 0 -0.047496258678600148 0.012611195338893924 0 -0.047981860464895963 0.011047377123941918 0 -0.047474518262811662 0.011615991748683992 0 -0.04821007524191321 0.011744133586262837 0 -0.043850701508261786 0.0094377476817021563 0 -0.043551924118039965 0.0098585909372895363 0 -0.044307939312792671 0.0097025211810798494 0 -0.044184812564014714 0.010715542580217173 0 -0.045495707337003227 0.01045039237922364 0 -0.045176148302428595 0.011095673312623126 0 -0.043414762514741863 0.010103740273740593 0 -0.044832872390812545 0.010098545486335753 0 -0.045885930865800735 0.010980522061938419 0 -0.045495707337003227 0.01045039237922364 0 -0.045176148302428595 0.011095673312623126 0 -0.044184812564014714 0.010715542580217173 0 -0.045176148302428595 0.011095673312623126 0 -0.044978786786679915 0.011793417348772253 0 -0.046007020599176558 0.010938910449747865 0 -0.045830124122139181 0.011745776895608363 0 -0.044978786786679915 0.011793417348772253 0 -0.045885930865800735 0.010980522061938419 0 -0.045176148302428595 0.011095673312623126 0 -0.044978786786679915 0.011793417348772253 0 -0.045815717247095961 0.010591374863865395 0 -0.045558970144661239 0.010872106219287893 0 -0.046277897974794195 0.012229986290842555 0 -0.045830124122139181 0.011745776895608363 0 -0.045347419143215599 0.012616442572359284 0 -0.045830124122139181 0.011745776895608363 0 -0.044978786786679915 0.011793417348772253 0 -0.045347419143215599 0.012616442572359284 0 -0.044978786786679915 0.011793417348772253 0 -0.044546142610126155 0.012214679546526393 0 -0.045347419143215599 0.012616442572359284 0 -0.043419792794020036 0.0091647953355421617 0 -0.044047147477154054 0.011351931057670047 0 -0.042246279413552509 0.011137697470345563 0 -0.044184812564014714 0.010715542580217173 0 -0.044978786786679915 0.011793417348772253 0 -0.044546142610126155 0.012214679546526393 0 -0.043414762514741863 0.010103740273740593 0 -0.043949183039231954 0.011584437229876727 0 -0.044047147477154054 0.011351931057670047 0 -0.043107338618769732 0.012578240490493683 0 -0.042246279413552509 0.011137697470345563 0 -0.044047147477154054 0.011351931057670047 0 -0.043107338618769732 0.012578240490493683 0 -0.044741768233223678 0.013696313005045853 0 -0.043949183039231954 0.011584437229876727 0 -0.044199685656095396 0.012401715015082471 0 -0.045347419143215599 0.012616442572359284 0 -0.044741768233223678 0.013696313005045853 0 -0.046436072246219533 0.013231526035008828 0 -0.044546142610126155 0.012214679546526393 0 -0.045347419143215599 0.012616442572359284 0 -0.044741768233223678 0.013696313005045853 0 -0.044741768233223678 0.013696313005045853 0 -0.046160335262259038 0.015526259828600439 0 -0.046505508380957558 0.014306265297815837 0 -0.043107338618769732 0.012578240490493683 0 -0.044741768233223678 0.013696313005045853 0 -0.042855955081989854 0.014012342675093084 0 -0.044741768233223678 0.013696313005045853 0 -0.042855955081989854 0.014012342675093084 0 -0.043543758826197654 0.015201463521674166 0 -0.043543758826197654 0.015201463521674166 0 -0.044931936073631176 0.016165701614284024 0 -0.043117159936865844 0.016759891476058268 0 -0.043543758826197654 0.015201463521674166 0 -0.043117159936865844 0.016759891476058268 0 -0.042026312459107387 0.015361769384207441 0 -0.042855955081989854 0.014012342675093084 0 -0.043543758826197654 0.015201463521674166 0 -0.042026312459107387 0.015361769384207441 0 -0.044741768233223678 0.013696313005045853 0 -0.043543758826197654 0.015201463521674166 0 -0.044931936073631176 0.016165701614284024 0 -0.044741768233223678 0.013696313005045853 0 -0.044931936073631176 0.016165701614284024 0 -0.046160335262259038 0.015526259828600439 0 -0.044931936073631176 0.016165701614284024 0 -0.046160335262259038 0.015526259828600439 0 -0.046668581115790489 0.018053159758881755 0 -0.044931936073631176 0.016165701614284024 0 -0.044388444974895372 0.01790045637113433 0 -0.046668581115790489 0.018053159758881755 0 -0.044931936073631176 0.016165701614284024 0 -0.043117159936865844 0.016759891476058268 0 -0.044388444974895372 0.01790045637113433 0 -0.048632722664297391 0.016303623235334245 0 -0.048505511461889 0.01581722597179689 0 -0.051462764556489349 0.017165771557271378 0 -0.048632722664297391 0.016303623235334245 0 -0.04785852096113738 0.01537296030955463 0 -0.048127410513973512 0.017605794897719546 0 -0.048632722664297391 0.016303623235334245 0 -0.048505511461889 0.01581722597179689 0 -0.04785852096113738 0.01537296030955463 0 -0.068406589541744944 0.010171385304348067 0 -0.070041621473254531 0.0093059032594115954 0 -0.048632722664297391 0.016303623235334245 0 -0.049934446024799448 0.017682919386352761 0 -0.049302262312277953 0.018342895910294175 0 -0.048632722664297391 0.016303623235334245 0 -0.048127410513973512 0.017605794897719546 0 -0.04917245785767483 0.017883108532729067 0 -0.047617039371483628 0.01562873016073445 0 -0.047187661112679517 0.016647220567729739 0 -0.04785852096113738 0.01537296030955463 0 -0.046668581115790489 0.018053159758881755 0 -0.048127410513973512 0.017605794897719546 0 -0.046160335262259038 0.015526259828600439 0 -0.04740387976090036 0.015885174144119704 0 -0.046668581115790489 0.018053159758881755 0 -0.046160335262259038 0.015526259828600439 0 -0.04740387976090036 0.015885174144119704 0 -0.046505508380957558 0.014306265297815837 0 -0.047617039371483628 0.01562873016073445 0 -0.04824994050912855 0.014119988257238189 0 -0.04785852096113738 0.01537296030955463 0 -0.048782039959806817 0.01496187752426572 0 -0.04850911459569146 0.013904365939662185 0 -0.048505511461889 0.01581722597179689 0 -0.048782039959806817 0.01496187752426572 0 -0.049284005445482483 0.015561350273461798 0 -0.048505511461889 0.01581722597179689 0 -0.04785852096113738 0.01537296030955463 0 -0.048782039959806817 0.01496187752426572 0 -0.04740387976090036 0.015885174144119704 0 -0.048129875502005801 0.013936894414677103 0 -0.046505508380957558 0.014306265297815837 0 -0.044741768233223678 0.013696313005045853 0 -0.046505508380957558 0.014306265297815837 0 -0.046436072246219533 0.013231526035008828 0 -0.048129875502005801 0.013936894414677103 0 -0.046505508380957558 0.014306265297815837 0 -0.046436072246219533 0.013231526035008828 0 -0.046277897974794195 0.012229986290842555 0 -0.046436072246219533 0.013231526035008828 0 -0.047496258678600148 0.012611195338893924 0 -0.046277897974794195 0.012229986290842555 0 -0.045347419143215599 0.012616442572359284 0 -0.046436072246219533 0.013231526035008828 0 -0.048129875502005801 0.013936894414677103 0 -0.046436072246219533 0.013231526035008828 0 -0.047496258678600148 0.012611195338893924 0 -0.048952850927128942 0.012273443613544599 0 -0.048129875502005801 0.013936894414677103 0 -0.047496258678600148 0.012611195338893924 0 -0.048952850927128942 0.012273443613544599 0 -0.04850911459569146 0.013904365939662185 0 -0.049363197625233571 0.013290026499307035 0 -0.048601201988750675 0.013281340776764966 0 -0.04824994050912855 0.014119988257238189 0 -0.048952850927128942 0.012273443613544599 0 -0.049363197625233571 0.013290026499307035 0 -0.049947892104697508 0.012623831109690219 0 -0.049947892104697508 0.012623831109690219 0 -0.050065251091596 0.013518763563810859 0 -0.050792497689647997 0.013034281237019078 0 -0.050065251091596 0.013518763563810859 0 -0.050792497689647997 0.013034281237019078 0 -0.050775754677971921 0.013844851504360043 0 -0.049363197625233571 0.013290026499307035 0 -0.049947892104697508 0.012623831109690219 0 -0.050065251091596 0.013518763563810859 0 -0.050065251091596 0.013518763563810859 0 -0.050219958303540889 0.01430255680438202 0 -0.049421135832447609 0.014161599029992917 0 -0.050065251091596 0.013518763563810859 0 -0.050219958303540889 0.01430255680438202 0 -0.050775754677971921 0.013844851504360043 0 -0.050219958303540889 0.01430255680438202 0 -0.050775754677971921 0.013844851504360043 0 -0.051118914795791157 0.014686848673295044 0 -0.050219958303540889 0.01430255680438202 0 -0.049421135832447609 0.014161599029992917 0 -0.04963419911161758 0.01495530783814826 0 -0.048782039959806817 0.01496187752426572 0 -0.04850911459569146 0.013904365939662185 0 -0.049421135832447609 0.014161599029992917 0 -0.04850911459569146 0.013904365939662185 0 -0.049363197625233571 0.013290026499307035 0 -0.049421135832447609 0.014161599029992917 0 -0.049363197625233571 0.013290026499307035 0 -0.050065251091596 0.013518763563810859 0 -0.049421135832447609 0.014161599029992917 0 -0.051601279067783015 0.012593815718785394 0 -0.052399097642157055 0.013271593849221285 0 -0.051601094046159604 0.013569569374046351 0 -0.051601279067783015 0.012593815718785394 0 -0.051601094046159604 0.013569569374046351 0 -0.050792497689647997 0.013034281237019078 0 -0.051601094046159604 0.013569569374046351 0 -0.050792497689647997 0.013034281237019078 0 -0.050775754677971921 0.013844851504360043 0 -0.051601094046159604 0.013569569374046351 0 -0.051851582259681256 0.014208999376133662 0 -0.051325207627324107 0.01449068169735541 0 -0.051601094046159604 0.013569569374046351 0 -0.050775754677971921 0.013844851504360043 0 -0.051118914795791157 0.014686848673295044 0 -0.059804395356371089 0.016746802054841827 0 -0.061138646569677019 0.016833726589455263 0 -0.052325223783032233 0.017283925181636753 0 -0.052438674955197481 0.021482081569263619 0 -0.054139360789935788 0.018549284493867377 0 -0.052399097642157055 0.013271593849221285 0 -0.051851582259681256 0.014208999376133662 0 -0.052405952251379194 0.014580435836225024 0 -0.061037790294421503 0.015429632889894844 0 -0.068670557799837356 0.018453127742611635 0 -0.052399097642157055 0.013271593849221285 0 -0.051601094046159604 0.013569569374046351 0 -0.051851582259681256 0.014208999376133662 0 -0.068670557799837356 0.018453127742611635 0 -0.078986285491790556 0.021356641205017412 0 -0.075507488801108497 0.017074718701193033 0 -0.075064844606412329 0.017312043746275253 0 -0.075545561279533491 0.017843864145780881 0 -0.051851582259681256 0.014208999376133662 0 -0.052405952251379194 0.014580435836225024 0 -0.051666509974709049 0.01494090799339335 0 -0.068670557799837356 0.018453127742611635 0 -0.066377545123641718 0.017357192894381396 0 -0.051666509974709049 0.01494090799339335 0 -0.051325207627324107 0.01449068169735541 0 -0.051031922420930804 0.015290696403740998 0 -0.061138646569677019 0.016833726589455263 0 -0.066089352229148218 0.015792442634291904 0 -0.051851582259681256 0.014208999376133662 0 -0.051666509974709049 0.01494090799339335 0 -0.051325207627324107 0.01449068169735541 0 -0.066377545123641718 0.017357192894381396 0 -0.066089352229148218 0.015792442634291904 0 -0.075002300089477447 0.017804192556376084 0 -0.07460878485907381 0.017549596217739237 0 -0.074402457256806956 0.01802901993829226 0 -0.075064844606412329 0.017312043746275253 0 -0.075002300089477447 0.017804192556376084 0 -0.07460878485907381 0.017549596217739237 0 -0.089098396148176787 0.025145135067025311 0 -0.089177432322212563 0.027201517221147734 0 -0.089864003038482923 0.026641309747978809 0 -0.075064844606412329 0.017312043746275253 0 -0.075002300089477447 0.017804192556376084 0 -0.075545561279533491 0.017843864145780881 0 -0.049284005445482483 0.015561350273461798 0 -0.04963419911161758 0.01495530783814826 0 -0.049905752903170793 0.015520290926528981 0 -0.048782039959806817 0.01496187752426572 0 -0.049284005445482483 0.015561350273461798 0 -0.04963419911161758 0.01495530783814826 0 -0.048782039959806817 0.01496187752426572 0 -0.049421135832447609 0.014161599029992917 0 -0.04963419911161758 0.01495530783814826 0 -0.050219958303540889 0.01430255680438202 0 -0.04963419911161758 0.01495530783814826 0 -0.050356080844982429 0.014991996745128402 0 -0.051118914795791157 0.014686848673295044 0 -0.050356080844982429 0.014991996745128402 0 -0.050662993695675673 0.015750004140700141 0 -0.050219958303540889 0.01430255680438202 0 -0.051118914795791157 0.014686848673295044 0 -0.050356080844982429 0.014991996745128402 0 -0.050356080844982429 0.014991996745128402 0 -0.049905752903170793 0.015520290926528981 0 -0.050662993695675673 0.015750004140700141 0 -0.04963419911161758 0.01495530783814826 0 -0.050356080844982429 0.014991996745128402 0 -0.049905752903170793 0.015520290926528981 0 -0.049905752903170793 0.015520290926528981 0 -0.050662993695675673 0.015750004140700141 0 -0.049610109051198142 0.016302057289037969 0 -0.066089352229148218 0.015792442634291904 0 -0.067075758054378667 0.0128114588252851 0 -0.068849076053403957 0.014137370821489066 0 -0.072609257645350506 0.012089532402207007 0 -0.070263936437018656 0.01087894937520381 0 -0.066089352229148218 0.015792442634291904 0 -0.074348279931129191 0.014174124917620969 0 -0.067075758054378667 0.0128114588252851 0 -0.074348279931129191 0.014174124917620969 0 -0.048632722664297391 0.016303623235334245 0 -0.051462764556489349 0.017165771557271378 0 -0.049934446024799448 0.017682919386352761 0 -0.048505511461889 0.01581722597179689 0 -0.049284005445482483 0.015561350273461798 0 -0.049610109051198142 0.016302057289037969 0 -0.067075758054378667 0.0128114588252851 0 -0.070579609082272246 0.010299789633138847 0 -0.059793654124961383 0.011161556435940244 0 -0.067075758054378667 0.0128114588252851 0 -0.049284005445482483 0.015561350273461798 0 -0.049905752903170793 0.015520290926528981 0 -0.049610109051198142 0.016302057289037969 0 -0.051462764556489349 0.017165771557271378 0 -0.049934446024799448 0.017682919386352761 0 -0.050253535885660623 0.017842590983253321 0 -0.070446383680891997 0.010271341801537817 0 -0.070579609082272246 0.010299789633138847 0 -0.070579609082272246 0.010299789633138847 0 -0.079930357880533223 0.010926085008813523 0 -0.079416168588606895 0.011687432815832084 0 -0.077701334447561402 0.01080435279573997 0 -0.079893190894779073 0.010530764960301546 0 -0.049934446024799448 0.017682919386352761 0 -0.050246587400780134 0.017839035356268018 0 -0.049302262312277953 0.018342895910294175 0 -0.073390967641534355 0.0085536770202327486 0 -0.07055011766744225 0.010086830276232979 0 -0.076180718706621076 0.012977815432153064 0 -0.070579609082272246 0.010299789633138847 0 -0.070041621473254531 0.0093059032594115954 0 -0.079416168588606895 0.011687432815832084 0 -0.080115203776472244 0.011313334292592394 0 -0.079893190894779073 0.010530764960301546 0 -0.079930357880533223 0.010926085008813523 0 -0.087923582524665839 0.014052691756456546 0 -0.073390967641534355 0.0085536770202327486 0 -0.077235000120764813 0.010541994312003797 0 -0.076180718706621076 0.012977815432153064 0 -0.077342036999538039 0.011413485981816707 0 -0.076323603985918934 0.013766791127048775 0 -0.083402238688706581 0.014545949571888652 0 -0.074348279931129191 0.014174124917620969 0 -0.079930357880533223 0.010926085008813523 0 -0.10358632397237129 -0.0002382442617099285 0 -0.10374754271944274 2.8297429320689402e-05 0 -0.10394413373621542 -3.1309842101208075e-05 0 -0.10358632397237129 -0.0002382442617099285 0 -0.10374754271944274 2.8297429320689402e-05 0 -0.10338885811837345 0.0002035364921521421 0 -0.077701334447561402 0.01080435279573997 0 -0.078859678716011586 0.0081593943576434708 0 -0.079893190894779073 0.010530764960301546 0 -0.079239623512791305 0.0082238848282859857 0 -0.078859678716011586 0.0081593943576434708 0 -0.079893190894779073 0.010530764960301546 0 -0.084096476297151987 0.0077290471549087891 0 -0.073011577055504429 0.0096883406831643707 0 -0.079930357880533223 0.010926085008813523 0 -0.086936781823393733 0.0069129437662676643 0 -0.075545561279533491 0.017843864145780881 0 -0.074990471922836144 0.018332920944625932 0 -0.075589305653894948 0.018638775819694073 0 -0.078986285491790556 0.021356641205017412 0 -0.087522210013417756 0.020940132109698955 0 -0.089177432322212563 0.027201517221147734 0 -0.089545307540236929 0.028183791275304251 0 -0.089258454500356785 0.029180839459714471 0 -0.075002300089477447 0.017804192556376084 0 -0.075545561279533491 0.017843864145780881 0 -0.074990471922836144 0.018332920944625932 0 -0.080128128344528024 0.017108405113851144 0 -0.087522210013417756 0.020940132109698955 0 -0.089808281257186554 0.023850030063683646 0 -0.089829475690988744 0.022105254664997413 0 -0.075002300089477447 0.017804192556376084 0 -0.074402457256806956 0.01802901993829226 0 -0.074990471922836144 0.018332920944625932 0 -0.076323603985918934 0.013766791127048775 0 -0.083402238688706581 0.014545949571888652 0 -0.082913290718190105 0.017146828303761828 0 -0.074348279931129191 0.014174124917620969 0 -0.080128128344528024 0.017108405113851144 0 -0.083402238688706581 0.014545949571888652 0 -0.082913290718190105 0.017146828303761828 0 -0.089453208959773975 0.017672003901794995 0 -0.10374754271944274 2.8297429320689402e-05 0 -0.10394413373621542 -3.1309842101208075e-05 0 -0.10401953216032575 0.00016092908046599943 0 -0.10394413373621542 -3.1309842101208075e-05 0 -0.10404811220984159 0.00014343070750039724 0 -0.10401953216032575 0.00016092908046599943 0 -0.087923582524665839 0.014052691756456546 0 -0.090332835631725103 0.017659578418962894 0 -0.082913290718190105 0.017146828303761828 0 -0.089492437183209608 0.020518159470035557 0 -0.089453208959773975 0.017672003901794995 0 -0.10394413373621542 -3.1309842101208075e-05 0 -0.10408412823948292 0.00011655155129316333 0 -0.10404811220984159 0.00014343070750039724 0 -0.088433717708944579 0.017747410864430251 0 -0.090190976268922349 0.01865056750417789 0 -0.088428859847824115 0.021745519996180979 0 -0.090332835631725103 0.017659578418962894 0 -0.087522210013417756 0.020940132109698955 0 -0.092083830284579518 0.01951112230097973 0 -0.089829475690988744 0.022105254664997413 0 -0.092083830284579518 0.01951112230097973 0 -0.090332835631725103 0.017659578418962894 0 -0.089545307540236929 0.028183791275304251 0 -0.089561337038815927 0.029333223695852867 0 -0.089258454500356785 0.029180839459714471 0 -0.090190976268922349 0.01865056750417789 0 -0.088428859847824115 0.021745519996180979 0 -0.090235673694528951 0.022681045256090351 0 -0.089829475690988744 0.022105254664997413 0 -0.087522210013417756 0.020940132109698955 0 -0.10394475051092364 0.00031690886362962427 0 -0.10404079509168947 0.00015495373647235325 0 -0.10407044115117717 -1.336656406448966e-05 0 -0.092083830284579518 0.01951112230097973 0 -0.099844142871497676 0.014582767087128438 0 -0.090332835631725103 0.017659578418962894 0 -0.091246571439959304 0.0134163248589136 0 -0.10408412823948292 0.00011655155129316333 0 -0.10404079509168947 0.00015495373647235325 0 -0.10404811220984159 0.00014343070750039724 0 -0.10394475051092364 0.00031690886362962427 0 -0.10398963777813948 0.00035097436257975842 0 -0.10404079509168947 0.00015495373647235325 0 -0.10404079509168947 0.00015495373647235325 0 -0.10404811220984159 0.00014343070750039724 0 -0.10408899847721623 5.3082713468500965e-05 0 -0.10404811220984159 0.00014343070750039724 0 -0.10401953216032575 0.00016092908046599943 0 -0.10408899847721623 5.3082713468500965e-05 0 -0.10415726932835463 -9.3784156871712894e-05 0 -0.10408899847721623 5.3082713468500965e-05 0 -0.10418151338693615 -7.7612106651500147e-05 0 -0.10401953216032575 0.00016092908046599943 0 -0.10415726932835463 -9.3784156871712894e-05 0 -0.10419591094429285 -5.3687614625620543e-05 0 -0.10401953216032575 0.00016092908046599943 0 -0.10415726932835463 -9.3784156871712894e-05 0 -0.10408899847721623 5.3082713468500965e-05 0 -0.10408899847721623 5.3082713468500965e-05 0 -0.10407044115117717 -1.336656406448966e-05 0 -0.10418151338693615 -7.7612106651500147e-05 0 -0.10404079509168947 0.00015495373647235325 0 -0.10408899847721623 5.3082713468500965e-05 0 -0.10407044115117717 -1.336656406448966e-05 0 -0.10436669653420842 0.00016872506541648003 0 -0.10425084534055079 8.4416989986017805e-05 0 -0.10433204816564128 -6.7273250439150623e-05 0 -0.10542293048740536 -0.0048828692672813609 0 -0.10458350429881264 -0.0029445207838664387 0 -0.10445614868356262 -0.0042954489610333765 0 -0.087482699064128699 0.0052673162266154289 0 -0.092549433382405469 0.0031690279772643758 0 -0.087482699064128699 0.0052673162266154289 0 -0.093741957771077439 -0.00077603505297485032 0 -0.10542293048740536 -0.0048828692672813609 0 -0.1052397092640288 -0.0054946270149057348 0 -0.10445614868356262 -0.0042954489610333765 0 -0.087482699064128699 0.0052673162266154289 0 -0.084096476297151987 0.0077290471549087891 0 -0.085910275490063179 0.0081315825155695524 0 -0.087035659989688971 0.011984902117410649 0 -0.084431510508279059 0.011543141599474813 0 -0.087482699064128699 0.0052673162266154289 0 -0.086936781823393733 0.0069129437662676643 0 -0.10436669653420842 0.00016872506541648003 0 -0.104341037448834 0.00022317583471793379 0 -0.10425084534055079 8.4416989986017805e-05 0 -0.084096476297151987 0.0077290471549087891 0 -0.086936781823393733 0.0069129437662676643 0 -0.10401953216032575 0.00016092908046599943 0 -0.10425084534055079 8.4416989986017805e-05 0 -0.10419591094429285 -5.3687614625620543e-05 0 -0.10401953216032575 0.00016092908046599943 0 -0.104341037448834 0.00022317583471793379 0 -0.10425084534055079 8.4416989986017805e-05 0 -0.10374754271944274 2.8297429320689402e-05 0 -0.10401953216032575 0.00016092908046599943 0 -0.10338885811837345 0.0002035364921521421 0 -0.098766355310477894 0.006109159345533295 0 -0.086936781823393733 0.0069129437662676643 0 -0.10419591094429285 -5.3687614625620543e-05 0 -0.10433204816564128 -6.7273250439150623e-05 0 -0.10420305164207008 -0.00037372162078924475 0 -0.10425084534055079 8.4416989986017805e-05 0 -0.10419591094429285 -5.3687614625620543e-05 0 -0.10433204816564128 -6.7273250439150623e-05 0 -0.10380908472064046 -0.0016120270964303535 0 -0.10400500411129068 -0.0011602333458764092 0 -0.10366315272493905 -0.0012068052989799053 0 -0.10400500411129068 -0.0011602333458764092 0 -0.10366315272493905 -0.0012068052989799053 0 -0.10380050882639509 -0.00083536612151022488 0 -0.10458350429881264 -0.0029445207838664387 0 -0.10305331357158488 -0.0023569382188521463 0 -0.10351599588201525 -0.00096880247764647744 0 -0.093741957771077439 -0.00077603505297485032 0 -0.095349691611099158 -0.0019192310109667435 0 -0.10305331357158488 -0.0023569382188521463 0 -0.10359524458137331 -0.0034720749238077403 0 -0.10202310963804162 -0.0032850938424491562 0 -0.10458350429881264 -0.0029445207838664387 0 -0.10359524458137331 -0.0034720749238077403 0 -0.10445614868356262 -0.0042954489610333765 0 -0.10458350429881264 -0.0029445207838664387 0 -0.10305331357158488 -0.0023569382188521463 0 -0.10359524458137331 -0.0034720749238077403 0 -0.10359524458137331 -0.0034720749238077403 0 -0.10445614868356262 -0.0042954489610333765 0 -0.10342574613784906 -0.0046535584953016915 0 -0.1052397092640288 -0.0054946270149057348 0 -0.10342574613784906 -0.0046535584953016915 0 -0.10199229648319236 -0.0062157641710939189 0 -0.10359524458137331 -0.0034720749238077403 0 -0.10342574613784906 -0.0046535584953016915 0 -0.10202310963804162 -0.0032850938424491562 0 -0.1052397092640288 -0.0054946270149057348 0 -0.10445614868356262 -0.0042954489610333765 0 -0.10342574613784906 -0.0046535584953016915 0 -0.10342574613784906 -0.0046535584953016915 0 -0.10115832056873178 -0.0046751557041665569 0 -0.10202310963804162 -0.0032850938424491562 0 -0.10342574613784906 -0.0046535584953016915 0 -0.10115832056873178 -0.0046751557041665569 0 -0.10199229648319236 -0.0062157641710939189 0 -0.10115832056873178 -0.0046751557041665569 0 -0.099480303558940428 -0.0054733130401487563 0 -0.10199229648319236 -0.0062157641710939189 0 -0.10115832056873178 -0.0046751557041665569 0 -0.10202310963804162 -0.0032850938424491562 0 -0.10065507502656913 -0.0035640967862208472 0 -0.10202310963804162 -0.0032850938424491562 0 -0.10082216923509714 -0.0024949246532155332 0 -0.10065507502656913 -0.0035640967862208472 0 -0.10305331357158488 -0.0023569382188521463 0 -0.10202310963804162 -0.0032850938424491562 0 -0.10186988697841382 -0.001994988483222208 0 -0.10202310963804162 -0.0032850938424491562 0 -0.10186988697841382 -0.001994988483222208 0 -0.10082216923509714 -0.0024949246532155332 0 -0.10186988697841382 -0.001994988483222208 0 -0.10082216923509714 -0.0024949246532155332 0 -0.10087076566339756 -0.0015377887155892326 0 -0.10082216923509714 -0.0024949246532155332 0 -0.10012112943152088 -0.0020536344624199026 0 -0.10087076566339756 -0.0015377887155892326 0 -0.10082216923509714 -0.0024949246532155332 0 -0.10012112943152088 -0.0020536344624199026 0 -0.099798661604236658 -0.0029443474991654728 0 -0.10012112943152088 -0.0020536344624199026 0 -0.099261014830322902 -0.0020022435959270754 0 -0.099798661604236658 -0.0029443474991654728 0 -0.099261014830322902 -0.0020022435959270754 0 -0.099798661604236658 -0.0029443474991654728 0 -0.098934315111831206 -0.0037942875622257481 0 -0.099798661604236658 -0.0029443474991654728 0 -0.098934315111831206 -0.0037942875622257481 0 -0.099630259505453192 -0.0041779180549182914 0 -0.099798661604236658 -0.0029443474991654728 0 -0.10065507502656913 -0.0035640967862208472 0 -0.099630259505453192 -0.0041779180549182914 0 -0.10082216923509714 -0.0024949246532155332 0 -0.099798661604236658 -0.0029443474991654728 0 -0.10065507502656913 -0.0035640967862208472 0 -0.099261014830322902 -0.0020022435959270754 0 -0.098934315111831206 -0.0037942875622257481 0 -0.097252783929504941 -0.0051449012882116858 0 -0.09836035880891314 -0.0010847484530840494 0 -0.096802069963941029 -0.0033865289929734012 0 -0.097252783929504941 -0.0051449012882116858 0 -0.09857304433688488 -0.001146210304516672 0 -0.097920467405870348 -0.0031702307609946731 0 -0.095952911454919798 -0.0016179938963909661 0 -0.096906885241975452 -0.0020111832468433723 0 -0.096047505791808319 -0.0025836832198558768 0 -0.095952911454919798 -0.0016179938963909661 0 -0.096985664807458613 -0.0010999331224904297 0 -0.096003042242085293 -0.0006357304865319414 0 -0.095952911454919798 -0.0016179938963909661 0 -0.096985664807458613 -0.0010999331224904297 0 -0.096906885241975452 -0.0020111832468433723 0 -0.09836035880891314 -0.0010847484530840494 0 -0.096906885241975452 -0.0020111832468433723 0 -0.096802069963941029 -0.0033865289929734012 0 -0.09836035880891314 -0.0010847484530840494 0 -0.096985664807458613 -0.0010999331224904297 0 -0.096906885241975452 -0.0020111832468433723 0 -0.096906885241975452 -0.0020111832468433723 0 -0.096802069963941029 -0.0033865289929734012 0 -0.096047505791808319 -0.0025836832198558768 0 -0.096802069963941029 -0.0033865289929734012 0 -0.096047505791808319 -0.0025836832198558768 0 -0.095542728262985738 -0.0034998473104256456 0 -0.096802069963941029 -0.0033865289929734012 0 -0.096720144128913846 -0.004560100903696576 0 -0.097252783929504941 -0.0051449012882116858 0 -0.096802069963941029 -0.0033865289929734012 0 -0.095954483675642549 -0.0041057850491524953 0 -0.095542728262985738 -0.0034998473104256456 0 -0.096802069963941029 -0.0033865289929734012 0 -0.095954483675642549 -0.0041057850491524953 0 -0.096720144128913846 -0.004560100903696576 0 -0.098934315111831206 -0.0037942875622257481 0 -0.097252783929504941 -0.0051449012882116858 0 -0.098700565110902791 -0.0047607785804735072 0 -0.097252783929504941 -0.0051449012882116858 0 -0.098367196091811687 -0.0055618259848386536 0 -0.098700565110902791 -0.0047607785804735072 0 -0.10115832056873178 -0.0046751557041665569 0 -0.10065507502656913 -0.0035640967862208472 0 -0.099630259505453192 -0.0041779180549182914 0 -0.10115832056873178 -0.0046751557041665569 0 -0.099630259505453192 -0.0041779180549182914 0 -0.099480303558940428 -0.0054733130401487563 0 -0.099630259505453192 -0.0041779180549182914 0 -0.098700565110902791 -0.0047607785804735072 0 -0.099480303558940428 -0.0054733130401487563 0 -0.098934315111831206 -0.0037942875622257481 0 -0.099630259505453192 -0.0041779180549182914 0 -0.098700565110902791 -0.0047607785804735072 0 -0.098367196091811687 -0.0055618259848386536 0 -0.098700565110902791 -0.0047607785804735072 0 -0.099480303558940428 -0.0054733130401487563 0 -0.044217118325402829 0.019981711964277834 0 -0.046668581115790489 0.018053159758881755 0 -0.047066850558950907 0.020479141926295946 0 -0.070898672624883363 0.0067027262979479996 0 -0.075445497046685739 0.0069727050583806086 0 -0.099480303558940428 -0.0054733130401487563 0 -0.098161538843713994 -0.0072141598349839929 0 -0.10199229648319236 -0.0062157641710939189 0 -0.098367196091811687 -0.0055618259848386536 0 -0.099480303558940428 -0.0054733130401487563 0 -0.098161538843713994 -0.0072141598349839929 0 -0.044217118325402829 0.019981711964277834 0 -0.042994626350880583 0.01851344335462763 0 -0.041449418086841681 0.019566507716538895 0 -0.097252783929504941 -0.0051449012882116858 0 -0.098161538843713994 -0.0072141598349839929 0 -0.09351113440264136 -0.008009622204576709 0 -0.097252783929504941 -0.0051449012882116858 0 -0.098367196091811687 -0.0055618259848386536 0 -0.098161538843713994 -0.0072141598349839929 0 -0.043117159936865844 0.016759891476058268 0 -0.044388444974895372 0.01790045637113433 0 -0.042994626350880583 0.01851344335462763 0 -0.044217118325402829 0.019981711964277834 0 -0.044388444974895372 0.01790045637113433 0 -0.042994626350880583 0.01851344335462763 0 -0.044217118325402829 0.019981711964277834 0 -0.044388444974895372 0.01790045637113433 0 -0.046668581115790489 0.018053159758881755 0 -0.046668581115790489 0.018053159758881755 0 -0.048057088025592692 0.019064864625359897 0 -0.047066850558950907 0.020479141926295946 0 -0.046668581115790489 0.018053159758881755 0 -0.048127410513973512 0.017605794897719546 0 -0.048057088025592692 0.019064864625359897 0 -0.048127410513973512 0.017605794897719546 0 -0.04917245785767483 0.017883108532729067 0 -0.049430902386405864 0.018677516086667793 0 -0.070041621473254531 0.0093059032594115954 0 -0.073011577055504429 0.0096883406831643707 0 -0.049430902386405864 0.018677516086667793 0 -0.048057088025592692 0.019064864625359897 0 -0.048681252380131303 0.019813552545174275 0 -0.048127410513973512 0.017605794897719546 0 -0.049430902386405864 0.018677516086667793 0 -0.048057088025592692 0.019064864625359897 0 -0.050187076209016475 0.021020492234252203 0 -0.049430902386405864 0.018677516086667793 0 -0.048681252380131303 0.019813552545174275 0 -0.050187076209016475 0.021020492234252203 0 -0.048681252380131303 0.019813552545174275 0 -0.047066850558950907 0.020479141926295946 0 -0.048057088025592692 0.019064864625359897 0 -0.048681252380131303 0.019813552545174275 0 -0.047066850558950907 0.020479141926295946 0 -0.084096476297151987 0.0077290471549087891 0 -0.075445497046685739 0.0069727050583806086 0 -0.079922639832354508 0.019594081129289356 0 -0.079389921765234975 0.020787482314772791 0 -0.078373463394849893 0.019870086661270773 0 -0.079389921765234975 0.020787482314772791 0 -0.078348173675228505 0.020810150101119352 0 -0.078373463394849893 0.019870086661270773 0 -0.078348173675228505 0.020810150101119352 0 -0.076879659971740816 0.020019058986358612 0 -0.077439861911231075 0.020855392516288433 0 -0.078348173675228505 0.020810150101119352 0 -0.076879659971740816 0.020019058986358612 0 -0.078373463394849893 0.019870086661270773 0 -0.076879659971740816 0.020019058986358612 0 -0.078373463394849893 0.019870086661270773 0 -0.077229452435544632 0.019061416256313322 0 -0.076879659971740816 0.020019058986358612 0 -0.077229452435544632 0.019061416256313322 0 -0.075134712231386624 0.0194337290896749 0 -0.079922639832354508 0.019594081129289356 0 -0.078373463394849893 0.019870086661270773 0 -0.078927802678944975 0.018519898299772419 0 -0.078373463394849893 0.019870086661270773 0 -0.078927802678944975 0.018519898299772419 0 -0.077229452435544632 0.019061416256313322 0 -0.078927802678944975 0.018519898299772419 0 -0.077583400728979651 0.016534171031132253 0 -0.077229452435544632 0.019061416256313322 0 -0.079533175401734671 0.016862634585705846 0 -0.078927802678944975 0.018519898299772419 0 -0.077583400728979651 0.016534171031132253 0 -0.077583400728979651 0.016534171031132253 0 -0.074516554960885745 0.01629079615842741 0 -0.077229452435544632 0.019061416256313322 0 -0.075459206077294422 0.012903883948807674 0 -0.077583400728979651 0.016534171031132253 0 -0.074516554960885745 0.01629079615842741 0 -0.074516554960885745 0.01629079615842741 0 -0.077229452435544632 0.019061416256313322 0 -0.075134712231386624 0.0194337290896749 0 -0.075134712231386624 0.0194337290896749 0 -0.069665850958918293 0.016419675586984359 0 -0.068525747988680941 0.02158083879162586 0 -0.073349608616443157 0.020633889764664005 0 -0.072370050219479773 0.020937983565177943 0 -0.074516554960885745 0.01629079615842741 0 -0.075134712231386624 0.0194337290896749 0 -0.069665850958918293 0.016419675586984359 0 -0.069665850958918293 0.016419675586984359 0 -0.068525747988680941 0.02158083879162586 0 -0.064878512117864329 0.018936799895115337 0 -0.076244338625805264 0.019838879410069364 0 -0.076421010203705383 0.019954498685643272 0 -0.076099109288637862 0.020105278544070865 0 -0.075134712231386624 0.0194337290896749 0 -0.076244338625805264 0.019838879410069364 0 -0.076421010203705383 0.019954498685643272 0 -0.076879659971740816 0.020019058986358612 0 -0.075134712231386624 0.0194337290896749 0 -0.076421010203705383 0.019954498685643272 0 -0.076879659971740816 0.020019058986358612 0 -0.076421010203705383 0.019954498685643272 0 -0.077439861911231075 0.020855392516288433 0 -0.076421010203705383 0.019954498685643272 0 -0.076400320828136081 0.020530133173814986 0 -0.076099109288637862 0.020105278544070865 0 -0.076421010203705383 0.019954498685643272 0 -0.076400320828136081 0.020530133173814986 0 -0.077439861911231075 0.020855392516288433 0 -0.075956897925323244 0.020503728802055709 0 -0.075581103026169633 0.020233430856028502 0 -0.076099109288637862 0.020105278544070865 0 -0.076400320828136081 0.020530133173814986 0 -0.075956897925323244 0.020503728802055709 0 -0.076099109288637862 0.020105278544070865 0 -0.076400320828136081 0.020530133173814986 0 -0.075956897925323244 0.020503728802055709 0 -0.076149426686121693 0.020899892317724367 0 -0.075956897925323244 0.020503728802055709 0 -0.0755435877175131 0.020748471926668399 0 -0.075581103026169633 0.020233430856028502 0 -0.075956897925323244 0.020503728802055709 0 -0.0755435877175131 0.020748471926668399 0 -0.076149426686121693 0.020899892317724367 0 -0.082606119637043993 0.025716068059242918 0 -0.083172363285697173 0.02629312494819994 0 -0.082917117191963458 0.025613339471383358 0 -0.079391237372651968 0.023298798800714823 0 -0.079873041031972139 0.02363018812797061 0 -0.0755435877175131 0.020748471926668399 0 -0.075581103026169633 0.020233430856028502 0 -0.075128721742113866 0.02018341515547863 0 -0.071604981419857244 0.021375840762133641 0 -0.076219156973433136 0.021200996600215679 0 -0.075581103026169633 0.020233430856028502 0 -0.075730293688950429 0.019811241439080887 0 -0.075128721742113866 0.02018341515547863 0 -0.075730293688950429 0.019811241439080887 0 -0.075025780575155465 0.019899612919696712 0 -0.075128721742113866 0.02018341515547863 0 -0.076244338625805264 0.019838879410069364 0 -0.075730293688950429 0.019811241439080887 0 -0.076099109288637862 0.020105278544070865 0 -0.075581103026169633 0.020233430856028502 0 -0.075730293688950429 0.019811241439080887 0 -0.076099109288637862 0.020105278544070865 0 -0.072370050219479773 0.020937983565177943 0 -0.071604981419857244 0.021375840762133641 0 -0.068525747988680941 0.02158083879162586 0 -0.062857191715359778 0.022597520184347502 0 -0.064878512117864329 0.018936799895115337 0 -0.064878512117864329 0.018936799895115337 0 -0.064238518289701785 0.015507295299800191 0 -0.06153716464318669 0.017089480797730674 0 -0.069665850958918293 0.016419675586984359 0 -0.064878512117864329 0.018936799895115337 0 -0.064238518289701785 0.015507295299800191 0 -0.064878512117864329 0.018936799895115337 0 -0.06153716464318669 0.017089480797730674 0 -0.060779117245621635 0.019679496004263053 0 -0.058940213515027803 0.015132907992872164 0 -0.06153716464318669 0.017089480797730674 0 -0.059403949955991117 0.017825950488006961 0 -0.06153716464318669 0.017089480797730674 0 -0.059403949955991117 0.017825950488006961 0 -0.060779117245621635 0.019679496004263053 0 -0.062857191715359778 0.022597520184347502 0 -0.058606611976741871 0.021185192174048843 0 -0.057614794674918056 0.023379986593908397 0 -0.062857191715359778 0.022597520184347502 0 -0.064878512117864329 0.018936799895115337 0 -0.060779117245621635 0.019679496004263053 0 -0.059403949955991117 0.017825950488006961 0 -0.060779117245621635 0.019679496004263053 0 -0.058055610199544985 0.019146298252170714 0 -0.062857191715359778 0.022597520184347502 0 -0.060779117245621635 0.019679496004263053 0 -0.058606611976741871 0.021185192174048843 0 -0.058606611976741871 0.021185192174048843 0 -0.056389932898305885 0.020068743135286646 0 -0.057614794674918056 0.023379986593908397 0 -0.091000683699437923 0.024118216214225868 0 -0.090901033970010703 0.025387839642094224 0 -0.091438561019116793 0.025294077639517562 0 -0.07310847004785101 0.021225661624207266 0 -0.076219156973433136 0.021200996600215679 0 -0.056548028213660555 0.01994513479744953 0 -0.058055610199544985 0.019146298252170714 0 -0.055640868389227452 0.017209132987537568 0 -0.07310847004785101 0.021225661624207266 0 -0.071857601964976967 0.021631630824198108 0 -0.058606611976741871 0.021185192174048843 0 -0.056389932898305885 0.020068743135286646 0 -0.058055610199544985 0.019146298252170714 0 -0.060779117245621635 0.019679496004263053 0 -0.058606611976741871 0.021185192174048843 0 -0.058055610199544985 0.019146298252170714 0 -0.055228616047479744 0.013673618631752996 0 -0.057570674133404255 0.016703071088941594 0 -0.055640868389227452 0.017209132987537568 0 -0.059403949955991117 0.017825950488006961 0 -0.058055610199544985 0.019146298252170714 0 -0.057570674133404255 0.016703071088941594 0 -0.07310847004785101 0.021225661624207266 0 -0.071471755965230005 0.019631484512552779 0 -0.058055610199544985 0.019146298252170714 0 -0.057570674133404255 0.016703071088941594 0 -0.055640868389227452 0.017209132987537568 0 -0.058940213515027803 0.015132907992872164 0 -0.059403949955991117 0.017825950488006961 0 -0.057570674133404255 0.016703071088941594 0 -0.052325223783032233 0.017283925181636753 0 -0.05385692591480875 0.015577429551582022 0 -0.054139360789935788 0.018549284493867377 0 -0.05385692591480875 0.015577429551582022 0 -0.055640868389227452 0.017209132987537568 0 -0.054139360789935788 0.018549284493867377 0 -0.055228616047479744 0.013673618631752996 0 -0.05385692591480875 0.015577429551582022 0 -0.055640868389227452 0.017209132987537568 0 -0.052438674955197481 0.021482081569263619 0 -0.056450699112436185 0.01928596736042601 0 -0.054139360789935788 0.018549284493867377 0 -0.089098396148176787 0.025145135067025311 0 -0.091000683699437923 0.024118216214225868 0 -0.090273051180254041 0.02527062343668535 0 -0.068670557799837356 0.018453127742611635 0 -0.07310847004785101 0.021225661624207266 0 -0.056450699112436185 0.01928596736042601 0 -0.055640868389227452 0.017209132987537568 0 -0.054139360789935788 0.018549284493867377 0 -0.091000683699437923 0.024118216214225868 0 -0.090273051180254041 0.02527062343668535 0 -0.090901033970010703 0.025387839642094224 0 -0.089098396148176787 0.025145135067025311 0 -0.090290422612546106 0.026094778119770172 0 -0.090273051180254041 0.02527062343668535 0 -0.089098396148176787 0.025145135067025311 0 -0.090290422612546106 0.026094778119770172 0 -0.089864003038482923 0.026641309747978809 0 -0.090290422612546106 0.026094778119770172 0 -0.090651732543482202 0.025784609749143442 0 -0.090273051180254041 0.02527062343668535 0 -0.090753471167245067 0.026237127104538696 0 -0.090290422612546106 0.026094778119770172 0 -0.090651732543482202 0.025784609749143442 0 -0.090651732543482202 0.025784609749143442 0 -0.090273051180254041 0.02527062343668535 0 -0.090901033970010703 0.025387839642094224 0 -0.077237299316121485 0.02115964932917544 0 -0.076219156973433136 0.021200996600215679 0 -0.090901033970010703 0.025387839642094224 0 -0.09149219469118311 0.025290786002896765 0 -0.091260893507184415 0.025620669274924793 0 -0.09149219469118311 0.025290786002896765 0 -0.091583957607938055 0.025862102389841546 0 -0.091260893507184415 0.025620669274924793 0 -0.09149219469118311 0.025290786002896765 0 -0.091583957607938055 0.025862102389841546 0 -0.091793472798739076 0.026090765465665522 0 -0.076219156973433136 0.021200996600215679 0 -0.079873041031972139 0.02363018812797061 0 -0.091583957607938055 0.025862102389841546 0 -0.091818150111825508 0.026097909050157356 0 -0.091431232658440831 0.026203913839923151 0 -0.080042706379791065 0.023756812337447062 0 -0.079873041031972139 0.02363018812797061 0 -0.090651732543482202 0.025784609749143442 0 -0.090901033970010703 0.025387839642094224 0 -0.091048304248690551 0.025940590064672905 0 -0.090901033970010703 0.025387839642094224 0 -0.091260893507184415 0.025620669274924793 0 -0.091048304248690551 0.025940590064672905 0 -0.091583957607938055 0.025862102389841546 0 -0.091260893507184415 0.025620669274924793 0 -0.091048304248690551 0.025940590064672905 0 -0.091431232658440831 0.026203913839923151 0 -0.091048304248690551 0.025940590064672905 0 -0.09115891127057893 0.026494876012182374 0 -0.091583957607938055 0.025862102389841546 0 -0.091431232658440831 0.026203913839923151 0 -0.091048304248690551 0.025940590064672905 0 -0.090753471167245067 0.026237127104538696 0 -0.090651732543482202 0.025784609749143442 0 -0.091048304248690551 0.025940590064672905 0 -0.090753471167245067 0.026237127104538696 0 -0.091048304248690551 0.025940590064672905 0 -0.09115891127057893 0.026494876012182374 0 -0.09115891127057893 0.026494876012182374 0 -0.091360769148268239 0.027011757605333475 0 -0.090680192134240736 0.026916095851756236 0 -0.091818150111825508 0.026097909050157356 0 -0.091862534611032401 0.027076848676907725 0 -0.092456702475853234 0.027845762023474392 0 -0.079873041031972139 0.02363018812797061 0 -0.084821397724993058 0.026887840227733294 0 -0.090753471167245067 0.026237127104538696 0 -0.09115891127057893 0.026494876012182374 0 -0.090680192134240736 0.026916095851756236 0 -0.091431232658440831 0.026203913839923151 0 -0.09115891127057893 0.026494876012182374 0 -0.091532807036152367 0.026581924935366732 0 -0.09115891127057893 0.026494876012182374 0 -0.091532807036152367 0.026581924935366732 0 -0.091360769148268239 0.027011757605333475 0 -0.091818150111825508 0.026097909050157356 0 -0.091532807036152367 0.026581924935366732 0 -0.091862534611032401 0.027076848676907725 0 -0.091818150111825508 0.026097909050157356 0 -0.091431232658440831 0.026203913839923151 0 -0.091532807036152367 0.026581924935366732 0 -0.091532807036152367 0.026581924935366732 0 -0.091862534611032401 0.027076848676907725 0 -0.091360769148268239 0.027011757605333475 0 -0.091862534611032401 0.027076848676907725 0 -0.091960479112877913 0.027590044921242729 0 -0.092456702475853234 0.027845762023474392 0 -0.091862534611032401 0.027076848676907725 0 -0.091651813568196766 0.02746120248039826 0 -0.091360769148268239 0.027011757605333475 0 -0.091862534611032401 0.027076848676907725 0 -0.091651813568196766 0.02746120248039826 0 -0.091960479112877913 0.027590044921242729 0 -0.091216305608133222 0.027600579173352374 0 -0.090691930334522747 0.027585813901365226 0 -0.090680192134240736 0.026916095851756236 0 -0.091360769148268239 0.027011757605333475 0 -0.091216305608133222 0.027600579173352374 0 -0.090680192134240736 0.026916095851756236 0 -0.091651813568196766 0.02746120248039826 0 -0.091360769148268239 0.027011757605333475 0 -0.091216305608133222 0.027600579173352374 0 -0.089864003038482923 0.026641309747978809 0 -0.090680192134240736 0.026916095851756236 0 -0.090108372174852111 0.027600200529678705 0 -0.090691930334522747 0.027585813901365226 0 -0.090680192134240736 0.026916095851756236 0 -0.090108372174852111 0.027600200529678705 0 -0.089177432322212563 0.027201517221147734 0 -0.089864003038482923 0.026641309747978809 0 -0.090108372174852111 0.027600200529678705 0 -0.090753471167245067 0.026237127104538696 0 -0.090290422612546106 0.026094778119770172 0 -0.090680192134240736 0.026916095851756236 0 -0.090290422612546106 0.026094778119770172 0 -0.089864003038482923 0.026641309747978809 0 -0.090680192134240736 0.026916095851756236 0 -0.090328939995878016 0.028430329409076492 0 -0.090765998133015946 0.028099559753075622 0 -0.090902508774052523 0.028646742460102181 0 -0.090328939995878016 0.028430329409076492 0 -0.090902508774052523 0.028646742460102181 0 -0.090620297950720852 0.029084476014386466 0 -0.090328939995878016 0.028430329409076492 0 -0.090000183112761006 0.028874221113740765 0 -0.090620297950720852 0.029084476014386466 0 -0.089545307540236929 0.028183791275304251 0 -0.08958235136718197 0.029418513260161653 0 -0.090000183112761006 0.028874221113740765 0 -0.089545307540236929 0.028183791275304251 0 -0.090328939995878016 0.028430329409076492 0 -0.090000183112761006 0.028874221113740765 0 -0.089545307540236929 0.028183791275304251 0 -0.090328939995878016 0.028430329409076492 0 -0.090108372174852111 0.027600200529678705 0 -0.089177432322212563 0.027201517221147734 0 -0.089545307540236929 0.028183791275304251 0 -0.090108372174852111 0.027600200529678705 0 -0.090328939995878016 0.028430329409076492 0 -0.090108372174852111 0.027600200529678705 0 -0.090765998133015946 0.028099559753075622 0 -0.090691930334522747 0.027585813901365226 0 -0.090108372174852111 0.027600200529678705 0 -0.090765998133015946 0.028099559753075622 0 -0.091216305608133222 0.027600579173352374 0 -0.090691930334522747 0.027585813901365226 0 -0.090765998133015946 0.028099559753075622 0 -0.091216305608133222 0.027600579173352374 0 -0.090765998133015946 0.028099559753075622 0 -0.091252898535072804 0.028319515295315748 0 -0.091216305608133222 0.027600579173352374 0 -0.091862883794437439 0.028034943769756022 0 -0.091252898535072804 0.028319515295315748 0 -0.091960479112877913 0.027590044921242729 0 -0.091862883794437439 0.028034943769756022 0 -0.092456702475853234 0.027845762023474392 0 -0.091651813568196766 0.02746120248039826 0 -0.091216305608133222 0.027600579173352374 0 -0.091862883794437439 0.028034943769756022 0 -0.091651813568196766 0.02746120248039826 0 -0.091960479112877913 0.027590044921242729 0 -0.091862883794437439 0.028034943769756022 0 -0.091252898535072804 0.028319515295315748 0 -0.090902508774052523 0.028646742460102181 0 -0.091490782357219608 0.029101734082216585 0 -0.091862883794437439 0.028034943769756022 0 -0.091252898535072804 0.028319515295315748 0 -0.091490782357219608 0.029101734082216585 0 -0.090765998133015946 0.028099559753075622 0 -0.091252898535072804 0.028319515295315748 0 -0.090902508774052523 0.028646742460102181 0 -0.091490782357219608 0.029101734082216585 0 -0.092194032672765977 0.029746396855967666 0 -0.09092202382167415 0.030003888420037501 0 -0.090902508774052523 0.028646742460102181 0 -0.091490782357219608 0.029101734082216585 0 -0.090620297950720852 0.029084476014386466 0 -0.091862883794437439 0.028034943769756022 0 -0.091490782357219608 0.029101734082216585 0 -0.092194032672765977 0.029746396855967666 0 -0.091490782357219608 0.029101734082216585 0 -0.09092202382167415 0.030003888420037501 0 -0.090620297950720852 0.029084476014386466 0 -0.092194032672765977 0.029746396855967666 0 -0.09092202382167415 0.030003888420037501 0 -0.09224822796131138 0.030353750219524911 0 -0.09092202382167415 0.030003888420037501 0 -0.090282824031791276 0.029347394057495323 0 -0.090620297950720852 0.029084476014386466 0 -0.090000183112761006 0.028874221113740765 0 -0.090282824031791276 0.029347394057495323 0 -0.090620297950720852 0.029084476014386466 0 -0.08958235136718197 0.029418513260161653 0 -0.090000183112761006 0.028874221113740765 0 -0.090282824031791276 0.029347394057495323 0 -0.089829475690988744 0.022105254664997413 0 -0.091689608285521751 0.024815203918453873 0 -0.091212996208983418 0.030064011965287196 0 -0.091208676251107623 0.029726169628729933 0 -0.091792651991476848 0.030054669640830041 0 -0.08958235136718197 0.029418513260161653 0 -0.09092202382167415 0.030003888420037501 0 -0.090282824031791276 0.029347394057495323 0 -0.092083830284579518 0.01951112230097973 0 -0.096791778072842921 0.026367155763683377 0 -0.10941085267063068 0.038293803695653689 0 -0.10652454284005801 0.033551502962741966 0 -0.10142507340963099 0.034282061779243228 0 -0.091212996208983418 0.030064011965287196 0 -0.091792651991476848 0.030054669640830041 0 -0.092085207970449903 0.030534665911210887 0 -0.10941085267063068 0.038293803695653689 0 -0.10946693387607187 0.028878975429181948 0 -0.10652454284005801 0.033551502962741966 0 -0.10652454284005801 0.033551502962741966 0 -0.10347695068353852 0.030378608699456848 0 -0.10142507340963099 0.034282061779243228 0 -0.10946693387607187 0.028878975429181948 0 -0.10652454284005801 0.033551502962741966 0 -0.10347695068353852 0.030378608699456848 0 -0.10946693387607187 0.028878975429181948 0 -0.10347695068353852 0.030378608699456848 0 -0.10080399755447356 0.025804004326596675 0 -0.098870543223309557 0.029227276743055603 0 -0.096402941259186012 0.026237100335264187 0 -0.10080399755447356 0.025804004326596675 0 -0.098870543223309557 0.029227276743055603 0 -0.10347695068353852 0.030378608699456848 0 -0.10080399755447356 0.025804004326596675 0 -0.098870543223309557 0.029227276743055603 0 -0.10347695068353852 0.030378608699456848 0 -0.10142507340963099 0.034282061779243228 0 -0.092085207970449903 0.030534665911210887 0 -0.09224822796131138 0.030353750219524911 0 -0.092607200007891424 0.030318070624981205 0 -0.091689608285521751 0.024815203918453873 0 -0.092246816259638417 0.025640049297465457 0 -0.091792651991476848 0.030054669640830041 0 -0.092085207970449903 0.030534665911210887 0 -0.09224822796131138 0.030353750219524911 0 -0.092194032672765977 0.029746396855967666 0 -0.09224822796131138 0.030353750219524911 0 -0.092537113905823296 0.030209351453965166 0 -0.092537113905823296 0.030209351453965166 0 -0.092125026169368796 0.03076807095442817 0 -0.092876845912614886 0.029650953735036071 0 -0.09224822796131138 0.030353750219524911 0 -0.092537113905823296 0.030209351453965166 0 -0.092607200007891424 0.030318070624981205 0 -0.092085207970449903 0.030534665911210887 0 -0.092607200007891424 0.030318070624981205 0 -0.093102958477423781 0.029848670595559783 0 -0.089574783938675961 0.030775854180237566 0 -0.08822109370740619 0.029033272745138873 0 -0.092537113905823296 0.030209351453965166 0 -0.092607200007891424 0.030318070624981205 0 -0.092125026169368796 0.03076807095442817 0 -0.092607200007891424 0.030318070624981205 0 -0.093102958477423781 0.029848670595559783 0 -0.092125026169368796 0.03076807095442817 0 -0.096791778072842921 0.026367155763683377 0 -0.096062196515218246 0.027194135655812419 0 -0.098870543223309557 0.029227276743055603 0 -0.10142507340963099 0.034282061779243228 0 -0.093102958477423781 0.029848670595559783 0 -0.098870543223309557 0.029227276743055603 0 -0.093102958477423781 0.029848670595559783 0 -0.096402941259186012 0.026237100335264187 0 -0.090309794702307475 0.028199556566437158 0 -0.090240636359033996 0.031874937230007908 0 -0.086042148619133993 0.027637144798848375 0 -0.093102958477423781 0.029848670595559783 0 -0.090309794702307475 0.028199556566437158 0 -0.092591124652712534 0.024169000919340124 0 -0.090309794702307475 0.028199556566437158 0 -0.090240636359033996 0.031874937230007908 0 -0.092125026169368796 0.03076807095442817 0 -0.093102958477423781 0.029848670595559783 0 -0.090309794702307475 0.028199556566437158 0 -0.092125026169368796 0.03076807095442817 0 -0.08634731697025852 0.027536099758294588 0 -0.08822109370740619 0.029033272745138873 0 -0.090240636359033996 0.031874937230007908 0 -0.092125026169368796 0.03076807095442817 0 -0.094290367892777532 0.036691325130965256 0 -0.082043087008419349 0.024101469110162369 0 -0.081977065382348793 0.025084915800290864 0 -0.082656991036987829 0.024867296583824378 0 -0.091862883794437439 0.028034943769756022 0 -0.092194032672765977 0.029746396855967666 0 -0.092876845912614886 0.029650953735036071 0 -0.092194032672765977 0.029746396855967666 0 -0.092537113905823296 0.030209351453965166 0 -0.092876845912614886 0.029650953735036071 0 -0.089449101313506099 0.029513309080359106 0 -0.08822109370740619 0.029033272745138873 0 -0.091862883794437439 0.028034943769756022 0 -0.093009374401703065 0.029437376424727737 0 -0.092456702475853234 0.027845762023474392 0 -0.082606119637043993 0.025716068059242918 0 -0.082656991036987829 0.024867296583824378 0 -0.082917117191963458 0.025613339471383358 0 -0.08822109370740619 0.029033272745138873 0 -0.084821397724993058 0.026887840227733294 0 -0.0755435877175131 0.020748471926668399 0 -0.076222174993682001 0.02168998674347062 0 -0.076149426686121693 0.020899892317724367 0 -0.079391237372651968 0.023298798800714823 0 -0.079337300571098071 0.023292836081958024 0 -0.082606119637043993 0.025716068059242918 0 -0.081977065382348793 0.025084915800290864 0 -0.082656991036987829 0.024867296583824378 0 -0.076222174993682001 0.02168998674347062 0 -0.076149426686121693 0.020899892317724367 0 -0.076641861118487475 0.021161739085462351 0 -0.076400320828136081 0.020530133173814986 0 -0.076641861118487475 0.021161739085462351 0 -0.077439861911231075 0.020855392516288433 0 -0.076222174993682001 0.02168998674347062 0 -0.076641861118487475 0.021161739085462351 0 -0.077419109878749781 0.021503049964022559 0 -0.076641861118487475 0.021161739085462351 0 -0.077439861911231075 0.020855392516288433 0 -0.077419109878749781 0.021503049964022559 0 -0.076400320828136081 0.020530133173814986 0 -0.076149426686121693 0.020899892317724367 0 -0.076641861118487475 0.021161739085462351 0 -0.077439861911231075 0.020855392516288433 0 -0.077419109878749781 0.021503049964022559 0 -0.078704900577801218 0.021941095338075242 0 -0.078704900577801218 0.021941095338075242 0 -0.077797145606665466 0.022837527454772875 0 -0.07991359386372783 0.022927157802551994 0 -0.077419109878749781 0.021503049964022559 0 -0.078704900577801218 0.021941095338075242 0 -0.077797145606665466 0.022837527454772875 0 -0.082043087008419349 0.024101469110162369 0 -0.081977065382348793 0.025084915800290864 0 -0.081299451752540261 0.024404126037765154 0 -0.076222174993682001 0.02168998674347062 0 -0.077419109878749781 0.021503049964022559 0 -0.077797145606665466 0.022837527454772875 0 -0.079337300571098071 0.023292836081958024 0 -0.079478660418993916 0.023359621433316852 0 -0.082043087008419349 0.024101469110162369 0 -0.081336704889978462 0.023843401692789173 0 -0.081299451752540261 0.024404126037765154 0 -0.08634731697025852 0.027536099758294588 0 -0.084369989647831781 0.025524111342976361 0 -0.082043087008419349 0.024101469110162369 0 -0.081336704889978462 0.023843401692789173 0 -0.081407298667170683 0.023311163075654333 0 -0.081407298667170683 0.023311163075654333 0 -0.080504189415528934 0.023545081342626846 0 -0.081356946351671067 0.02332098705672174 0 -0.081336704889978462 0.023843401692789173 0 -0.081407298667170683 0.023311163075654333 0 -0.080504189415528934 0.023545081342626846 0 -0.077797145606665466 0.022837527454772875 0 -0.080504189415528934 0.023545081342626846 0 -0.07991359386372783 0.022927157802551994 0 -0.079478660418993916 0.023359621433316852 0 -0.079621455280809633 0.023407088222207915 0 -0.081336704889978462 0.023843401692789173 0 -0.081299451752540261 0.024404126037765154 0 -0.080504189415528934 0.023545081342626846 0 -0.07991359386372783 0.022927157802551994 0 -0.08095128099739031 0.023404829927627904 0 -0.080811338558882451 0.023037415973561733 0 -0.080504189415528934 0.023545081342626846 0 -0.08095128099739031 0.023404829927627904 0 -0.081356946351671067 0.02332098705672174 0 -0.080504189415528934 0.023545081342626846 0 -0.07991359386372783 0.022927157802551994 0 -0.08095128099739031 0.023404829927627904 0 -0.081671298996869479 0.023562302456505781 0 -0.08095128099739031 0.023404829927627904 0 -0.080811338558882451 0.023037415973561733 0 -0.07991359386372783 0.022927157802551994 0 -0.080811338558882451 0.023037415973561733 0 -0.079843281571562966 0.022284132140596595 0 -0.08072135014028918 0.022361220095628954 0 -0.079843281571562966 0.022284132140596595 0 -0.079779384079474838 0.021606538023937933 0 -0.08072135014028918 0.022361220095628954 0 -0.080811338558882451 0.023037415973561733 0 -0.079843281571562966 0.022284132140596595 0 -0.078704900577801218 0.021941095338075242 0 -0.079843281571562966 0.022284132140596595 0 -0.078846350271598295 0.021501716574587031 0 -0.078704900577801218 0.021941095338075242 0 -0.07991359386372783 0.022927157802551994 0 -0.079843281571562966 0.022284132140596595 0 -0.078348173675228505 0.020810150101119352 0 -0.077439861911231075 0.020855392516288433 0 -0.078846350271598295 0.021501716574587031 0 -0.077439861911231075 0.020855392516288433 0 -0.078704900577801218 0.021941095338075242 0 -0.078846350271598295 0.021501716574587031 0 -0.079389921765234975 0.020787482314772791 0 -0.078348173675228505 0.020810150101119352 0 -0.079779384079474838 0.021606538023937933 0 -0.078348173675228505 0.020810150101119352 0 -0.078846350271598295 0.021501716574587031 0 -0.079779384079474838 0.021606538023937933 0 -0.080596338430576689 0.021490321438826145 0 -0.079389921765234975 0.020787482314772791 0 -0.079779384079474838 0.021606538023937933 0 -0.079843281571562966 0.022284132140596595 0 -0.078846350271598295 0.021501716574587031 0 -0.079779384079474838 0.021606538023937933 0 -0.08908996733852681 0.010487659176310978 0 -0.094714933212658725 0.014733705196254996 0 -0.087839886995592101 0.017087109589125717 0 -0.08908996733852681 0.010487659176310978 0 -0.094714933212658725 0.014733705196254996 0 -0.096174091013029261 0.0096590626158473882 0 -0.094714933212658725 0.014733705196254996 0 -0.10187523081977612 0.017606609629458515 0 -0.099045118470732454 0.012609212884653434 0 -0.094714933212658725 0.014733705196254996 0 -0.099045118470732454 0.012609212884653434 0 -0.096174091013029261 0.0096590626158473882 0 -0.099045118470732454 0.012609212884653434 0 -0.099764036887030533 0.0095374175860139781 0 -0.096174091013029261 0.0096590626158473882 0 -0.088561833651963698 0.019031070537869049 0 -0.092428185929816511 0.016320217042468849 0 -0.094714933212658725 0.014733705196254996 0 -0.094015572546046713 0.020852875490472399 0 -0.10187523081977612 0.017606609629458515 0 -0.083114653766222582 0.022946051917865858 0 -0.087839886995592101 0.017087109589125717 0 -0.094015572546046713 0.020852875490472399 0 -0.094714933212658725 0.014733705196254996 0 -0.087839886995592101 0.017087109589125717 0 -0.094015572546046713 0.020852875490472399 0 -0.083114653766222582 0.022946051917865858 0 -0.081542975726626776 0.023055255711634519 0 -0.081386266863575266 0.022176109485117265 0 -0.086553237261488822 0.020142862670021435 0 -0.088561833651963698 0.019031070537869049 0 -0.081671298996869479 0.023562302456505781 0 -0.08095128099739031 0.023404829927627904 0 -0.081542975726626776 0.023055255711634519 0 -0.081671298996869479 0.023562302456505781 0 -0.083114653766222582 0.022946051917865858 0 -0.081542975726626776 0.023055255711634519 0 -0.08095128099739031 0.023404829927627904 0 -0.081542975726626776 0.023055255711634519 0 -0.081356946351671067 0.02332098705672174 0 -0.081542975726626776 0.023055255711634519 0 -0.081356946351671067 0.02332098705672174 0 -0.082245796879238289 0.023141284327946848 0 -0.081542975726626776 0.023055255711634519 0 -0.081386266863575266 0.022176109485117265 0 -0.082245796879238289 0.023141284327946848 0 -0.082245796879238289 0.023141284327946848 0 -0.086445703269581162 0.020888144387255551 0 -0.083681245876777915 0.019452064221932665 0 -0.081386266863575266 0.022176109485117265 0 -0.082245796879238289 0.023141284327946848 0 -0.083681245876777915 0.019452064221932665 0 -0.084369989647831781 0.025524111342976361 0 -0.083414510055046936 0.024448712889414706 0 -0.081407298667170683 0.023311163075654333 0 -0.081356946351671067 0.02332098705672174 0 -0.082245796879238289 0.023141284327946848 0 -0.090309794702307475 0.028199556566437158 0 -0.086042148619133993 0.027637144798848375 0 -0.088145802909518234 0.023989663739631108 0 -0.086042148619133993 0.027637144798848375 0 -0.082245796879238289 0.023141284327946848 0 -0.088145802909518234 0.023989663739631108 0 -0.088145802909518234 0.023989663739631108 0 -0.086445703269581162 0.020888144387255551 0 -0.090094985243343473 0.020753456433551767 0 -0.082245796879238289 0.023141284327946848 0 -0.088145802909518234 0.023989663739631108 0 -0.086445703269581162 0.020888144387255551 0 -0.092428185929816511 0.016320217042468849 0 -0.096250703783857375 0.012447073395499589 0 -0.086445703269581162 0.020888144387255551 0 -0.083681245876777915 0.019452064221932665 0 -0.088277409359040007 0.017171310022915342 0 -0.10187523081977612 0.017606609629458515 0 -0.099045118470732454 0.012609212884653434 0 -0.10274640884761917 0.011985696218794162 0 -0.099045118470732454 0.012609212884653434 0 -0.10274640884761917 0.011985696218794162 0 -0.099764036887030533 0.0095374175860139781 0 -0.096250703783857375 0.012447073395499589 0 -0.098939919291226697 0.008805608938693317 0 -0.10187523081977612 0.017606609629458515 0 -0.10274640884761917 0.011985696218794162 0 -0.10848568135393083 0.014905420124003711 0 -0.10274640884761917 0.011985696218794162 0 -0.10848568135393083 0.014905420124003711 0 -0.10539691508667502 0.0080083029318793013 0 -0.10203715438924232 0.005014119995807728 0 -0.10220165600543746 0.004412300514637979 0 -0.10197471210304805 0.0042651088413381251 0 -0.096250703783857375 0.012447073395499589 0 -0.098921941106728625 0.0098222396964022761 0 -0.10203715438924232 0.005014119995807728 0 -0.10261477883705455 0.0049513682265922964 0 -0.10220165600543746 0.004412300514637979 0 -0.10261477883705455 0.0049513682265922964 0 -0.10288399829939901 0.0055499754154876039 0 -0.10282784939090583 0.0042757937324353233 0 -0.098921941106728625 0.0098222396964022761 0 -0.10037475954712613 0.0088464517604994915 0 -0.094870801927281673 0.0075363338466396881 0 -0.095619646919082479 0.013569640518327585 0 -0.10149006535626823 0.01052230351971801 0 -0.087690981251164465 0.010003484391857307 0 -0.094870801927281673 0.0075363338466396881 0 -0.095619646919082479 0.013569640518327585 0 -0.086445703269581162 0.020888144387255551 0 -0.088277409359040007 0.017171310022915342 0 -0.090094985243343473 0.020753456433551767 0 -0.096250703783857375 0.012447073395499589 0 -0.095043439875150612 0.016543175211926744 0 -0.087690981251164465 0.010003484391857307 0 -0.095619646919082479 0.013569640518327585 0 -0.090309221748071072 0.016953676510708775 0 -0.088145802909518234 0.023989663739631108 0 -0.090094985243343473 0.020753456433551767 0 -0.092591124652712534 0.024169000919340124 0 -0.095043439875150612 0.016543175211926744 0 -0.09512840370756287 0.018845908893515229 0 -0.090309794702307475 0.028199556566437158 0 -0.088145802909518234 0.023989663739631108 0 -0.092591124652712534 0.024169000919340124 0 -0.093102958477423781 0.029848670595559783 0 -0.092591124652712534 0.024169000919340124 0 -0.096402941259186012 0.026237100335264187 0 -0.092591124652712534 0.024169000919340124 0 -0.096402941259186012 0.026237100335264187 0 -0.097734313855183552 0.020787881682152846 0 -0.090309221748071072 0.016953676510708775 0 -0.092591124652712534 0.024169000919340124 0 -0.097734313855183552 0.020787881682152846 0 -0.095619646919082479 0.013569640518327585 0 -0.097734313855183552 0.020787881682152846 0 -0.10279102957131232 0.015639259983259667 0 -0.095619646919082479 0.013569640518327585 0 -0.090309221748071072 0.016953676510708775 0 -0.097734313855183552 0.020787881682152846 0 -0.097734313855183552 0.020787881682152846 0 -0.1038869370681742 0.020773430647167676 0 -0.10279102957131232 0.015639259983259667 0 -0.097734313855183552 0.020787881682152846 0 -0.1038869370681742 0.020773430647167676 0 -0.10080399755447356 0.025804004326596675 0 -0.096402941259186012 0.026237100335264187 0 -0.097734313855183552 0.020787881682152846 0 -0.10080399755447356 0.025804004326596675 0 -0.10946693387607187 0.028878975429181948 0 -0.1038869370681742 0.020773430647167676 0 -0.10080399755447356 0.025804004326596675 0 -0.10946693387607187 0.028878975429181948 0 -0.1038869370681742 0.020773430647167676 0 -0.10949736327356197 0.019418988802423712 0 -0.1038869370681742 0.020773430647167676 0 -0.10279102957131232 0.015639259983259667 0 -0.10949736327356197 0.019418988802423712 0 -0.10279102957131232 0.015639259983259667 0 -0.10949736327356197 0.019418988802423712 0 -0.10896279906799466 0.010062930803239944 0 -0.10279102957131232 0.015639259983259667 0 -0.10149006535626823 0.01052230351971801 0 -0.10896279906799466 0.010062930803239944 0 -0.095619646919082479 0.013569640518327585 0 -0.10279102957131232 0.015639259983259667 0 -0.10149006535626823 0.01052230351971801 0 -0.10149006535626823 0.01052230351971801 0 -0.10288399829939901 0.0055499754154876039 0 -0.10896279906799466 0.010062930803239944 0 -0.094870801927281673 0.0075363338466396881 0 -0.10149006535626823 0.01052230351971801 0 -0.10288399829939901 0.0055499754154876039 0 -0.10288399829939901 0.0055499754154876039 0 -0.10896279906799466 0.010062930803239944 0 -0.10747623412865014 0.0039310812936482935 0 -0.10288399829939901 0.0055499754154876039 0 -0.10453236831327337 0.0030555627794238457 0 -0.10747623412865014 0.0039310812936482935 0 -0.10288399829939901 0.0055499754154876039 0 -0.10453236831327337 0.0030555627794238457 0 -0.10282784939090583 0.0042757937324353233 0 -0.10453236831327337 0.0030555627794238457 0 -0.10346417356799058 0.0026780695861886687 0 -0.10282784939090583 0.0042757937324353233 0 -0.10453236831327337 0.0030555627794238457 0 -0.10463425470613945 0.0011034408278300389 0 -0.10346417356799058 0.0026780695861886687 0 -0.10453236831327337 0.0030555627794238457 0 -0.10747623412865014 0.0039310812936482935 0 -0.10631067738722355 0.0012490605466676733 0 -0.10526709690832403 0.00048671943364286509 0 -0.10463425470613945 0.0011034408278300389 0 -0.10631067738722355 0.0012490605466676733 0 -0.10453236831327337 0.0030555627794238457 0 -0.10463425470613945 0.0011034408278300389 0 -0.10631067738722355 0.0012490605466676733 0 -0.10526709690832403 0.00048671943364286509 0 -0.10500085324065143 4.9348498040998412e-07 0 -0.10500116187564953 -2.1337237352388477e-08 0 -0.10526709690832403 0.00048671943364286509 0 -0.10631067738722355 0.0012490605466676733 0 -0.10500116187564953 -2.1337237352388477e-08 0 -0.10500085324065143 4.9348498040998412e-07 0 -0.10463425470613945 0.0011034408278300389 0 -0.10499597363792158 -4.8295072624974783e-07 0 -0.10526709690832403 0.00048671943364286509 0 -0.10500085324065143 4.9348498040998412e-07 0 -0.10463425470613945 0.0011034408278300389 0 -0.10463425470613945 0.0011034408278300389 0 -0.10340359403164484 0.0015756785259623503 0 -0.10346417356799058 0.0026780695861886687 0 -0.10340359403164484 0.0015756785259623503 0 -0.10499597363792158 -4.8295072624974783e-07 0 -0.10242215210642054 0.0006850101798197652 0 -0.10499879259783754 9.5185616919346463e-07 0 -0.10407745866789199 0.00069850172350616039 0 -0.10463425470613945 0.0011034408278300389 0 -0.10340359403164484 0.0015756785259623503 0 -0.10499597363792158 -4.8295072624974783e-07 0 -0.10499999932369004 -1.4774374255170375e-09 0 -0.10499999783150053 1.7962083724247012e-09 0 -0.10499915162663874 8.3082888864424513e-07 0 -0.10499999783150053 1.7962083724247012e-09 0 -0.10499915162663874 8.3082888864424513e-07 0 -0.10499888291737276 1.1517870126293508e-06 0 -0.10340359403164484 0.0015756785259623503 0 -0.10242215210642054 0.0006850101798197652 0 -0.10198259001632713 0.0019844181548376912 0 -0.10340359403164484 0.0015756785259623503 0 -0.10198259001632713 0.0019844181548376912 0 -0.10248870820537613 0.0032087276696315561 0 -0.10198259001632713 0.0019844181548376912 0 -0.10248870820537613 0.0032087276696315561 0 -0.10144849627141493 0.0031549866201466196 0 -0.10340359403164484 0.0015756785259623503 0 -0.10248870820537613 0.0032087276696315561 0 -0.10346417356799058 0.0026780695861886687 0 -0.10248870820537613 0.0032087276696315561 0 -0.10346417356799058 0.0026780695861886687 0 -0.10282784939090583 0.0042757937324353233 0 -0.10261477883705455 0.0049513682265922964 0 -0.10282784939090583 0.0042757937324353233 0 -0.10220165600543746 0.004412300514637979 0 -0.10248870820537613 0.0032087276696315561 0 -0.10282784939090583 0.0042757937324353233 0 -0.10220165600543746 0.004412300514637979 0 -0.10248870820537613 0.0032087276696315561 0 -0.10220165600543746 0.004412300514637979 0 -0.10144849627141493 0.0031549866201466196 0 -0.10315473564231281 0.0027611888441662611 0 -0.10319953063931459 0.0022863660602560777 0 -0.10220165600543746 0.004412300514637979 0 -0.10197471210304805 0.0042651088413381251 0 -0.10239443936210522 0.0036454750950182511 0 -0.10274640884761917 0.011985696218794162 0 -0.10539691508667502 0.0080083029318793013 0 -0.10232310757464792 0.0084878141894603274 0 -0.10274640884761917 0.011985696218794162 0 -0.10232310757464792 0.0084878141894603274 0 -0.099764036887030533 0.0095374175860139781 0 -0.10232310757464792 0.0084878141894603274 0 -0.099764036887030533 0.0095374175860139781 0 -0.10075488141826171 0.0068080588820987288 0 -0.10075488141826171 0.0068080588820987288 0 -0.099856505202403648 0.0050566221339497985 0 -0.098446402000363281 0.0068246157599575249 0 -0.099764036887030533 0.0095374175860139781 0 -0.10075488141826171 0.0068080588820987288 0 -0.098446402000363281 0.0068246157599575249 0 -0.10539691508667502 0.0080083029318793013 0 -0.10232310757464792 0.0084878141894603274 0 -0.10237240900565443 0.00614977995551284 0 -0.10232310757464792 0.0084878141894603274 0 -0.10075488141826171 0.0068080588820987288 0 -0.10237240900565443 0.00614977995551284 0 -0.10237240900565443 0.00614977995551284 0 -0.1012560070575772 0.0048156860776164649 0 -0.10197858561593015 0.0031221140684856152 0 -0.10075488141826171 0.0068080588820987288 0 -0.10237240900565443 0.00614977995551284 0 -0.1012560070575772 0.0048156860776164649 0 -0.10075488141826171 0.0068080588820987288 0 -0.1012560070575772 0.0048156860776164649 0 -0.099856505202403648 0.0050566221339497985 0 -0.1012560070575772 0.0048156860776164649 0 -0.099856505202403648 0.0050566221339497985 0 -0.10071225922327484 0.003169010026479542 0 -0.1012560070575772 0.0048156860776164649 0 -0.10071225922327484 0.003169010026479542 0 -0.10197858561593015 0.0031221140684856152 0 -0.10197471210304805 0.0042651088413381251 0 -0.10197858561593015 0.0031221140684856152 0 -0.10239443936210522 0.0036454750950182511 0 -0.10539691508667502 0.0080083029318793013 0 -0.10237240900565443 0.00614977995551284 0 -0.10197858561593015 0.0031221140684856152 0 -0.10319953063931459 0.0022863660602560777 0 -0.1036063528144081 0.0013343536161397964 0 -0.098939919291226697 0.008805608938693317 0 -0.09936575094143231 0.0070214656615697982 0 -0.10197858561593015 0.0031221140684856152 0 -0.10239443936210522 0.0036454750950182511 0 -0.10249290661477899 0.0023973932794019086 0 -0.10198259001632713 0.0019844181548376912 0 -0.10144849627141493 0.0031549866201466196 0 -0.10069575562533981 0.0016843067083027749 0 -0.10242215210642054 0.0006850101798197652 0 -0.10198259001632713 0.0019844181548376912 0 -0.10069575562533981 0.0016843067083027749 0 -0.10407745866789199 0.00069850172350616039 0 -0.1036063528144081 0.0013343536161397964 0 -0.10499719719206088 3.1385230190734215e-06 0 -0.10499888291737276 1.1517870126293508e-06 0 -0.10499999685151588 4.3765204731551386e-10 0 -0.10499915162663874 8.3082888864424513e-07 0 -0.10499719719206088 3.1385230190734215e-06 0 -0.10499888291737276 1.1517870126293508e-06 0 -0.10499999783150053 1.7962083724247012e-09 0 -0.10499888291737276 1.1517870126293508e-06 0 -0.10499999685151588 4.3765204731551386e-10 0 -0.10499831071345296 -9.5439634477322207e-07 0 -0.10458755801902957 0.00034471788107884337 0 -0.1033414389662127 -1.4653005775178899e-05 0 -0.1036063528144081 0.0013343536161397964 0 -0.10499731429819135 1.8478999421804283e-06 0 -0.10525645612829722 0.00056207898814500791 0 -0.10499831071345296 -9.5439634477322207e-07 0 -0.10458755801902957 0.00034471788107884337 0 -0.10447349196983824 0.0017695454460431835 0 -0.10525645612829722 0.00056207898814500791 0 -0.10458755801902957 0.00034471788107884337 0 -0.10229137008846916 0.0022179627500191991 0 -0.1036063528144081 0.0013343536161397964 0 -0.10071225922327484 0.003169010026479542 0 -0.10197858561593015 0.0031221140684856152 0 -0.10249290661477899 0.0023973932794019086 0 -0.10447349196983824 0.0017695454460431835 0 -0.10458755801902957 0.00034471788107884337 0 -0.1033414389662127 -1.4653005775178899e-05 0 -0.10447349196983824 0.0017695454460431835 0 -0.1033414389662127 -1.4653005775178899e-05 0 -0.10066478474890454 0.0025759990316063797 0 -0.1033414389662127 -1.4653005775178899e-05 0 -0.10440454662698874 -7.0119050614182683e-05 0 -0.10443795551102492 -0.00030333648028654109 0 -0.10499831071345296 -9.5439634477322207e-07 0 -0.1033414389662127 -1.4653005775178899e-05 0 -0.1044227652180094 0.00012148492665510083 0 -0.10499831071345296 -9.5439634477322207e-07 0 -0.10499896041617847 6.2011267255803602e-07 0 -0.1044227652180094 0.00012148492665510083 0 -0.10478653376682558 6.4808267802652037e-05 0 -0.10499896041617847 6.2011267255803602e-07 0 -0.1044227652180094 0.00012148492665510083 0 -0.10478653376682558 6.4808267802652037e-05 0 -0.10440454662698874 -7.0119050614182683e-05 0 -0.10460051921060926 -0.00013560393063809646 0 -0.10478653376682558 6.4808267802652037e-05 0 -0.1044227652180094 0.00012148492665510083 0 -0.10440454662698874 -7.0119050614182683e-05 0 -0.1033414389662127 -1.4653005775178899e-05 0 -0.1044227652180094 0.00012148492665510083 0 -0.10440454662698874 -7.0119050614182683e-05 0 -0.10440454662698874 -7.0119050614182683e-05 0 -0.10460051921060926 -0.00013560393063809646 0 -0.10443795551102492 -0.00030333648028654109 0 -0.10460051921060926 -0.00013560393063809646 0 -0.10443795551102492 -0.00030333648028654109 0 -0.10459013260094256 -0.00017052202090253341 0 -0.1033414389662127 -1.4653005775178899e-05 0 -0.095089877592169816 0.0045832515885435134 0 -0.10066478474890454 0.0025759990316063797 0 -0.099393519874320657 0.0023817430677673412 0 -0.098362812502536312 0.0034937109873666504 0 -0.10229137008846916 0.0022179627500191991 0 -0.10138717328936085 0.002773336892421957 0 -0.099856505202403648 0.0050566221339497985 0 -0.10071225922327484 0.003169010026479542 0 -0.098145587628302278 0.0045424540129910922 0 -0.10447349196983824 0.0017695454460431835 0 -0.10066478474890454 0.0025759990316063797 0 -0.098145587628302278 0.0045424540129910922 0 -0.099856505202403648 0.0050566221339497985 0 -0.098145587628302278 0.0045424540129910922 0 -0.098446402000363281 0.0068246157599575249 0 -0.095089877592169816 0.0045832515885435134 0 -0.10066478474890454 0.0025759990316063797 0 -0.098145587628302278 0.0045424540129910922 0 -0.095089877592169816 0.0045832515885435134 0 -0.098145587628302278 0.0045424540129910922 0 -0.095484858528468858 0.007166332324354833 0 -0.098145587628302278 0.0045424540129910922 0 -0.095484858528468858 0.007166332324354833 0 -0.098446402000363281 0.0068246157599575249 0 -0.095484858528468858 0.007166332324354833 0 -0.098446402000363281 0.0068246157599575249 0 -0.096174091013029261 0.0096590626158473882 0 -0.099764036887030533 0.0095374175860139781 0 -0.098446402000363281 0.0068246157599575249 0 -0.096174091013029261 0.0096590626158473882 0 -0.08908996733852681 0.010487659176310978 0 -0.095484858528468858 0.007166332324354833 0 -0.096174091013029261 0.0096590626158473882 0 -0.10466121725013847 -7.1727483480799246e-05 0 -0.10443795551102492 -0.00030333648028654109 0 -0.10459013260094256 -0.00017052202090253341 0 -0.08908996733852681 0.010487659176310978 0 -0.095089877592169816 0.0045832515885435134 0 -0.095484858528468858 0.007166332324354833 0 -0.096316739558243977 0.0057358865953382361 0 -0.098362812502536312 0.0034937109873666504 0 -0.10155664370269799 0.0043475374308688539 0 -0.10153492174556708 0.0062915410251510795 0 -0.10043878212618858 0.00193764068878157 0 -0.10155664370269799 0.0043475374308688539 0 -0.10257238735549189 0.0059509530098452576 0 -0.10117348408476937 0.0022094436894523617 0 -0.1027257089963189 0.0027728753909264207 0 -0.10162838996783856 0.00097658740154841963 0 -0.10273132288437065 0.00027093646819030103 0 -0.1031392203081066 0.00052569488861489613 0 -0.10185540098885586 0.00017694913032572447 0 -0.10315540459503483 0.00037643546871969294 0 -0.10273132288437065 0.00027093646819030103 0 -0.1031392203081066 0.00052569488861489613 0 -0.10155664370269799 0.0043475374308688539 0 -0.10257238735549189 0.0059509530098452576 0 -0.10198862783583663 0.0058926561135802056 0 -0.10273132288437065 0.00027093646819030103 0 -0.10289051056961733 7.3354415888132556e-05 0 -0.10242125317394001 6.7385984330328475e-05 0 -0.10315540459503483 0.00037643546871969294 0 -0.10273132288437065 0.00027093646819030103 0 -0.10310547400245618 0.0002345374584896996 0 -0.10273132288437065 0.00027093646819030103 0 -0.10310547400245618 0.0002345374584896996 0 -0.10289051056961733 7.3354415888132556e-05 0 -0.10310547400245618 0.0002345374584896996 0 -0.10289051056961733 7.3354415888132556e-05 0 -0.10336590180158943 4.0619108991635214e-05 0 -0.10310547400245618 0.0002345374584896996 0 -0.10345638933076738 0.00033786968715530073 0 -0.10336590180158943 4.0619108991635214e-05 0 -0.10345638933076738 0.00033786968715530073 0 -0.10336590180158943 4.0619108991635214e-05 0 -0.10374068024899309 0.00015723987744317711 0 -0.10345638933076738 0.00033786968715530073 0 -0.10374068024899309 0.00015723987744317711 0 -0.10390957799213832 0.00034905378706708625 0 -0.10315540459503483 0.00037643546871969294 0 -0.10310547400245618 0.0002345374584896996 0 -0.10345638933076738 0.00033786968715530073 0 -0.10315540459503483 0.00037643546871969294 0 -0.10345638933076738 0.00033786968715530073 0 -0.10333602992460481 0.00043555187104271528 0 -0.10333602992460481 0.00043555187104271528 0 -0.10360029686763056 0.00047369404208963943 0 -0.1031392203081066 0.00052569488861489613 0 -0.10345638933076738 0.00033786968715530073 0 -0.10333602992460481 0.00043555187104271528 0 -0.10360029686763056 0.00047369404208963943 0 -0.10360029686763056 0.00047369404208963943 0 -0.1031392203081066 0.00052569488861489613 0 -0.10386450831802864 0.00052520930954838205 0 -0.10345638933076738 0.00033786968715530073 0 -0.10360029686763056 0.00047369404208963943 0 -0.10390957799213832 0.00034905378706708625 0 -0.10360029686763056 0.00047369404208963943 0 -0.10390957799213832 0.00034905378706708625 0 -0.10397609831188188 0.00044760234669561288 0 -0.10211518440759858 0.0065374994042781956 0 -0.10160143755405476 0.0078682611935669087 0 -0.10414051958506639 0.0095624891140869642 0 -0.10257238735549189 0.0059509530098452576 0 -0.10211518440759858 0.0065374994042781956 0 -0.10414051958506639 0.0095624891140869642 0 -0.1027257089963189 0.0027728753909264207 0 -0.10367294576283856 0.0041336656350956791 0 -0.10315540459503483 0.00037643546871969294 0 -0.10333602992460481 0.00043555187104271528 0 -0.1031392203081066 0.00052569488861489613 0 -0.10155664370269799 0.0043475374308688539 0 -0.10198862783583663 0.0058926561135802056 0 -0.10153492174556708 0.0062915410251510795 0 -0.10257238735549189 0.0059509530098452576 0 -0.10198862783583663 0.0058926561135802056 0 -0.10211518440759858 0.0065374994042781956 0 -0.099949103300788336 0.0051579007094563825 0 -0.099894181415344271 0.0051337976948513664 0 -0.10198862783583663 0.0058926561135802056 0 -0.10211518440759858 0.0065374994042781956 0 -0.10153492174556708 0.0062915410251510795 0 -0.10211518440759858 0.0065374994042781956 0 -0.101485994019999 0.0063318115897708152 0 -0.10120634222012935 0.0068489300371545533 0 -0.10211518440759858 0.0065374994042781956 0 -0.10120634222012935 0.0068489300371545533 0 -0.10160143755405476 0.0078682611935669087 0 -0.10120634222012935 0.0068489300371545533 0 -0.10160143755405476 0.0078682611935669087 0 -0.10058579574150049 0.0073211275259653808 0 -0.101485994019999 0.0063318115897708152 0 -0.099962733508023233 0.0066488351498064629 0 -0.097629473314306617 0.005038031344594694 0 -0.099894181415344271 0.0051337976948513664 0 -0.097482951924331415 0.0047515158648289875 0 -0.10160143755405476 0.0078682611935669087 0 -0.10058579574150049 0.0073211275259653808 0 -0.10019344442345972 0.0080195809144579296 0 -0.10120634222012935 0.0068489300371545533 0 -0.10058579574150049 0.0073211275259653808 0 -0.099962733508023233 0.0066488351498064629 0 -0.099970766191794583 0.007224398216495051 0 -0.10019344442345972 0.0080195809144579296 0 -0.099027938225709988 0.0070799383959359551 0 -0.10058579574150049 0.0073211275259653808 0 -0.099970766191794583 0.007224398216495051 0 -0.099962733508023233 0.0066488351498064629 0 -0.10058579574150049 0.0073211275259653808 0 -0.099970766191794583 0.007224398216495051 0 -0.10019344442345972 0.0080195809144579296 0 -0.099027938225709988 0.0070799383959359551 0 -0.098184161873065862 0.0075538737549685426 0 -0.098741460901558553 0.0083857770714914192 0 -0.10019344442345972 0.0080195809144579296 0 -0.099027938225709988 0.0070799383959359551 0 -0.098741460901558553 0.0083857770714914192 0 -0.099970766191794583 0.007224398216495051 0 -0.099027938225709988 0.0070799383959359551 0 -0.099962733508023233 0.0066488351498064629 0 -0.099027938225709988 0.0070799383959359551 0 -0.099962733508023233 0.0066488351498064629 0 -0.097629473314306617 0.005038031344594694 0 -0.101485994019999 0.0063318115897708152 0 -0.10120634222012935 0.0068489300371545533 0 -0.099962733508023233 0.0066488351498064629 0 -0.097191102347588154 0.0078770558933492947 0 -0.097601299633471014 0.006791016360974329 0 -0.095814029340833842 0.0063179841138822192 0 -0.099027938225709988 0.0070799383959359551 0 -0.098184161873065862 0.0075538737549685426 0 -0.097601299633471014 0.006791016360974329 0 -0.097191102347588154 0.0078770558933492947 0 -0.098184161873065862 0.0075538737549685426 0 -0.098741460901558553 0.0083857770714914192 0 -0.097191102347588154 0.0078770558933492947 0 -0.098184161873065862 0.0075538737549685426 0 -0.097601299633471014 0.006791016360974329 0 -0.099027938225709988 0.0070799383959359551 0 -0.097601299633471014 0.006791016360974329 0 -0.097629473314306617 0.005038031344594694 0 -0.097601299633471014 0.006791016360974329 0 -0.097629473314306617 0.005038031344594694 0 -0.095814029340833842 0.0063179841138822192 0 -0.097446945582992231 0.0054478311775491249 0 -0.098715329677428493 0.0042768919866384651 0 -0.097889158727252137 0.0027654617525948227 0 -0.097446945582992231 0.0054478311775491249 0 -0.095935221791254063 0.0032661690804247395 0 -0.097889158727252137 0.0027654617525948227 0 -0.10101035026845634 0.0067707337147524214 0 -0.097446945582992231 0.0054478311775491249 0 -0.098715329677428493 0.0042768919866384651 0 -0.10101035026845634 0.0067707337147524214 0 -0.098715329677428493 0.0042768919866384651 0 -0.099671812016433853 0.0028442008593658114 0 -0.099894181415344271 0.0051337976948513664 0 -0.099543363160242357 0.0024050668980347936 0 -0.10155664370269799 0.0043475374308688539 0 -0.10043878212618858 0.00193764068878157 0 -0.10117348408476937 0.0022094436894523617 0 -0.10043878212618858 0.00193764068878157 0 -0.10117348408476937 0.0022094436894523617 0 -0.099787251290216761 -0.0012055571326397129 0 -0.10162838996783856 0.00097658740154841963 0 -0.10098636910528211 -0.00012510679558437314 0 -0.098715329677428493 0.0042768919866384651 0 -0.099671812016433853 0.0028442008593658114 0 -0.097889158727252137 0.0027654617525948227 0 -0.099671812016433853 0.0028442008593658114 0 -0.097889158727252137 0.0027654617525948227 0 -0.098050869394489065 0.00084004581026549878 0 -0.095935221791254063 0.0032661690804247395 0 -0.097889158727252137 0.0027654617525948227 0 -0.096085155785596871 0.0018358234872388076 0 -0.097889158727252137 0.0027654617525948227 0 -0.096085155785596871 0.0018358234872388076 0 -0.097091506116991508 0.0012303828102160138 0 -0.097889158727252137 0.0027654617525948227 0 -0.097091506116991508 0.0012303828102160138 0 -0.098050869394489065 0.00084004581026549878 0 -0.096085155785596871 0.0018358234872388076 0 -0.096207615304235453 0.0004357473582072333 0 -0.097091506116991508 0.0012303828102160138 0 -0.096207615304235453 0.0004357473582072333 0 -0.097221965550262343 0.00027470862620498796 0 -0.097091506116991508 0.0012303828102160138 0 -0.097221965550262343 0.00027470862620498796 0 -0.098050869394489065 0.00084004581026549878 0 -0.097537897527967349 -0.00041950009827978931 0 -0.097221965550262343 0.00027470862620498796 0 -0.097091506116991508 0.0012303828102160138 0 -0.098050869394489065 0.00084004581026549878 0 -0.09836035880891314 -0.0010847484530840494 0 -0.096985664807458613 -0.0010999331224904297 0 -0.097537897527967349 -0.00041950009827978931 0 -0.09836035880891314 -0.0010847484530840494 0 -0.098050869394489065 0.00084004581026549878 0 -0.097537897527967349 -0.00041950009827978931 0 -0.096985664807458613 -0.0010999331224904297 0 -0.097537897527967349 -0.00041950009827978931 0 -0.096788265307885979 -0.00034932106581756357 0 -0.097221965550262343 0.00027470862620498796 0 -0.097537897527967349 -0.00041950009827978931 0 -0.096788265307885979 -0.00034932106581756357 0 -0.096207615304235453 0.0004357473582072333 0 -0.097221965550262343 0.00027470862620498796 0 -0.096788265307885979 -0.00034932106581756357 0 -0.096985664807458613 -0.0010999331224904297 0 -0.096788265307885979 -0.00034932106581756357 0 -0.096003042242085293 -0.0006357304865319414 0 -0.096207615304235453 0.0004357473582072333 0 -0.096788265307885979 -0.00034932106581756357 0 -0.096003042242085293 -0.0006357304865319414 0 -0.09836035880891314 -0.0010847484530840494 0 -0.099671812016433853 0.0028442008593658114 0 -0.098050869394489065 0.00084004581026549878 0 -0.10185540098885586 0.00017694913032572447 0 -0.10119291376585206 -0.00075644700945933115 0 -0.099787251290216761 -0.0012055571326397129 0 -0.099261014830322902 -0.0020022435959270754 0 -0.10043878212618858 0.00193764068878157 0 -0.099787251290216761 -0.0012055571326397129 0 -0.09857304433688488 -0.001146210304516672 0 -0.099543363160242357 0.0024050668980347936 0 -0.10012112943152088 -0.0020536344624199026 0 -0.099261014830322902 -0.0020022435959270754 0 -0.099787251290216761 -0.0012055571326397129 0 -0.10012112943152088 -0.0020536344624199026 0 -0.099787251290216761 -0.0012055571326397129 0 -0.10087076566339756 -0.0015377887155892326 0 -0.10119291376585206 -0.00075644700945933115 0 -0.099787251290216761 -0.0012055571326397129 0 -0.10087076566339756 -0.0015377887155892326 0 -0.10186988697841382 -0.001994988483222208 0 -0.10087076566339756 -0.0015377887155892326 0 -0.10178383415325382 -0.0010706458846275544 0 -0.10186988697841382 -0.001994988483222208 0 -0.10258294365196753 -0.0013826604870396343 0 -0.10178383415325382 -0.0010706458846275544 0 -0.10305331357158488 -0.0023569382188521463 0 -0.10186988697841382 -0.001994988483222208 0 -0.10258294365196753 -0.0013826604870396343 0 -0.10258294365196753 -0.0013826604870396343 0 -0.10266463370296659 -0.00067746934443672392 0 -0.10178383415325382 -0.0010706458846275544 0 -0.10266463370296659 -0.00067746934443672392 0 -0.10178383415325382 -0.0010706458846275544 0 -0.10184158685283591 -0.00035841059959389724 0 -0.10119291376585206 -0.00075644700945933115 0 -0.10178383415325382 -0.0010706458846275544 0 -0.10184158685283591 -0.00035841059959389724 0 -0.10119291376585206 -0.00075644700945933115 0 -0.10087076566339756 -0.0015377887155892326 0 -0.10178383415325382 -0.0010706458846275544 0 -0.10185540098885586 0.00017694913032572447 0 -0.10119291376585206 -0.00075644700945933115 0 -0.10184158685283591 -0.00035841059959389724 0 -0.10184158685283591 -0.00035841059959389724 0 -0.10255324313039406 -0.00019550616391812454 0 -0.10211679606035731 -6.0353559499821673e-05 0 -0.10266463370296659 -0.00067746934443672392 0 -0.10184158685283591 -0.00035841059959389724 0 -0.10255324313039406 -0.00019550616391812454 0 -0.10255324313039406 -0.00019550616391812454 0 -0.10289051056961733 7.3354415888132556e-05 0 -0.10242125317394001 6.7385984330328475e-05 0 -0.10255324313039406 -0.00019550616391812454 0 -0.10242125317394001 6.7385984330328475e-05 0 -0.10211679606035731 -6.0353559499821673e-05 0 -0.10185540098885586 0.00017694913032572447 0 -0.10184158685283591 -0.00035841059959389724 0 -0.10211679606035731 -6.0353559499821673e-05 0 -0.10273132288437065 0.00027093646819030103 0 -0.10185540098885586 0.00017694913032572447 0 -0.10242125317394001 6.7385984330328475e-05 0 -0.10185540098885586 0.00017694913032572447 0 -0.10242125317394001 6.7385984330328475e-05 0 -0.10211679606035731 -6.0353559499821673e-05 0 -0.10336590180158943 4.0619108991635214e-05 0 -0.10373863807775788 -0.0003180337443661359 0 -0.10374068024899309 0.00015723987744317711 0 -0.10336590180158943 4.0619108991635214e-05 0 -0.10323286316897658 -0.00036526683123293697 0 -0.10373863807775788 -0.0003180337443661359 0 -0.10289051056961733 7.3354415888132556e-05 0 -0.10336590180158943 4.0619108991635214e-05 0 -0.10323286316897658 -0.00036526683123293697 0 -0.10255324313039406 -0.00019550616391812454 0 -0.10289051056961733 7.3354415888132556e-05 0 -0.10323286316897658 -0.00036526683123293697 0 -0.10266463370296659 -0.00067746934443672392 0 -0.10255324313039406 -0.00019550616391812454 0 -0.10323286316897658 -0.00036526683123293697 0 -0.10323286316897658 -0.00036526683123293697 0 -0.10351599588201525 -0.00096880247764647744 0 -0.10373863807775788 -0.0003180337443661359 0 -0.10366315272493905 -0.0012068052989799053 0 -0.10351599588201525 -0.00096880247764647744 0 -0.10380050882639509 -0.00083536612151022488 0 -0.10266463370296659 -0.00067746934443672392 0 -0.10323286316897658 -0.00036526683123293697 0 -0.10351599588201525 -0.00096880247764647744 0 -0.10258294365196753 -0.0013826604870396343 0 -0.10266463370296659 -0.00067746934443672392 0 -0.10351599588201525 -0.00096880247764647744 0 -0.10305331357158488 -0.0023569382188521463 0 -0.10258294365196753 -0.0013826604870396343 0 -0.10351599588201525 -0.00096880247764647744 0 -0.10400500411129068 -0.0011602333458764092 0 -0.10380050882639509 -0.00083536612151022488 0 -0.10420305164207008 -0.00037372162078924475 0 -0.10380050882639509 -0.00083536612151022488 0 -0.10420305164207008 -0.00037372162078924475 0 -0.10373863807775788 -0.0003180337443661359 0 -0.10351599588201525 -0.00096880247764647744 0 -0.10380050882639509 -0.00083536612151022488 0 -0.10373863807775788 -0.0003180337443661359 0 -0.10415726932835463 -9.3784156871712894e-05 0 -0.10419591094429285 -5.3687614625620543e-05 0 -0.10420305164207008 -0.00037372162078924475 0 -0.092549433382405469 0.0031690279772643758 0 -0.0941041949137712 0.0026238759962963448 0 -0.10421174825193136 -0.00012598027380339433 0 -0.1042638613241159 -0.00013511272605801905 0 -0.10426875552328164 6.3409936864841296e-05 0 -0.10420305164207008 -0.00037372162078924475 0 -0.10421174825193136 -0.00012598027380339433 0 -0.10401479504817107 1.1476708423621825e-06 0 -0.10420305164207008 -0.00037372162078924475 0 -0.10421174825193136 -0.00012598027380339433 0 -0.1042638613241159 -0.00013511272605801905 0 -0.10420305164207008 -0.00037372162078924475 0 -0.10373863807775788 -0.0003180337443661359 0 -0.10401479504817107 1.1476708423621825e-06 0 -0.10373863807775788 -0.0003180337443661359 0 -0.10374068024899309 0.00015723987744317711 0 -0.10401479504817107 1.1476708423621825e-06 0 -0.10407044115117717 -1.336656406448966e-05 0 -0.10418151338693615 -7.7612106651500147e-05 0 -0.10432653957425232 -7.1443984583316624e-05 0 -0.099844142871497676 0.014582767087128438 0 -0.10340889117643959 0.0099843600967147363 0 -0.10418151338693615 -7.7612106651500147e-05 0 -0.1042638613241159 -0.00013511272605801905 0 -0.10432653957425232 -7.1443984583316624e-05 0 -0.10415726932835463 -9.3784156871712894e-05 0 -0.10420305164207008 -0.00037372162078924475 0 -0.1042638613241159 -0.00013511272605801905 0 -0.10415726932835463 -9.3784156871712894e-05 0 -0.10418151338693615 -7.7612106651500147e-05 0 -0.1042638613241159 -0.00013511272605801905 0 -0.1042638613241159 -0.00013511272605801905 0 -0.10432653957425232 -7.1443984583316624e-05 0 -0.10437726756522402 3.9146722219592854e-05 0 -0.10452211554151961 0.0001379719711164683 0 -0.10437726756522402 3.9146722219592854e-05 0 -0.1044533163815667 0.0002418200914536133 0 -0.10340889117643959 0.0099843600967147363 0 -0.10488542164720173 0.0059605615577723748 0 -0.10432653957425232 -7.1443984583316624e-05 0 -0.10452211554151961 0.0001379719711164683 0 -0.10437726756522402 3.9146722219592854e-05 0 -0.1042638613241159 -0.00013511272605801905 0 -0.10437726756522402 3.9146722219592854e-05 0 -0.10426875552328164 6.3409936864841296e-05 0 -0.10437726756522402 3.9146722219592854e-05 0 -0.1044533163815667 0.0002418200914536133 0 -0.10426875552328164 6.3409936864841296e-05 0 -0.10452211554151961 0.0001379719711164683 0 -0.1044533163815667 0.0002418200914536133 0 -0.10460044669637056 0.00029580307786339084 0 -0.10488542164720173 0.0059605615577723748 0 -0.1052922679877806 0.0030550813203888629 0 -0.10407502715174041 0.00019842197010279611 0 -0.10374068024899309 0.00015723987744317711 0 -0.10390957799213832 0.00034905378706708625 0 -0.10407502715174041 0.00019842197010279611 0 -0.10374068024899309 0.00015723987744317711 0 -0.10401479504817107 1.1476708423621825e-06 0 -0.10407502715174041 0.00019842197010279611 0 -0.10401479504817107 1.1476708423621825e-06 0 -0.10426875552328164 6.3409936864841296e-05 0 -0.10421174825193136 -0.00012598027380339433 0 -0.10401479504817107 1.1476708423621825e-06 0 -0.10426875552328164 6.3409936864841296e-05 0 -0.10407502715174041 0.00019842197010279611 0 -0.10426875552328164 6.3409936864841296e-05 0 -0.10424986806163954 0.00028112941539039637 0 -0.1044533163815667 0.0002418200914536133 0 -0.10426875552328164 6.3409936864841296e-05 0 -0.10424986806163954 0.00028112941539039637 0 -0.1044533163815667 0.0002418200914536133 0 -0.10424986806163954 0.00028112941539039637 0 -0.10444425637271863 0.00035175837589907795 0 -0.10424986806163954 0.00028112941539039637 0 -0.10390957799213832 0.00034905378706708625 0 -0.10418269606615872 0.00038250920861384176 0 -0.10407502715174041 0.00019842197010279611 0 -0.10424986806163954 0.00028112941539039637 0 -0.10390957799213832 0.00034905378706708625 0 -0.10390957799213832 0.00034905378706708625 0 -0.10397609831188188 0.00044760234669561288 0 -0.10418269606615872 0.00038250920861384176 0 -0.10397609831188188 0.00044760234669561288 0 -0.10426247970256682 0.00042424091447213315 0 -0.10418269606615872 0.00038250920861384176 0 -0.10424986806163954 0.00028112941539039637 0 -0.10418269606615872 0.00038250920861384176 0 -0.10444425637271863 0.00035175837589907795 0 -0.10426247970256682 0.00042424091447213315 0 -0.10418269606615872 0.00038250920861384176 0 -0.10444425637271863 0.00035175837589907795 0 -0.10426247970256682 0.00042424091447213315 0 -0.10444425637271863 0.00035175837589907795 0 -0.10452307211718494 0.00037369596604151193 0 -0.10444425637271863 0.00035175837589907795 0 -0.10452307211718494 0.00037369596604151193 0 -0.10470482433642743 0.00026995226072282273 0 -0.10452307211718494 0.00037369596604151193 0 -0.10439031728203611 0.00042831843706305091 0 -0.10457661094274166 0.0003914753098479411 0 -0.10426247970256682 0.00042424091447213315 0 -0.10439031728203611 0.00042831843706305091 0 -0.10386450831802864 0.00052520930954838205 0 -0.10439031728203611 0.00042831843706305091 0 -0.10457661094274166 0.0003914753098479411 0 -0.10435458033039009 0.00046625528629615058 0 -0.10426247970256682 0.00042424091447213315 0 -0.10452307211718494 0.00037369596604151193 0 -0.10439031728203611 0.00042831843706305091 0 -0.1044533163815667 0.0002418200914536133 0 -0.10460044669637056 0.00029580307786339084 0 -0.10462774569120291 0.00030751645702408245 0 -0.1044533163815667 0.0002418200914536133 0 -0.10444425637271863 0.00035175837589907795 0 -0.10462774569120291 0.00030751645702408245 0 -0.10444425637271863 0.00035175837589907795 0 -0.10462774569120291 0.00030751645702408245 0 -0.10470482433642743 0.00026995226072282273 0 -0.1052922679877806 0.0030550813203888629 0 -0.10523065637172202 0.001313432932942936 0 -0.10460044669637056 0.00029580307786339084 0 -0.10462774569120291 0.00030751645702408245 0 -0.10469774142061403 0.00023530583725978282 0 -0.10462774569120291 0.00030751645702408245 0 -0.10469774142061403 0.00023530583725978282 0 -0.10482463776933447 0.00016242702867352987 0 -0.10462774569120291 0.00030751645702408245 0 -0.10482463776933447 0.00016242702867352987 0 -0.10470482433642743 0.00026995226072282273 0 -0.10482463776933447 0.00016242702867352987 0 -0.10470482433642743 0.00026995226072282273 0 -0.10485190833429098 0.00014215968108237072 0 -0.10482463776933447 0.00016242702867352987 0 -0.10499978148866745 1.1802626109247363e-07 0 -0.10485190833429098 0.00014215968108237072 0 -0.10469774142061403 0.00023530583725978282 0 -0.10482463776933447 0.00016242702867352987 0 -0.10499951662379077 1.1936753582854028e-07 0 -0.10482463776933447 0.00016242702867352987 0 -0.10499978148866745 1.1802626109247363e-07 0 -0.10499951662379077 1.1936753582854028e-07 0 -0.10523065637172202 0.001313432932942936 0 -0.10500048658026515 1.45417573434695e-06 0 -0.10457661094274166 0.0003914753098479411 0 -0.10471349922869533 0.00026081218917221237 0 -0.10475527864069045 0.00022528260981416302 0 -0.10471349922869533 0.00026081218917221237 0 -0.1048324537438175 0.00015827682610986265 0 -0.10475527864069045 0.00022528260981416302 0 -0.10427505978152668 0.001250629129054837 0 -0.10372394575099732 0.0034540927767856043 0 -0.10498875285272631 1.6356403595810053e-05 0 -0.10499189121393139 2.1515737377656151e-05 0 -0.10498403964449081 3.8233009885630419e-05 0 -0.10457661094274166 0.0003914753098479411 0 -0.10475527864069045 0.00022528260981416302 0 -0.10464221119025766 0.00044164596217459114 0 -0.10370338116945454 0.003349998902448055 0 -0.10372394575099732 0.0034540927767856043 0 -0.10452307211718494 0.00037369596604151193 0 -0.10457661094274166 0.0003914753098479411 0 -0.10471349922869533 0.00026081218917221237 0 -0.10452307211718494 0.00037369596604151193 0 -0.10470482433642743 0.00026995226072282273 0 -0.10471349922869533 0.00026081218917221237 0 -0.10470482433642743 0.00026995226072282273 0 -0.10471349922869533 0.00026081218917221237 0 -0.10485190833429098 0.00014215968108237072 0 -0.10499978148866745 1.1802626109247363e-07 0 -0.10485190833429098 0.00014215968108237072 0 -0.10499959162647513 2.7889414961717933e-07 0 -0.1048324537438175 0.00015827682610986265 0 -0.10485190833429098 0.00014215968108237072 0 -0.10499959162647513 2.7889414961717933e-07 0 -0.10471349922869533 0.00026081218917221237 0 -0.1048324537438175 0.00015827682610986265 0 -0.10485190833429098 0.00014215968108237072 0 -0.10499736487480399 2.2899386124598755e-06 0 -0.10427505978152668 0.001250629129054837 0 -0.10499998267828647 6.5961582750132171e-09 0 -0.10498875285272631 1.6356403595810053e-05 0 -0.10499998184701068 9.1491096941766865e-09 0 -0.1048324537438175 0.00015827682610986265 0 -0.10499959162647513 2.7889414961717933e-07 0 -0.10475527864069045 0.00022528260981416302 0 -0.10498875285272631 1.6356403595810053e-05 0 -0.10499998184701068 9.1491096941766865e-09 0 -0.10499189121393139 2.1515737377656151e-05 0 -0.10499998184701068 9.1491096941766865e-09 0 -0.10499696786286977 2.4593642049655571e-05 0 -0.10499189121393139 2.1515737377656151e-05 0 -0.10499998184701068 9.1491096941766865e-09 0 -0.10500003082558541 1.8651702946480791e-08 0 -0.10499696786286977 2.4593642049655571e-05 0 -0.10500003082558541 1.8651702946480791e-08 0 -0.10499696786286977 2.4593642049655571e-05 0 -0.10500815514103849 2.9130685286373872e-05 0 -0.10499696786286977 2.4593642049655571e-05 0 -0.10499747553001486 6.5596224937423126e-05 0 -0.10500815514103849 2.9130685286373872e-05 0 -0.10499696786286977 2.4593642049655571e-05 0 -0.10498403964449081 3.8233009885630419e-05 0 -0.10499747553001486 6.5596224937423126e-05 0 -0.10499696786286977 2.4593642049655571e-05 0 -0.10499189121393139 2.1515737377656151e-05 0 -0.10498403964449081 3.8233009885630419e-05 0 -0.10574459369559856 0.013014263435760688 0 -0.10168269524820703 0.011268164865441776 0 -0.10414051958506639 0.0095624891140869642 0 -0.10372394575099732 0.0034540927767856043 0 -0.10327389798615455 0.0045967158000202978 0 -0.10439031728203611 0.00042831843706305091 0 -0.10435458033039009 0.00046625528629615058 0 -0.10386450831802864 0.00052520930954838205 0 -0.10372394575099732 0.0034540927767856043 0 -0.10367294576283856 0.0041336656350956791 0 -0.10160143755405476 0.0078682611935669087 0 -0.1014481417987068 0.0090351027065792202 0 -0.10414051958506639 0.0095624891140869642 0 -0.10168269524820703 0.011268164865441776 0 -0.1014481417987068 0.0090351027065792202 0 -0.10414051958506639 0.0095624891140869642 0 -0.10168269524820703 0.011268164865441776 0 -0.1014481417987068 0.0090351027065792202 0 -0.099916452994185917 0.0089807340697309144 0 -0.10160143755405476 0.0078682611935669087 0 -0.10019344442345972 0.0080195809144579296 0 -0.1014481417987068 0.0090351027065792202 0 -0.10397609831188188 0.00044760234669561288 0 -0.10426247970256682 0.00042424091447213315 0 -0.10386450831802864 0.00052520930954838205 0 -0.10360029686763056 0.00047369404208963943 0 -0.10397609831188188 0.00044760234669561288 0 -0.10386450831802864 0.00052520930954838205 0 -0.097191102347588154 0.0078770558933492947 0 -0.097492273653714406 0.0095126451166709525 0 -0.094299041266171613 0.008143086515172265 0 -0.097191102347588154 0.0078770558933492947 0 -0.097508563247457117 0.0094939592545708884 0 -0.098741460901558553 0.0083857770714914192 0 -0.10104697146546694 0.004809177945473731 0 -0.10114191428145715 0.0042463029253823241 0 -0.10019344442345972 0.0080195809144579296 0 -0.098741460901558553 0.0083857770714914192 0 -0.099916452994185917 0.0089807340697309144 0 -0.10168269524820703 0.011268164865441776 0 -0.097508563247457117 0.0094939592545708884 0 -0.099916452994185917 0.0089807340697309144 0 -0.10327389798615455 0.0045967158000202978 0 -0.10114191428145715 0.0042463029253823241 0 -0.097508563247457117 0.0094939592545708884 0 -0.098741460901558553 0.0083857770714914192 0 -0.099916452994185917 0.0089807340697309144 0 -0.10019344442345972 0.0080195809144579296 0 -0.1014481417987068 0.0090351027065792202 0 -0.099916452994185917 0.0089807340697309144 0 -0.10499747553001486 6.5596224937423126e-05 0 -0.10502356564309767 9.6676278403839825e-05 0 -0.10502495029821278 4.8858637211694087e-05 0 -0.10114191428145715 0.0042463029253823241 0 -0.1026845429385108 0.0021438154791426065 0 -0.099707743221643802 0.0030848867372751418 0 -0.09986862418717779 0.0039305932507304932 0 -0.0992250523379027 0.0035646776159476428 0 -0.09986862418717779 0.0039305932507304932 0 -0.099440245315412748 0.0041801024562715308 0 -0.0992250523379027 0.0035646776159476428 0 -0.09986862418717779 0.0039305932507304932 0 -0.099440245315412748 0.0041801024562715308 0 -0.10003297624741785 0.0047754401955790657 0 -0.1026845429385108 0.0021438154791426065 0 -0.10445525833912502 0.00063412271358180995 0 -0.10502495029821278 4.8858637211694087e-05 0 -0.10500815514103849 2.9130685286373872e-05 0 -0.10502160319672478 7.5778948058720141e-06 0 -0.10499747553001486 6.5596224937423126e-05 0 -0.10502495029821278 4.8858637211694087e-05 0 -0.10500815514103849 2.9130685286373872e-05 0 -0.10500003082558541 1.8651702946480791e-08 0 -0.10500815514103849 2.9130685286373872e-05 0 -0.10502160319672478 7.5778948058720141e-06 0 -0.10445525833912502 0.00063412271358180995 0 -0.10499134931461487 5.4908419986678449e-06 0 -0.10499895487426018 2.1395476902694619e-06 0 -0.10445525833912502 0.00063412271358180995 0 -0.10500000057645183 -5.4930384584919425e-11 0 -0.10499976252370792 3.7195824884571454e-07 0 -0.10499999758896704 1.5064342101985518e-09 0 -0.099440245315412748 0.0041801024562715308 0 -0.10003297624741785 0.0047754401955790657 0 -0.099244919032087722 0.0046119432405295263 0 -0.10445525833912502 0.00063412271358180995 0 -0.10260357785167847 0.0015308926312482421 0 -0.10499967544989783 4.2041013157896649e-07 0 -0.10500001516350474 -6.5109728854800611e-09 0 -0.10499915216968052 -5.0744274397388232e-07 0 -0.10500001516350474 -6.5109728854800611e-09 0 -0.10499915216968052 -5.0744274397388232e-07 0 -0.10499996434712501 1.8436588206540649e-08 0 -0.10260357785167847 0.0015308926312482421 0 -0.10159775011718641 0.0021909504209092802 0 -0.10499915216968052 -5.0744274397388232e-07 0 -0.10499996434712501 1.8436588206540649e-08 0 -0.10497811348469262 1.7677695788013565e-06 0 -0.10500000491209191 -1.4283449512487038e-09 0 -0.10499999149656709 2.4725610894127693e-09 0 -0.10500036369854231 -4.7153407867479394e-07 0 -0.10499998872122135 1.2254504803175846e-09 0 -0.10499378837053733 3.9690641244219136e-08 0 -0.10499996434712501 1.8436588206540649e-08 0 -0.10497811348469262 1.7677695788013565e-06 0 -0.10497777510725224 2.6846603809115186e-06 0 -0.098454417748435705 0.0044430539799726592 0 -0.098827745333178313 0.0040166777130658683 0 -0.098296158501973735 0.0038275170749016282 0 -0.099244919032087722 0.0046119432405295263 0 -0.098454417748435705 0.0044430539799726592 0 -0.098827745333178313 0.0040166777130658683 0 -0.099440245315412748 0.0041801024562715308 0 -0.099244919032087722 0.0046119432405295263 0 -0.098827745333178313 0.0040166777130658683 0 -0.099440245315412748 0.0041801024562715308 0 -0.098827745333178313 0.0040166777130658683 0 -0.0992250523379027 0.0035646776159476428 0 -0.10499590865480384 2.0222349209172773e-06 0 -0.10499999149656709 2.4725610894127693e-09 0 -0.10499999156245947 5.5895404124581e-09 0 -0.10499590865480384 2.0222349209172773e-06 0 -0.10498883377216396 5.1249149282323511e-06 0 -0.10499999156245947 5.5895404124581e-09 0 -0.10497777510725224 2.6846603809115186e-06 0 -0.10498635487469542 6.877812427168446e-06 0 -0.10498883377216396 5.1249149282323511e-06 0 -0.10497811348469262 1.7677695788013565e-06 0 -0.10497777510725224 2.6846603809115186e-06 0 -0.10498635487469542 6.877812427168446e-06 0 -0.10499378837053733 3.9690641244219136e-08 0 -0.10499323470743642 9.1106791852220082e-07 0 -0.10499590865480384 2.0222349209172773e-06 0 -0.10500036369854231 -4.7153407867479394e-07 0 -0.10498883377216396 5.1249149282323511e-06 0 -0.10499590865480384 2.0222349209172773e-06 0 -0.10499999149656709 2.4725610894127693e-09 0 -0.10500036369854231 -4.7153407867479394e-07 0 -0.097678673524214402 0.0042671164335665313 0 -0.097896156874844237 0.0036923881198332805 0 -0.098296158501973735 0.0038275170749016282 0 -0.10159775011718641 0.0021909504209092802 0 -0.10027813240508575 0.0027797761364901016 0 -0.098454417748435705 0.0044430539799726592 0 -0.097678673524214402 0.0042671164335665313 0 -0.098296158501973735 0.0038275170749016282 0 -0.097678673524214402 0.0042671164335665313 0 -0.097489348997755423 0.0034689523638350814 0 -0.096917430881275565 0.0040962673413495101 0 -0.10498635487469542 6.877812427168446e-06 0 -0.10498883377216396 5.1249149282323511e-06 0 -0.10498564389879619 8.2017738004940987e-06 0 -0.10027813240508575 0.0027797761364901016 0 -0.096664348101307043 0.0032829059954688697 0 -0.097678673524214402 0.0042671164335665313 0 -0.097489348997755423 0.0034689523638350814 0 -0.097896156874844237 0.0036923881198332805 0 -0.097489348997755423 0.0034689523638350814 0 -0.097896156874844237 0.0036923881198332805 0 -0.098166580729985575 0.0033378799380262558 0 -0.097896156874844237 0.0036923881198332805 0 -0.098296158501973735 0.0038275170749016282 0 -0.098166580729985575 0.0033378799380262558 0 -0.095365900244773996 0.0042823536447230961 0 -0.095073848699242056 0.0043300580828610664 0 -0.097489348997755423 0.0034689523638350814 0 -0.098166580729985575 0.0033378799380262558 0 -0.098049317059203764 0.002854242519524776 0 -0.095073848699242056 0.0043300580828610664 0 -0.094205809924491318 0.0047694932440007541 0 -0.098177289586580285 0.0033155887899832927 0 -0.09805710117506751 0.0028057906628991 0 -0.098442269396055021 0.002977458829229427 0 -0.086934595403983461 0.0095092933455168012 0 -0.089155871286584504 0.0070543154718701907 0 -0.086969587013215124 0.0062989786437284475 0 -0.093635193392412303 0.0057702782370077895 0 -0.094205809924491318 0.0047694932440007541 0 -0.086934595403983461 0.0095092933455168012 0 -0.086969587013215124 0.0062989786437284475 0 -0.084796019756958149 0.0070205685506254658 0 -0.098827745333178313 0.0040166777130658683 0 -0.0992250523379027 0.0035646776159476428 0 -0.098665417343976533 0.0034147227351881073 0 -0.098827745333178313 0.0040166777130658683 0 -0.098296158501973735 0.0038275170749016282 0 -0.098665417343976533 0.0034147227351881073 0 -0.098296158501973735 0.0038275170749016282 0 -0.098177289586580285 0.0033155887899832927 0 -0.098665417343976533 0.0034147227351881073 0 -0.098665417343976533 0.0034147227351881073 0 -0.098442269396055021 0.002977458829229427 0 -0.099022758583277221 0.0027884956482786367 0 -0.098177289586580285 0.0033155887899832927 0 -0.098665417343976533 0.0034147227351881073 0 -0.098442269396055021 0.002977458829229427 0 -0.0992250523379027 0.0035646776159476428 0 -0.098665417343976533 0.0034147227351881073 0 -0.099022758583277221 0.0027884956482786367 0 -0.099707743221643802 0.0030848867372751418 0 -0.0992250523379027 0.0035646776159476428 0 -0.099022758583277221 0.0027884956482786367 0 -0.10114191428145715 0.0042463029253823241 0 -0.097477310496119976 0.0044249007756824036 0 -0.097191102347588154 0.0078770558933492947 0 -0.094299041266171613 0.008143086515172265 0 -0.095814029340833842 0.0063179841138822192 0 -0.094299041266171613 0.008143086515172265 0 -0.093748809298665345 0.0059120563724550847 0 -0.095814029340833842 0.0063179841138822192 0 -0.097482951924331415 0.0047515158648289875 0 -0.094408223253605539 0.0038562207566920281 0 -0.097446945582992231 0.0054478311775491249 0 -0.095935221791254063 0.0032661690804247395 0 -0.093819936653928265 0.004118068133168549 0 -0.093748809298665345 0.0059120563724550847 0 -0.095814029340833842 0.0063179841138822192 0 -0.093844595911572334 0.0037918461553359943 0 -0.097629473314306617 0.005038031344594694 0 -0.095814029340833842 0.0063179841138822192 0 -0.093844595911572334 0.0037918461553359943 0 -0.093844595911572334 0.0037918461553359943 0 -0.092222258434249721 0.0047333471666342599 0 -0.090181289304488543 0.0026734817463692894 0 -0.092222258434249721 0.0047333471666342599 0 -0.090641166437972695 0.004694570262010987 0 -0.090181289304488543 0.0026734817463692894 0 -0.093748809298665345 0.0059120563724550847 0 -0.092222258434249721 0.0047333471666342599 0 -0.091687487119399252 0.0062488642831345096 0 -0.093748809298665345 0.0059120563724550847 0 -0.093844595911572334 0.0037918461553359943 0 -0.092222258434249721 0.0047333471666342599 0 -0.092222258434249721 0.0047333471666342599 0 -0.091324867680617441 0.005355458137992257 0 -0.090641166437972695 0.004694570262010987 0 -0.092222258434249721 0.0047333471666342599 0 -0.091324867680617441 0.005355458137992257 0 -0.091687487119399252 0.0062488642831345096 0 -0.091324867680617441 0.005355458137992257 0 -0.091687487119399252 0.0062488642831345096 0 -0.09075795852832666 0.0057488858686687225 0 -0.091687487119399252 0.0062488642831345096 0 -0.091193867679022655 0.0067885740399490123 0 -0.09075795852832666 0.0057488858686687225 0 -0.098442269396055021 0.002977458829229427 0 -0.099022758583277221 0.0027884956482786367 0 -0.098337824876142926 0.00249323972532266 0 -0.094299041266171613 0.008143086515172265 0 -0.093748809298665345 0.0059120563724550847 0 -0.091687487119399252 0.0062488642831345096 0 -0.097477310496119976 0.0044249007756824036 0 -0.094637125230161073 0.0043965873964676751 0 -0.094299041266171613 0.008143086515172265 0 -0.091687487119399252 0.0062488642831345096 0 -0.09118617938515837 0.0068058625514960105 0 -0.094541881287267107 0.0044889697820673091 0 -0.094637125230161073 0.0043965873964676751 0 -0.09805710117506751 0.0028057906628991 0 -0.098442269396055021 0.002977458829229427 0 -0.098337824876142926 0.00249323972532266 0 -0.093880195105388919 0.0038953613677198597 0 -0.092964906610503384 0.004911534469208086 0 -0.094238053867158292 0.0054740396108120528 0 -0.089155871286584504 0.0070543154718701907 0 -0.088737069877393243 0.0052355180098636652 0 -0.086969587013215124 0.0062989786437284475 0 -0.094205809924491318 0.0047694932440007541 0 -0.094637125230161073 0.0043965873964676751 0 -0.094205809924491318 0.0047694932440007541 0 -0.092614734873807295 0.0038651835950010691 0 -0.091193867679022655 0.0067885740399490123 0 -0.089471647915394859 0.00602529863530129 0 -0.09075795852832666 0.0057488858686687225 0 -0.094637125230161073 0.0043965873964676751 0 -0.092614734873807295 0.0038651835950010691 0 -0.088737069877393243 0.0052355180098636652 0 -0.086969587013215124 0.0062989786437284475 0 -0.087120861935770649 0.0045286898150683841 0 -0.086969587013215124 0.0062989786437284475 0 -0.087120861935770649 0.0045286898150683841 0 -0.085485229889740152 0.0044950784086414388 0 -0.088791053116960658 0.005264012061791409 0 -0.087120861935770649 0.0045286898150683841 0 -0.088215753584545684 0.0026222996470022242 0 -0.087120861935770649 0.0045286898150683841 0 -0.086776263303329548 0.0032250560827640266 0 -0.085485229889740152 0.0044950784086414388 0 -0.092614734873807295 0.0038651835950010691 0 -0.091530302231483521 0.0036193837014119571 0 -0.087120861935770649 0.0045286898150683841 0 -0.086776263303329548 0.0032250560827640266 0 -0.088215753584545684 0.0026222996470022242 0 -0.092614734873807295 0.0038651835950010691 0 -0.090924882772036281 0.0024982235527565926 0 -0.089471647915394859 0.00602529863530129 0 -0.089751892205485545 0.004109654166924292 0 -0.088709867497593783 0.0030511282549336208 0 -0.089471647915394859 0.00602529863530129 0 -0.090641166437972695 0.004694570262010987 0 -0.09075795852832666 0.0057488858686687225 0 -0.089471647915394859 0.00602529863530129 0 -0.090641166437972695 0.004694570262010987 0 -0.089751892205485545 0.004109654166924292 0 -0.091324867680617441 0.005355458137992257 0 -0.090641166437972695 0.004694570262010987 0 -0.09075795852832666 0.0057488858686687225 0 -0.090641166437972695 0.004694570262010987 0 -0.089751892205485545 0.004109654166924292 0 -0.090181289304488543 0.0026734817463692894 0 -0.088709867497593783 0.0030511282549336208 0 -0.087806092862684884 -7.3028417111607155e-05 0 -0.089611739861220396 0.00080969502046950091 0 -0.089751892205485545 0.004109654166924292 0 -0.090181289304488543 0.0026734817463692894 0 -0.088709867497593783 0.0030511282549336208 0 -0.090181289304488543 0.0026734817463692894 0 -0.088709867497593783 0.0030511282549336208 0 -0.089611739861220396 0.00080969502046950091 0 -0.090181289304488543 0.0026734817463692894 0 -0.089611739861220396 0.00080969502046950091 0 -0.091014608544990813 0.0010579953027249087 0 -0.090924882772036281 0.0024982235527565926 0 -0.090286702400164134 0.0014859473923243514 0 -0.088215753584545684 0.0026222996470022242 0 -0.086813105765505799 0.0018706247352009897 0 -0.087806092862684884 -7.3028417111607155e-05 0 -0.086776263303329548 0.0032250560827640266 0 -0.086813105765505799 0.0018706247352009897 0 -0.085635677887296091 0.002536874644975427 0 -0.086776263303329548 0.0032250560827640266 0 -0.088215753584545684 0.0026222996470022242 0 -0.086813105765505799 0.0018706247352009897 0 -0.087806092862684884 -7.3028417111607155e-05 0 -0.085702548338866424 0.00076036883522232694 0 -0.086465046503854753 -0.0019988902453321757 0 -0.086813105765505799 0.0018706247352009897 0 -0.087806092862684884 -7.3028417111607155e-05 0 -0.085702548338866424 0.00076036883522232694 0 -0.089611739861220396 0.00080969502046950091 0 -0.090908967692637621 -0.00042879241010366636 0 -0.091014608544990813 0.0010579953027249087 0 -0.087806092862684884 -7.3028417111607155e-05 0 -0.089611739861220396 0.00080969502046950091 0 -0.089054290403426911 -0.0014673078612245781 0 -0.089611739861220396 0.00080969502046950091 0 -0.090908967692637621 -0.00042879241010366636 0 -0.089054290403426911 -0.0014673078612245781 0 -0.090908967692637621 -0.00042879241010366636 0 -0.092236630746472509 0.00026933462676713508 0 -0.092285972852897122 -0.0011098625730630953 0 -0.090908967692637621 -0.00042879241010366636 0 -0.091014608544990813 0.0010579953027249087 0 -0.092236630746472509 0.00026933462676713508 0 -0.091014608544990813 0.0010579953027249087 0 -0.092236630746472509 0.00026933462676713508 0 -0.09244865421410145 0.0018843524102748162 0 -0.092236630746472509 0.00026933462676713508 0 -0.093641957229827502 0.00069876423594486092 0 -0.09244865421410145 0.0018843524102748162 0 -0.092236630746472509 0.00026933462676713508 0 -0.093498832618182648 -0.00063684507193736614 0 -0.093641957229827502 0.00069876423594486092 0 -0.092236630746472509 0.00026933462676713508 0 -0.093498832618182648 -0.00063684507193736614 0 -0.092285972852897122 -0.0011098625730630953 0 -0.093498832618182648 -0.00063684507193736614 0 -0.094916081848774148 -4.902919813024542e-05 0 -0.093641957229827502 0.00069876423594486092 0 -0.093498832618182648 -0.00063684507193736614 0 -0.094916081848774148 -4.902919813024542e-05 0 -0.094773272169265621 -0.0011119374695902186 0 -0.096003042242085293 -0.0006357304865319414 0 -0.094916081848774148 -4.902919813024542e-05 0 -0.094773272169265621 -0.0011119374695902186 0 -0.096207615304235453 0.0004357473582072333 0 -0.096003042242085293 -0.0006357304865319414 0 -0.094916081848774148 -4.902919813024542e-05 0 -0.096207615304235453 0.0004357473582072333 0 -0.094916081848774148 -4.902919813024542e-05 0 -0.09489392035769087 0.00097952779499691834 0 -0.096085155785596871 0.0018358234872388076 0 -0.096207615304235453 0.0004357473582072333 0 -0.09489392035769087 0.00097952779499691834 0 -0.09489392035769087 0.00097952779499691834 0 -0.093641957229827502 0.00069876423594486092 0 -0.094416860806776276 0.0021602841755498621 0 -0.094916081848774148 -4.902919813024542e-05 0 -0.09489392035769087 0.00097952779499691834 0 -0.093641957229827502 0.00069876423594486092 0 -0.093641957229827502 0.00069876423594486092 0 -0.094416860806776276 0.0021602841755498621 0 -0.09244865421410145 0.0018843524102748162 0 -0.096085155785596871 0.0018358234872388076 0 -0.09489392035769087 0.00097952779499691834 0 -0.094416860806776276 0.0021602841755498621 0 -0.095935221791254063 0.0032661690804247395 0 -0.096085155785596871 0.0018358234872388076 0 -0.094416860806776276 0.0021602841755498621 0 -0.095935221791254063 0.0032661690804247395 0 -0.093819936653928265 0.004118068133168549 0 -0.094416860806776276 0.0021602841755498621 0 -0.093819936653928265 0.004118068133168549 0 -0.094416860806776276 0.0021602841755498621 0 -0.09244865421410145 0.0018843524102748162 0 -0.093819936653928265 0.004118068133168549 0 -0.090181289304488543 0.0026734817463692894 0 -0.09244865421410145 0.0018843524102748162 0 -0.094408223253605539 0.0038562207566920281 0 -0.092670057464816366 0.0032867786861673436 0 -0.090181289304488543 0.0026734817463692894 0 -0.091014608544990813 0.0010579953027249087 0 -0.09244865421410145 0.0018843524102748162 0 -0.080776946657293638 0.00037203249118077032 0 -0.0833459091131451 0.0023053226163312905 0 -0.079499768326619549 0.0032143927478870023 0 -0.078311857470584403 0.00043537660147481712 0 -0.079499768326619549 0.0032143927478870023 0 -0.076084775306966487 0.0012771998901853748 0 -0.078311857470584403 0.00043537660147481712 0 -0.080776946657293638 0.00037203249118077032 0 -0.079499768326619549 0.0032143927478870023 0 -0.078311857470584403 0.00043537660147481712 0 -0.080776946657293638 0.00037203249118077032 0 -0.078335917098873997 -0.0019522670282235719 0 -0.080776946657293638 0.00037203249118077032 0 -0.080985906419667839 -0.0017742675696276054 0 -0.078335917098873997 -0.0019522670282235719 0 -0.0838755353439221 -0.00015414819312251427 0 -0.083482850662529681 0.0023449010951862026 0 -0.080776946657293638 0.00037203249118077032 0 -0.083825902679147468 -0.00064977069005514706 0 -0.0833459091131451 0.0023053226163312905 0 -0.080776946657293638 0.00037203249118077032 0 -0.083825902679147468 -0.00064977069005514706 0 -0.080985906419667839 -0.0017742675696276054 0 -0.084012383395687104 -0.00050976094355401893 0 -0.085702548338866424 0.00076036883522232694 0 -0.086465046503854753 -0.0019988902453321757 0 -0.084012383395687104 -0.00050976094355401893 0 -0.085702548338866424 0.00076036883522232694 0 -0.083636214025915478 0.0024822943775587311 0 -0.085702548338866424 0.00076036883522232694 0 -0.085635677887296091 0.002536874644975427 0 -0.083636214025915478 0.0024822943775587311 0 -0.086813105765505799 0.0018706247352009897 0 -0.085702548338866424 0.00076036883522232694 0 -0.085635677887296091 0.002536874644975427 0 -0.083482850662529681 0.0023449010951862026 0 -0.083094664469834364 0.0047875591088353785 0 -0.0833459091131451 0.0023053226163312905 0 -0.082937154034202584 0.0052172294746778026 0 -0.079499768326619549 0.0032143927478870023 0 -0.085635677887296091 0.002536874644975427 0 -0.083636214025915478 0.0024822943775587311 0 -0.085485229889740152 0.0044950784086414388 0 -0.083636214025915478 0.0024822943775587311 0 -0.085485229889740152 0.0044950784086414388 0 -0.083163986193895034 0.0052957018627484993 0 -0.086776263303329548 0.0032250560827640266 0 -0.085635677887296091 0.002536874644975427 0 -0.085485229889740152 0.0044950784086414388 0 -0.085485229889740152 0.0044950784086414388 0 -0.083163986193895034 0.0052957018627484993 0 -0.084796019756958149 0.0070205685506254658 0 -0.086969587013215124 0.0062989786437284475 0 -0.085485229889740152 0.0044950784086414388 0 -0.084796019756958149 0.0070205685506254658 0 -0.083094664469834364 0.0047875591088353785 0 -0.082885775916458279 0.0060810809052687792 0 -0.083163986193895034 0.0052957018627484993 0 -0.084796019756958149 0.0070205685506254658 0 -0.082585605462884668 0.0081186444816675769 0 -0.082937154034202584 0.0052172294746778026 0 -0.080344053310696606 0.0058701439346004617 0 -0.082585605462884668 0.0081186444816675769 0 -0.082937154034202584 0.0052172294746778026 0 -0.080344053310696606 0.0058701439346004617 0 -0.079499768326619549 0.0032143927478870023 0 -0.080401437898996425 0.0046212625794315653 0 -0.081405931892162456 0.0040088058108954999 0 -0.080344053310696606 0.0058701439346004617 0 -0.079499768326619549 0.0032143927478870023 0 -0.077716247078265632 0.0063371536016613283 0 -0.080344053310696606 0.0058701439346004617 0 -0.079690476982266903 0.0084529078504826331 0 -0.077716247078265632 0.0063371536016613283 0 -0.079690476982266903 0.0084529078504826331 0 -0.078150883623045925 0.0089401769020360424 0 -0.077984498334515526 0.0065366911876316228 0 -0.081288001294151979 0.0049541170508600012 0 -0.081405931892162456 0.0040088058108954999 0 -0.080344053310696606 0.0058701439346004617 0 -0.079690476982266903 0.0084529078504826331 0 -0.082585605462884668 0.0081186444816675769 0 -0.079690476982266903 0.0084529078504826331 0 -0.082585605462884668 0.0081186444816675769 0 -0.081624216329736626 0.011301308292287216 0 -0.092926023068150634 0.0026695841796035582 0 -0.094185258295946275 0.0034395223123446996 0 -0.079690476982266903 0.0084529078504826331 0 -0.078675563980598967 0.010553708161392644 0 -0.081624216329736626 0.011301308292287216 0 -0.079690476982266903 0.0084529078504826331 0 -0.078150883623045925 0.0089401769020360424 0 -0.078675563980598967 0.010553708161392644 0 -0.086934595403983461 0.0095092933455168012 0 -0.084796019756958149 0.0070205685506254658 0 -0.084621308216425259 0.0092977959572290245 0 -0.084796019756958149 0.0070205685506254658 0 -0.082585605462884668 0.0081186444816675769 0 -0.084621308216425259 0.0092977959572290245 0 -0.082585605462884668 0.0081186444816675769 0 -0.084621308216425259 0.0092977959572290245 0 -0.081624216329736626 0.011301308292287216 0 -0.084621308216425259 0.0092977959572290245 0 -0.084689773407362695 0.011990940013242643 0 -0.081624216329736626 0.011301308292287216 0 -0.093635193392412303 0.0057702782370077895 0 -0.096664348101307043 0.0032829059954688697 0 -0.086934595403983461 0.0095092933455168012 0 -0.084621308216425259 0.0092977959572290245 0 -0.084689773407362695 0.011990940013242643 0 -0.10498883377216396 5.1249149282323511e-06 0 -0.10498564389879619 8.2017738004940987e-06 0 -0.10499458441416237 2.8234134446444477e-06 0 -0.10490261211925793 4.386843874605762e-05 0 -0.10496735752389844 2.1165165494197625e-05 0 -0.10496594854541383 3.4573839425140077e-05 0 -0.096664348101307043 0.0032829059954688697 0 -0.094185258295946275 0.0034395223123446996 0 -0.096664348101307043 0.0032829059954688697 0 -0.10108007884272313 -7.7471255517462594e-05 0 -0.10499993934439351 1.7450566150866329e-10 0 -0.10499395381040584 -2.8495122092967292e-07 0 -0.10499458441416237 2.8234134446444477e-06 0 -0.10490261211925793 4.386843874605762e-05 0 -0.10496735752389844 2.1165165494197625e-05 0 -0.10499395381040584 -2.8495122092967292e-07 0 -0.10498564389879619 8.2017738004940987e-06 0 -0.10499395381040584 -2.8495122092967292e-07 0 -0.10499458441416237 2.8234134446444477e-06 0 -0.10499993934439351 1.7450566150866329e-10 0 -0.10499999156245947 5.5895404124581e-09 0 -0.10499458441416237 2.8234134446444477e-06 0 -0.10498883377216396 5.1249149282323511e-06 0 -0.10499999156245947 5.5895404124581e-09 0 -0.10499458441416237 2.8234134446444477e-06 0 -0.10496924305146153 1.4004588562380905e-05 0 -0.10498574912803006 1.1268109554713198e-05 0 -0.10498590033198837 6.7868865380134766e-06 0 -0.10496924305146153 1.4004588562380905e-05 0 -0.10496594854541383 3.4573839425140077e-05 0 -0.10498574912803006 1.1268109554713198e-05 0 -0.10496735752389844 2.1165165494197625e-05 0 -0.10496594854541383 3.4573839425140077e-05 0 -0.10498574912803006 1.1268109554713198e-05 0 -0.10499993934439351 1.7450566150866329e-10 0 -0.10499395381040584 -2.8495122092967292e-07 0 -0.10499998400034417 8.6342476877240037e-09 0 -0.10499395381040584 -2.8495122092967292e-07 0 -0.10498574912803006 1.1268109554713198e-05 0 -0.10499998400034417 8.6342476877240037e-09 0 -0.10496735752389844 2.1165165494197625e-05 0 -0.10499395381040584 -2.8495122092967292e-07 0 -0.10498574912803006 1.1268109554713198e-05 0 -0.10498574912803006 1.1268109554713198e-05 0 -0.10499998400034417 8.6342476877240037e-09 0 -0.10498590033198837 6.7868865380134766e-06 0 -0.10499998400034417 8.6342476877240037e-09 0 -0.10498590033198837 6.7868865380134766e-06 0 -0.10499997119679802 4.4042409329445499e-09 0 -0.10498590033198837 6.7868865380134766e-06 0 -0.10498042925392838 4.1639153078947148e-06 0 -0.10499997119679802 4.4042409329445499e-09 0 -0.10496924305146153 1.4004588562380905e-05 0 -0.10498590033198837 6.7868865380134766e-06 0 -0.10498042925392838 4.1639153078947148e-06 0 -0.10496924305146153 1.4004588562380905e-05 0 -0.10498042925392838 4.1639153078947148e-06 0 -0.10496020497891548 6.1017001077423516e-06 0 -0.10497769886315976 -2.3537544782804323e-06 0 -0.10496446074802465 -8.1553073589366476e-06 0 -0.10492614751364739 -2.7763993014185238e-06 0 -0.097759394882487874 -0.0018646648334460756 0 -0.093191577754174929 0.00082147210961590236 0 -0.10498042925392838 4.1639153078947148e-06 0 -0.10497769886315976 -2.3537544782804323e-06 0 -0.10496020497891548 6.1017001077423516e-06 0 -0.10498042925392838 4.1639153078947148e-06 0 -0.10499997119679802 4.4042409329445499e-09 0 -0.10497769886315976 -2.3537544782804323e-06 0 -0.10497769886315976 -2.3537544782804323e-06 0 -0.10499996006181196 -5.6564441283041879e-09 0 -0.1049894080858199 -2.5202253679135719e-06 0 -0.10499997119679802 4.4042409329445499e-09 0 -0.10497769886315976 -2.3537544782804323e-06 0 -0.10499996006181196 -5.6564441283041879e-09 0 -0.10497769886315976 -2.3537544782804323e-06 0 -0.1049894080858199 -2.5202253679135719e-06 0 -0.104974847334036 -2.3668078921760056e-06 0 -0.10499996006181196 -5.6564441283041879e-09 0 -0.1049894080858199 -2.5202253679135719e-06 0 -0.10499999318868539 -6.7023841783657804e-09 0 -0.1049894080858199 -2.5202253679135719e-06 0 -0.104974847334036 -2.3668078921760056e-06 0 -0.10499310561191479 -2.255553684184262e-06 0 -0.10476962335289898 -0.0028524455057354382 0 -0.10428999644389554 -0.0033551367939623927 0 -0.104974847334036 -2.3668078921760056e-06 0 -0.10494792519948401 -2.3879272201848724e-05 0 -0.10493295891666493 -1.3907220014256851e-05 0 -0.104974847334036 -2.3668078921760056e-06 0 -0.10496336799389314 -1.0963364077477793e-05 0 -0.10496446074802465 -8.1553073589366476e-06 0 -0.104974847334036 -2.3668078921760056e-06 0 -0.10496336799389314 -1.0963364077477793e-05 0 -0.10495443689179702 -1.903818872449878e-05 0 -0.104974847334036 -2.3668078921760056e-06 0 -0.10494792519948401 -2.3879272201848724e-05 0 -0.10495443689179702 -1.903818872449878e-05 0 -0.10497769886315976 -2.3537544782804323e-06 0 -0.104974847334036 -2.3668078921760056e-06 0 -0.10496446074802465 -8.1553073589366476e-06 0 -0.094502046534849657 -0.00067009780565456675 0 -0.095333581323429298 -0.0023453143550830457 0 -0.10496446074802465 -8.1553073589366476e-06 0 -0.10494478660142179 -4.3904884670470412e-06 0 -0.10492614751364739 -2.7763993014185238e-06 0 -0.10494478660142179 -4.3904884670470412e-06 0 -0.10495728480428987 -1.3390926682262036e-05 0 -0.10494957019996791 -1.7132822970883028e-05 0 -0.10496336799389314 -1.0963364077477793e-05 0 -0.10496446074802465 -8.1553073589366476e-06 0 -0.10495728480428987 -1.3390926682262036e-05 0 -0.10496446074802465 -8.1553073589366476e-06 0 -0.10494478660142179 -4.3904884670470412e-06 0 -0.10495728480428987 -1.3390926682262036e-05 0 -0.10494933077065761 -2.3974172664540537e-05 0 -0.10495443689179702 -1.903818872449878e-05 0 -0.10494957019996791 -1.7132822970883028e-05 0 -0.10260745100592186 -0.0039803972395609545 0 -0.10273497954282147 -0.0039257723092433368 0 -0.10496336799389314 -1.0963364077477793e-05 0 -0.10495443689179702 -1.903818872449878e-05 0 -0.10495728480428987 -1.3390926682262036e-05 0 -0.10495443689179702 -1.903818872449878e-05 0 -0.10495728480428987 -1.3390926682262036e-05 0 -0.10494957019996791 -1.7132822970883028e-05 0 -0.10260745100592186 -0.0039803972395609545 0 -0.095333581323429298 -0.0023453143550830457 0 -0.084182714880055562 -0.00059252799631871744 0 -0.083787486409721654 -0.0011961464566518504 0 -0.083036188192399663 -0.00088624047417902195 0 -0.084182714880055562 -0.00059252799631871744 0 -0.083787486409721654 -0.0011961464566518504 0 -0.084772134607558822 -0.0011194064836677359 0 -0.084915700092382057 -0.00042846613034373875 0 -0.084772134607558822 -0.0011194064836677359 0 -0.085323297939587414 -0.00091832959134376818 0 -0.084915700092382057 -0.00042846613034373875 0 -0.084250055112653432 -0.00059110903975248227 0 -0.084772134607558822 -0.0011194064836677359 0 -0.095333581323429298 -0.0023453143550830457 0 -0.092399070746915501 -0.00060656900171708725 0 -0.084772134607558822 -0.0011194064836677359 0 -0.085323297939587414 -0.00091832959134376818 0 -0.084957848770078226 -0.001559284064181079 0 -0.085323297939587414 -0.00091832959134376818 0 -0.085629978689717473 -0.0013232645942929777 0 -0.084957848770078226 -0.001559284064181079 0 -0.085323297939587414 -0.00091832959134376818 0 -0.085997572534859401 -0.00088346028518598461 0 -0.085618837239508416 -0.00026196571124313905 0 -0.085323297939587414 -0.00091832959134376818 0 -0.085997572534859401 -0.00088346028518598461 0 -0.085629978689717473 -0.0013232645942929777 0 -0.078150883623045925 0.0089401769020360424 0 -0.076954431147320493 0.0082116867171780714 0 -0.077984498334515526 0.0065366911876316228 0 -0.085997572534859401 -0.00088346028518598461 0 -0.08638153707304394 -0.0015080096171786273 0 -0.085629978689717473 -0.0013232645942929777 0 -0.086183888221467872 0.0033783160417146969 0 -0.081405931892162456 0.0040088058108954999 0 -0.078150883623045925 0.0089401769020360424 0 -0.076954431147320493 0.0082116867171780714 0 -0.075935402686144057 0.0098716410400681819 0 -0.092926023068150634 0.0026695841796035582 0 -0.093191577754174929 0.00082147210961590236 0 -0.078150883623045925 0.0089401769020360424 0 -0.078675563980598967 0.010553708161392644 0 -0.075935402686144057 0.0098716410400681819 0 -0.086183888221467872 0.0033783160417146969 0 -0.093191577754174929 0.00082147210961590236 0 -0.094502046534849657 -0.00067009780565456675 0 -0.093191577754174929 0.00082147210961590236 0 -0.084915700092382057 -0.00042846613034373875 0 -0.085323297939587414 -0.00091832959134376818 0 -0.085618837239508416 -0.00026196571124313905 0 -0.10798656881469534 -0.0066033555215149978 0 -0.10722456983321287 -0.006860603306651239 0 -0.10711605006528457 -0.0049358361997467459 0 -0.1092442672764368 -0.0073845802508741964 0 -0.10594141951618388 -0.0079633653224029863 0 -0.10711605006528457 -0.0049358361997467459 0 -0.11100414981128542 -0.0043684532210178121 0 -0.1092442672764368 -0.0073845802508741964 0 -0.10711605006528457 -0.0049358361997467459 0 -0.10503562718353442 -5.8618258341313992e-06 0 -0.11100414981128542 -0.0043684532210178121 0 -0.10500093590414233 -4.0883885073933431e-06 0 -0.10629786857558432 -0.0029344407087573284 0 -0.10500008944665444 -3.6883113490744949e-08 0 -0.10499548312357933 -4.9888158667473014e-05 0 -0.10507043679170142 -4.9995778783186863e-05 0 -0.10499992095808572 1.0612898218250744e-08 0 -0.10500008944665444 -3.6883113490744949e-08 0 -0.10499548312357933 -4.9888158667473014e-05 0 -0.1123384643674421 -0.0067648823866849894 0 -0.11444567223139555 -0.0076922522664166267 0 -0.1092442672764368 -0.0073845802508741964 0 -0.11100414981128542 -0.0043684532210178121 0 -0.1123384643674421 -0.0067648823866849894 0 -0.11475167946605437 -0.0077085429176878481 0 -0.11100414981128542 -0.0043684532210178121 0 -0.1123384643674421 -0.0067648823866849894 0 -0.1092442672764368 -0.0073845802508741964 0 -0.10629786857558432 -0.0029344407087573284 0 -0.1054357256632653 -0.0052286359867053985 0 -0.10507043679170142 -4.9995778783186863e-05 0 -0.10514538527652417 -0.00012712837234452092 0 -0.10507617536003622 -0.00015289475716376326 0 -0.10499548312357933 -4.9888158667473014e-05 0 -0.10507043679170142 -4.9995778783186863e-05 0 -0.10507617536003622 -0.00015289475716376326 0 -0.10500000250787658 2.2538338966481313e-09 0 -0.10499979929751975 -1.479668083025009e-06 0 -0.10499999318868539 -6.7023841783657804e-09 0 -0.10499833706211853 -2.5377978066098247e-06 0 -0.10451455331363338 -0.0012687710608721447 0 -0.10499979929751975 -1.479668083025009e-06 0 -0.10499999318868539 -6.7023841783657804e-09 0 -0.10499310561191479 -2.255553684184262e-06 0 -0.1049894080858199 -2.5202253679135719e-06 0 -0.10499999318868539 -6.7023841783657804e-09 0 -0.10499310561191479 -2.255553684184262e-06 0 -0.10499979929751975 -1.479668083025009e-06 0 -0.10499310561191479 -2.255553684184262e-06 0 -0.10499378434913549 3.3696154930896187e-06 0 -0.104974847334036 -2.3668078921760056e-06 0 -0.10499310561191479 -2.255553684184262e-06 0 -0.10499378434913549 3.3696154930896187e-06 0 -0.10451455331363338 -0.0012687710608721447 0 -0.10428999644389554 -0.0033551367939623927 0 -0.10428999644389554 -0.0033551367939623927 0 -0.1054357256632653 -0.0052286359867053985 0 -0.10260745100592186 -0.0039803972395609545 0 -0.10428999644389554 -0.0033551367939623927 0 -0.10166817433966759 -0.011111939191910322 0 -0.10244244549061049 -0.010803075868560238 0 -0.1028892321709515 -0.011183643058429634 0 -0.10166817433966759 -0.011111939191910322 0 -0.10091274032826117 -0.01039847523705756 0 -0.10243826344785786 -0.010109084017116944 0 -0.10166817433966759 -0.011111939191910322 0 -0.10244244549061049 -0.010803075868560238 0 -0.10243826344785786 -0.010109084017116944 0 -0.10375962053953136 -0.0049793051957232612 0 -0.10408929310744931 -0.0052880253245253545 0 -0.10469994827046118 -0.005033837329616161 0 -0.10260745100592186 -0.0039803972395609545 0 -0.1054357256632653 -0.0052286359867053985 0 -0.095333581323429298 -0.0023453143550830457 0 -0.093083374599803509 -0.0042608486447796891 0 -0.10243826344785786 -0.010109084017116944 0 -0.10312519121683715 -0.010485306280898362 0 -0.10391469703216329 -0.0099004396902870068 0 -0.093083374599803509 -0.0042608486447796891 0 -0.092860882285624127 -0.0050003001874721334 0 -0.083036188192399663 -0.00088624047417902195 0 -0.081962041013867046 -0.0011563276704471873 0 -0.082382785004419964 -0.0019438450857039631 0 -0.10345987026159914 -0.010745590575857054 0 -0.10312519121683715 -0.010485306280898362 0 -0.10297885648671447 -0.010905365324058796 0 -0.10345987026159914 -0.010745590575857054 0 -0.10312519121683715 -0.010485306280898362 0 -0.10373856122390543 -0.010472146839315192 0 -0.10244244549061049 -0.010803075868560238 0 -0.10312519121683715 -0.010485306280898362 0 -0.10297885648671447 -0.010905365324058796 0 -0.10244244549061049 -0.010803075868560238 0 -0.10243826344785786 -0.010109084017116944 0 -0.10312519121683715 -0.010485306280898362 0 -0.10244244549061049 -0.010803075868560238 0 -0.10297885648671447 -0.010905365324058796 0 -0.10289136371139705 -0.011194421018906893 0 -0.10545374242650367 -0.0055768934220139519 0 -0.1054357256632653 -0.0052286359867053985 0 -0.10297885648671447 -0.010905365324058796 0 -0.10289136371139705 -0.011194421018906893 0 -0.10298130741909424 -0.011197806274264846 0 -0.1054357256632653 -0.0052286359867053985 0 -0.10584010915245 -0.0055222062350315732 0 -0.1123384643674421 -0.0067648823866849894 0 -0.11475167946605437 -0.0077085429176878481 0 -0.11444567223139555 -0.0076922522664166267 0 -0.10345987026159914 -0.010745590575857054 0 -0.10297885648671447 -0.010905365324058796 0 -0.10298130741909424 -0.011197806274264846 0 -0.10584010915245 -0.0055222062350315732 0 -0.10566383250660899 -0.0078909261411819788 0 -0.11062595249129882 -0.0082281455776411876 0 -0.10820722146953309 -0.0091792026606589989 0 -0.10833213722166941 -0.0081181873615241481 0 -0.10345987026159914 -0.010745590575857054 0 -0.10298130741909424 -0.011197806274264846 0 -0.10446147703484414 -0.010658062724630157 0 -0.10345987026159914 -0.010745590575857054 0 -0.10373856122390543 -0.010472146839315192 0 -0.10446147703484414 -0.010658062724630157 0 -0.10584010915245 -0.0055222062350315732 0 -0.10798656881469534 -0.0066033555215149978 0 -0.10312519121683715 -0.010485306280898362 0 -0.10373856122390543 -0.010472146839315192 0 -0.10391469703216329 -0.0099004396902870068 0 -0.10373856122390543 -0.010472146839315192 0 -0.10391469703216329 -0.0099004396902870068 0 -0.10446147703484414 -0.010658062724630157 0 -0.092860882285624127 -0.0050003001874721334 0 -0.092845010437610551 -0.0053509114130070676 0 -0.10391469703216329 -0.0099004396902870068 0 -0.10446147703484414 -0.010658062724630157 0 -0.10523799218837433 -0.0097826541411132652 0 -0.10820722146953309 -0.0091792026606589989 0 -0.10833213722166941 -0.0081181873615241481 0 -0.10594141951618388 -0.0079633653224029863 0 -0.081506840981579981 -0.0021191893969219884 0 -0.081336836113038574 -0.0027615017556646641 0 -0.080783484011754531 -0.0024363354229699988 0 -0.081506840981579981 -0.0021191893969219884 0 -0.08188620725129124 -0.0025838068529372188 0 -0.081336836113038574 -0.0027615017556646641 0 -0.081506840981579981 -0.0021191893969219884 0 -0.080894071513145135 -0.0014148792713414781 0 -0.080783484011754531 -0.0024363354229699988 0 -0.081962041013867046 -0.0011563276704471873 0 -0.081506840981579981 -0.0021191893969219884 0 -0.080894071513145135 -0.0014148792713414781 0 -0.081962041013867046 -0.0011563276704471873 0 -0.081506840981579981 -0.0021191893969219884 0 -0.082382785004419964 -0.0019438450857039631 0 -0.081506840981579981 -0.0021191893969219884 0 -0.08188620725129124 -0.0025838068529372188 0 -0.082382785004419964 -0.0019438450857039631 0 -0.08188620725129124 -0.0025838068529372188 0 -0.082382785004419964 -0.0019438450857039631 0 -0.082527854749323712 -0.0026834836114132212 0 -0.082382785004419964 -0.0019438450857039631 0 -0.083362629057366217 -0.0020512759088496236 0 -0.082527854749323712 -0.0026834836114132212 0 -0.083036188192399663 -0.00088624047417902195 0 -0.082382785004419964 -0.0019438450857039631 0 -0.083362629057366217 -0.0020512759088496236 0 -0.083787486409721654 -0.0011961464566518504 0 -0.083036188192399663 -0.00088624047417902195 0 -0.083362629057366217 -0.0020512759088496236 0 -0.081282682758774857 -0.0012344362682529717 0 -0.079998309418114935 -0.001530438996786287 0 -0.083362629057366217 -0.0020512759088496236 0 -0.083068565121136695 -0.0029263751858637148 0 -0.08365370356372169 -0.0028918807729023895 0 -0.083362629057366217 -0.0020512759088496236 0 -0.083068565121136695 -0.0029263751858637148 0 -0.082284983427642441 -0.0027577949660022114 0 -0.083068565121136695 -0.0029263751858637148 0 -0.083305321520147357 -0.0033855884495398213 0 -0.08365370356372169 -0.0028918807729023895 0 -0.083068565121136695 -0.0029263751858637148 0 -0.083305321520147357 -0.0033855884495398213 0 -0.082582780759053342 -0.0033489480147049543 0 -0.076488356506973734 -0.0027319915832467062 0 -0.076867266152495881 -0.0022301255161279593 0 -0.073074583136855276 -0.0023227969564031717 0 -0.074335862267106201 -0.002548226850600827 0 -0.073333906343209895 -0.0034334589827172465 0 -0.073074583136855276 -0.0023227969564031717 0 -0.072494176020951803 -0.0030457631090363697 0 -0.073333906343209895 -0.0034334589827172465 0 -0.083305321520147357 -0.0033855884495398213 0 -0.082865688612151878 -0.0038212959988164416 0 -0.083760942700016258 -0.0039571346974118671 0 -0.083305321520147357 -0.0033855884495398213 0 -0.082865688612151878 -0.0038212959988164416 0 -0.082582780759053342 -0.0033489480147049543 0 -0.076488356506973734 -0.0027319915832467062 0 -0.074097115950523498 -0.0028459699646408237 0 -0.071820303552122072 -0.0020971996601882831 0 -0.071653320468358053 -0.0034358735659274445 0 -0.072494176020951803 -0.0030457631090363697 0 -0.082865688612151878 -0.0038212959988164416 0 -0.082582780759053342 -0.0033489480147049543 0 -0.081915762603638267 -0.0036775879425029411 0 -0.073074583136855276 -0.0023227969564031717 0 -0.071820303552122072 -0.0020971996601882831 0 -0.072494176020951803 -0.0030457631090363697 0 -0.081939245360431789 -0.0034806366407533042 0 -0.082582780759053342 -0.0033489480147049543 0 -0.081915762603638267 -0.0036775879425029411 0 -0.081939245360431789 -0.0034806366407533042 0 -0.082582780759053342 -0.0033489480147049543 0 -0.082284983427642441 -0.0027577949660022114 0 -0.083068565121136695 -0.0029263751858637148 0 -0.082582780759053342 -0.0033489480147049543 0 -0.082284983427642441 -0.0027577949660022114 0 -0.08188620725129124 -0.0025838068529372188 0 -0.08168160666917032 -0.0033172698431497578 0 -0.081336836113038574 -0.0027615017556646641 0 -0.081939245360431789 -0.0034806366407533042 0 -0.082284983427642441 -0.0027577949660022114 0 -0.081180662653969241 -0.0035500628422807795 0 -0.08188620725129124 -0.0025838068529372188 0 -0.082527854749323712 -0.0026834836114132212 0 -0.08168160666917032 -0.0033172698431497578 0 -0.079998309418114935 -0.001530438996786287 0 -0.07488991276028191 -0.0029997343120392803 0 -0.074097115950523498 -0.0028459699646408237 0 -0.07488991276028191 -0.0029997343120392803 0 -0.074097115950523498 -0.0028459699646408237 0 -0.070684936799299811 -0.0039947052178531898 0 -0.081939245360431789 -0.0034806366407533042 0 -0.081911950058560903 -0.0036872927786690017 0 -0.081180662653969241 -0.0035500628422807795 0 -0.068962461620313928 -0.0037933435773722162 0 -0.068818407812367657 -0.0040172779086495919 0 -0.068896154673311796 -0.0043642032677899739 0 -0.068962461620313928 -0.0037933435773722162 0 -0.068818407812367657 -0.0040172779086495919 0 -0.068641230479827911 -0.0037769633174991224 0 -0.074144301899840948 -0.0028460242432282621 0 -0.074097115950523498 -0.0028459699646408237 0 -0.068817902687130394 -0.0043977989299083141 0 -0.069353332057356873 -0.0044590649696338355 0 -0.071460138172774135 -0.0028334547485687508 0 -0.069968942942502277 -0.0025681308472907975 0 -0.06999734121646832 -0.0039266575828846512 0 -0.068818407812367657 -0.0040172779086495919 0 -0.068641230479827911 -0.0037769633174991224 0 -0.068223608125598495 -0.0041117418068041664 0 -0.07488991276028191 -0.0029997343120392803 0 -0.069353332057356873 -0.0044590649696338355 0 -0.081336836113038574 -0.0027615017556646641 0 -0.080783484011754531 -0.0024363354229699988 0 -0.080835537516844497 -0.0031643470738266025 0 -0.07488991276028191 -0.0029997343120392803 0 -0.075065994592325685 -0.0030049288882100828 0 -0.08168160666917032 -0.0033172698431497578 0 -0.081336836113038574 -0.0027615017556646641 0 -0.080835537516844497 -0.0031643470738266025 0 -0.08567465277137401 -0.0023176826930865267 0 -0.08512488700003791 -0.0023007661560438273 0 -0.085462788063513456 -0.0018288159240971524 0 -0.08512488700003791 -0.0023007661560438273 0 -0.085462788063513456 -0.0018288159240971524 0 -0.084926666319463259 -0.0020420070031876374 0 -0.08567465277137401 -0.0023176826930865267 0 -0.08512488700003791 -0.0023007661560438273 0 -0.084970421781337929 -0.0028258455934410021 0 -0.079499768326619549 0.0032143927478870023 0 -0.07539844173684751 0.004021242388931299 0 -0.077527392819836463 0.0063908696113913633 0 -0.08567465277137401 -0.0023176826930865267 0 -0.08638153707304394 -0.0015080096171786273 0 -0.085462788063513456 -0.0018288159240971524 0 -0.08638153707304394 -0.0015080096171786273 0 -0.085629978689717473 -0.0013232645942929777 0 -0.085462788063513456 -0.0018288159240971524 0 -0.079771113908473509 0.0017044052400827349 0 -0.081405931892162456 0.0040088058108954999 0 -0.085462788063513456 -0.0018288159240971524 0 -0.084957848770078226 -0.001559284064181079 0 -0.084926666319463259 -0.0020420070031876374 0 -0.085629978689717473 -0.0013232645942929777 0 -0.085462788063513456 -0.0018288159240971524 0 -0.084957848770078226 -0.001559284064181079 0 -0.084957848770078226 -0.001559284064181079 0 -0.084148813173813217 -0.0016759901544125843 0 -0.084521293536087339 -0.0020301815006557138 0 -0.084772134607558822 -0.0011194064836677359 0 -0.084957848770078226 -0.001559284064181079 0 -0.084148813173813217 -0.0016759901544125843 0 -0.084957848770078226 -0.001559284064181079 0 -0.084926666319463259 -0.0020420070031876374 0 -0.084521293536087339 -0.0020301815006557138 0 -0.083787486409721654 -0.0011961464566518504 0 -0.084772134607558822 -0.0011194064836677359 0 -0.084148813173813217 -0.0016759901544125843 0 -0.083787486409721654 -0.0011961464566518504 0 -0.083362629057366217 -0.0020512759088496236 0 -0.084148813173813217 -0.0016759901544125843 0 -0.083362629057366217 -0.0020512759088496236 0 -0.084148813173813217 -0.0016759901544125843 0 -0.084111885692288321 -0.0024529434142036076 0 -0.083362629057366217 -0.0020512759088496236 0 -0.084111885692288321 -0.0024529434142036076 0 -0.08365370356372169 -0.0028918807729023895 0 -0.084148813173813217 -0.0016759901544125843 0 -0.084111885692288321 -0.0024529434142036076 0 -0.084521293536087339 -0.0020301815006557138 0 -0.08512488700003791 -0.0023007661560438273 0 -0.084926666319463259 -0.0020420070031876374 0 -0.084670702179584903 -0.0024264976373713954 0 -0.084926666319463259 -0.0020420070031876374 0 -0.084521293536087339 -0.0020301815006557138 0 -0.084670702179584903 -0.0024264976373713954 0 -0.084111885692288321 -0.0024529434142036076 0 -0.084521293536087339 -0.0020301815006557138 0 -0.084670702179584903 -0.0024264976373713954 0 -0.084111885692288321 -0.0024529434142036076 0 -0.084670702179584903 -0.0024264976373713954 0 -0.084447442341190684 -0.0028229230782030193 0 -0.084670702179584903 -0.0024264976373713954 0 -0.084447442341190684 -0.0028229230782030193 0 -0.084970421781337929 -0.0028258455934410021 0 -0.08512488700003791 -0.0023007661560438273 0 -0.084670702179584903 -0.0024264976373713954 0 -0.084970421781337929 -0.0028258455934410021 0 -0.080158687838638221 -0.0014468498134358502 0 -0.081146526211358053 -0.001226622148629203 0 -0.084447442341190684 -0.0028229230782030193 0 -0.08439059946407175 -0.0033714607905474653 0 -0.084091003922143817 -0.0029958365259483751 0 -0.084447442341190684 -0.0028229230782030193 0 -0.08439059946407175 -0.0033714607905474653 0 -0.084970421781337929 -0.0028258455934410021 0 -0.084140816947028768 -0.0034636452877341603 0 -0.08487475011070536 -0.003211803576119531 0 -0.084970421781337929 -0.0028258455934410021 0 -0.08365370356372169 -0.0028918807729023895 0 -0.084091003922143817 -0.0029958365259483751 0 -0.083864493144903116 -0.0033682704843974892 0 -0.084111885692288321 -0.0024529434142036076 0 -0.08365370356372169 -0.0028918807729023895 0 -0.084091003922143817 -0.0029958365259483751 0 -0.084111885692288321 -0.0024529434142036076 0 -0.084447442341190684 -0.0028229230782030193 0 -0.084091003922143817 -0.0029958365259483751 0 -0.08439059946407175 -0.0033714607905474653 0 -0.084091003922143817 -0.0029958365259483751 0 -0.083864493144903116 -0.0033682704843974892 0 -0.083305321520147357 -0.0033855884495398213 0 -0.08365370356372169 -0.0028918807729023895 0 -0.083864493144903116 -0.0033682704843974892 0 -0.083305321520147357 -0.0033855884495398213 0 -0.083864493144903116 -0.0033682704843974892 0 -0.083760942700016258 -0.0039571346974118671 0 -0.080158687838638221 -0.0014468498134358502 0 -0.076867266152495881 -0.0022301255161279593 0 -0.08439059946407175 -0.0033714607905474653 0 -0.083864493144903116 -0.0033682704843974892 0 -0.083760942700016258 -0.0039571346974118671 0 -0.084140816947028768 -0.0034636452877341603 0 -0.083861550471651752 -0.0042937819277804106 0 -0.083284468824455546 -0.0041902134501064043 0 -0.075298785172348642 -0.0015155496113099321 0 -0.076867266152495881 -0.0022301255161279593 0 -0.075575538687203805 -0.0013599459540187481 0 -0.074330507605604682 -0.0011340588857081293 0 -0.074792080688053056 -0.0022377984734822834 0 -0.074281131223091448 -0.0015559550712083241 0 -0.073526934547465408 -0.002214108908208604 0 -0.0748175850198146 -0.0011006815577633995 0 -0.07529488753552982 -0.0011865981970398246 0 -0.074207860367751732 -0.0017854576913187749 0 -0.075298785172348642 -0.0015155496113099321 0 -0.073526934547465408 -0.002214108908208604 0 -0.073332667898482792 0.0016670131824070597 0 -0.071314078890038352 -0.0006299775236300576 0 -0.072702138224956081 -0.00027707081360444453 0 -0.071878680618748733 -0.00072587865619341255 0 -0.072702138224956081 -0.00027707081360444453 0 -0.075145050356597132 -0.0013352965496980073 0 -0.07794251156218969 3.0795277950045005e-05 0 -0.075298785172348642 -0.0015155496113099321 0 -0.084140816947028768 -0.0034636452877341603 0 -0.08487475011070536 -0.003211803576119531 0 -0.083861550471651752 -0.0042937819277804106 0 -0.073332667898482792 0.0016670131824070597 0 -0.072702138224956081 -0.00027707081360444453 0 -0.074371680970548318 0.0002413730885215706 0 -0.071314078890038352 -0.0006299775236300576 0 -0.071882674691452375 -0.00073143354456087087 0 -0.072702138224956081 -0.00027707081360444453 0 -0.074281131223091448 -0.0015559550712083241 0 -0.074183463335627434 -0.0015635926643596957 0 -0.075298785172348642 -0.0015155496113099321 0 -0.074281131223091448 -0.0015559550712083241 0 -0.074371680970548318 0.0002413730885215706 0 -0.076084775306966487 0.0012771998901853748 0 -0.075145050356597132 -0.0013352965496980073 0 -0.072702138224956081 -0.00027707081360444453 0 -0.074371680970548318 0.0002413730885215706 0 -0.075145050356597132 -0.0013352965496980073 0 -0.074281131223091448 -0.0015559550712083241 0 -0.074967389616586291 -0.001506908570981074 0 -0.073332667898482792 0.0016670131824070597 0 -0.074371680970548318 0.0002413730885215706 0 -0.076084775306966487 0.0012771998901853748 0 -0.07539844173684751 0.004021242388931299 0 -0.073332667898482792 0.0016670131824070597 0 -0.076084775306966487 0.0012771998901853748 0 -0.08567465277137401 -0.0023176826930865267 0 -0.08487475011070536 -0.003211803576119531 0 -0.084970421781337929 -0.0028258455934410021 0 -0.079771113908473509 0.0017044052400827349 0 -0.07794251156218969 3.0795277950045005e-05 0 -0.079499768326619549 0.0032143927478870023 0 -0.07539844173684751 0.004021242388931299 0 -0.076084775306966487 0.0012771998901853748 0 -0.078311857470584403 0.00043537660147481712 0 -0.075145050356597132 -0.0013352965496980073 0 -0.078335917098873997 -0.0019522670282235719 0 -0.078311857470584403 0.00043537660147481712 0 -0.076084775306966487 0.0012771998901853748 0 -0.075145050356597132 -0.0013352965496980073 0 -0.075592922871798793 -0.003465060272315983 0 -0.074456819117189418 -0.001159353231590864 0 -0.078335917098873997 -0.0019522670282235719 0 -0.074967389616586291 -0.001506908570981074 0 -0.076324499194600839 -0.0017113462363167495 0 -0.075592922871798793 -0.003465060272315983 0 -0.075955467836465271 -0.0054317893915797107 0 -0.078325111890191396 -0.0044425840997225395 0 -0.075592922871798793 -0.003465060272315983 0 -0.075955467836465271 -0.0054317893915797107 0 -0.073423192926367856 -0.0048130040234169637 0 -0.075592922871798793 -0.003465060272315983 0 -0.073423192926367856 -0.0048130040234169637 0 -0.07304848652208068 -0.0029094349555240195 0 -0.073423192926367856 -0.0048130040234169637 0 -0.071753026883657797 -0.0050207207445444975 0 -0.073744700245022526 -0.0065782498245117197 0 -0.073423192926367856 -0.0048130040234169637 0 -0.07304848652208068 -0.0029094349555240195 0 -0.071985710326979188 -0.0038161954349937082 0 -0.075592922871798793 -0.003465060272315983 0 -0.07304848652208068 -0.0029094349555240195 0 -0.074456819117189418 -0.001159353231590864 0 -0.070704598651126147 -0.00048087750885767052 0 -0.07304848652208068 -0.0029094349555240195 0 -0.074456819117189418 -0.001159353231590864 0 -0.070704598651126147 -0.00048087750885767052 0 -0.07304848652208068 -0.0029094349555240195 0 -0.070979539629414126 -0.0027546824861950287 0 -0.070704598651126147 -0.00048087750885767052 0 -0.070979539629414126 -0.0027546824861950287 0 -0.070003529808777068 -0.0017650873434756306 0 -0.07304848652208068 -0.0029094349555240195 0 -0.070979539629414126 -0.0027546824861950287 0 -0.071985710326979188 -0.0038161954349937082 0 -0.074330507605604682 -0.0011340588857081293 0 -0.074792080688053056 -0.0022377984734822834 0 -0.07233868579695725 -0.0029046010436869049 0 -0.073526934547465408 -0.002214108908208604 0 -0.070936104865320246 -0.0034815487161113357 0 -0.073526934547465408 -0.002214108908208604 0 -0.072739227004304199 -0.002684892882504797 0 -0.070704598651126147 -0.00048087750885767052 0 -0.070003529808777068 -0.0017650873434756306 0 -0.069225066572885977 -0.0012963039694694686 0 -0.070003529808777068 -0.0017650873434756306 0 -0.069225066572885977 -0.0012963039694694686 0 -0.069195576326030114 -0.0025633142199504347 0 -0.070979539629414126 -0.0027546824861950287 0 -0.070003529808777068 -0.0017650873434756306 0 -0.069195576326030114 -0.0025633142199504347 0 -0.070979539629414126 -0.0027546824861950287 0 -0.069195576326030114 -0.0025633142199504347 0 -0.069442109816438682 -0.0037165664110546848 0 -0.069195576326030114 -0.0025633142199504347 0 -0.068501100431033052 -0.0034492908323208991 0 -0.069442109816438682 -0.0037165664110546848 0 -0.069195576326030114 -0.0025633142199504347 0 -0.068501100431033052 -0.0034492908323208991 0 -0.067903946322681943 -0.002777337798956326 0 -0.069225066572885977 -0.0012963039694694686 0 -0.069195576326030114 -0.0025633142199504347 0 -0.067903946322681943 -0.002777337798956326 0 -0.068501100431033052 -0.0034492908323208991 0 -0.069442109816438682 -0.0037165664110546848 0 -0.068232388227615376 -0.004507166579334281 0 -0.068501100431033052 -0.0034492908323208991 0 -0.068232388227615376 -0.004507166579334281 0 -0.067342102312541147 -0.0036683483747385931 0 -0.069442109816438682 -0.0037165664110546848 0 -0.069910828408284165 -0.0048796167110912118 0 -0.070793819361061924 -0.0039780283703035818 0 -0.069442109816438682 -0.0037165664110546848 0 -0.069910828408284165 -0.0048796167110912118 0 -0.068232388227615376 -0.004507166579334281 0 -0.068232388227615376 -0.004507166579334281 0 -0.068920764555715455 -0.0057174316587026439 0 -0.067556152498079128 -0.006049491691315024 0 -0.069910828408284165 -0.0048796167110912118 0 -0.068232388227615376 -0.004507166579334281 0 -0.068920764555715455 -0.0057174316587026439 0 -0.071985710326979188 -0.0038161954349937082 0 -0.070793819361061924 -0.0039780283703035818 0 -0.071753026883657797 -0.0050207207445444975 0 -0.070979539629414126 -0.0027546824861950287 0 -0.069442109816438682 -0.0037165664110546848 0 -0.070793819361061924 -0.0039780283703035818 0 -0.070979539629414126 -0.0027546824861950287 0 -0.071985710326979188 -0.0038161954349937082 0 -0.070793819361061924 -0.0039780283703035818 0 -0.069910828408284165 -0.0048796167110912118 0 -0.071753026883657797 -0.0050207207445444975 0 -0.07033265327092611 -0.0063375022347318842 0 -0.069910828408284165 -0.0048796167110912118 0 -0.070793819361061924 -0.0039780283703035818 0 -0.071753026883657797 -0.0050207207445444975 0 -0.073423192926367856 -0.0048130040234169637 0 -0.071985710326979188 -0.0038161954349937082 0 -0.071753026883657797 -0.0050207207445444975 0 -0.071753026883657797 -0.0050207207445444975 0 -0.07033265327092611 -0.0063375022347318842 0 -0.071842708880903827 -0.0073670431144112081 0 -0.071753026883657797 -0.0050207207445444975 0 -0.071842708880903827 -0.0073670431144112081 0 -0.073744700245022526 -0.0065782498245117197 0 -0.07033265327092611 -0.0063375022347318842 0 -0.071842708880903827 -0.0073670431144112081 0 -0.070228628971649873 -0.0079835724699523318 0 -0.068920764555715455 -0.0057174316587026439 0 -0.068616063675486685 -0.0072189396702843651 0 -0.067556152498079128 -0.006049491691315024 0 -0.069910828408284165 -0.0048796167110912118 0 -0.07033265327092611 -0.0063375022347318842 0 -0.068920764555715455 -0.0057174316587026439 0 -0.07033265327092611 -0.0063375022347318842 0 -0.068920764555715455 -0.0057174316587026439 0 -0.068616063675486685 -0.0072189396702843651 0 -0.07033265327092611 -0.0063375022347318842 0 -0.068616063675486685 -0.0072189396702843651 0 -0.070228628971649873 -0.0079835724699523318 0 -0.070228628971649873 -0.0079835724699523318 0 -0.06822870498713085 -0.0094461657141284554 0 -0.071437425561446208 -0.0093982818799134005 0 -0.068616063675486685 -0.0072189396702843651 0 -0.070228628971649873 -0.0079835724699523318 0 -0.06822870498713085 -0.0094461657141284554 0 -0.071842708880903827 -0.0073670431144112081 0 -0.071437425561446208 -0.0093982818799134005 0 -0.07355851369947089 -0.0088694380117879529 0 -0.071842708880903827 -0.0073670431144112081 0 -0.070228628971649873 -0.0079835724699523318 0 -0.071437425561446208 -0.0093982818799134005 0 -0.07355851369947089 -0.0088694380117879529 0 -0.073118572211128607 -0.010769869294473431 0 -0.077204890948294191 -0.010078783757252562 0 -0.071437425561446208 -0.0093982818799134005 0 -0.07355851369947089 -0.0088694380117879529 0 -0.073118779331894673 -0.010747344533032135 0 -0.054486670174777867 -0.0025617657273372414 0 -0.053235005212266151 -0.0013838786235228439 0 -0.075741721036093002 -0.0076267904869470535 0 -0.077204890948294191 -0.010078783757252562 0 -0.078232838354696549 -0.0071834236188290006 0 -0.07355851369947089 -0.0088694380117879529 0 -0.075741721036093002 -0.0076267904869470535 0 -0.077204890948294191 -0.010078783757252562 0 -0.075955467836465271 -0.0054317893915797107 0 -0.075741721036093002 -0.0076267904869470535 0 -0.078232838354696549 -0.0071834236188290006 0 -0.075955467836465271 -0.0054317893915797107 0 -0.075741721036093002 -0.0076267904869470535 0 -0.073744700245022526 -0.0065782498245117197 0 -0.07355851369947089 -0.0088694380117879529 0 -0.075741721036093002 -0.0076267904869470535 0 -0.073744700245022526 -0.0065782498245117197 0 -0.071842708880903827 -0.0073670431144112081 0 -0.07355851369947089 -0.0088694380117879529 0 -0.073744700245022526 -0.0065782498245117197 0 -0.075955467836465271 -0.0054317893915797107 0 -0.073423192926367856 -0.0048130040234169637 0 -0.073744700245022526 -0.0065782498245117197 0 -0.068306144411294442 -0.004835673748862985 0 -0.068810854574562763 -0.0050273879290214677 0 -0.068189370113397332 -0.0053593087103541125 0 -0.068306144411294442 -0.004835673748862985 0 -0.068189370113397332 -0.0053593087103541125 0 -0.067768511626887851 -0.0048214782158322997 0 -0.068818407812367657 -0.0040172779086495919 0 -0.068363368542276925 -0.0043069072123815806 0 -0.067838971761170028 -0.004148211885471916 0 -0.068363368542276925 -0.0043069072123815806 0 -0.067768511626887851 -0.0048214782158322997 0 -0.067838971761170028 -0.004148211885471916 0 -0.068306144411294442 -0.004835673748862985 0 -0.068363368542276925 -0.0043069072123815806 0 -0.067768511626887851 -0.0048214782158322997 0 -0.068306144411294442 -0.004835673748862985 0 -0.068363368542276925 -0.0043069072123815806 0 -0.068592037822058846 -0.0045894982098682114 0 -0.068592037822058846 -0.0045894982098682114 0 -0.068668479901324672 -0.0043170909628667629 0 -0.068896154673311796 -0.0043642032677899739 0 -0.068363368542276925 -0.0043069072123815806 0 -0.068592037822058846 -0.0045894982098682114 0 -0.068668479901324672 -0.0043170909628667629 0 -0.068818407812367657 -0.0040172779086495919 0 -0.068363368542276925 -0.0043069072123815806 0 -0.068668479901324672 -0.0043170909628667629 0 -0.068818407812367657 -0.0040172779086495919 0 -0.068668479901324672 -0.0043170909628667629 0 -0.068896154673311796 -0.0043642032677899739 0 -0.071653320468358053 -0.0034358735659274445 0 -0.071483340791000063 -0.0047789727095158691 0 -0.072333142672389661 -0.0043163392891929992 0 -0.068592037822058846 -0.0045894982098682114 0 -0.068896154673311796 -0.0043642032677899739 0 -0.068810854574562763 -0.0050273879290214677 0 -0.070684936799299811 -0.0039947052178531898 0 -0.067402688125114754 -0.0052145133335179646 0 -0.068306144411294442 -0.004835673748862985 0 -0.068592037822058846 -0.0045894982098682114 0 -0.068810854574562763 -0.0050273879290214677 0 -0.062777410056558861 -0.0048220531804772856 0 -0.06339544856818273 -0.0048797638367665871 0 -0.063796973273934743 -0.0060567710041537501 0 -0.06339544856818273 -0.0048797638367665871 0 -0.064954884091858844 -0.0051986449884647767 0 -0.063796973273934743 -0.0060567710041537501 0 -0.06339544856818273 -0.0048797638367665871 0 -0.064954884091858844 -0.0051986449884647767 0 -0.064545659902072908 -0.0038568621530341131 0 -0.062777410056558861 -0.0048220531804772856 0 -0.06339544856818273 -0.0048797638367665871 0 -0.064573373540463525 -0.0038439934638967938 0 -0.064954884091858844 -0.0051986449884647767 0 -0.064545659902072908 -0.0038568621530341131 0 -0.066066202338824404 -0.0040372529040043886 0 -0.068820260206475234 -0.0048053619332973857 0 -0.069458630204415381 -0.0044611890341076654 0 -0.067402688125114754 -0.0052145133335179646 0 -0.069458630204415381 -0.0044611890341076654 0 -0.071653320468358053 -0.0034358735659274445 0 -0.072333142672389661 -0.0043163392891929992 0 -0.072494176020951803 -0.0030457631090363697 0 -0.072333142672389661 -0.0043163392891929992 0 -0.072494176020951803 -0.0030457631090363697 0 -0.073333906343209895 -0.0034334589827172465 0 -0.069458630204415381 -0.0044611890341076654 0 -0.070936104865320246 -0.0034815487161113357 0 -0.069458630204415381 -0.0044611890341076654 0 -0.073091037125755959 -0.0033458036813468939 0 -0.069253724049923582 -0.001285041175295854 0 -0.066877617168601092 -0.0025773720157060689 0 -0.067903946322681943 -0.002777337798956326 0 -0.074792080688053056 -0.0022377984734822834 0 -0.072570030344360312 -0.0034575655137877694 0 -0.07233868579695725 -0.0029046010436869049 0 -0.070341810438739938 -0.0046793559199141601 0 -0.072570030344360312 -0.0034575655137877694 0 -0.07233868579695725 -0.0029046010436869049 0 -0.076867266152495881 -0.0022301255161279593 0 -0.073091037125755959 -0.0033458036813468939 0 -0.066877617168601092 -0.0025773720157060689 0 -0.067903946322681943 -0.002777337798956326 0 -0.067342102312541147 -0.0036683483747385931 0 -0.068501100431033052 -0.0034492908323208991 0 -0.067903946322681943 -0.002777337798956326 0 -0.067342102312541147 -0.0036683483747385931 0 -0.068232388227615376 -0.004507166579334281 0 -0.067342102312541147 -0.0036683483747385931 0 -0.06661618334002499 -0.0048808795446294538 0 -0.064545659902072908 -0.0038568621530341131 0 -0.066877617168601092 -0.0025773720157060689 0 -0.066066202338824404 -0.0040372529040043886 0 -0.067342102312541147 -0.0036683483747385931 0 -0.066066202338824404 -0.0040372529040043886 0 -0.06661618334002499 -0.0048808795446294538 0 -0.066877617168601092 -0.0025773720157060689 0 -0.067342102312541147 -0.0036683483747385931 0 -0.066066202338824404 -0.0040372529040043886 0 -0.064954884091858844 -0.0051986449884647767 0 -0.066066202338824404 -0.0040372529040043886 0 -0.06661618334002499 -0.0048808795446294538 0 -0.064954884091858844 -0.0051986449884647767 0 -0.06661618334002499 -0.0048808795446294538 0 -0.066231986971062584 -0.0061315069768623394 0 -0.068232388227615376 -0.004507166579334281 0 -0.06661618334002499 -0.0048808795446294538 0 -0.067556152498079128 -0.006049491691315024 0 -0.067556152498079128 -0.006049491691315024 0 -0.066231986971062584 -0.0061315069768623394 0 -0.066723961683179692 -0.0073737633202636882 0 -0.06661618334002499 -0.0048808795446294538 0 -0.067556152498079128 -0.006049491691315024 0 -0.066231986971062584 -0.0061315069768623394 0 -0.066231986971062584 -0.0061315069768623394 0 -0.066723961683179692 -0.0073737633202636882 0 -0.065020240405534738 -0.006862155061412592 0 -0.068616063675486685 -0.0072189396702843651 0 -0.067556152498079128 -0.006049491691315024 0 -0.066723961683179692 -0.0073737633202636882 0 -0.06822870498713085 -0.0094461657141284554 0 -0.066723961683179692 -0.0073737633202636882 0 -0.064795243373567568 -0.0088463104127025158 0 -0.068616063675486685 -0.0072189396702843651 0 -0.06822870498713085 -0.0094461657141284554 0 -0.066723961683179692 -0.0073737633202636882 0 -0.064795243373567568 -0.0088463104127025158 0 -0.062346678890904735 -0.0082380752909604494 0 -0.063375376495495878 -0.010638315898490385 0 -0.064795243373567568 -0.0088463104127025158 0 -0.063970897320735243 -0.0075584902172934915 0 -0.062346678890904735 -0.0082380752909604494 0 -0.064795243373567568 -0.0088463104127025158 0 -0.063970897320735243 -0.0075584902172934915 0 -0.065020240405534738 -0.006862155061412592 0 -0.063970897320735243 -0.0075584902172934915 0 -0.065020240405534738 -0.006862155061412592 0 -0.063796973273934743 -0.0060567710041537501 0 -0.066723961683179692 -0.0073737633202636882 0 -0.064795243373567568 -0.0088463104127025158 0 -0.065020240405534738 -0.006862155061412592 0 -0.064954884091858844 -0.0051986449884647767 0 -0.066231986971062584 -0.0061315069768623394 0 -0.065020240405534738 -0.006862155061412592 0 -0.064954884091858844 -0.0051986449884647767 0 -0.065020240405534738 -0.006862155061412592 0 -0.063796973273934743 -0.0060567710041537501 0 -0.062777410056558861 -0.0048220531804772856 0 -0.063796973273934743 -0.0060567710041537501 0 -0.062346678890904735 -0.0082380752909604494 0 -0.067402688125114754 -0.0052145133335179646 0 -0.065130331784385223 -0.0079300103007083622 0 -0.062776885524651813 -0.0042390302696836977 0 -0.062325976231650211 -0.0079310084488773951 0 -0.059938084236119439 -0.005784117944396313 0 -0.067402688125114754 -0.0052145133335179646 0 -0.063392911164416435 -0.0055743113202476194 0 -0.063970897320735243 -0.0075584902172934915 0 -0.063796973273934743 -0.0060567710041537501 0 -0.062346678890904735 -0.0082380752909604494 0 -0.065130331784385223 -0.0079300103007083622 0 -0.064383244549595375 -0.009502336822562003 0 -0.062325976231650211 -0.0079310084488773951 0 -0.059699882486369496 -0.0079375829077691779 0 -0.060691692326502421 -0.010005064816661214 0 -0.059699882486369496 -0.0079375829077691779 0 -0.058884498798667299 -0.0099475253361245627 0 -0.060691692326502421 -0.010005064816661214 0 -0.062325976231650211 -0.0079310084488773951 0 -0.059699882486369496 -0.0079375829077691779 0 -0.059938084236119439 -0.005784117944396313 0 -0.059699882486369496 -0.0079375829077691779 0 -0.059938084236119439 -0.005784117944396313 0 -0.05710008108844479 -0.0073305561063196807 0 -0.045922263865050654 -0.0024823136536306885 0 -0.045704775246953905 -0.0021658806682947418 0 -0.042022480537457121 -0.0031621318291735192 0 -0.025573557009268562 -0.0037297433964714019 0 -0.024644178331820962 -0.0014362234447921314 0 -0.026180747022824438 -0.0023919645192023737 0 -0.045259730208634198 -0.001726113195742279 0 -0.038806511049171759 -0.001912584300984396 0 -0.025573557009268562 -0.0037297433964714019 0 -0.026180747022824438 -0.0023919645192023737 0 -0.027695645192261014 -0.0034080752314067505 0 -0.032561631841208749 0.00010611725491392085 0 -0.038806511049171759 -0.001912584300984396 0 -0.045259730208634198 -0.001726113195742279 0 -0.046738029103497898 -0.0026460128586344961 0 -0.060678196768180502 -0.012557577141666526 0 -0.060691692326502421 -0.010005064816661214 0 -0.061878399605445895 -0.011637699474427908 0 -0.060678196768180502 -0.012557577141666526 0 -0.058884498798667299 -0.0099475253361245627 0 -0.060691692326502421 -0.010005064816661214 0 -0.046738029103497898 -0.0026460128586344961 0 -0.053586930476756757 -0.0059155901187911298 0 -0.050094520101368924 -0.0037246440693771677 0 -0.050953742997036908 -0.0049745732829769096 0 -0.052007775009565479 -0.0037754587750407241 0 -0.062346678890904735 -0.0082380752909604494 0 -0.061878399605445895 -0.011637699474427908 0 -0.063375376495495878 -0.010638315898490385 0 -0.062325976231650211 -0.0079310084488773951 0 -0.060691692326502421 -0.010005064816661214 0 -0.061878399605445895 -0.011637699474427908 0 -0.061878399605445895 -0.011637699474427908 0 -0.063375376495495878 -0.010638315898490385 0 -0.062086090511550507 -0.012559459830300629 0 -0.046097571377189228 0.00071757821343172278 0 -0.045981587447037411 0.0007007762732609646 0 -0.045904992438974918 0.0010150989874166386 0 -0.045981587447037411 0.0007007762732609646 0 -0.045790738356514975 0.00086173277911865526 0 -0.045904992438974918 0.0010150989874166386 0 -0.047868609642310433 -0.0021008471776618408 0 -0.046676561921888668 -0.0014223405416123696 0 -0.045259730208634198 -0.001726113195742279 0 -0.038725529361605768 0.00074860483443285207 0 -0.060678196768180502 -0.012557577141666526 0 -0.061878399605445895 -0.011637699474427908 0 -0.062086090511550507 -0.012559459830300629 0 -0.043869833941085228 -0.0022524549812687551 0 -0.043298586095630705 -0.0014192181553812605 0 -0.048176651633557874 -0.0015168680456301557 0 -0.046738029103497898 -0.0026460128586344961 0 -0.047868609642310433 -0.0021008471776618408 0 -0.045259730208634198 -0.001726113195742279 0 -0.047868609642310433 -0.0021008471776618408 0 -0.045932760631329547 0.00068073484618754517 0 -0.045690740132820533 0.00058547630441011802 0 -0.045542207356359089 0.00070238229835880683 0 -0.046358561450774195 0.0006268775366963348 0 -0.045932760631329547 0.00068073484618754517 0 -0.045690740132820533 0.00058547630441011802 0 -0.047868609642310433 -0.0021008471776618408 0 -0.053998586532892606 -0.002903908791065943 0 -0.046676561921888668 -0.0014223405416123696 0 -0.046327204077847364 -0.0012114555332676605 0 -0.045648287362602395 0.00083957870105300081 0 -0.045752177723429675 0.00071254239772880772 0 -0.045542207356359089 0.00070238229835880683 0 -0.045981587447037411 0.0007007762732609646 0 -0.045790738356514975 0.00086173277911865526 0 -0.045752177723429675 0.00071254239772880772 0 -0.045790738356514975 0.00086173277911865526 0 -0.045648287362602395 0.00083957870105300081 0 -0.045752177723429675 0.00071254239772880772 0 -0.064795243373567568 -0.0088463104127025158 0 -0.063375376495495878 -0.010638315898490385 0 -0.065773007660168789 -0.011946298500875202 0 -0.063375376495495878 -0.010638315898490385 0 -0.062086090511550507 -0.012559459830300629 0 -0.065773007660168789 -0.011946298500875202 0 -0.045690740132820533 0.00058547630441011802 0 -0.045542207356359089 0.00070238229835880683 0 -0.045225207733986923 0.00055573461619979063 0 -0.06822870498713085 -0.0094461657141284554 0 -0.065773007660168789 -0.011946298500875202 0 -0.069445032711854884 -0.011352855919356732 0 -0.06822870498713085 -0.0094461657141284554 0 -0.064795243373567568 -0.0088463104127025158 0 -0.065773007660168789 -0.011946298500875202 0 -0.053998586532892606 -0.002903908791065943 0 -0.055687288984442244 -0.0026696510669458615 0 -0.045648287362602395 0.00083957870105300081 0 -0.045542207356359089 0.00070238229835880683 0 -0.045480869535200245 0.00090508421537169304 0 -0.045542207356359089 0.00070238229835880683 0 -0.045480869535200245 0.00090508421537169304 0 -0.045319739548522878 0.00080670711017318941 0 -0.045480869535200245 0.00090508421537169304 0 -0.045446188764451237 0.0011480265297379403 0 -0.045247154589550677 0.0010075116068550898 0 -0.045648287362602395 0.00083957870105300081 0 -0.045480869535200245 0.00090508421537169304 0 -0.045662434202609063 0.0010106047767326791 0 -0.045480869535200245 0.00090508421537169304 0 -0.045446188764451237 0.0011480265297379403 0 -0.045662434202609063 0.0010106047767326791 0 -0.035098778249342266 0.0020384035112484063 0 -0.037469675330717024 0.0038210067731753723 0 -0.045446188764451237 0.0011480265297379403 0 -0.045700047624242394 0.0013290038780381381 0 -0.045357612863594451 0.0014164970015776372 0 -0.045446188764451237 0.0011480265297379403 0 -0.045700047624242394 0.0013290038780381381 0 -0.045662434202609063 0.0010106047767326791 0 -0.035098778249342266 0.0020384035112484063 0 -0.038725529361605768 0.00074860483443285207 0 -0.023833547758280615 -0.00074124534608922506 0 -0.024138456501692572 -0.00099159105985528848 0 -0.024201067814914538 -0.0016348368794529013 0 -0.023833547758280615 -0.00074124534608922506 0 -0.024045724922848517 -0.00082774008578633126 0 -0.024138456501692572 -0.00099159105985528848 0 -0.023833843159499105 -0.00078597552138710901 0 -0.024045724922848517 -0.00082774008578633126 0 -0.023927344567954735 -0.00038695252186656426 0 -0.035098778249342266 0.0020384035112484063 0 -0.03446386491794632 0.0020931855354659494 0 -0.045700047624242394 0.0013290038780381381 0 -0.045662434202609063 0.0010106047767326791 0 -0.045904992438974918 0.0010150989874166386 0 -0.045790738356514975 0.00086173277911865526 0 -0.045662434202609063 0.0010106047767326791 0 -0.045904992438974918 0.0010150989874166386 0 -0.045790738356514975 0.00086173277911865526 0 -0.045648287362602395 0.00083957870105300081 0 -0.045662434202609063 0.0010106047767326791 0 -0.025573557009268562 -0.0037297433964714019 0 -0.024201067814914538 -0.0016348368794529013 0 -0.024644178331820962 -0.0014362234447921314 0 -0.024644178331820962 -0.0014362234447921314 0 -0.024570833868166081 -0.0011782969124312782 0 -0.024788924704012016 -0.0013219075888000417 0 -0.024644178331820962 -0.0014362234447921314 0 -0.024443269591126814 -0.0012660384794801103 0 -0.024570833868166081 -0.0011782969124312782 0 -0.024201067814914538 -0.0016348368794529013 0 -0.024443269591126814 -0.0012660384794801103 0 -0.024303728531860989 -0.0011508873480335793 0 -0.024138456501692572 -0.00099159105985528848 0 -0.024201067814914538 -0.0016348368794529013 0 -0.024303728531860989 -0.0011508873480335793 0 -0.024201067814914538 -0.0016348368794529013 0 -0.024644178331820962 -0.0014362234447921314 0 -0.024443269591126814 -0.0012660384794801103 0 -0.024443269591126814 -0.0012660384794801103 0 -0.024303728531860989 -0.0011508873480335793 0 -0.024411452505388891 -0.0010316999675993041 0 -0.024411452505388891 -0.0010316999675993041 0 -0.024294822353370559 -0.00087993087053347572 0 -0.024559723660781706 -0.00091376093475513897 0 -0.024303728531860989 -0.0011508873480335793 0 -0.024411452505388891 -0.0010316999675993041 0 -0.024294822353370559 -0.00087993087053347572 0 -0.024138456501692572 -0.00099159105985528848 0 -0.024303728531860989 -0.0011508873480335793 0 -0.024294822353370559 -0.00087993087053347572 0 -0.024045724922848517 -0.00082774008578633126 0 -0.024138456501692572 -0.00099159105985528848 0 -0.024294822353370559 -0.00087993087053347572 0 -0.024294822353370559 -0.00087993087053347572 0 -0.024459233653275379 -0.00063490923020959413 0 -0.024216719560417693 -0.00059950388393229025 0 -0.024045724922848517 -0.00082774008578633126 0 -0.024294822353370559 -0.00087993087053347572 0 -0.024216719560417693 -0.00059950388393229025 0 -0.024693411044085553 -0.00069123390013081036 0 -0.024559723660781706 -0.00091376093475513897 0 -0.024459233653275379 -0.00063490923020959413 0 -0.024294822353370559 -0.00087993087053347572 0 -0.024559723660781706 -0.00091376093475513897 0 -0.024459233653275379 -0.00063490923020959413 0 -0.024559723660781706 -0.00091376093475513897 0 -0.024570833868166081 -0.0011782969124312782 0 -0.024737552044881837 -0.0010885671358632496 0 -0.024411452505388891 -0.0010316999675993041 0 -0.024559723660781706 -0.00091376093475513897 0 -0.024570833868166081 -0.0011782969124312782 0 -0.024443269591126814 -0.0012660384794801103 0 -0.024411452505388891 -0.0010316999675993041 0 -0.024570833868166081 -0.0011782969124312782 0 -0.024570833868166081 -0.0011782969124312782 0 -0.024737552044881837 -0.0010885671358632496 0 -0.024788924704012016 -0.0013219075888000417 0 -0.024737552044881837 -0.0010885671358632496 0 -0.025010621176746017 -0.0012385265068993521 0 -0.024788924704012016 -0.0013219075888000417 0 -0.024559723660781706 -0.00091376093475513897 0 -0.024737552044881837 -0.0010885671358632496 0 -0.024864052786755995 -0.00090907202661167361 0 -0.024737552044881837 -0.0010885671358632496 0 -0.024864052786755995 -0.00090907202661167361 0 -0.025010621176746017 -0.0012385265068993521 0 -0.024693411044085553 -0.00069123390013081036 0 -0.024864052786755995 -0.00090907202661167361 0 -0.024929777707406647 -0.00055425828543999084 0 -0.024693411044085553 -0.00069123390013081036 0 -0.024559723660781706 -0.00091376093475513897 0 -0.024864052786755995 -0.00090907202661167361 0 -0.024864052786755995 -0.00090907202661167361 0 -0.025301491363114763 -0.0009106987669546294 0 -0.024929777707406647 -0.00055425828543999084 0 -0.024864052786755995 -0.00090907202661167361 0 -0.025010621176746017 -0.0012385265068993521 0 -0.025301491363114763 -0.0009106987669546294 0 -0.025010621176746017 -0.0012385265068993521 0 -0.025315146461241094 -0.0014482103672319804 0 -0.025301491363114763 -0.0009106987669546294 0 -0.025010621176746017 -0.0012385265068993521 0 -0.024979176683747325 -0.001708832514603547 0 -0.025315146461241094 -0.0014482103672319804 0 -0.024979176683747325 -0.001708832514603547 0 -0.025445500969034179 -0.0020659245869713802 0 -0.025315146461241094 -0.0014482103672319804 0 -0.025010621176746017 -0.0012385265068993521 0 -0.024788924704012016 -0.0013219075888000417 0 -0.024979176683747325 -0.001708832514603547 0 -0.024644178331820962 -0.0014362234447921314 0 -0.024788924704012016 -0.0013219075888000417 0 -0.024979176683747325 -0.001708832514603547 0 -0.030784202324391809 0.00062233855691181121 0 -0.032561631841208749 0.00010611725491392085 0 -0.032927738670168218 0.011894848975083531 0 -0.032369300328761806 0.01171569909610796 0 -0.032613657923105145 0.011372115781625064 0 -0.032927738670168218 0.011894848975083531 0 -0.032506843222570747 0.012261732133888748 0 -0.032369300328761806 0.01171569909610796 0 -0.053235005212266151 -0.0013838786235228439 0 -0.055269182740664557 0.00083725529112151954 0 -0.032927738670168218 0.011894848975083531 0 -0.032506843222570747 0.012261732133888748 0 -0.033295811822499584 0.012437599456569848 0 -0.053235005212266151 -0.0013838786235228439 0 -0.045615448712429549 0.003536076526461054 0 -0.053235005212266151 -0.0013838786235228439 0 -0.055687288984442244 -0.0026696510669458615 0 -0.071437425561446208 -0.0093982818799134005 0 -0.073118779331894673 -0.010747344533032135 0 -0.069445032711854884 -0.011352855919356732 0 -0.044853383507799709 0.00050151998963360496 0 -0.045225207733986923 0.00055573461619979063 0 -0.044899884804104229 0.00082311168726901585 0 -0.06822870498713085 -0.0094461657141284554 0 -0.071437425561446208 -0.0093982818799134005 0 -0.069445032711854884 -0.011352855919356732 0 -0.045225207733986923 0.00055573461619979063 0 -0.045319739548522878 0.00080670711017318941 0 -0.045122864802411927 0.00086503866015986768 0 -0.045542207356359089 0.00070238229835880683 0 -0.045225207733986923 0.00055573461619979063 0 -0.045319739548522878 0.00080670711017318941 0 -0.045319739548522878 0.00080670711017318941 0 -0.045122864802411927 0.00086503866015986768 0 -0.045247154589550677 0.0010075116068550898 0 -0.045225207733986923 0.00055573461619979063 0 -0.044899884804104229 0.00082311168726901585 0 -0.045122864802411927 0.00086503866015986768 0 -0.044899884804104229 0.00082311168726901585 0 -0.045122864802411927 0.00086503866015986768 0 -0.044944364300920754 0.0011613624874672157 0 -0.045122864802411927 0.00086503866015986768 0 -0.045247154589550677 0.0010075116068550898 0 -0.044944364300920754 0.0011613624874672157 0 -0.045615448712429549 0.003536076526461054 0 -0.040321423911263678 0.0055587263758287127 0 -0.045247154589550677 0.0010075116068550898 0 -0.045185397452205948 0.0012351523330072385 0 -0.044944364300920754 0.0011613624874672157 0 -0.045446188764451237 0.0011480265297379403 0 -0.045247154589550677 0.0010075116068550898 0 -0.045185397452205948 0.0012351523330072385 0 -0.045480869535200245 0.00090508421537169304 0 -0.045319739548522878 0.00080670711017318941 0 -0.045247154589550677 0.0010075116068550898 0 -0.045446188764451237 0.0011480265297379403 0 -0.045185397452205948 0.0012351523330072385 0 -0.045357612863594451 0.0014164970015776372 0 -0.045185397452205948 0.0012351523330072385 0 -0.044996480631156896 0.001504345864106089 0 -0.045357612863594451 0.0014164970015776372 0 -0.040321423911263678 0.0055587263758287127 0 -0.035608204668386004 0.0069069301509746403 0 -0.032250046293224525 0.011252221541318098 0 -0.032434705238266838 0.011050266718689274 0 -0.032142883436043275 0.010853805662337632 0 -0.045185397452205948 0.0012351523330072385 0 -0.044944364300920754 0.0011613624874672157 0 -0.044996480631156896 0.001504345864106089 0 -0.032250046293224525 0.011252221541318098 0 -0.032434705238266838 0.011050266718689274 0 -0.032613657923105145 0.011372115781625064 0 -0.032434705238266838 0.011050266718689274 0 -0.032613657923105145 0.011372115781625064 0 -0.032647731924394248 0.011088666415892743 0 -0.032369300328761806 0.01171569909610796 0 -0.032250046293224525 0.011252221541318098 0 -0.032613657923105145 0.011372115781625064 0 -0.032927738670168218 0.011894848975083531 0 -0.032613657923105145 0.011372115781625064 0 -0.033180288723391196 0.011433307390992076 0 -0.032613657923105145 0.011372115781625064 0 -0.032647731924394248 0.011088666415892743 0 -0.033180288723391196 0.011433307390992076 0 -0.037766200986302713 0.00858306997413282 0 -0.039337670240114544 0.0081694503449738515 0 -0.032647731924394248 0.011088666415892743 0 -0.032970024722659794 0.01215777200927386 0 -0.033113154803265647 0.01096076310761346 0 -0.033884201529707385 0.011292951525787066 0 -0.032970024722659794 0.01215777200927386 0 -0.033113154803265647 0.01096076310761346 0 -0.033884201529707385 0.011292951525787066 0 -0.034643491429456559 0.011239004950030197 0 -0.034481693661321845 0.010704009102907929 0 -0.033884201529707385 0.011292951525787066 0 -0.034593235755114506 0.011724540973645574 0 -0.034643491429456559 0.011239004950030197 0 -0.033884201529707385 0.011292951525787066 0 -0.033855920471519869 0.012289525840354544 0 -0.034593235755114506 0.011724540973645574 0 -0.033855920471519869 0.012289525840354544 0 -0.034679643919662821 0.012423767670542535 0 -0.034593235755114506 0.011724540973645574 0 -0.033855920471519869 0.012289525840354544 0 -0.034377921304459033 0.012988669580862517 0 -0.034679643919662821 0.012423767670542535 0 -0.033884201529707385 0.011292951525787066 0 -0.033855920471519869 0.012289525840354544 0 -0.032970024722659794 0.01215777200927386 0 -0.039337670240114544 0.0081694503449738515 0 -0.044703083879398114 0.0063808632044890226 0 -0.032927738670168218 0.011894848975083531 0 -0.033180288723391196 0.011433307390992076 0 -0.033709757179954135 0.011955202042651145 0 -0.033855920471519869 0.012289525840354544 0 -0.032970024722659794 0.01215777200927386 0 -0.033601585664878968 0.013464859651828436 0 -0.033855920471519869 0.012289525840354544 0 -0.033601585664878968 0.013464859651828436 0 -0.034377921304459033 0.012988669580862517 0 -0.033601585664878968 0.013464859651828436 0 -0.034377921304459033 0.012988669580862517 0 -0.034813955206761359 0.013711589706324009 0 -0.033601585664878968 0.013464859651828436 0 -0.034813955206761359 0.013711589706324009 0 -0.03444282852635782 0.014879646930710493 0 -0.044703083879398114 0.0063808632044890226 0 -0.057153382342008917 0.0027869109317782787 0 -0.033709757179954135 0.011955202042651145 0 -0.033295811822499584 0.012437599456569848 0 -0.03423953525697318 0.012592767827779601 0 -0.032927738670168218 0.011894848975083531 0 -0.033709757179954135 0.011955202042651145 0 -0.033295811822499584 0.012437599456569848 0 -0.035652054633868432 0.014231003309605869 0 -0.036861332033552525 0.013925021403661308 0 -0.036280057836841441 0.015336054146765277 0 -0.035652054633868432 0.014231003309605869 0 -0.035963112857124654 0.013303036392339693 0 -0.036861332033552525 0.013925021403661308 0 -0.035652054633868432 0.014231003309605869 0 -0.034813955206761359 0.013711589706324009 0 -0.035963112857124654 0.013303036392339693 0 -0.035652054633868432 0.014231003309605869 0 -0.034813955206761359 0.013711589706324009 0 -0.03444282852635782 0.014879646930710493 0 -0.034813955206761359 0.013711589706324009 0 -0.0352067747852935 0.012870711650974616 0 -0.035963112857124654 0.013303036392339693 0 -0.034377921304459033 0.012988669580862517 0 -0.034813955206761359 0.013711589706324009 0 -0.0352067747852935 0.012870711650974616 0 -0.034377921304459033 0.012988669580862517 0 -0.0352067747852935 0.012870711650974616 0 -0.034679643919662821 0.012423767670542535 0 -0.0352067747852935 0.012870711650974616 0 -0.035963112857124654 0.013303036392339693 0 -0.03580689683104591 0.012555129338401671 0 -0.035963112857124654 0.013303036392339693 0 -0.036646636385513458 0.01318230148565089 0 -0.036861332033552525 0.013925021403661308 0 -0.035963112857124654 0.013303036392339693 0 -0.036646636385513458 0.01318230148565089 0 -0.036476383794562486 0.012658236913961743 0 -0.035963112857124654 0.013303036392339693 0 -0.036476383794562486 0.012658236913961743 0 -0.03580689683104591 0.012555129338401671 0 -0.036476383794562486 0.012658236913961743 0 -0.036055978988744346 0.012318338144718983 0 -0.036240765518258278 0.012010173169479922 0 -0.035674242615375856 0.011691317989863044 0 -0.035592947518575634 0.011792130962022414 0 -0.035224393530740972 0.011386204806106207 0 -0.036476383794562486 0.012658236913961743 0 -0.036055978988744346 0.012318338144718983 0 -0.03580689683104591 0.012555129338401671 0 -0.036055978988744346 0.012318338144718983 0 -0.035715366981116284 0.012061169397412511 0 -0.036240765518258278 0.012010173169479922 0 -0.036055978988744346 0.012318338144718983 0 -0.03580689683104591 0.012555129338401671 0 -0.035715366981116284 0.012061169397412511 0 -0.03580689683104591 0.012555129338401671 0 -0.035715366981116284 0.012061169397412511 0 -0.035228208947160985 0.012134800362316714 0 -0.035715366981116284 0.012061169397412511 0 -0.036240765518258278 0.012010173169479922 0 -0.035224393530740972 0.011386204806106207 0 -0.0352067747852935 0.012870711650974616 0 -0.034679643919662821 0.012423767670542535 0 -0.035228208947160985 0.012134800362316714 0 -0.0352067747852935 0.012870711650974616 0 -0.03580689683104591 0.012555129338401671 0 -0.035228208947160985 0.012134800362316714 0 -0.035715366981116284 0.012061169397412511 0 -0.035228208947160985 0.012134800362316714 0 -0.035224393530740972 0.011386204806106207 0 -0.034679643919662821 0.012423767670542535 0 -0.035228208947160985 0.012134800362316714 0 -0.034593235755114506 0.011724540973645574 0 -0.034593235755114506 0.011724540973645574 0 -0.035224393530740972 0.011386204806106207 0 -0.034643491429456559 0.011239004950030197 0 -0.035228208947160985 0.012134800362316714 0 -0.034593235755114506 0.011724540973645574 0 -0.035224393530740972 0.011386204806106207 0 -0.035224393530740972 0.011386204806106207 0 -0.035381383546413278 0.011236027111997745 0 -0.035010886486560297 0.0110414583745233 0 -0.035224393530740972 0.011386204806106207 0 -0.034643491429456559 0.011239004950030197 0 -0.035010886486560297 0.0110414583745233 0 -0.035674242615375856 0.011691317989863044 0 -0.035224393530740972 0.011386204806106207 0 -0.035381383546413278 0.011236027111997745 0 -0.035992466392470432 0.013002039710742833 0 -0.035381383546413278 0.011236027111997745 0 -0.036213589030020886 0.011848783568562072 0 -0.03797753893330743 0.011473278529554426 0 -0.037464593207559918 0.011242020108798453 0 -0.037793757619520051 0.011147374603928195 0 -0.03726232031585628 0.010965754424938596 0 -0.035381383546413278 0.011236027111997745 0 -0.036213589030020886 0.011848783568562072 0 -0.035980849653493852 0.011171499121185055 0 -0.036934826279301051 0.012429174846657729 0 -0.036843486690033268 0.011466092943891053 0 -0.038440713386431402 0.012324076441097696 0 -0.036213589030020886 0.011848783568562072 0 -0.036934826279301051 0.012429174846657729 0 -0.036843486690033268 0.011466092943891053 0 -0.036213589030020886 0.011848783568562072 0 -0.036843486690033268 0.011466092943891053 0 -0.035980849653493852 0.011171499121185055 0 -0.035992466392470432 0.013002039710742833 0 -0.036213589030020886 0.011848783568562072 0 -0.036934826279301051 0.012429174846657729 0 -0.036843486690033268 0.011466092943891053 0 -0.038440713386431402 0.012324076441097696 0 -0.037286517712431723 0.010596020527873274 0 -0.036934826279301051 0.012429174846657729 0 -0.038440713386431402 0.012324076441097696 0 -0.037351059045706403 0.013530269133920624 0 -0.038685769066681495 0.012421173180445449 0 -0.038510840842614809 0.013645186826294389 0 -0.039057018589049225 0.012602794907660374 0 -0.039630250132072838 0.014667729515050848 0 -0.038447208095375898 0.01509522230493664 0 -0.038440713386431402 0.012324076441097696 0 -0.037351059045706403 0.013530269133920624 0 -0.038447208095375898 0.01509522230493664 0 -0.035674242615375856 0.011691317989863044 0 -0.035592947518575634 0.011792130962022414 0 -0.036016191530478532 0.012233418498805562 0 -0.03797753893330743 0.011473278529554426 0 -0.039351091565344866 0.01157078743711492 0 -0.035992466392470432 0.013002039710742833 0 -0.037351059045706403 0.013530269133920624 0 -0.036999863508059741 0.014986945451059884 0 -0.037793757619520051 0.011147374603928195 0 -0.039351091565344866 0.01157078743711492 0 -0.036476383794562486 0.012658236913961743 0 -0.036240765518258278 0.012010173169479922 0 -0.037309904104754793 0.012853863558611822 0 -0.035992466392470432 0.013002039710742833 0 -0.036934826279301051 0.012429174846657729 0 -0.037351059045706403 0.013530269133920624 0 -0.041703961863599863 0.012695572991569801 0 -0.040600230206976638 0.011352362589334098 0 -0.042246279413552509 0.011137697470345563 0 -0.043107338618769732 0.012578240490493683 0 -0.041703961863599863 0.012695572991569801 0 -0.042246279413552509 0.011137697470345563 0 -0.043107338618769732 0.012578240490493683 0 -0.042855955081989854 0.014012342675093084 0 -0.041703961863599863 0.012695572991569801 0 -0.039057018589049225 0.012602794907660374 0 -0.041703961863599863 0.012695572991569801 0 -0.040600230206976638 0.011352362589334098 0 -0.039057018589049225 0.012602794907660374 0 -0.041703961863599863 0.012695572991569801 0 -0.040964060520693145 0.01416013700114069 0 -0.039057018589049225 0.012602794907660374 0 -0.040964060520693145 0.01416013700114069 0 -0.039630250132072838 0.014667729515050848 0 -0.042855955081989854 0.014012342675093084 0 -0.041703961863599863 0.012695572991569801 0 -0.040964060520693145 0.01416013700114069 0 -0.042855955081989854 0.014012342675093084 0 -0.040964060520693145 0.01416013700114069 0 -0.042026312459107387 0.015361769384207441 0 -0.042026312459107387 0.015361769384207441 0 -0.040522154267957126 0.015602244124797693 0 -0.041649657466225565 0.016494521781820336 0 -0.040964060520693145 0.01416013700114069 0 -0.040522154267957126 0.015602244124797693 0 -0.039630250132072838 0.014667729515050848 0 -0.040964060520693145 0.01416013700114069 0 -0.042026312459107387 0.015361769384207441 0 -0.040522154267957126 0.015602244124797693 0 -0.040522154267957126 0.015602244124797693 0 -0.039630250132072838 0.014667729515050848 0 -0.039173768504267049 0.016001947359611916 0 -0.040522154267957126 0.015602244124797693 0 -0.040632017172043629 0.017105018563203653 0 -0.039173768504267049 0.016001947359611916 0 -0.040632017172043629 0.017105018563203653 0 -0.039173768504267049 0.016001947359611916 0 -0.039323578598950727 0.017408701700256202 0 -0.040522154267957126 0.015602244124797693 0 -0.040632017172043629 0.017105018563203653 0 -0.041649657466225565 0.016494521781820336 0 -0.043117159936865844 0.016759891476058268 0 -0.042994626350880583 0.01851344335462763 0 -0.041910256854112329 0.017630506406573623 0 -0.040632017172043629 0.017105018563203653 0 -0.041649657466225565 0.016494521781820336 0 -0.041910256854112329 0.017630506406573623 0 -0.043117159936865844 0.016759891476058268 0 -0.041649657466225565 0.016494521781820336 0 -0.041910256854112329 0.017630506406573623 0 -0.043117159936865844 0.016759891476058268 0 -0.042026312459107387 0.015361769384207441 0 -0.041649657466225565 0.016494521781820336 0 -0.039351091565344866 0.01157078743711492 0 -0.039360567493558991 0.012925495121749259 0 -0.036646636385513458 0.01318230148565089 0 -0.037309904104754793 0.012853863558611822 0 -0.036861332033552525 0.013925021403661308 0 -0.036646636385513458 0.01318230148565089 0 -0.036476383794562486 0.012658236913961743 0 -0.037309904104754793 0.012853863558611822 0 -0.037351059045706403 0.013530269133920624 0 -0.036999863508059741 0.014986945451059884 0 -0.038447208095375898 0.01509522230493664 0 -0.036999863508059741 0.014986945451059884 0 -0.039173768504267049 0.016001947359611916 0 -0.039323578598950727 0.017408701700256202 0 -0.036999863508059741 0.014986945451059884 0 -0.038447208095375898 0.01509522230493664 0 -0.039173768504267049 0.016001947359611916 0 -0.039630250132072838 0.014667729515050848 0 -0.038447208095375898 0.01509522230493664 0 -0.039173768504267049 0.016001947359611916 0 -0.039351091565344866 0.01157078743711492 0 -0.047656369650382002 0.0096597791655429026 0 -0.037182275556821555 0.011490824655628675 0 -0.038269427705371825 0.013445960189305032 0 -0.039354047630214321 0.013960928207594207 0 -0.038269427705371825 0.013445960189305032 0 -0.039354047630214321 0.013960928207594207 0 -0.039354351596513786 0.015434884751517684 0 -0.03821461751435342 0.014031412920898859 0 -0.03763358635962917 0.014813894967100798 0 -0.038383318705657046 0.014957805642806224 0 -0.037309904104754793 0.012853863558611822 0 -0.03821461751435342 0.014031412920898859 0 -0.036861332033552525 0.013925021403661308 0 -0.036861332033552525 0.013925021403661308 0 -0.03763358635962917 0.014813894967100798 0 -0.036280057836841441 0.015336054146765277 0 -0.03821461751435342 0.014031412920898859 0 -0.036861332033552525 0.013925021403661308 0 -0.03763358635962917 0.014813894967100798 0 -0.03763358635962917 0.014813894967100798 0 -0.038506376599465618 0.015904139568502985 0 -0.036280057836841441 0.015336054146765277 0 -0.063610518249087852 0.0047673006615695677 0 -0.060541663553387283 0.0036041553938690831 0 -0.03763358635962917 0.014813894967100798 0 -0.038383318705657046 0.014957805642806224 0 -0.038506376599465618 0.015904139568502985 0 -0.03821461751435342 0.014031412920898859 0 -0.038383318705657046 0.014957805642806224 0 -0.039354351596513786 0.015434884751517684 0 -0.039360567493558991 0.012925495121749259 0 -0.039555310970112126 0.013653929143016113 0 -0.038383318705657046 0.014957805642806224 0 -0.039354351596513786 0.015434884751517684 0 -0.038506376599465618 0.015904139568502985 0 -0.089261911643403191 -0.0085508162640224022 0 -0.090895672475500747 -0.0058400220705717328 0 -0.08856339458615417 -0.0046187702463582839 0 -0.089261911643403191 -0.0085508162640224022 0 -0.086332591761695346 -0.006635092666008988 0 -0.085015526717410098 -0.0092680150995432913 0 -0.089261911643403191 -0.0085508162640224022 0 -0.086332591761695346 -0.006635092666008988 0 -0.08856339458615417 -0.0046187702463582839 0 -0.042994626350880583 0.01851344335462763 0 -0.041910256854112329 0.017630506406573623 0 -0.041449418086841681 0.019566507716538895 0 -0.040632017172043629 0.017105018563203653 0 -0.041910256854112329 0.017630506406573623 0 -0.041449418086841681 0.019566507716538895 0 -0.047656369650382002 0.0096597791655429026 0 -0.065749172560592983 0.0065641890956871472 0 -0.040632017172043629 0.017105018563203653 0 -0.039323578598950727 0.017408701700256202 0 -0.041449418086841681 0.019566507716538895 0 -0.039354351596513786 0.015434884751517684 0 -0.038506376599465618 0.015904139568502985 0 -0.041613576256874084 0.016477793887129423 0 -0.039354047630214321 0.013960928207594207 0 -0.039354351596513786 0.015434884751517684 0 -0.041613576256874084 0.016477793887129423 0 -0.063610518249087852 0.0047673006615695677 0 -0.065749172560592983 0.0065641890956871472 0 -0.093509913220038349 -0.0079115666978582591 0 -0.090895672475500747 -0.0058400220705717328 0 -0.092888108898841873 -0.0043112623156666367 0 -0.089261911643403191 -0.0085508162640224022 0 -0.093509913220038349 -0.0079115666978582591 0 -0.090895672475500747 -0.0058400220705717328 0 -0.070898672624883363 0.0067027262979479996 0 -0.065749172560592983 0.0065641890956871472 0 -0.076910334856020293 0.0067047690014566674 0 -0.065749172560592983 0.0065641890956871472 0 -0.096720144128913846 -0.004560100903696576 0 -0.097252783929504941 -0.0051449012882116858 0 -0.09351113440264136 -0.008009622204576709 0 -0.096720144128913846 -0.004560100903696576 0 -0.093509913220038349 -0.0079115666978582591 0 -0.094724051409165302 -0.0049948224246244653 0 -0.093509913220038349 -0.0079115666978582591 0 -0.094724051409165302 -0.0049948224246244653 0 -0.092888108898841873 -0.0043112623156666367 0 -0.095542728262985738 -0.0034998473104256456 0 -0.094724051409165302 -0.0049948224246244653 0 -0.09430450773100113 -0.0036088131989528236 0 -0.095954483675642549 -0.0041057850491524953 0 -0.095542728262985738 -0.0034998473104256456 0 -0.094724051409165302 -0.0049948224246244653 0 -0.095954483675642549 -0.0041057850491524953 0 -0.096720144128913846 -0.004560100903696576 0 -0.094724051409165302 -0.0049948224246244653 0 -0.094724051409165302 -0.0049948224246244653 0 -0.09430450773100113 -0.0036088131989528236 0 -0.092888108898841873 -0.0043112623156666367 0 -0.090895672475500747 -0.0058400220705717328 0 -0.092888108898841873 -0.0043112623156666367 0 -0.091361868054354645 -0.0025254214390937053 0 -0.090908967692637621 -0.00042879241010366636 0 -0.091361868054354645 -0.0025254214390937053 0 -0.092285972852897122 -0.0011098625730630953 0 -0.091361868054354645 -0.0025254214390937053 0 -0.092285972852897122 -0.0011098625730630953 0 -0.093428970560516911 -0.0022380659907373693 0 -0.093498832618182648 -0.00063684507193736614 0 -0.092285972852897122 -0.0011098625730630953 0 -0.093428970560516911 -0.0022380659907373693 0 -0.092888108898841873 -0.0043112623156666367 0 -0.091361868054354645 -0.0025254214390937053 0 -0.093428970560516911 -0.0022380659907373693 0 -0.09430450773100113 -0.0036088131989528236 0 -0.093428970560516911 -0.0022380659907373693 0 -0.095030504460407547 -0.0024217447859180489 0 -0.09430450773100113 -0.0036088131989528236 0 -0.092888108898841873 -0.0043112623156666367 0 -0.093428970560516911 -0.0022380659907373693 0 -0.093428970560516911 -0.0022380659907373693 0 -0.094773272169265621 -0.0011119374695902186 0 -0.095030504460407547 -0.0024217447859180489 0 -0.093498832618182648 -0.00063684507193736614 0 -0.093428970560516911 -0.0022380659907373693 0 -0.094773272169265621 -0.0011119374695902186 0 -0.095952911454919798 -0.0016179938963909661 0 -0.096003042242085293 -0.0006357304865319414 0 -0.094773272169265621 -0.0011119374695902186 0 -0.095952911454919798 -0.0016179938963909661 0 -0.094773272169265621 -0.0011119374695902186 0 -0.095030504460407547 -0.0024217447859180489 0 -0.095952911454919798 -0.0016179938963909661 0 -0.096047505791808319 -0.0025836832198558768 0 -0.095030504460407547 -0.0024217447859180489 0 -0.096047505791808319 -0.0025836832198558768 0 -0.095542728262985738 -0.0034998473104256456 0 -0.095030504460407547 -0.0024217447859180489 0 -0.095542728262985738 -0.0034998473104256456 0 -0.09430450773100113 -0.0036088131989528236 0 -0.095030504460407547 -0.0024217447859180489 0 -0.08856339458615417 -0.0046187702463582839 0 -0.086465046503854753 -0.0019988902453321757 0 -0.085990233887479547 -0.0043668024874786516 0 -0.086332591761695346 -0.006635092666008988 0 -0.08856339458615417 -0.0046187702463582839 0 -0.085990233887479547 -0.0043668024874786516 0 -0.090895672475500747 -0.0058400220705717328 0 -0.091361868054354645 -0.0025254214390937053 0 -0.08856339458615417 -0.0046187702463582839 0 -0.091361868054354645 -0.0025254214390937053 0 -0.08856339458615417 -0.0046187702463582839 0 -0.089054290403426911 -0.0014673078612245781 0 -0.090908967692637621 -0.00042879241010366636 0 -0.091361868054354645 -0.0025254214390937053 0 -0.089054290403426911 -0.0014673078612245781 0 -0.08856339458615417 -0.0046187702463582839 0 -0.089054290403426911 -0.0014673078612245781 0 -0.086465046503854753 -0.0019988902453321757 0 -0.087806092862684884 -7.3028417111607155e-05 0 -0.089054290403426911 -0.0014673078612245781 0 -0.086465046503854753 -0.0019988902453321757 0 -0.0838755353439221 -0.00015414819312251427 0 -0.08409189568986207 -0.0015273201441064949 0 -0.084012383395687104 -0.00050976094355401893 0 -0.086465046503854753 -0.0019988902453321757 0 -0.084376617654015093 -0.0037492763964143585 0 -0.086465046503854753 -0.0019988902453321757 0 -0.085990233887479547 -0.0043668024874786516 0 -0.084376617654015093 -0.0037492763964143585 0 -0.085990233887479547 -0.0043668024874786516 0 -0.084376617654015093 -0.0037492763964143585 0 -0.08424632360151986 -0.0048812211272174699 0 -0.084376617654015093 -0.0037492763964143585 0 -0.08424632360151986 -0.0048812211272174699 0 -0.08269100226035786 -0.004178208516770243 0 -0.086332591761695346 -0.006635092666008988 0 -0.085990233887479547 -0.0043668024874786516 0 -0.08424632360151986 -0.0048812211272174699 0 -0.08424632360151986 -0.0048812211272174699 0 -0.08269100226035786 -0.004178208516770243 0 -0.08273886776180174 -0.0070775957623457255 0 -0.084376617654015093 -0.0037492763964143585 0 -0.08269100226035786 -0.004178208516770243 0 -0.082720273604467071 -0.0026980373432309826 0 -0.08269100226035786 -0.004178208516770243 0 -0.082720273604467071 -0.0026980373432309826 0 -0.080930838113061371 -0.0038757759024341779 0 -0.083825902679147468 -0.00064977069005514706 0 -0.084376617654015093 -0.0037492763964143585 0 -0.082720273604467071 -0.0026980373432309826 0 -0.083825902679147468 -0.00064977069005514706 0 -0.082720273604467071 -0.0026980373432309826 0 -0.080985906419667839 -0.0017742675696276054 0 -0.080985906419667839 -0.0017742675696276054 0 -0.078335917098873997 -0.0019522670282235719 0 -0.080930838113061371 -0.0038757759024341779 0 -0.082720273604467071 -0.0026980373432309826 0 -0.080985906419667839 -0.0017742675696276054 0 -0.080930838113061371 -0.0038757759024341779 0 -0.075592922871798793 -0.003465060272315983 0 -0.078335917098873997 -0.0019522670282235719 0 -0.078325111890191396 -0.0044425840997225395 0 -0.078335917098873997 -0.0019522670282235719 0 -0.078325111890191396 -0.0044425840997225395 0 -0.080930838113061371 -0.0038757759024341779 0 -0.078325111890191396 -0.0044425840997225395 0 -0.080930838113061371 -0.0038757759024341779 0 -0.08078291052124191 -0.0060244002334741455 0 -0.08269100226035786 -0.004178208516770243 0 -0.080930838113061371 -0.0038757759024341779 0 -0.08078291052124191 -0.0060244002334741455 0 -0.08078291052124191 -0.0060244002334741455 0 -0.078232838354696549 -0.0071834236188290006 0 -0.081191627441401723 -0.0093674758213330052 0 -0.075955467836465271 -0.0054317893915797107 0 -0.078325111890191396 -0.0044425840997225395 0 -0.078232838354696549 -0.0071834236188290006 0 -0.078325111890191396 -0.0044425840997225395 0 -0.08078291052124191 -0.0060244002334741455 0 -0.078232838354696549 -0.0071834236188290006 0 -0.055269182740664557 0.00083725529112151954 0 -0.057153382342008917 0.0027869109317782787 0 -0.077204890948294191 -0.010078783757252562 0 -0.078232838354696549 -0.0071834236188290006 0 -0.081191627441401723 -0.0093674758213330052 0 -0.035652054633868432 0.014231003309605869 0 -0.03444282852635782 0.014879646930710493 0 -0.036280057836841441 0.015336054146765277 0 -0.080539863938326378 -0.010021431359702033 0 -0.085015526717410098 -0.0092680150995432913 0 -0.082361871650788482 -0.0074252457301844845 0 -0.057153382342008917 0.0027869109317782787 0 -0.060541663553387283 0.0036041553938690831 0 -0.057153382342008917 0.0027869109317782787 0 -0.066409847624238405 0.0015352920066858838 0 -0.086332591761695346 -0.006635092666008988 0 -0.085015526717410098 -0.0092680150995432913 0 -0.084462002791213367 -0.007001955312534976 0 -0.085015526717410098 -0.0092680150995432913 0 -0.084462002791213367 -0.007001955312534976 0 -0.082361871650788482 -0.0074252457301844845 0 -0.08424632360151986 -0.0048812211272174699 0 -0.084462002791213367 -0.007001955312534976 0 -0.082361871650788482 -0.0074252457301844845 0 -0.086332591761695346 -0.006635092666008988 0 -0.08424632360151986 -0.0048812211272174699 0 -0.084462002791213367 -0.007001955312534976 0 -0.08269100226035786 -0.004178208516770243 0 -0.08078291052124191 -0.0060244002334741455 0 -0.08273886776180174 -0.0070775957623457255 0 -0.069382168113767226 0.0014232927369467411 0 -0.066409847624238405 0.0015352920066858838 0 -0.08078291052124191 -0.0060244002334741455 0 -0.081191627441401723 -0.0093674758213330052 0 -0.08273886776180174 -0.0070775957623457255 0 -0.085231319779593528 -0.00015595019067913754 0 -0.088377675924105864 -0.0012448479437427019 0 -0.086977899371366726 -0.00033565115993163598 0 -0.07942204950118166 -0.0010851209354537741 0 -0.082669197063208674 -0.0014531993769354545 0 -0.088377675924105864 -0.0012448479437427019 0 -0.079858108128471925 -3.1846701744958827e-05 0 -0.081117980200508769 -0.00028049255838724603 0 -0.07942204950118166 -0.0010851209354537741 0 -0.082669197063208674 -0.0014531993769354545 0 -0.079135777039237742 -0.00039094671909075985 0 -0.085231319779593528 -0.00015595019067913754 0 -0.084057030292995272 -1.9680648629533203e-05 0 -0.086977899371366726 -0.00033565115993163598 0 -0.085095646875626305 -4.0022170877122108e-07 0 -0.084057030292995272 -1.9680648629533203e-05 0 -0.079359828936432397 -2.5658076042137548e-07 0 -0.085095646875626305 -4.0022170877122108e-07 0 -0.084057030292995272 -1.9680648629533203e-05 0 -0.086977899371366726 -0.00033565115993163598 0 -0.085231319779593528 -0.00015595019067913754 0 -0.084057030292995272 -1.9680648629533203e-05 0 -0.082221741214797001 -0.00010963437787881713 0 -0.079858108128471925 -3.1846701744958827e-05 0 -0.077226776090108945 0.00047482128960649395 0 -0.084057030292995272 -1.9680648629533203e-05 0 -0.082221741214797001 -0.00010963437787881713 0 -0.079359828936432397 -2.5658076042137548e-07 0 -0.085231319779593528 -0.00015595019067913754 0 -0.082221741214797001 -0.00010963437787881713 0 -0.079981125260544197 -0.00035821294105104357 0 -0.082221741214797001 -0.00010963437787881713 0 -0.079359828936432397 -2.5658076042137548e-07 0 -0.079981125260544197 -0.00035821294105104357 0 -0.07942204950118166 -0.0010851209354537741 0 -0.077412811898107364 8.6622541573158456e-05 0 -0.078297509299542475 -0.00027702866022160641 0 -0.07942204950118166 -0.0010851209354537741 0 -0.077412811898107364 8.6622541573158456e-05 0 -0.076132202603394789 0.000511171906782233 0 -0.078297509299542475 -0.00027702866022160641 0 -0.077585161790879695 0.00011951951643145751 0 -0.079135777039237742 -0.00039094671909075985 0 -0.07942204950118166 -0.0010851209354537741 0 -0.078297509299542475 -0.00027702866022160641 0 -0.079135777039237742 -0.00039094671909075985 0 -0.077412811898107364 8.6622541573158456e-05 0 -0.078297509299542475 -0.00027702866022160641 0 -0.077585161790879695 0.00011951951643145751 0 -0.077585161790879695 0.00011951951643145751 0 -0.078000743869035896 -0.00025180057730267121 0 -0.077005114028748697 0.0001919100484830821 0 -0.077585161790879695 0.00011951951643145751 0 -0.078000743869035896 -0.00025180057730267121 0 -0.079135777039237742 -0.00039094671909075985 0 -0.076941425132887514 -0.00034595048481390179 0 -0.076256889463639677 0.00024152513546351248 0 -0.077005114028748697 0.0001919100484830821 0 -0.078000743869035896 -0.00025180057730267121 0 -0.076941425132887514 -0.00034595048481390179 0 -0.077005114028748697 0.0001919100484830821 0 -0.078000743869035896 -0.00025180057730267121 0 -0.076941425132887514 -0.00034595048481390179 0 -0.07791404722840771 -0.0012455639780585487 0 -0.07791404722840771 -0.0012455639780585487 0 -0.077264222616200195 -0.0022647031787765919 0 -0.076615543310863413 -0.0014700090466678458 0 -0.076941425132887514 -0.00034595048481390179 0 -0.07791404722840771 -0.0012455639780585487 0 -0.076615543310863413 -0.0014700090466678458 0 -0.07791404722840771 -0.0012455639780585487 0 -0.079340544047062297 -0.0010781579461111067 0 -0.07803068428338214 -0.0034967394371287893 0 -0.082669197063208674 -0.0014531993769354545 0 -0.079340544047062297 -0.0010781579461111067 0 -0.07803068428338214 -0.0034967394371287893 0 -0.078000743869035896 -0.00025180057730267121 0 -0.079135777039237742 -0.00039094671909075985 0 -0.079340544047062297 -0.0010781579461111067 0 -0.082669197063208674 -0.0014531993769354545 0 -0.079135777039237742 -0.00039094671909075985 0 -0.079340544047062297 -0.0010781579461111067 0 -0.078000743869035896 -0.00025180057730267121 0 -0.07791404722840771 -0.0012455639780585487 0 -0.079340544047062297 -0.0010781579461111067 0 -0.082669197063208674 -0.0014531993769354545 0 -0.093755200019175255 -0.002631425282629695 0 -0.088377675924105864 -0.0012448479437427019 0 -0.087010269377352373 -0.0018652834400523981 0 -0.087519197662245654 -0.0021352514435681461 0 -0.093755200019175255 -0.002631425282629695 0 -0.092167423342003077 -0.00087639017048410232 0 -0.088377675924105864 -0.0012448479437427019 0 -0.07803068428338214 -0.0034967394371287893 0 -0.076622604681749792 -0.0038853424217608866 0 -0.076687265424460818 -0.0028705128970357985 0 -0.07791404722840771 -0.0012455639780585487 0 -0.07803068428338214 -0.0034967394371287893 0 -0.077264222616200195 -0.0022647031787765919 0 -0.077264222616200195 -0.0022647031787765919 0 -0.076687265424460818 -0.0028705128970357985 0 -0.076615543310863413 -0.0014700090466678458 0 -0.07803068428338214 -0.0034967394371287893 0 -0.077264222616200195 -0.0022647031787765919 0 -0.076687265424460818 -0.0028705128970357985 0 -0.093755200019175255 -0.002631425282629695 0 -0.095396456402460666 -0.0010250877532794066 0 -0.098969899793821495 -0.0017944544363317249 0 -0.087519197662245654 -0.0021352514435681461 0 -0.088655823228330807 -0.0023734248726402854 0 -0.095396456402460666 -0.0010250877532794066 0 -0.097768837899913419 -0.00039011112229051431 0 -0.098969899793821495 -0.0017944544363317249 0 -0.095396456402460666 -0.0010250877532794066 0 -0.092167423342003077 -0.00087639017048410232 0 -0.094546923540026168 -7.1187096256109238e-05 0 -0.092167423342003077 -0.00087639017048410232 0 -0.090749693948634483 -0.00043872668277085002 0 -0.094546923540026168 -7.1187096256109238e-05 0 -0.093755200019175255 -0.002631425282629695 0 -0.095396456402460666 -0.0010250877532794066 0 -0.092167423342003077 -0.00087639017048410232 0 -0.092167423342003077 -0.00087639017048410232 0 -0.090749693948634483 -0.00043872668277085002 0 -0.088377675924105864 -0.0012448479437427019 0 -0.090749693948634483 -0.00043872668277085002 0 -0.088377675924105864 -0.0012448479437427019 0 -0.086977899371366726 -0.00033565115993163598 0 -0.085095646875626305 -4.0022170877122108e-07 0 -0.086977899371366726 -0.00033565115993163598 0 -0.090834551820350121 3.0411969912248453e-07 0 -0.090749693948634483 -0.00043872668277085002 0 -0.086977899371366726 -0.00033565115993163598 0 -0.090834551820350121 3.0411969912248453e-07 0 -0.090749693948634483 -0.00043872668277085002 0 -0.090834551820350121 3.0411969912248453e-07 0 -0.093592732372813681 0.00042421919891099205 0 -0.090834551820350121 3.0411969912248453e-07 0 -0.093592732372813681 0.00042421919891099205 0 -0.096558024553225263 4.0696353114731447e-07 0 -0.090749693948634483 -0.00043872668277085002 0 -0.093592732372813681 0.00042421919891099205 0 -0.094546923540026168 -7.1187096256109238e-05 0 -0.093592732372813681 0.00042421919891099205 0 -0.094986477878752987 0.0013899327055446975 0 -0.095922964687472315 0.00054408408174384413 0 -0.096572557269107975 1.0107717367277223e-06 0 -0.098988315770772703 0.00084187870145688802 0 -0.093592732372813681 0.00042421919891099205 0 -0.096558024553225263 4.0696353114731447e-07 0 -0.094986477878752987 0.0013899327055446975 0 -0.10499488126847009 2.3570071460728282e-06 0 -0.10332171808845914 0.00047212815040204877 0 -0.10498893269266919 1.345254256354709e-06 0 -0.096583063928603066 -3.4081357236550759e-06 0 -0.10499488126847009 2.3570071460728282e-06 0 -0.10332171808845914 0.00047212815040204877 0 -0.10274112241854172 0.0013444984048684601 0 -0.10498893269266919 1.345254256354709e-06 0 -0.10068060012095921 0.0020364981594540414 0 -0.10499775639643585 1.2695053727712744e-06 0 -0.10383048425122113 0.0008368845344634702 0 -0.10332171808845914 0.00047212815040204877 0 -0.10274112241854172 0.0013444984048684601 0 -0.10498893269266919 1.345254256354709e-06 0 -0.098988315770772703 0.00084187870145688802 0 -0.10002467000806776 0.001108741889161137 0 -0.094986477878752987 0.0013899327055446975 0 -0.10274112241854172 0.0013444984048684601 0 -0.099553267781969546 0.0012920853850821826 0 -0.099553267781969546 0.0012920853850821826 0 -0.10020547019753781 0.0010839233823684838 0 -0.10068060012095921 0.0020364981594540414 0 -0.10274112241854172 0.0013444984048684601 0 -0.099553267781969546 0.0012920853850821826 0 -0.10068060012095921 0.0020364981594540414 0 -0.099553267781969546 0.0012920853850821826 0 -0.098611904232712391 0.00066457050149558168 0 -0.10020547019753781 0.0010839233823684838 0 -0.099553267781969546 0.0012920853850821826 0 -0.098611904232712391 0.00066457050149558168 0 -0.095922964687472315 0.00054408408174384413 0 -0.098611904232712391 0.00066457050149558168 0 -0.10018228154178463 4.704737436851494e-05 0 -0.10020547019753781 0.0010839233823684838 0 -0.094986477878752987 0.0013899327055446975 0 -0.099553267781969546 0.0012920853850821826 0 -0.095922964687472315 0.00054408408174384413 0 -0.098611904232712391 0.00066457050149558168 0 -0.095922964687472315 0.00054408408174384413 0 -0.094546923540026168 -7.1187096256109238e-05 0 -0.093592732372813681 0.00042421919891099205 0 -0.095922964687472315 0.00054408408174384413 0 -0.094546923540026168 -7.1187096256109238e-05 0 -0.095396456402460666 -0.0010250877532794066 0 -0.094546923540026168 -7.1187096256109238e-05 0 -0.097768837899913419 -0.00039011112229051431 0 -0.098611904232712391 0.00066457050149558168 0 -0.094546923540026168 -7.1187096256109238e-05 0 -0.097768837899913419 -0.00039011112229051431 0 -0.097768837899913419 -0.00039011112229051431 0 -0.10018228154178463 4.704737436851494e-05 0 -0.098969899793821495 -0.0017944544363317249 0 -0.098611904232712391 0.00066457050149558168 0 -0.097768837899913419 -0.00039011112229051431 0 -0.10018228154178463 4.704737436851494e-05 0 -0.090660011213346048 -0.0020653841360497747 0 -0.088655823228330807 -0.0023734248726402854 0 -0.10018228154178463 4.704737436851494e-05 0 -0.10293864967140762 -0.00021926206565811172 0 -0.098969899793821495 -0.0017944544363317249 0 -0.10018228154178463 4.704737436851494e-05 0 -0.10293864967140762 -0.00021926206565811172 0 -0.10266027408306416 0.0006056162243511877 0 -0.075726003073285295 -0.0044478574933518415 0 -0.07545356786706571 -0.0039157953028191306 0 -0.076622604681749792 -0.0038853424217608866 0 -0.075726003073285295 -0.0044478574933518415 0 -0.075315162107118749 -0.0044296265523768655 0 -0.07545356786706571 -0.0039157953028191306 0 -0.10293864967140762 -0.00021926206565811172 0 -0.10345400683177129 0.00054417199875206963 0 -0.10415213407830683 0.00050035895107614818 0 -0.090660011213346048 -0.0020653841360497747 0 -0.095467776288632789 0.00011746265181929234 0 -0.075726003073285295 -0.0044478574933518415 0 -0.075315162107118749 -0.0044296265523768655 0 -0.07504006737652047 -0.0049990170579528627 0 -0.10293864967140762 -0.00021926206565811172 0 -0.10266027408306416 0.0006056162243511877 0 -0.10345400683177129 0.00054417199875206963 0 -0.10266027408306416 0.0006056162243511877 0 -0.10345400683177129 0.00054417199875206963 0 -0.1036552521173289 0.00053528232331246522 0 -0.10345400683177129 0.00054417199875206963 0 -0.10402421258181932 0.00046806929960558339 0 -0.10415213407830683 0.00050035895107614818 0 -0.10266027408306416 0.0006056162243511877 0 -0.10468375427465706 0.00035243702798438259 0 -0.1036552521173289 0.00053528232331246522 0 -0.10266027408306416 0.0006056162243511877 0 -0.10020547019753781 0.0010839233823684838 0 -0.10068060012095921 0.0020364981594540414 0 -0.10366255240126734 0.00070086870011619006 0 -0.10383048425122113 0.0008368845344634702 0 -0.10018228154178463 4.704737436851494e-05 0 -0.10266027408306416 0.0006056162243511877 0 -0.10020547019753781 0.0010839233823684838 0 -0.10468375427465706 0.00035243702798438259 0 -0.10402421258181932 0.00046806929960558339 0 -0.10467264998422522 0.00017306732892682876 0 -0.10468375427465706 0.00035243702798438259 0 -0.1036552521173289 0.00053528232331246522 0 -0.10402421258181932 0.00046806929960558339 0 -0.10345400683177129 0.00054417199875206963 0 -0.1036552521173289 0.00053528232331246522 0 -0.10402421258181932 0.00046806929960558339 0 -0.10402421258181932 0.00046806929960558339 0 -0.10458451455118517 0.00019470043305764822 0 -0.10437840478417246 0.00035372930226842736 0 -0.10402421258181932 0.00046806929960558339 0 -0.10458451455118517 0.00019470043305764822 0 -0.10467264998422522 0.00017306732892682876 0 -0.10458451455118517 0.00019470043305764822 0 -0.10499907577564555 1.759750070829743e-07 0 -0.10499888329743026 2.5558150921302094e-07 0 -0.10458451455118517 0.00019470043305764822 0 -0.10499907577564555 1.759750070829743e-07 0 -0.10467264998422522 0.00017306732892682876 0 -0.10500042658685663 -3.0674398630372516e-08 0 -0.10468375427465706 0.00035243702798438259 0 -0.10467264998422522 0.00017306732892682876 0 -0.10500042658685663 -3.0674398630372516e-08 0 -0.10499907577564555 1.759750070829743e-07 0 -0.10467264998422522 0.00017306732892682876 0 -0.10493845428490797 -5.4710853584966235e-05 0 -0.10499979288470573 -2.4389814911161397e-07 0 -0.10499992742559465 2.2595714321715514e-07 0 -0.10493845428490797 -5.4710853584966235e-05 0 -0.10493600612454625 -1.4271186463891021e-05 0 -0.10487191457509142 -0.00012470999521690804 0 -0.10498833707660825 8.4123361385482528e-07 0 -0.10074312761432727 0.00021583939383746137 0 -0.10458451455118517 0.00019470043305764822 0 -0.10499888329743026 2.5558150921302094e-07 0 -0.10437840478417246 0.00035372930226842736 0 -0.10493845428490797 -5.4710853584966235e-05 0 -0.10499979288470573 -2.4389814911161397e-07 0 -0.10495937819261526 -2.4763505654608523e-05 0 -0.10074312761432727 0.00021583939383746137 0 -0.095467776288632789 0.00011746265181929234 0 -0.10402421258181932 0.00046806929960558339 0 -0.10437840478417246 0.00035372930226842736 0 -0.10415213407830683 0.00050035895107614818 0 -0.10495937819261526 -2.4763505654608523e-05 0 -0.10493600612454625 -1.4271186463891021e-05 0 -0.10493805057161902 6.4433148991552911e-07 0 -0.099410092254740554 0.0013876026333226653 0 -0.095467776288632789 0.00011746265181929234 0 -0.10493845428490797 -5.4710853584966235e-05 0 -0.10495937819261526 -2.4763505654608523e-05 0 -0.10493600612454625 -1.4271186463891021e-05 0 -0.10377465205360438 -0.00068181525789078772 0 -0.10455189327095307 -0.00084712516576163641 0 -0.10487191457509142 -0.00012470999521690804 0 -0.099410092254740554 0.0013876026333226653 0 -0.10051414608137603 0.0016748713657897248 0 -0.10421334963147856 -0.0012278633748718144 0 -0.10467789929206714 -0.0015870539889058215 0 -0.10455189327095307 -0.00084712516576163641 0 -0.10377465205360438 -0.00068181525789078772 0 -0.10421334963147856 -0.0012278633748718144 0 -0.10455189327095307 -0.00084712516576163641 0 -0.10421334963147856 -0.0012278633748718144 0 -0.10383337145555825 -0.0017850577261545679 0 -0.10467789929206714 -0.0015870539889058215 0 -0.10377465205360438 -0.00068181525789078772 0 -0.10421334963147856 -0.0012278633748718144 0 -0.10383337145555825 -0.0017850577261545679 0 -0.10377465205360438 -0.00068181525789078772 0 -0.10383337145555825 -0.0017850577261545679 0 -0.10271525449068106 -0.0014903466376656742 0 -0.10383337145555825 -0.0017850577261545679 0 -0.10325329592104177 -0.0023296137950550269 0 -0.10377019886022434 -0.0025448961286240147 0 -0.10383337145555825 -0.0017850577261545679 0 -0.10377019886022434 -0.0025448961286240147 0 -0.10453961896714936 -0.0027630970946799708 0 -0.10383337145555825 -0.0017850577261545679 0 -0.10453961896714936 -0.0027630970946799708 0 -0.10467789929206714 -0.0015870539889058215 0 -0.075315162107118749 -0.0044296265523768655 0 -0.07504006737652047 -0.0049990170579528627 0 -0.075041246005706982 -0.0043137924061439972 0 -0.10271525449068106 -0.0014903466376656742 0 -0.10325329592104177 -0.0023296137950550269 0 -0.10258092143043122 -0.0029122154629184619 0 -0.095467776288632789 0.00011746265181929234 0 -0.090691118223238665 -0.0032535169375474387 0 -0.10383337145555825 -0.0017850577261545679 0 -0.10271525449068106 -0.0014903466376656742 0 -0.10325329592104177 -0.0023296137950550269 0 -0.10325329592104177 -0.0023296137950550269 0 -0.10258092143043122 -0.0029122154629184619 0 -0.1034279271401409 -0.0029977017400481258 0 -0.10258092143043122 -0.0029122154629184619 0 -0.1034279271401409 -0.0029977017400481258 0 -0.1030013146612363 -0.0036063883549052639 0 -0.075315162107118749 -0.0044296265523768655 0 -0.075041246005706982 -0.0043137924061439972 0 -0.07545356786706571 -0.0039157953028191306 0 -0.10377019886022434 -0.0025448961286240147 0 -0.10391032669006385 -0.0030108096972885469 0 -0.10453961896714936 -0.0027630970946799708 0 -0.10325329592104177 -0.0023296137950550269 0 -0.10377019886022434 -0.0025448961286240147 0 -0.1034279271401409 -0.0029977017400481258 0 -0.10377019886022434 -0.0025448961286240147 0 -0.1034279271401409 -0.0029977017400481258 0 -0.10391032669006385 -0.0030108096972885469 0 -0.1034279271401409 -0.0029977017400481258 0 -0.10366564769952272 -0.0034172284685485585 0 -0.10353938388546319 -0.0040300966051084646 0 -0.090458435492408895 -0.0043540407915674956 0 -0.089180111457066322 -0.0042450103362125088 0 -0.1034279271401409 -0.0029977017400481258 0 -0.10366564769952272 -0.0034172284685485585 0 -0.10391032669006385 -0.0030108096972885469 0 -0.10391032669006385 -0.0030108096972885469 0 -0.10421384475345598 -0.0034086683834003806 0 -0.10453961896714936 -0.0027630970946799708 0 -0.10366564769952272 -0.0034172284685485585 0 -0.10391032669006385 -0.0030108096972885469 0 -0.10421384475345598 -0.0034086683834003806 0 -0.093689194618381141 -0.0050568445042529385 0 -0.092392196980981597 -0.0044246446865179295 0 -0.10366564769952272 -0.0034172284685485585 0 -0.1041788304244305 -0.0039072636441496731 0 -0.10353938388546319 -0.0040300966051084646 0 -0.10366564769952272 -0.0034172284685485585 0 -0.10421384475345598 -0.0034086683834003806 0 -0.10428110336161749 -0.0039736970343714362 0 -0.10421384475345598 -0.0034086683834003806 0 -0.10428110336161749 -0.0039736970343714362 0 -0.10462982166952724 -0.0039116757449355758 0 -0.092392196980981597 -0.0044246446865179295 0 -0.089180111457066322 -0.0042450103362125088 0 -0.1034279271401409 -0.0029977017400481258 0 -0.10354173188169047 -0.0041636614802128841 0 -0.1030013146612363 -0.0036063883549052639 0 -0.073786566030480283 -0.003476256359137573 0 -0.073660718069057954 -0.0026073971661259017 0 -0.074110094743358501 -0.0029812946110044916 0 -0.089180111457066322 -0.0042450103362125088 0 -0.086110146165617657 -0.0037371220747124726 0 -0.087986472472551466 -0.0048364757004977629 0 -0.087810557972475334 -0.0046483588153784939 0 -0.087926761765772035 -0.0044103313647346131 0 -0.087713679209715248 -0.0048835208556932035 0 -0.087986472472551466 -0.0048364757004977629 0 -0.087810557972475334 -0.0046483588153784939 0 -0.087713679209715248 -0.0048835208556932035 0 -0.087810557972475334 -0.0046483588153784939 0 -0.087563292761529257 -0.0047480054186368748 0 -0.086804121732954875 -0.0045523874535725508 0 -0.091329839455530817 -0.0042401504066851749 0 -0.087810557972475334 -0.0046483588153784939 0 -0.08777618468835803 -0.0042466766425314018 0 -0.087563292761529257 -0.0047480054186368748 0 -0.087810557972475334 -0.0046483588153784939 0 -0.087926761765772035 -0.0044103313647346131 0 -0.08777618468835803 -0.0042466766425314018 0 -0.073660718069057954 -0.0026073971661259017 0 -0.074192302227691714 -0.0021742159827391984 0 -0.074110094743358501 -0.0029812946110044916 0 -0.087926761765772035 -0.0044103313647346131 0 -0.087844007357835527 -0.0042316412023394694 0 -0.087864752758638781 -0.0039870276478776515 0 -0.073660718069057954 -0.0026073971661259017 0 -0.074192302227691714 -0.0021742159827391984 0 -0.073567609696805786 -0.0017372416342478802 0 -0.086110146165617657 -0.0037371220747124726 0 -0.084157790623119705 -0.0038647011624652291 0 -0.082569506478110455 -0.0043254959124408611 0 -0.082843584198207407 -0.0035630960652523682 0 -0.081776661373407805 -0.0045016859931861792 0 -0.086814890401090167 -0.0045497718212388957 0 -0.086804121732954875 -0.0045523874535725508 0 -0.087926761765772035 -0.0044103313647346131 0 -0.087844007357835527 -0.0042316412023394694 0 -0.08777618468835803 -0.0042466766425314018 0 -0.074192302227691714 -0.0021742159827391984 0 -0.074569922081268433 -0.0026965800018479134 0 -0.074891888519042799 -0.0018016249968514084 0 -0.074110094743358501 -0.0029812946110044916 0 -0.074569922081268433 -0.0026965800018479134 0 -0.074555583995991812 -0.0033359213648951752 0 -0.074192302227691714 -0.0021742159827391984 0 -0.074110094743358501 -0.0029812946110044916 0 -0.074569922081268433 -0.0026965800018479134 0 -0.085875747010652481 -0.0055148869606403052 0 -0.086502053661650258 -0.0060087119706420302 0 -0.090691118223238665 -0.0032535169375474387 0 -0.086502053661650258 -0.0060087119706420302 0 -0.10258092143043122 -0.0029122154629184619 0 -0.10245576488017079 -0.0043514883796423294 0 -0.1030013146612363 -0.0036063883549052639 0 -0.075041246005706982 -0.0043137924061439972 0 -0.075036986587610432 -0.0035604264707788462 0 -0.07545356786706571 -0.0039157953028191306 0 -0.073786566030480283 -0.003476256359137573 0 -0.074110094743358501 -0.0029812946110044916 0 -0.074555583995991812 -0.0033359213648951752 0 -0.089180111457066322 -0.0042450103362125088 0 -0.086502053661650258 -0.0060087119706420302 0 -0.10354173188169047 -0.0041636614802128841 0 -0.10245576488017079 -0.0043514883796423294 0 -0.1030013146612363 -0.0036063883549052639 0 -0.07545356786706571 -0.0039157953028191306 0 -0.075708771518036483 -0.0033578793270142957 0 -0.076622604681749792 -0.0038853424217608866 0 -0.075036986587610432 -0.0035604264707788462 0 -0.07545356786706571 -0.0039157953028191306 0 -0.075708771518036483 -0.0033578793270142957 0 -0.074569922081268433 -0.0026965800018479134 0 -0.074525529937098822 -0.0035217376387190807 0 -0.075708771518036483 -0.0033578793270142957 0 -0.086502053661650258 -0.0060087119706420302 0 -0.082389181114072438 -0.0061731226996132723 0 -0.075708771518036483 -0.0033578793270142957 0 -0.076622604681749792 -0.0038853424217608866 0 -0.076687265424460818 -0.0028705128970357985 0 -0.075708771518036483 -0.0033578793270142957 0 -0.076687265424460818 -0.0028705128970357985 0 -0.075816113688002618 -0.002199687565496585 0 -0.076687265424460818 -0.0028705128970357985 0 -0.075816113688002618 -0.002199687565496585 0 -0.076615543310863413 -0.0014700090466678458 0 -0.075708771518036483 -0.0033578793270142957 0 -0.075816113688002618 -0.002199687565496585 0 -0.075244797491901855 -0.0025034247241445024 0 -0.074569922081268433 -0.0026965800018479134 0 -0.075708771518036483 -0.0033578793270142957 0 -0.075244797491901855 -0.0025034247241445024 0 -0.074569922081268433 -0.0026965800018479134 0 -0.075244797491901855 -0.0025034247241445024 0 -0.074891888519042799 -0.0018016249968514084 0 -0.075816113688002618 -0.002199687565496585 0 -0.075244797491901855 -0.0025034247241445024 0 -0.074891888519042799 -0.0018016249968514084 0 -0.075816113688002618 -0.002199687565496585 0 -0.074891888519042799 -0.0018016249968514084 0 -0.07576467477270718 -0.001147580559842798 0 -0.075816113688002618 -0.002199687565496585 0 -0.07576467477270718 -0.001147580559842798 0 -0.076615543310863413 -0.0014700090466678458 0 -0.07576467477270718 -0.001147580559842798 0 -0.076615543310863413 -0.0014700090466678458 0 -0.076247495043366406 -0.00047561771493488919 0 -0.076247495043366406 -0.00047561771493488919 0 -0.075401997215477953 -0.00014410198984522111 0 -0.076256889463639677 0.00024152513546351248 0 -0.076941425132887514 -0.00034595048481390179 0 -0.076247495043366406 -0.00047561771493488919 0 -0.076256889463639677 0.00024152513546351248 0 -0.076941425132887514 -0.00034595048481390179 0 -0.076615543310863413 -0.0014700090466678458 0 -0.076247495043366406 -0.00047561771493488919 0 -0.074891888519042799 -0.0018016249968514084 0 -0.07576467477270718 -0.001147580559842798 0 -0.075401997215477953 -0.00014410198984522111 0 -0.07576467477270718 -0.001147580559842798 0 -0.076247495043366406 -0.00047561771493488919 0 -0.075401997215477953 -0.00014410198984522111 0 -0.075693161648703558 -0.0012343625960659838 0 -0.075951874111072001 -0.00087521702235122858 0 -0.075135516918216086 -0.00052713215853120762 0 -0.074017496074444078 -0.000612054497859999 0 -0.074392424406315008 -0.0012542258236563051 0 -0.074891888519042799 -0.0018016249968514084 0 -0.075135516918216086 -0.00052713215853120762 0 -0.074392424406315008 -0.0012542258236563051 0 -0.080857734388324456 -0.0034259254969477753 0 -0.084157790623119705 -0.0038647011624652291 0 -0.080197654163894919 -0.0032542997406795754 0 -0.084157790623119705 -0.0038647011624652291 0 -0.080387959170817813 -0.0035284492895121646 0 -0.080144449525257608 -0.0036000337484909119 0 -0.080344781471549068 -0.0030948460222345337 0 -0.074017496074444078 -0.000612054497859999 0 -0.073567609696805786 -0.0017372416342478802 0 -0.074392424406315008 -0.0012542258236563051 0 -0.082647147058002524 -0.0020971438070099598 0 -0.082843584198207407 -0.0035630960652523682 0 -0.081584051940038746 -0.0029005932901244287 0 -0.087844007357835527 -0.0042316412023394694 0 -0.087774652835388142 -0.0042469978946258471 0 -0.087864752758638781 -0.0039870276478776515 0 -0.086804121732954875 -0.0045523874535725508 0 -0.084157790623119705 -0.0038647011624652291 0 -0.074192302227691714 -0.0021742159827391984 0 -0.074891888519042799 -0.0018016249968514084 0 -0.074392424406315008 -0.0012542258236563051 0 -0.074192302227691714 -0.0021742159827391984 0 -0.073567609696805786 -0.0017372416342478802 0 -0.074392424406315008 -0.0012542258236563051 0 -0.080126815148936242 -0.0028730115247402668 0 -0.080672586661780676 -0.0034405577897221955 0 -0.080697944773707495 -0.0026615849051034772 0 -0.080126815148936242 -0.0028730115247402668 0 -0.080672586661780676 -0.0034405577897221955 0 -0.079593133677251321 -0.0034601374172011203 0 -0.080672586661780676 -0.0034405577897221955 0 -0.079593133677251321 -0.0034601374172011203 0 -0.080764951900991824 -0.0045073036034497084 0 -0.080672586661780676 -0.0034405577897221955 0 -0.081195054370411898 -0.0037466362893524897 0 -0.080760272970775149 -0.0044979114499036753 0 -0.085943776294179541 -0.0029387981769022201 0 -0.088169944057027536 -0.0043483420062812939 0 -0.081195054370411898 -0.0037466362893524897 0 -0.081548411682659555 -0.0027867758538393083 0 -0.081734655974656331 -0.0042794515153670902 0 -0.082843584198207407 -0.0035630960652523682 0 -0.081584051940038746 -0.0029005932901244287 0 -0.081776661373407805 -0.0045016859931861792 0 -0.080672586661780676 -0.0034405577897221955 0 -0.081548411682659555 -0.0027867758538393083 0 -0.080697944773707495 -0.0026615849051034772 0 -0.080672586661780676 -0.0034405577897221955 0 -0.081195054370411898 -0.0037466362893524897 0 -0.081548411682659555 -0.0027867758538393083 0 -0.081548411682659555 -0.0027867758538393083 0 -0.080961587314969038 -0.0019872951148168592 0 -0.080697944773707495 -0.0026615849051034772 0 -0.081548411682659555 -0.0027867758538393083 0 -0.080961587314969038 -0.0019872951148168592 0 -0.081389683267044474 -0.0012938731801027555 0 -0.085943776294179541 -0.0029387981769022201 0 -0.08525005155405696 -0.0022910547978780209 0 -0.082647147058002524 -0.0020971438070099598 0 -0.081584051940038746 -0.0029005932901244287 0 -0.081389683267044474 -0.0012938731801027555 0 -0.080961587314969038 -0.0019872951148168592 0 -0.080196076918660819 -0.0021331773589101785 0 -0.080777670493226192 -0.0011352325036576229 0 -0.080196076918660819 -0.0021331773589101785 0 -0.079159660706246124 -0.00166084231756284 0 -0.080777670493226192 -0.0011352325036576229 0 -0.080961587314969038 -0.0019872951148168592 0 -0.080697944773707495 -0.0026615849051034772 0 -0.080196076918660819 -0.0021331773589101785 0 -0.080126815148936242 -0.0028730115247402668 0 -0.080697944773707495 -0.0026615849051034772 0 -0.080196076918660819 -0.0021331773589101785 0 -0.080126815148936242 -0.0028730115247402668 0 -0.080196076918660819 -0.0021331773589101785 0 -0.079508319683085527 -0.0025117981810143658 0 -0.080196076918660819 -0.0021331773589101785 0 -0.079159660706246124 -0.00166084231756284 0 -0.079508319683085527 -0.0025117981810143658 0 -0.079159660706246124 -0.00166084231756284 0 -0.079508319683085527 -0.0025117981810143658 0 -0.07853876884611298 -0.0023877188975921534 0 -0.07780496183453775 -0.0026705450470723754 0 -0.077906874613833013 -0.002571386117279085 0 -0.078056002496081647 -0.0022645090962948567 0 -0.078381571837413691 -0.0021837947716618379 0 -0.077220982636396901 -0.0035869832055543307 0 -0.079159660706246124 -0.00166084231756284 0 -0.078056002496081647 -0.0022645090962948567 0 -0.07853876884611298 -0.0023877188975921534 0 -0.078056002496081647 -0.0022645090962948567 0 -0.078384147763363096 -0.0023369470347946323 0 -0.078381571837413691 -0.0021837947716618379 0 -0.078056002496081647 -0.0022645090962948567 0 -0.07853876884611298 -0.0023877188975921534 0 -0.078384147763363096 -0.0023369470347946323 0 -0.07853876884611298 -0.0023877188975921534 0 -0.078384147763363096 -0.0023369470347946323 0 -0.078511109766806475 -0.0024137063015924115 0 -0.078384147763363096 -0.0023369470347946323 0 -0.078511109766806475 -0.0024137063015924115 0 -0.078515567286442031 -0.0024680092675663469 0 -0.078511109766806475 -0.0024137063015924115 0 -0.078515567286442031 -0.0024680092675663469 0 -0.078466000457173321 -0.0023827569897988021 0 -0.079508319683085527 -0.0025117981810143658 0 -0.07853876884611298 -0.0023877188975921534 0 -0.079593133677251321 -0.0034601374172011203 0 -0.080126815148936242 -0.0028730115247402668 0 -0.079508319683085527 -0.0025117981810143658 0 -0.079593133677251321 -0.0034601374172011203 0 -0.07853876884611298 -0.0023877188975921534 0 -0.078511109766806475 -0.0024137063015924115 0 -0.078466176866714032 -0.0024068496600033228 0 -0.082388117418640217 -0.0012927939085172853 0 -0.083918445895630328 -0.0018875355585368236 0 -0.078511109766806475 -0.0024137063015924115 0 -0.078466176866714032 -0.0024068496600033228 0 -0.078466000457173321 -0.0023827569897988021 0 -0.078466000457173321 -0.0023827569897988021 0 -0.078451005741159333 -0.0022922426789671645 0 -0.078445181948400375 -0.0023879112976745429 0 -0.090694478807153867 -0.0055691075480610672 0 -0.089923621968756001 -0.0046570672601919478 0 -0.078515567286442031 -0.0024680092675663469 0 -0.078466000457173321 -0.0023827569897988021 0 -0.078451005741159333 -0.0022922426789671645 0 -0.078515567286442031 -0.0024680092675663469 0 -0.078451005741159333 -0.0022922426789671645 0 -0.078934084484122924 -0.0019954013437248766 0 -0.090694478807153867 -0.0055691075480610672 0 -0.091808412704193793 -0.00570730079589376 0 -0.10303303274911621 -0.01109654321712996 0 -0.10433742747464538 -0.0093390311771956204 0 -0.10538754211267135 -0.010433531494900301 0 -0.10303303274911621 -0.01109654321712996 0 -0.10140320087069504 -0.010691909023640488 0 -0.10237801592430482 -0.0094436774741493285 0 -0.10303303274911621 -0.01109654321712996 0 -0.10237801592430482 -0.0094436774741493285 0 -0.10433742747464538 -0.0093390311771956204 0 -0.10140320087069504 -0.010691909023640488 0 -0.10034885186764785 -0.0097480700586403003 0 -0.10237801592430482 -0.0094436774741493285 0 -0.10140320087069504 -0.010691909023640488 0 -0.10066029872170432 -0.011631883102320698 0 -0.10034885186764785 -0.0097480700586403003 0 -0.089923621968756001 -0.0046570672601919478 0 -0.095019460906196659 -0.0052956708331093156 0 -0.095019460906196659 -0.0052956708331093156 0 -0.098226363350528159 -0.0057093868421701369 0 -0.078466176866714032 -0.0024068496600033228 0 -0.078466000457173321 -0.0023827569897988021 0 -0.078445181948400375 -0.0023879112976745429 0 -0.10303303274911621 -0.01109654321712996 0 -0.10140320087069504 -0.010691909023640488 0 -0.10066029872170432 -0.011631883102320698 0 -0.089231513186597236 -0.0043222380159526593 0 -0.089923621968756001 -0.0046570672601919478 0 -0.083918445895630328 -0.0018875355585368236 0 -0.089923621968756001 -0.0046570672601919478 0 -0.089416515425898568 -0.0035380912023206816 0 -0.090131043874578223 -0.003380539158695768 0 -0.090232044943611478 -0.0042680151165694 0 -0.088169944057027536 -0.0043483420062812939 0 -0.091329839455530817 -0.0042401504066851749 0 -0.08962216255686796 -0.0041307869608107435 0 -0.089419686006503449 -0.0041754777561909592 0 -0.089461543887615638 -0.0045069358918657255 0 -0.086804121732954875 -0.0045523874535725508 0 -0.088169944057027536 -0.0043483420062812939 0 -0.081195054370411898 -0.0037466362893524897 0 -0.080760272970775149 -0.0044979114499036753 0 -0.081734655974656331 -0.0042794515153670902 0 -0.089923621968756001 -0.0046570672601919478 0 -0.088169944057027536 -0.0043483420062812939 0 -0.089923621968756001 -0.0046570672601919478 0 -0.091329839455530817 -0.0042401504066851749 0 -0.092187078541103223 -0.0044740047435609491 0 -0.09255800346118058 -0.0051506674283988843 0 -0.092347647853576451 -0.0053954063523680732 0 -0.092836857252009505 -0.0050540792315658554 0 -0.09255800346118058 -0.0051506674283988843 0 -0.092851505817378929 -0.005182937342382685 0 -0.092392196980981597 -0.0044246446865179295 0 -0.091329839455530817 -0.0042401504066851749 0 -0.092628947855788915 -0.006100093339475943 0 -0.091727475711610468 -0.0052921982208625137 0 -0.091781862920680773 -0.0057769786278226475 0 -0.091329839455530817 -0.0042401504066851749 0 -0.092396695029321768 -0.0043259613808899798 0 -0.092187078541103223 -0.0044740047435609491 0 -0.092836857252009505 -0.0050540792315658554 0 -0.09255800346118058 -0.0051506674283988843 0 -0.095019460906196659 -0.0052956708331093156 0 -0.093407429977829581 -0.0043785484870635305 0 -0.09255800346118058 -0.0051506674283988843 0 -0.092347647853576451 -0.0053954063523680732 0 -0.092865441258494982 -0.005305402423396925 0 -0.092392196980981597 -0.0044246446865179295 0 -0.093407429977829581 -0.0043785484870635305 0 -0.092628947855788915 -0.006100093339475943 0 -0.091833548016396996 -0.0062371744232297983 0 -0.091781862920680773 -0.0057769786278226475 0 -0.093407429977829581 -0.0043785484870635305 0 -0.092396695029321768 -0.0043259613808899798 0 -0.09255800346118058 -0.0051506674283988843 0 -0.092865441258494982 -0.005305402423396925 0 -0.092851505817378929 -0.005182937342382685 0 -0.10421384475345598 -0.0034086683834003806 0 -0.10462982166952724 -0.0039116757449355758 0 -0.10453961896714936 -0.0027630970946799708 0 -0.093407429977829581 -0.0043785484870635305 0 -0.094436668336081372 -0.0042693093475101801 0 -0.1046473344190678 -0.0039664011099537358 0 -0.10453961896714936 -0.0027630970946799708 0 -0.10538915940198217 -0.0023101237835743771 0 -0.095019460906196659 -0.0052956708331093156 0 -0.097189502370087777 -0.0044198963733979952 0 -0.09522670859938151 -0.004301640936597218 0 -0.095520889378739163 -0.0042504334315640836 0 -0.095294078456671275 -0.0047914762224593784 0 -0.093407429977829581 -0.0043785484870635305 0 -0.097189502370087777 -0.0044198963733979952 0 -0.10042514453481975 -0.0097735006081617441 0 -0.10104921067804469 -0.0088257538522115205 0 -0.1002095066539358 -0.0080774430148319622 0 -0.10104921067804469 -0.0088257538522115205 0 -0.10152302401091298 -0.0079358397696290151 0 -0.10237801592430482 -0.0094436774741493285 0 -0.10042514453481975 -0.0097735006081617441 0 -0.10104921067804469 -0.0088257538522115205 0 -0.10237801592430482 -0.0094436774741493285 0 -0.10104921067804469 -0.0088257538522115205 0 -0.10152302401091298 -0.0079358397696290151 0 -0.1002095066539358 -0.0080774430148319622 0 -0.10152302401091298 -0.0079358397696290151 0 -0.10061897193582031 -0.0069652598208965362 0 -0.1002095066539358 -0.0080774430148319622 0 -0.10152302401091298 -0.0079358397696290151 0 -0.10061897193582031 -0.0069652598208965362 0 -0.10169392450397101 -0.0067496341437359546 0 -0.097189502370087777 -0.0044198963733979952 0 -0.10088220793130441 -0.0032779363370828893 0 -0.10061897193582031 -0.0069652598208965362 0 -0.10021449031918654 -0.0080549296601654802 0 -0.099987640520572768 -0.0062981717128361902 0 -0.10538915940198217 -0.0023101237835743771 0 -0.10467789929206714 -0.0015870539889058215 0 -0.10518009910895736 -0.00076329283043565736 0 -0.10453961896714936 -0.0027630970946799708 0 -0.10538915940198217 -0.0023101237835743771 0 -0.10467789929206714 -0.0015870539889058215 0 -0.097322969989518199 -0.0048856830391550516 0 -0.097189502370087777 -0.0044198963733979952 0 -0.10467789929206714 -0.0015870539889058215 0 -0.10455189327095307 -0.00084712516576163641 0 -0.10518009910895736 -0.00076329283043565736 0 -0.099987640520572768 -0.0062981717128361902 0 -0.10116752281684877 -0.0057614323873818058 0 -0.099760264199795778 -0.004514540515828073 0 -0.10455189327095307 -0.00084712516576163641 0 -0.10518009910895736 -0.00076329283043565736 0 -0.10487191457509142 -0.00012470999521690804 0 -0.10061897193582031 -0.0069652598208965362 0 -0.099987640520572768 -0.0062981717128361902 0 -0.10116752281684877 -0.0057614323873818058 0 -0.10061897193582031 -0.0069652598208965362 0 -0.10169392450397101 -0.0067496341437359546 0 -0.10116752281684877 -0.0057614323873818058 0 -0.10169392450397101 -0.0067496341437359546 0 -0.10116752281684877 -0.0057614323873818058 0 -0.10245617656317049 -0.0057124065276674633 0 -0.10116752281684877 -0.0057614323873818058 0 -0.10152494285160073 -0.0043197784594181188 0 -0.10245617656317049 -0.0057124065276674633 0 -0.10499673336945214 1.0067065451387176e-05 0 -0.10499997996173194 -4.5054731612584955e-09 0 -0.10500088113396122 -3.5822063196933011e-07 0 -0.10116752281684877 -0.0057614323873818058 0 -0.10152494285160073 -0.0043197784594181188 0 -0.099760264199795778 -0.004514540515828073 0 -0.10270146746146216 -0.0012943469812540436 0 -0.10386880697418191 -0.0012702655444320572 0 -0.10499997996173194 -4.5054731612584955e-09 0 -0.10500001619893325 1.1668101154412697e-09 0 -0.10500088113396122 -3.5822063196933011e-07 0 -0.10518009910895736 -0.00076329283043565736 0 -0.10497209463373194 5.0767214347155921e-05 0 -0.10487191457509142 -0.00012470999521690804 0 -0.10088220793130441 -0.0032779363370828893 0 -0.10386880697418191 -0.0012702655444320572 0 -0.10493845428490797 -5.4710853584966235e-05 0 -0.10499992742559465 2.2595714321715514e-07 0 -0.10497209463373194 5.0767214347155921e-05 0 -0.10498872522327095 -6.6830656687181645e-06 0 -0.10386880697418191 -0.0012702655444320572 0 -0.10493845428490797 -5.4710853584966235e-05 0 -0.10497209463373194 5.0767214347155921e-05 0 -0.10487191457509142 -0.00012470999521690804 0 -0.10073755499036884 -0.001081684016149533 0 -0.099091481290810288 -0.002948224553685637 0 -0.10329730623793303 -0.0041201031204819005 0 -0.10245617656317049 -0.0057124065276674633 0 -0.10426016745689412 -0.0059279586842317178 0 -0.10438001494358563 1.208386546691595e-05 0 -0.11008506973687547 -0.031241475669425509 0 -0.10823860235451215 -0.012387207111991004 0 -0.10438001494358563 1.208386546691595e-05 0 0.0018864930756293215 -0.016873898627114119 0 -0.11008506973687547 -0.031241475669425509 0 -0.10498034290662171 -6.9705540610419204e-06 0 -0.10073755499036884 -0.001081684016149533 0 -0.10270146746146216 -0.0012943469812540436 0 -0.10073755499036884 -0.001081684016149533 0 -0.10152494285160073 -0.0043197784594181188 0 -0.10329730623793303 -0.0041201031204819005 0 -0.10245617656317049 -0.0057124065276674633 0 -0.10499673336945214 1.0067065451387176e-05 0 -0.10499997996173194 -4.5054731612584955e-09 0 -0.10485090849972316 -3.4981569681399758e-09 0 -0.10169392450397101 -0.0067496341437359546 0 -0.10245617656317049 -0.0057124065276674633 0 -0.10270882659741332 -0.007372587158487591 0 -0.10245617656317049 -0.0057124065276674633 0 -0.10426016745689412 -0.0059279586842317178 0 -0.10270882659741332 -0.007372587158487591 0 -0.10426016745689412 -0.0059279586842317178 0 -0.10392853772706306 -0.0079216645121448007 0 -0.10519710471945534 -0.0077802729850398513 0 -0.10426016745689412 -0.0059279586842317178 0 -0.10392853772706306 -0.0079216645121448007 0 -0.10270882659741332 -0.007372587158487591 0 -0.10152302401091298 -0.0079358397696290151 0 -0.10169392450397101 -0.0067496341437359546 0 -0.10270882659741332 -0.007372587158487591 0 -0.10152302401091298 -0.0079358397696290151 0 -0.10270882659741332 -0.007372587158487591 0 -0.10237801592430482 -0.0094436774741493285 0 -0.10392853772706306 -0.0079216645121448007 0 -0.10270882659741332 -0.007372587158487591 0 -0.10237801592430482 -0.0094436774741493285 0 -0.10392853772706306 -0.0079216645121448007 0 -0.10237801592430482 -0.0094436774741493285 0 -0.10433742747464538 -0.0093390311771956204 0 -0.10392853772706306 -0.0079216645121448007 0 -0.10433742747464538 -0.0093390311771956204 0 -0.10519710471945534 -0.0077802729850398513 0 -0.10437154610368035 -0.0097751428788028678 0 -0.10352446248951967 -0.0089594393471068793 0 -0.10433742747464538 -0.0093390311771956204 0 -0.10597621260880245 -0.0097143717636549477 0 -0.10519710471945534 -0.0077802729850398513 0 -0.10597621260880245 -0.0097143717636549477 0 -0.10563806043714123 -0.010154572569656919 0 -0.10591604335509325 -0.009864942996779591 0 -0.10597621260880245 -0.0097143717636549477 0 -0.10535063543311181 -0.010639835552080319 0 -0.10563806043714123 -0.010154572569656919 0 -0.10597621260880245 -0.0097143717636549477 0 -0.10535063543311181 -0.010639835552080319 0 -0.10783411478700186 -0.012157028013592549 0 -0.10535063543311181 -0.010639835552080319 0 -0.10783411478700186 -0.012157028013592549 0 -0.10648698998770664 -0.015397564409445907 0 -0.099091481290810288 -0.002948224553685637 0 -0.10352446248951967 -0.0089594393471068793 0 -0.11008506973687547 -0.031241475669425509 0 -0.10648698998770664 -0.015397564409445907 0 -0.10823860235451215 -0.012387207111991004 0 -0.11008506973687547 -0.031241475669425509 0 -0.10783411478700186 -0.012157028013592549 0 -0.10648698998770664 -0.015397564409445907 0 -0.10535063543311181 -0.010639835552080319 0 -0.10648698998770664 -0.015397564409445907 0 -0.10604548139648019 -0.0086512869358103088 0 -0.1051761068271429 -2.1098528061109424e-05 0 -0.10495022835497941 -2.6046757913434203e-07 0 -0.10604548139648019 -0.0086512869358103088 0 -0.10648698998770664 -0.015397564409445907 0 -0.1051761068271429 -2.1098528061109424e-05 0 -0.10604548139648019 -0.0086512869358103088 0 -0.10648698998770664 -0.015397564409445907 0 -0.1051761068271429 -2.1098528061109424e-05 0 -0.10823860235451215 -0.012387207111991004 0 -0.10438001494358563 1.208386546691595e-05 0 -0.1051761068271429 -2.1098528061109424e-05 0 -0.10823860235451215 -0.012387207111991004 0 -0.10711605006528457 -0.0049358361997467459 0 -0.10503562718353442 -5.8618258341313992e-06 0 -0.10591166740542719 -0.0043732447307592778 0 -0.10503562718353442 -5.8618258341313992e-06 0 -0.10591166740542719 -0.0043732447307592778 0 -0.10495022835497941 -2.6046757913434203e-07 0 -0.10591166740542719 -0.0043732447307592778 0 -0.10495022835497941 -2.6046757913434203e-07 0 -0.10604548139648019 -0.0086512869358103088 0 -0.10591166740542719 -0.0043732447307592778 0 -0.10604548139648019 -0.0086512869358103088 0 -0.10594141951618388 -0.0079633653224029863 0 -0.10535063543311181 -0.010639835552080319 0 -0.10604548139648019 -0.0086512869358103088 0 -0.10594141951618388 -0.0079633653224029863 0 -0.10711605006528457 -0.0049358361997467459 0 -0.10591166740542719 -0.0043732447307592778 0 -0.10594141951618388 -0.0079633653224029863 0 -0.10820722146953309 -0.0091792026606589989 0 -0.10594141951618388 -0.0079633653224029863 0 -0.1056747640716844 -0.010189914239391473 0 -0.10535063543311181 -0.010639835552080319 0 -0.10594141951618388 -0.0079633653224029863 0 -0.1056747640716844 -0.010189914239391473 0 -0.10535063543311181 -0.010639835552080319 0 -0.10563806043714123 -0.010154572569656919 0 -0.1056747640716844 -0.010189914239391473 0 -0.10563806043714123 -0.010154572569656919 0 -0.1056747640716844 -0.010189914239391473 0 -0.10591604335509325 -0.009864942996779591 0 -0.10566383250660899 -0.0078909261411819788 0 -0.10549065940721601 -0.0085748973012360393 0 -0.1056747640716844 -0.010189914239391473 0 -0.10523799218837433 -0.0097826541411132652 0 -0.10591604335509325 -0.009864942996779591 0 -0.10446147703484414 -0.010658062724630157 0 -0.1056747640716844 -0.010189914239391473 0 -0.10523799218837433 -0.0097826541411132652 0 -0.080894071513145135 -0.0014148792713414781 0 -0.080783484011754531 -0.0024363354229699988 0 -0.080230678331298294 -0.0021534448529214093 0 -0.080783484011754531 -0.0024363354229699988 0 -0.080230678331298294 -0.0021534448529214093 0 -0.079991548602675641 -0.0030148512011463299 0 -0.080230678331298294 -0.0021534448529214093 0 -0.079677636843128494 -0.0022171314144137358 0 -0.079991548602675641 -0.0030148512011463299 0 -0.080230678331298294 -0.0021534448529214093 0 -0.079828710289441718 -0.001693214644744519 0 -0.079677636843128494 -0.0022171314144137358 0 -0.092845010437610551 -0.0053509114130070676 0 -0.092550630881550064 -0.0055734833513063622 0 -0.080894071513145135 -0.0014148792713414781 0 -0.080230678331298294 -0.0021534448529214093 0 -0.079828710289441718 -0.001693214644744519 0 -0.10597621260880245 -0.0097143717636549477 0 -0.10591604335509325 -0.009864942996779591 0 -0.10538754211267135 -0.010433531494900301 0 -0.079828710289441718 -0.001693214644744519 0 -0.078934084484122924 -0.0019954013437248766 0 -0.079677636843128494 -0.0022171314144137358 0 -0.092550630881550064 -0.0055734833513063622 0 -0.091808412704193793 -0.00570730079589376 0 -0.10433742747464538 -0.0093390311771956204 0 -0.10597621260880245 -0.0097143717636549477 0 -0.10538754211267135 -0.010433531494900301 0 -0.078515567286442031 -0.0024680092675663469 0 -0.078934084484122924 -0.0019954013437248766 0 -0.07923347648520547 -0.0026732092034191719 0 -0.07640442717161873 -0.0022509301504865143 0 -0.075072467615832458 -0.0031910993934902883 0 -0.078934084484122924 -0.0019954013437248766 0 -0.079677636843128494 -0.0022171314144137358 0 -0.07923347648520547 -0.0026732092034191719 0 -0.079677636843128494 -0.0022171314144137358 0 -0.079132106306625399 -0.0028641956521842787 0 -0.079991548602675641 -0.0030148512011463299 0 -0.067058684301084248 -0.0020835234927841172 0 -0.06724797159028191 -0.0032870329870053152 0 -0.068495404978963073 -0.0023204735264763746 0 -0.075072467615832458 -0.0031910993934902883 0 -0.074658171552980809 -0.0029785398364622932 0 -0.078384147763363096 -0.0023369470347946323 0 -0.078515567286442031 -0.0024680092675663469 0 -0.078131271260974355 -0.0024289610052339859 0 -0.075072467615832458 -0.0031910993934902883 0 -0.073210543055393984 -0.0037240202017760288 0 -0.07714310191758797 -0.0032720270299378615 0 -0.075072467615832458 -0.0031910993934902883 0 -0.078384147763363096 -0.0023369470347946323 0 -0.078131271260974355 -0.0024289610052339859 0 -0.078381571837413691 -0.0021837947716618379 0 -0.066065540360709024 -0.0033582299729024855 0 -0.06724797159028191 -0.0032870329870053152 0 -0.066144249639439004 -0.0044088675398725246 0 -0.067058684301084248 -0.0020835234927841172 0 -0.066065540360709024 -0.0033582299729024855 0 -0.06724797159028191 -0.0032870329870053152 0 -0.06724797159028191 -0.0032870329870053152 0 -0.068173551954357661 -0.0032775173236506056 0 -0.068495404978963073 -0.0023204735264763746 0 -0.06724797159028191 -0.0032870329870053152 0 -0.068173551954357661 -0.0032775173236506056 0 -0.068041907804418142 -0.0042117802823644079 0 -0.068173551954357661 -0.0032775173236506056 0 -0.068911759520607546 -0.0032850817439691992 0 -0.068041907804418142 -0.0042117802823644079 0 -0.068911759520607546 -0.0032850817439691992 0 -0.06999734121646832 -0.0039266575828846512 0 -0.068041907804418142 -0.0042117802823644079 0 -0.068173551954357661 -0.0032775173236506056 0 -0.068911759520607546 -0.0032850817439691992 0 -0.068495404978963073 -0.0023204735264763746 0 -0.068911759520607546 -0.0032850817439691992 0 -0.069968942942502277 -0.0025681308472907975 0 -0.06999734121646832 -0.0039266575828846512 0 -0.075065994592325685 -0.0030049288882100828 0 -0.074658171552980809 -0.0029785398364622932 0 -0.080783484011754531 -0.0024363354229699988 0 -0.080835537516844497 -0.0031643470738266025 0 -0.079991548602675641 -0.0030148512011463299 0 -0.068911759520607546 -0.0032850817439691992 0 -0.069968942942502277 -0.0025681308472907975 0 -0.068495404978963073 -0.0023204735264763746 0 -0.067117068261250856 -0.0047044843208364148 0 -0.06697909625094213 -0.0051419115683958606 0 -0.06674555304549501 -0.0049567614630073179 0 -0.067117068261250856 -0.0047044843208364148 0 -0.06697909625094213 -0.0051419115683958606 0 -0.067392342974301467 -0.0050658880691524834 0 -0.067392342974301467 -0.0050658880691524834 0 -0.067768511626887851 -0.0048214782158322997 0 -0.067652270467734435 -0.0052563284062886904 0 -0.068189370113397332 -0.0053593087103541125 0 -0.067768511626887851 -0.0048214782158322997 0 -0.067652270467734435 -0.0052563284062886904 0 -0.067117068261250856 -0.0047044843208364148 0 -0.067392342974301467 -0.0050658880691524834 0 -0.067768511626887851 -0.0048214782158322997 0 -0.068313550428131559 -0.0048846675157361071 0 -0.069353332057356873 -0.0044590649696338355 0 -0.067117068261250856 -0.0047044843208364148 0 -0.067768511626887851 -0.0048214782158322997 0 -0.067838971761170028 -0.004148211885471916 0 -0.069353332057356873 -0.0044590649696338355 0 -0.067746745692859003 -0.0044708763503986488 0 -0.067117068261250856 -0.0047044843208364148 0 -0.067801654350322482 -0.0041985423162218703 0 -0.066943673090292463 -0.0043365738100868655 0 -0.067746745692859003 -0.0044708763503986488 0 -0.066992524648295873 -0.0045171538705588475 0 -0.06724797159028191 -0.0032870329870053152 0 -0.068041907804418142 -0.0042117802823644079 0 -0.066144249639439004 -0.0044088675398725246 0 -0.067117068261250856 -0.0047044843208364148 0 -0.066943673090292463 -0.0043365738100868655 0 -0.066631304319683921 -0.0046642473044935968 0 -0.066943673090292463 -0.0043365738100868655 0 -0.066144249639439004 -0.0044088675398725246 0 -0.066631304319683921 -0.0046642473044935968 0 -0.066144249639439004 -0.0044088675398725246 0 -0.0663008293714549 -0.0047493340910424739 0 -0.066631304319683921 -0.0046642473044935968 0 -0.066144249639439004 -0.0044088675398725246 0 -0.0663008293714549 -0.0047493340910424739 0 -0.065856532804591306 -0.0047122664379782749 0 -0.0663008293714549 -0.0047493340910424739 0 -0.065961883184735212 -0.004977059468142509 0 -0.065856532804591306 -0.0047122664379782749 0 -0.0663008293714549 -0.0047493340910424739 0 -0.066227500364361938 -0.0050519458292388126 0 -0.066508795006680554 -0.0048740701242261236 0 -0.066227500364361938 -0.0050519458292388126 0 -0.0665174123926974 -0.0050994969436987852 0 -0.066393103903977652 -0.0053340331587621633 0 -0.066227500364361938 -0.0050519458292388126 0 -0.066508795006680554 -0.0048740701242261236 0 -0.0665174123926974 -0.0050994969436987852 0 -0.066227500364361938 -0.0050519458292388126 0 -0.066058557909540419 -0.0051472794103503364 0 -0.066148582230413699 -0.0053208795453235907 0 -0.0663008293714549 -0.0047493340910424739 0 -0.066227500364361938 -0.0050519458292388126 0 -0.065961883184735212 -0.004977059468142509 0 -0.066227500364361938 -0.0050519458292388126 0 -0.066058557909540419 -0.0051472794103503364 0 -0.065961883184735212 -0.004977059468142509 0 -0.066058557909540419 -0.0051472794103503364 0 -0.065961883184735212 -0.004977059468142509 0 -0.06589506573932169 -0.0052375384371928105 0 -0.067117068261250856 -0.0047044843208364148 0 -0.066631304319683921 -0.0046642473044935968 0 -0.06674555304549501 -0.0049567614630073179 0 -0.0663008293714549 -0.0047493340910424739 0 -0.066631304319683921 -0.0046642473044935968 0 -0.066508795006680554 -0.0048740701242261236 0 -0.066631304319683921 -0.0046642473044935968 0 -0.066508795006680554 -0.0048740701242261236 0 -0.06674555304549501 -0.0049567614630073179 0 -0.066508795006680554 -0.0048740701242261236 0 -0.0665174123926974 -0.0050994969436987852 0 -0.06674555304549501 -0.0049567614630073179 0 -0.0665174123926974 -0.0050994969436987852 0 -0.06674555304549501 -0.0049567614630073179 0 -0.066696875899439262 -0.0052759083478812925 0 -0.06697909625094213 -0.0051419115683958606 0 -0.06674555304549501 -0.0049567614630073179 0 -0.066696875899439262 -0.0052759083478812925 0 -0.06697909625094213 -0.0051419115683958606 0 -0.066696875899439262 -0.0052759083478812925 0 -0.066994277541546299 -0.0055451966320994462 0 -0.066696875899439262 -0.0052759083478812925 0 -0.066535369573073141 -0.0055634886722368757 0 -0.066393103903977652 -0.0053340331587621633 0 -0.0665174123926974 -0.0050994969436987852 0 -0.066696875899439262 -0.0052759083478812925 0 -0.066393103903977652 -0.0053340331587621633 0 -0.066535369573073141 -0.0055634886722368757 0 -0.066762949752921241 -0.0058278718346258789 0 -0.066994277541546299 -0.0055451966320994462 0 -0.066696875899439262 -0.0052759083478812925 0 -0.066535369573073141 -0.0055634886722368757 0 -0.066994277541546299 -0.0055451966320994462 0 -0.066005061374403332 -0.0054199550616991108 0 -0.06589506573932169 -0.0052375384371928105 0 -0.065783142559135366 -0.0055124907760724668 0 -0.066005061374403332 -0.0054199550616991108 0 -0.06589506573932169 -0.0052375384371928105 0 -0.066148582230413699 -0.0053208795453235907 0 -0.066058557909540419 -0.0051472794103503364 0 -0.06589506573932169 -0.0052375384371928105 0 -0.066148582230413699 -0.0053208795453235907 0 -0.066005061374403332 -0.0054199550616991108 0 -0.066148582230413699 -0.0053208795453235907 0 -0.066112944330314311 -0.0055215649772321481 0 -0.066148582230413699 -0.0053208795453235907 0 -0.066393103903977652 -0.0053340331587621633 0 -0.066112944330314311 -0.0055215649772321481 0 -0.066227500364361938 -0.0050519458292388126 0 -0.066148582230413699 -0.0053208795453235907 0 -0.066393103903977652 -0.0053340331587621633 0 -0.066535369573073141 -0.0055634886722368757 0 -0.066112944330314311 -0.0055215649772321481 0 -0.066184174811952948 -0.0058863205148881248 0 -0.066535369573073141 -0.0055634886722368757 0 -0.066393103903977652 -0.0053340331587621633 0 -0.066112944330314311 -0.0055215649772321481 0 -0.066005061374403332 -0.0054199550616991108 0 -0.066112944330314311 -0.0055215649772321481 0 -0.065783142559135366 -0.0055124907760724668 0 -0.066112944330314311 -0.0055215649772321481 0 -0.066184174811952948 -0.0058863205148881248 0 -0.06571404402415354 -0.0055954441285856705 0 -0.047309247833344968 -0.0045185393994366142 0 -0.047991109411910905 -0.0041095263948932939 0 -0.048058264998531587 -0.0050294779874196834 0 -0.047309247833344968 -0.0045185393994366142 0 -0.04659690354138233 -0.0040191680889931055 0 -0.047381449526198403 -0.0035619045832136617 0 -0.047309247833344968 -0.0045185393994366142 0 -0.047381449526198403 -0.0035619045832136617 0 -0.047991109411910905 -0.0041095263948932939 0 -0.057186228405873445 -0.0055338714613343493 0 -0.060287283050767748 -0.0059266996488905902 0 -0.066535369573073141 -0.0055634886722368757 0 -0.066184174811952948 -0.0058863205148881248 0 -0.066762949752921241 -0.0058278718346258789 0 -0.066184174811952948 -0.0058863205148881248 0 -0.066762949752921241 -0.0058278718346258789 0 -0.06663146317653218 -0.006187473538020476 0 -0.057186228405873445 -0.0055338714613343493 0 -0.054590238182354332 -0.0054936720586387924 0 -0.054590238182354332 -0.0054936720586387924 0 -0.05747333569877177 -0.0055574838557856882 0 -0.066762949752921241 -0.0058278718346258789 0 -0.06663146317653218 -0.006187473538020476 0 -0.067099143388672455 -0.0059318418508801764 0 -0.052855755284368248 -0.0056434079895629772 0 -0.051812908616500272 -0.006215718753612408 0 -0.052117612202004546 -0.005008059808661783 0 -0.067099143388672455 -0.0059318418508801764 0 -0.066994277541546299 -0.0055451966320994462 0 -0.067555828092931869 -0.0056775060556597933 0 -0.053899415871362731 -0.0050759561301402176 0 -0.052855755284368248 -0.0056434079895629772 0 -0.052955039274636774 -0.0044277216797625413 0 -0.05747333569877177 -0.0055574838557856882 0 -0.058391381672326839 -0.0063420102057026098 0 -0.066762949752921241 -0.0058278718346258789 0 -0.067099143388672455 -0.0059318418508801764 0 -0.066994277541546299 -0.0055451966320994462 0 -0.066994277541546299 -0.0055451966320994462 0 -0.067345761716057301 -0.0053482079221445766 0 -0.067555828092931869 -0.0056775060556597933 0 -0.06697909625094213 -0.0051419115683958606 0 -0.067392342974301467 -0.0050658880691524834 0 -0.067345761716057301 -0.0053482079221445766 0 -0.06697909625094213 -0.0051419115683958606 0 -0.066994277541546299 -0.0055451966320994462 0 -0.067345761716057301 -0.0053482079221445766 0 -0.068189370113397332 -0.0053593087103541125 0 -0.067652270467734435 -0.0052563284062886904 0 -0.067569462138175218 -0.0056893333211350851 0 -0.063392911164416435 -0.0055743113202476194 0 -0.058391381672326839 -0.0063420102057026098 0 -0.067392342974301467 -0.0050658880691524834 0 -0.067345761716057301 -0.0053482079221445766 0 -0.067652270467734435 -0.0052563284062886904 0 -0.067345761716057301 -0.0053482079221445766 0 -0.067652270467734435 -0.0052563284062886904 0 -0.067569462138175218 -0.0056893333211350851 0 -0.059298541614870061 -0.0068378211855403158 0 -0.058391381672326839 -0.0063420102057026098 0 -0.053586930476756757 -0.0059155901187911298 0 -0.058391381672326839 -0.0063420102057026098 0 -0.050953742997036908 -0.0049745732829769096 0 -0.051812908616500272 -0.006215718753612408 0 -0.052117612202004546 -0.005008059808661783 0 -0.059699882486369496 -0.0079375829077691779 0 -0.058884498798667299 -0.0099475253361245627 0 -0.05710008108844479 -0.0073305561063196807 0 -0.050953742997036908 -0.0049745732829769096 0 -0.052117612202004546 -0.005008059808661783 0 -0.052007775009565479 -0.0037754587750407241 0 -0.0457464731096568 -0.0035542755500699965 0 -0.045053388909766033 -0.0030767864727800202 0 -0.046316744904892591 -0.0030995085760397363 0 -0.052117612202004546 -0.005008059808661783 0 -0.052955039274636774 -0.0044277216797625413 0 -0.052007775009565479 -0.0037754587750407241 0 -0.052855755284368248 -0.0056434079895629772 0 -0.052117612202004546 -0.005008059808661783 0 -0.052955039274636774 -0.0044277216797625413 0 -0.049512177980189268 -0.0043195826258350277 0 -0.044645766473602647 -0.0033338917873415607 0 -0.025445500969034179 -0.0020659245869713802 0 -0.025868443604268859 -0.0013242147054673776 0 -0.026410249467213157 -0.0019490850770107909 0 -0.044645766473602647 -0.0033338917873415607 0 -0.045317119811705865 -0.0032967976460045187 0 -0.044839054577896983 -0.0030762883862417664 0 -0.046316744904892591 -0.0030995085760397363 0 -0.046019759651937393 -0.0024767995242069565 0 -0.044336285749286504 -0.0027281274950836736 0 -0.044839054577896983 -0.0030762883862417664 0 -0.046019759651937393 -0.0024767995242069565 0 -0.038806511049171759 -0.001912584300984396 0 -0.036815573833536633 -0.0023541752296579238 0 -0.046738029103497898 -0.0026460128586344961 0 -0.044645766473602647 -0.0033338917873415607 0 -0.045704775246953905 -0.0021658806682947418 0 -0.042022480537457121 -0.0031621318291735192 0 -0.040426771196667738 -0.0020803663338201115 0 -0.038806511049171759 -0.001912584300984396 0 -0.044645766473602647 -0.0033338917873415607 0 -0.025445500969034179 -0.0020659245869713802 0 -0.025315146461241094 -0.0014482103672319804 0 -0.025868443604268859 -0.0013242147054673776 0 -0.025315146461241094 -0.0014482103672319804 0 -0.025868443604268859 -0.0013242147054673776 0 -0.025301491363114763 -0.0009106987669546294 0 -0.025868443604268859 -0.0013242147054673776 0 -0.026711723729299853 -0.0011047847086059568 0 -0.026410249467213157 -0.0019490850770107909 0 -0.029701200264836858 2.8972996348258261e-05 0 -0.027298251637489293 0.00040043380135665373 0 -0.025868443604268859 -0.0013242147054673776 0 -0.026711723729299853 -0.0011047847086059568 0 -0.02596682579504167 -0.00046425426777077646 0 -0.025868443604268859 -0.0013242147054673776 0 -0.025301491363114763 -0.0009106987669546294 0 -0.02596682579504167 -0.00046425426777077646 0 -0.025986851859859293 -0.0011668975675401046 0 -0.026873384987996529 -0.0010246813023999679 0 -0.026273173214227702 -0.0003587491791842788 0 -0.026711723729299853 -0.0011047847086059568 0 -0.027451692930227565 -0.0017966889688979693 0 -0.026410249467213157 -0.0019490850770107909 0 -0.029701200264836858 2.8972996348258261e-05 0 -0.037014198662396608 -0.0025817276744698539 0 -0.025986851859859293 -0.0011668975675401046 0 -0.026594531677008756 -0.0017859232008234488 0 -0.026873384987996529 -0.0010246813023999679 0 -0.047551396550232841 -0.0022677480037583049 0 -0.046316744904892591 -0.0030995085760397363 0 -0.047381449526198403 -0.0035619045832136617 0 -0.047551396550232841 -0.0022677480037583049 0 -0.046316744904892591 -0.0030995085760397363 0 -0.046019759651937393 -0.0024767995242069565 0 -0.037014198662396608 -0.0025817276744698539 0 -0.036815573833536633 -0.0023541752296579238 0 -0.046462768255565945 -0.0040569711786690348 0 -0.046316744904892591 -0.0030995085760397363 0 -0.047381449526198403 -0.0035619045832136617 0 -0.046462768255565945 -0.0040569711786690348 0 -0.0457464731096568 -0.0035542755500699965 0 -0.046316744904892591 -0.0030995085760397363 0 -0.054590238182354332 -0.0054936720586387924 0 -0.049512177980189268 -0.0043195826258350277 0 -0.054590238182354332 -0.0054936720586387924 0 -0.05229401436900296 -0.0060218617191701816 0 -0.047381449526198403 -0.0035619045832136617 0 -0.048561163581500255 -0.0033066690066028688 0 -0.047991109411910905 -0.0041095263948932939 0 -0.048561163581500255 -0.0033066690066028688 0 -0.048806739904108241 -0.0040807927976162497 0 -0.047991109411910905 -0.0041095263948932939 0 -0.074850802045852205 -0.0084541996669961744 0 -0.074807083293071078 -0.0072935503132995714 0 -0.07583215458315884 -0.0072501387790587174 0 -0.058740674229268722 -0.0040521287736757913 0 -0.060314582431976016 -0.0047765718296074126 0 -0.048561163581500255 -0.0033066690066028688 0 -0.049572418612660665 -0.0031209227834887196 0 -0.048806739904108241 -0.0040807927976162497 0 -0.048561163581500255 -0.0033066690066028688 0 -0.048844142568695854 -0.0020963229639473719 0 -0.049572418612660665 -0.0031209227834887196 0 -0.048844142568695854 -0.0020963229639473719 0 -0.049572418612660665 -0.0031209227834887196 0 -0.049690345848523852 -0.002380013896188395 0 -0.047551396550232841 -0.0022677480037583049 0 -0.047381449526198403 -0.0035619045832136617 0 -0.048561163581500255 -0.0033066690066028688 0 -0.037014198662396608 -0.0025817276744698539 0 -0.042010144715456041 -0.0050041711409027469 0 -0.047495101891966034 -0.0023088533620017285 0 -0.048561163581500255 -0.0033066690066028688 0 -0.048844142568695854 -0.0020963229639473719 0 -0.026594531677008756 -0.0017859232008234488 0 -0.027409098991224783 -0.0016729018825104756 0 -0.026873384987996529 -0.0010246813023999679 0 -0.037014198662396608 -0.0025817276744698539 0 -0.040208568227347891 -0.0025993603832157619 0 -0.027409098991224783 -0.0016729018825104756 0 -0.026873384987996529 -0.0010246813023999679 0 -0.027773711138340887 -0.00090079068225003593 0 -0.031126661957211487 -0.0050699396989934992 0 -0.032171932106732942 -0.0045165739958495767 0 -0.031765183634056511 -0.0055144240853913663 0 -0.031126661957211487 -0.0050699396989934992 0 -0.032171932106732942 -0.0045165739958495767 0 -0.031129894717519667 -0.004001281830153895 0 -0.037360349910902174 0.00037015121441068592 0 -0.048997379338191573 -0.0022354272026912257 0 -0.031126661957211487 -0.0050699396989934992 0 -0.029637538190765728 -0.0044399552208529139 0 -0.031129894717519667 -0.004001281830153895 0 -0.031126661957211487 -0.0050699396989934992 0 -0.029637538190765728 -0.0044399552208529139 0 -0.03077269597605236 -0.0059878984117586855 0 -0.040208568227347891 -0.0025993603832157619 0 -0.048997379338191573 -0.0022354272026912257 0 -0.048844142568695854 -0.0020963229639473719 0 -0.050148014404347532 -0.0018942698717984569 0 -0.049690345848523852 -0.002380013896188395 0 -0.027409098991224783 -0.0016729018825104756 0 -0.027773711138340887 -0.00090079068225003593 0 -0.0282802169392001 -0.0015484483618232931 0 -0.050148014404347532 -0.0018942698717984569 0 -0.050334157532441103 -0.0021605206721389864 0 -0.049690345848523852 -0.002380013896188395 0 -0.048997379338191573 -0.0022354272026912257 0 -0.054552577496492519 -0.0037727562406857608 0 -0.05669348613821476 -0.0037917304099181399 0 -0.056671676783937183 -0.0038141151550631254 0 -0.056671407864400974 -0.0037532026043690381 0 -0.053795755422479781 -0.0025782861141414037 0 -0.059944573627719829 -0.0057226385312879992 0 -0.073460637214580585 -0.0010308112005496563 0 -0.07360773255551234 -0.0018975259403117891 0 -0.073920811647147935 -0.001487254445198498 0 -0.060175002298070129 -0.0052807459352628931 0 -0.056217350120711572 0.0004521925389236812 0 -0.050320738280182811 -0.0069532951674490823 0 -0.054552577496492519 -0.0037727562406857608 0 -0.053795755422479781 -0.0025782861141414037 0 -0.031126661957211487 -0.0050699396989934992 0 -0.03077269597605236 -0.0059878984117586855 0 -0.031490761185960107 -0.0058626545547461042 0 -0.031126661957211487 -0.0050699396989934992 0 -0.031490761185960107 -0.0058626545547461042 0 -0.031765183634056511 -0.0055144240853913663 0 -0.048997379338191573 -0.0022354272026912257 0 -0.053795755422479781 -0.0025782861141414037 0 -0.053795755422479781 -0.0025782861141414037 0 -0.053203909839933304 -0.0030367983892821597 0 -0.073460637214580585 -0.0010308112005496563 0 -0.073920811647147935 -0.001487254445198498 0 -0.074099920623845586 -0.0012916834397168288 0 -0.07360773255551234 -0.0018975259403117891 0 -0.073970087052992364 -0.0017713162685645217 0 -0.073920811647147935 -0.001487254445198498 0 -0.054552577496492519 -0.0037727562406857608 0 -0.059944573627719829 -0.0057226385312879992 0 -0.073821282380100856 -0.0021988214835382833 0 -0.07360773255551234 -0.0018975259403117891 0 -0.073970087052992364 -0.0017713162685645217 0 -0.060410163628801632 -0.0058889199952055771 0 -0.059944573627719829 -0.0057226385312879992 0 -0.054552577496492519 -0.0037727562406857608 0 -0.058740674229268722 -0.0040521287736757913 0 -0.050334157532441103 -0.0021605206721389864 0 -0.049572418612660665 -0.0031209227834887196 0 -0.049690345848523852 -0.002380013896188395 0 -0.073353228061316875 -0.008864806160954421 0 -0.074850802045852205 -0.0084541996669961744 0 -0.073925642623987001 -0.0079868399668938592 0 -0.073864857458959793 -0.0096305412250935404 0 -0.073353228061316875 -0.008864806160954421 0 -0.074850802045852205 -0.0084541996669961744 0 -0.074850802045852205 -0.0084541996669961744 0 -0.073925642623987001 -0.0079868399668938592 0 -0.074807083293071078 -0.0072935503132995714 0 -0.059944573627719829 -0.0057226385312879992 0 -0.067947257328784025 -0.0055867715962577983 0 -0.073353228061316875 -0.008864806160954421 0 -0.073925642623987001 -0.0079868399668938592 0 -0.073185197680971217 -0.0072706499634409101 0 -0.073821282380100856 -0.0021988214835382833 0 -0.073585582200083127 -0.0018804262494488526 0 -0.073788733706380588 -0.0031754892001009051 0 -0.073925642623987001 -0.0079868399668938592 0 -0.073185197680971217 -0.0072706499634409101 0 -0.07414410580192736 -0.0065728051660101632 0 -0.073185197680971217 -0.0072706499634409101 0 -0.07414410580192736 -0.0065728051660101632 0 -0.072958786128806435 -0.0056397253081595143 0 -0.067947257328784025 -0.0055867715962577983 0 -0.07287867721851099 -0.0048981329242411675 0 -0.073953203547815843 -0.0055931992294971419 0 -0.07414410580192736 -0.0065728051660101632 0 -0.072958786128806435 -0.0056397253081595143 0 -0.073953203547815843 -0.0055931992294971419 0 -0.073634472310255328 -0.0048453057447074566 0 -0.072958786128806435 -0.0056397253081595143 0 -0.074659497133339289 -0.0056912142473680644 0 -0.07414410580192736 -0.0065728051660101632 0 -0.075282747739508965 -0.0062050766967889663 0 -0.074659497133339289 -0.0056912142473680644 0 -0.075282747739508965 -0.0062050766967889663 0 -0.075192664277778556 -0.0054190509626103672 0 -0.074659497133339289 -0.0056912142473680644 0 -0.074384585210402504 -0.0051399546726890394 0 -0.074866897611419014 -0.0052020243581351643 0 -0.074659497133339289 -0.0056912142473680644 0 -0.075192664277778556 -0.0054190509626103672 0 -0.074866897611419014 -0.0052020243581351643 0 -0.073953203547815843 -0.0055931992294971419 0 -0.074659497133339289 -0.0056912142473680644 0 -0.074384585210402504 -0.0051399546726890394 0 -0.073953203547815843 -0.0055931992294971419 0 -0.074659497133339289 -0.0056912142473680644 0 -0.07414410580192736 -0.0065728051660101632 0 -0.074807083293071078 -0.0072935503132995714 0 -0.07414410580192736 -0.0065728051660101632 0 -0.075282747739508965 -0.0062050766967889663 0 -0.073925642623987001 -0.0079868399668938592 0 -0.074807083293071078 -0.0072935503132995714 0 -0.07414410580192736 -0.0065728051660101632 0 -0.07583215458315884 -0.0072501387790587174 0 -0.076734503123050565 -0.0060809588125235164 0 -0.075282747739508965 -0.0062050766967889663 0 -0.074807083293071078 -0.0072935503132995714 0 -0.07583215458315884 -0.0072501387790587174 0 -0.075282747739508965 -0.0062050766967889663 0 -0.060314582431976016 -0.0047765718296074126 0 -0.060287283050767748 -0.0059266996488905902 0 -0.048806739904108241 -0.0040807927976162497 0 -0.047991109411910905 -0.0041095263948932939 0 -0.048058264998531587 -0.0050294779874196834 0 -0.065783142559135366 -0.0055124907760724668 0 -0.065707096909588023 -0.0056069364596286354 0 -0.06557258450688766 -0.0050624984140685758 0 -0.065707096909588023 -0.0056069364596286354 0 -0.064909340216744799 -0.005093058254771873 0 -0.06557258450688766 -0.0050624984140685758 0 -0.066112944330314311 -0.0055215649772321481 0 -0.065783142559135366 -0.0055124907760724668 0 -0.06571404402415354 -0.0055954441285856705 0 -0.060340721908274178 -0.005887742995472978 0 -0.060287283050767748 -0.0059266996488905902 0 -0.06589506573932169 -0.0052375384371928105 0 -0.065783142559135366 -0.0055124907760724668 0 -0.06557258450688766 -0.0050624984140685758 0 -0.060287283050767748 -0.0059266996488905902 0 -0.070559837089602187 -0.0061336382162880797 0 -0.076734503123050565 -0.0060809588125235164 0 -0.075282747739508965 -0.0062050766967889663 0 -0.07541113348529542 -0.0051265909647696447 0 -0.075282747739508965 -0.0062050766967889663 0 -0.075192664277778556 -0.0054190509626103672 0 -0.07541113348529542 -0.0051265909647696447 0 -0.064909340216744799 -0.005093058254771873 0 -0.06557258450688766 -0.0050624984140685758 0 -0.065392221637565404 -0.0044192712149310346 0 -0.075192664277778556 -0.0054190509626103672 0 -0.075302059931439083 -0.0049163150599018171 0 -0.075522636532156032 -0.0051024401336288074 0 -0.075707449046492251 -0.0052004615895799074 0 -0.075789294125618328 -0.0041872066911955944 0 -0.077220982636396901 -0.0035869832055543307 0 -0.070559837089602187 -0.0061336382162880797 0 -0.071870026505999371 -0.0046308039557957604 0 -0.070731106607569705 -0.0059981186211866405 0 -0.070559837089602187 -0.0061336382162880797 0 -0.070683233697188458 -0.0061752712550648316 0 -0.070559837089602187 -0.0061336382162880797 0 -0.075302059931439083 -0.0049163150599018171 0 -0.075789294125618328 -0.0041872066911955944 0 -0.075026844194059444 -0.0043065339105422262 0 -0.075302059931439083 -0.0049163150599018171 0 -0.075707449046492251 -0.0052004615895799074 0 -0.075789294125618328 -0.0041872066911955944 0 -0.06557258450688766 -0.0050624984140685758 0 -0.065856532804591306 -0.0047122664379782749 0 -0.065392221637565404 -0.0044192712149310346 0 -0.065961883184735212 -0.004977059468142509 0 -0.06589506573932169 -0.0052375384371928105 0 -0.06557258450688766 -0.0050624984140685758 0 -0.065961883184735212 -0.004977059468142509 0 -0.06557258450688766 -0.0050624984140685758 0 -0.065856532804591306 -0.0047122664379782749 0 -0.066065540360709024 -0.0033582299729024855 0 -0.066144249639439004 -0.0044088675398725246 0 -0.065392221637565404 -0.0044192712149310346 0 -0.066144249639439004 -0.0044088675398725246 0 -0.065856532804591306 -0.0047122664379782749 0 -0.065392221637565404 -0.0044192712149310346 0 -0.076090448159708807 -0.0026534754649530823 0 -0.078056002496081647 -0.0022645090962948567 0 -0.077220982636396901 -0.0035869832055543307 0 -0.073210543055393984 -0.0037240202017760288 0 -0.071870026505999371 -0.0046308039557957604 0 -0.075789294125618328 -0.0041872066911955944 0 -0.076213737018196032 -0.0035017132346336693 0 -0.075329767188881666 -0.0036376134920782276 0 -0.075789294125618328 -0.0041872066911955944 0 -0.075329767188881666 -0.0036376134920782276 0 -0.075026844194059444 -0.0043065339105422262 0 -0.075789294125618328 -0.0041872066911955944 0 -0.077220982636396901 -0.0035869832055543307 0 -0.076213737018196032 -0.0035017132346336693 0 -0.076090448159708807 -0.0026534754649530823 0 -0.077220982636396901 -0.0035869832055543307 0 -0.076213737018196032 -0.0035017132346336693 0 -0.076090448159708807 -0.0026534754649530823 0 -0.076213737018196032 -0.0035017132346336693 0 -0.075329767188881666 -0.0036376134920782276 0 -0.076090448159708807 -0.0026534754649530823 0 -0.075329767188881666 -0.0036376134920782276 0 -0.074220953955192043 -0.0032775697690936886 0 -0.07780496183453775 -0.0026705450470723754 0 -0.077680719105174614 -0.0029884666412574711 0 -0.075329767188881666 -0.0036376134920782276 0 -0.074589503951596692 -0.0038991685630490672 0 -0.075026844194059444 -0.0043065339105422262 0 -0.075329767188881666 -0.0036376134920782276 0 -0.074589503951596692 -0.0038991685630490672 0 -0.074220953955192043 -0.0032775697690936886 0 -0.074155600431799501 -0.0038771401610880603 0 -0.074589503951596692 -0.0038991685630490672 0 -0.074317946611355171 -0.0044036515001804645 0 -0.074155600431799501 -0.0038771401610880603 0 -0.074589503951596692 -0.0038991685630490672 0 -0.074220953955192043 -0.0032775697690936886 0 -0.077680719105174614 -0.0029884666412574711 0 -0.077440696294675967 -0.0036760350785531542 0 -0.080777670493226192 -0.0011352325036576229 0 -0.081389683267044474 -0.0012938731801027555 0 -0.082444672087647872 -0.00063950334989739299 0 -0.074220953955192043 -0.0032775697690936886 0 -0.073616875069393475 -0.0039808369177746789 0 -0.072670627250660133 -0.0038270240345818552 0 -0.082647147058002524 -0.0020971438070099598 0 -0.081389683267044474 -0.0012938731801027555 0 -0.082444672087647872 -0.00063950334989739299 0 -0.080961587314969038 -0.0019872951148168592 0 -0.080777670493226192 -0.0011352325036576229 0 -0.081389683267044474 -0.0012938731801027555 0 -0.074155600431799501 -0.0038771401610880603 0 -0.073616875069393475 -0.0039808369177746789 0 -0.074317946611355171 -0.0044036515001804645 0 -0.074155600431799501 -0.0038771401610880603 0 -0.074220953955192043 -0.0032775697690936886 0 -0.073616875069393475 -0.0039808369177746789 0 -0.073616875069393475 -0.0039808369177746789 0 -0.073634472310255328 -0.0048453057447074566 0 -0.074317946611355171 -0.0044036515001804645 0 -0.073634472310255328 -0.0048453057447074566 0 -0.072670627250660133 -0.0038270240345818552 0 -0.072958786128806435 -0.0056397253081595143 0 -0.073616875069393475 -0.0039808369177746789 0 -0.073634472310255328 -0.0048453057447074566 0 -0.072670627250660133 -0.0038270240345818552 0 -0.073953203547815843 -0.0055931992294971419 0 -0.073634472310255328 -0.0048453057447074566 0 -0.074384585210402504 -0.0051399546726890394 0 -0.073634472310255328 -0.0048453057447074566 0 -0.074384585210402504 -0.0051399546726890394 0 -0.074317946611355171 -0.0044036515001804645 0 -0.074384585210402504 -0.0051399546726890394 0 -0.074796811415407463 -0.0047932690839403193 0 -0.074317946611355171 -0.0044036515001804645 0 -0.074384585210402504 -0.0051399546726890394 0 -0.074866897611419014 -0.0052020243581351643 0 -0.074796811415407463 -0.0047932690839403193 0 -0.075192664277778556 -0.0054190509626103672 0 -0.075302059931439083 -0.0049163150599018171 0 -0.074866897611419014 -0.0052020243581351643 0 -0.075302059931439083 -0.0049163150599018171 0 -0.074866897611419014 -0.0052020243581351643 0 -0.074796811415407463 -0.0047932690839403193 0 -0.074796811415407463 -0.0047932690839403193 0 -0.075026844194059444 -0.0043065339105422262 0 -0.074317946611355171 -0.0044036515001804645 0 -0.075302059931439083 -0.0049163150599018171 0 -0.074796811415407463 -0.0047932690839403193 0 -0.075026844194059444 -0.0043065339105422262 0 -0.074589503951596692 -0.0038991685630490672 0 -0.075026844194059444 -0.0043065339105422262 0 -0.074317946611355171 -0.0044036515001804645 0 -0.077582690626692125 -0.0031086108915727656 0 -0.076966188592483359 -0.0030949018515108069 0 -0.075183451086611189 -0.0054413264586960063 0 -0.074142050982553095 -0.0057492215294433361 0 -0.073970178201606271 -0.004465609339391244 0 -0.077440696294675967 -0.0036760350785531542 0 -0.07287867721851099 -0.0048981329242411675 0 -0.080387959170817813 -0.0035284492895121646 0 -0.080144449525257608 -0.0036000337484909119 0 -0.080436820932454078 -0.0039662649928665647 0 -0.080144449525257608 -0.0036000337484909119 0 -0.079949572123478863 -0.0041103674483387205 0 -0.080436820932454078 -0.0039662649928665647 0 -0.077582690626692125 -0.0031086108915727656 0 -0.077440696294675967 -0.0036760350785531542 0 -0.080857734388324456 -0.0034259254969477753 0 -0.077440696294675967 -0.0036760350785531542 0 -0.075135516918216086 -0.00052713215853120762 0 -0.074017496074444078 -0.000612054497859999 0 -0.074422535727379766 0.00044972921754681818 0 -0.080197654163894919 -0.0032542997406795754 0 -0.077582690626692125 -0.0031086108915727656 0 -0.075401997215477953 -0.00014410198984522111 0 -0.076256889463639677 0.00024152513546351248 0 -0.075900630954980716 0.00050738787848076739 0 -0.075135516918216086 -0.00052713215853120762 0 -0.074422535727379766 0.00044972921754681818 0 -0.075392932039002006 0.00073493710705688979 0 -0.075951874111072001 -0.00087521702235122858 0 -0.076479020309026827 -0.0013528921287462453 0 -0.076256889463639677 0.00024152513546351248 0 -0.075900630954980716 0.00050738787848076739 0 -0.07622968343870215 0.0002930431289030357 0 -0.076479020309026827 -0.0013528921287462453 0 -0.076571808418525206 -0.00084858811766727138 0 -0.076828194079573697 -0.0016967193024465816 0 -0.076767193509813772 -0.0017111246918495937 0 -0.076805018226269825 -0.001758262589719773 0 -0.077582690626692125 -0.0031086108915727656 0 -0.076479020309026827 -0.0013528921287462453 0 -0.076767193509813772 -0.0017111246918495937 0 -0.076748386496675994 -0.0017766180754510833 0 -0.076805018226269825 -0.001758262589719773 0 -0.076479020309026827 -0.0013528921287462453 0 -0.076673779958107188 -0.0012194815780002526 0 -0.076748386496675994 -0.0017766180754510833 0 -0.07678416899543862 -0.0018369036110104505 0 -0.076805018226269825 -0.001758262589719773 0 -0.077598893525891721 0.00057802742227859268 0 -0.07735948958450671 -0.00055110500745054396 0 -0.07622968343870215 0.0002930431289030357 0 -0.07735948958450671 -0.00055110500745054396 0 -0.076441737096142368 -0.0010453008703728475 0 -0.07622968343870215 0.0002930431289030357 0 -0.07735948958450671 -0.00055110500745054396 0 -0.076709610389458976 -0.0018696683066936946 0 -0.076441737096142368 -0.0010453008703728475 0 -0.076673779958107188 -0.0012194815780002526 0 -0.076683871714461033 -0.0013572777858926596 0 -0.076709610389458976 -0.0018696683066936946 0 -0.076386739674575543 -0.0020325219840650862 0 -0.076441737096142368 -0.0010453008703728475 0 -0.075989922960196674 -0.0032903465665895908 0 -0.075307888861362651 -0.003570380783298196 0 -0.075577527836502775 -0.004374069014114166 0 -0.076748386496675994 -0.0017766180754510833 0 -0.07678416899543862 -0.0018369036110104505 0 -0.076709610389458976 -0.0018696683066936946 0 -0.07679670813089097 -0.0027289971910326042 0 -0.076966188592483359 -0.0030949018515108069 0 -0.075989922960196674 -0.0032903465665895908 0 -0.075307888861362651 -0.003570380783298196 0 -0.075378988852989215 -0.0028343312123690848 0 -0.074802792633783519 -0.0032608153847901848 0 -0.075307888861362651 -0.003570380783298196 0 -0.075378988852989215 -0.0028343312123690848 0 -0.074802792633783519 -0.0032608153847901848 0 -0.075307888861362651 -0.003570380783298196 0 -0.074795127015564733 -0.0040736391813842171 0 -0.075183451086611189 -0.0054413264586960063 0 -0.074795127015564733 -0.0040736391813842171 0 -0.075577527836502775 -0.004374069014114166 0 -0.075307888861362651 -0.003570380783298196 0 -0.074795127015564733 -0.0040736391813842171 0 -0.075577527836502775 -0.004374069014114166 0 -0.075183451086611189 -0.0054413264586960063 0 -0.074795127015564733 -0.0040736391813842171 0 -0.073970178201606271 -0.004465609339391244 0 -0.073788733706380588 -0.0031754892001009051 0 -0.074795127015564733 -0.0040736391813842171 0 -0.073970178201606271 -0.004465609339391244 0 -0.073788733706380588 -0.0031754892001009051 0 -0.074802792633783519 -0.0032608153847901848 0 -0.074795127015564733 -0.0040736391813842171 0 -0.073821282380100856 -0.0021988214835382833 0 -0.073788733706380588 -0.0031754892001009051 0 -0.074296247897053302 -0.0027308898748871547 0 -0.073788733706380588 -0.0031754892001009051 0 -0.074802792633783519 -0.0032608153847901848 0 -0.074296247897053302 -0.0027308898748871547 0 -0.074802792633783519 -0.0032608153847901848 0 -0.074296247897053302 -0.0027308898748871547 0 -0.074858208783220012 -0.0027398861633265749 0 -0.074296247897053302 -0.0027308898748871547 0 -0.074550632301824793 -0.0022940501614987017 0 -0.074858208783220012 -0.0027398861633265749 0 -0.073821282380100856 -0.0021988214835382833 0 -0.074296247897053302 -0.0027308898748871547 0 -0.074550632301824793 -0.0022940501614987017 0 -0.074802792633783519 -0.0032608153847901848 0 -0.075378988852989215 -0.0028343312123690848 0 -0.074858208783220012 -0.0027398861633265749 0 -0.075378988852989215 -0.0028343312123690848 0 -0.074858208783220012 -0.0027398861633265749 0 -0.075313066986010868 -0.0022119992713814972 0 -0.074550632301824793 -0.0022940501614987017 0 -0.074858208783220012 -0.0027398861633265749 0 -0.075313066986010868 -0.0022119992713814972 0 -0.075378988852989215 -0.0028343312123690848 0 -0.075313066986010868 -0.0022119992713814972 0 -0.075776606647905961 -0.0022887766872711208 0 -0.075313066986010868 -0.0022119992713814972 0 -0.075585489010132498 -0.0019182971417479925 0 -0.075271266591140112 -0.0017275381726809108 0 -0.075313066986010868 -0.0022119992713814972 0 -0.075585489010132498 -0.0019182971417479925 0 -0.075776606647905961 -0.0022887766872711208 0 -0.075313066986010868 -0.0022119992713814972 0 -0.07502836529341271 -0.0019512084122205065 0 -0.075271266591140112 -0.0017275381726809108 0 -0.074550632301824793 -0.0022940501614987017 0 -0.075313066986010868 -0.0022119992713814972 0 -0.07502836529341271 -0.0019512084122205065 0 -0.07502836529341271 -0.0019512084122205065 0 -0.074947921084618646 -0.0016095032201318463 0 -0.075271266591140112 -0.0017275381726809108 0 -0.075585489010132498 -0.0019182971417479925 0 -0.075271266591140112 -0.0017275381726809108 0 -0.075645893586809065 -0.0015634886437042852 0 -0.074550632301824793 -0.0022940501614987017 0 -0.07502836529341271 -0.0019512084122205065 0 -0.074947921084618646 -0.0016095032201318463 0 -0.074550632301824793 -0.0022940501614987017 0 -0.074637168376803203 -0.0015289306521537305 0 -0.07428415857599735 -0.001834308427817375 0 -0.061466225281780133 -1.8611410166795892e-05 0 -0.059859526293437867 -0.0003539549106210835 0 -0.073821282380100856 -0.0021988214835382833 0 -0.074550632301824793 -0.0022940501614987017 0 -0.07428415857599735 -0.001834308427817375 0 -0.073821282380100856 -0.0021988214835382833 0 -0.07428415857599735 -0.001834308427817375 0 -0.073970087052992364 -0.0017713162685645217 0 -0.074637168376803203 -0.0015289306521537305 0 -0.074277945788243468 -0.0015217828463256833 0 -0.07428415857599735 -0.001834308427817375 0 -0.074277945788243468 -0.0015217828463256833 0 -0.07428415857599735 -0.001834308427817375 0 -0.073970087052992364 -0.0017713162685645217 0 -0.074277945788243468 -0.0015217828463256833 0 -0.073970087052992364 -0.0017713162685645217 0 -0.073920811647147935 -0.001487254445198498 0 -0.053795755422479781 -0.0025782861141414037 0 -0.054379221420948531 -0.0024919300527678238 0 -0.073460637214580585 -0.0010308112005496563 0 -0.074099920623845586 -0.0012916834397168288 0 -0.074321708711699547 -0.0010951695520940456 0 -0.073460637214580585 -0.0010308112005496563 0 -0.074321708711699547 -0.0010951695520940456 0 -0.074812401305663162 -0.00081889897175874105 0 -0.031502583575575283 -0.0058526418417587196 0 -0.031765183634056511 -0.0055144240853913663 0 -0.03386561458742466 -0.0054474456413154604 0 -0.074277945788243468 -0.0015217828463256833 0 -0.073920811647147935 -0.001487254445198498 0 -0.074099920623845586 -0.0012916834397168288 0 -0.074321708711699547 -0.0010951695520940456 0 -0.074458812032233562 -0.0012847589947657763 0 -0.074812401305663162 -0.00081889897175874105 0 -0.074637168376803203 -0.0015289306521537305 0 -0.074277945788243468 -0.0015217828463256833 0 -0.074458812032233562 -0.0012847589947657763 0 -0.074099920623845586 -0.0012916834397168288 0 -0.074321708711699547 -0.0010951695520940456 0 -0.074458812032233562 -0.0012847589947657763 0 -0.074277945788243468 -0.0015217828463256833 0 -0.074099920623845586 -0.0012916834397168288 0 -0.074458812032233562 -0.0012847589947657763 0 -0.074637168376803203 -0.0015289306521537305 0 -0.074458812032233562 -0.0012847589947657763 0 -0.074812401305663162 -0.00081889897175874105 0 -0.074947921084618646 -0.0016095032201318463 0 -0.075074457559447666 -0.0014954648668631442 0 -0.075065568365800264 -0.0013011274244814387 0 -0.074947921084618646 -0.0016095032201318463 0 -0.075271266591140112 -0.0017275381726809108 0 -0.075074457559447666 -0.0014954648668631442 0 -0.059859526293437867 -0.0003539549106210835 0 -0.054379221420948531 -0.0024919300527678238 0 -0.075271266591140112 -0.0017275381726809108 0 -0.075074457559447666 -0.0014954648668631442 0 -0.07540854636293931 -0.0014833911745121958 0 -0.075271266591140112 -0.0017275381726809108 0 -0.07540854636293931 -0.0014833911745121958 0 -0.075645893586809065 -0.0015634886437042852 0 -0.07540854636293931 -0.0014833911745121958 0 -0.075643950100667115 -0.0011541574507139517 0 -0.075645893586809065 -0.0015634886437042852 0 -0.075074457559447666 -0.0014954648668631442 0 -0.07540854636293931 -0.0014833911745121958 0 -0.075643950100667115 -0.0011541574507139517 0 -0.075074457559447666 -0.0014954648668631442 0 -0.075065568365800264 -0.0013011274244814387 0 -0.075208770036187825 -0.0012777174216401122 0 -0.061441147050803391 0.00039404265880937375 0 -0.057081620407792126 -0.0020481555662092321 0 -0.03386561458742466 -0.0054474456413154604 0 -0.033089730622267048 -0.0039762566223297685 0 -0.034337585395629783 -0.0036620521808889152 0 -0.034449131971346775 -0.0042662219587106896 0 -0.035085904689822034 -0.0035499600318383935 0 -0.034695076766667242 -0.0031668242040085075 0 -0.054379221420948531 -0.0024919300527678238 0 -0.045973270263440225 -0.0048445116205453626 0 -0.054379221420948531 -0.0024919300527678238 0 -0.057081620407792126 -0.0020481555662092321 0 -0.034449131971346775 -0.0042662219587106896 0 -0.035085904689822034 -0.0035499600318383935 0 -0.035003461247942014 -0.0041730366159911381 0 -0.032171932106732942 -0.0045165739958495767 0 -0.03386561458742466 -0.0054474456413154604 0 -0.033089730622267048 -0.0039762566223297685 0 -0.032171932106732942 -0.0045165739958495767 0 -0.031765183634056511 -0.0055144240853913663 0 -0.03386561458742466 -0.0054474456413154604 0 -0.060968559514971737 -0.0016507616235835573 0 -0.058520656888336194 -0.0021635405535981836 0 -0.076164991480751648 -0.001251314329158262 0 -0.076358071502717811 -0.0015154085341524308 0 -0.076463985642202192 -0.0013117982518304615 0 -0.055558536371785316 -0.0015486256550940934 0 -0.054832229398432013 -0.0016794402767803583 0 -0.055435465024475182 -0.0022896153317247957 0 -0.058520656888336194 -0.0021635405535981836 0 -0.050912816629127979 -0.0012223641124445329 0 -0.060968559514971737 -0.0016507616235835573 0 -0.057081620407792126 -0.0020481555662092321 0 -0.055558536371785316 -0.0015486256550940934 0 -0.056288256792014275 -0.0014191713767208259 0 -0.055435465024475182 -0.0022896153317247957 0 -0.057081620407792126 -0.0020481555662092321 0 -0.050912816629127979 -0.0012223641124445329 0 -0.035085904689822034 -0.0035499600318383935 0 -0.035003461247942014 -0.0041730366159911381 0 -0.036092940921418688 -0.0031128234777674508 0 -0.076164991480751648 -0.001251314329158262 0 -0.075643950100667115 -0.0011541574507139517 0 -0.076044479207226651 -0.0014925992642794181 0 -0.075643950100667115 -0.0011541574507139517 0 -0.075645893586809065 -0.0015634886437042852 0 -0.076044479207226651 -0.0014925992642794181 0 -0.075645893586809065 -0.0015634886437042852 0 -0.076044479207226651 -0.0014925992642794181 0 -0.076005333908100992 -0.0018018349110703962 0 -0.076044479207226651 -0.0014925992642794181 0 -0.076358071502717811 -0.0015154085341524308 0 -0.07628513811215748 -0.0017643870701838447 0 -0.076164991480751648 -0.001251314329158262 0 -0.076044479207226651 -0.0014925992642794181 0 -0.076358071502717811 -0.0015154085341524308 0 -0.076358071502717811 -0.0015154085341524308 0 -0.07628513811215748 -0.0017643870701838447 0 -0.076443507869899396 -0.0017710288352121163 0 -0.07628513811215748 -0.0017643870701838447 0 -0.076415212916108838 -0.0019889563182532754 0 -0.076443507869899396 -0.0017710288352121163 0 -0.07628513811215748 -0.0017643870701838447 0 -0.076415212916108838 -0.0019889563182532754 0 -0.076390137791444671 -0.0020539631008372524 0 -0.075585489010132498 -0.0019182971417479925 0 -0.075645893586809065 -0.0015634886437042852 0 -0.076005333908100992 -0.0018018349110703962 0 -0.076044479207226651 -0.0014925992642794181 0 -0.07628513811215748 -0.0017643870701838447 0 -0.076005333908100992 -0.0018018349110703962 0 -0.07628513811215748 -0.0017643870701838447 0 -0.076005333908100992 -0.0018018349110703962 0 -0.076390137791444671 -0.0020539631008372524 0 -0.076005333908100992 -0.0018018349110703962 0 -0.076390137791444671 -0.0020539631008372524 0 -0.075776606647905961 -0.0022887766872711208 0 -0.075585489010132498 -0.0019182971417479925 0 -0.076005333908100992 -0.0018018349110703962 0 -0.075776606647905961 -0.0022887766872711208 0 -0.075989922960196674 -0.0032903465665895908 0 -0.076390137791444671 -0.0020539631008372524 0 -0.075776606647905961 -0.0022887766872711208 0 -0.07678416899543862 -0.0018369036110104505 0 -0.076390137791444671 -0.0020539631008372524 0 -0.076709610389458976 -0.0018696683066936946 0 -0.07679670813089097 -0.0027289971910326042 0 -0.076778815780291804 -0.0025055061262132246 0 -0.075989922960196674 -0.0032903465665895908 0 -0.075378988852989215 -0.0028343312123690848 0 -0.075776606647905961 -0.0022887766872711208 0 -0.076415212916108838 -0.0019889563182532754 0 -0.076709610389458976 -0.0018696683066936946 0 -0.076386739674575543 -0.0020325219840650862 0 -0.076415212916108838 -0.0019889563182532754 0 -0.076390137791444671 -0.0020539631008372524 0 -0.076709610389458976 -0.0018696683066936946 0 -0.076415212916108838 -0.0019889563182532754 0 -0.076386739674575543 -0.0020325219840650862 0 -0.076543515526603503 -0.0018905982800219354 0 -0.074740519365774138 -0.0011660958770458617 0 -0.073163021683707335 -0.00098240737897105118 0 -0.076386739674575543 -0.0020325219840650862 0 -0.076662881317607692 -0.0019850697021530079 0 -0.076543515526603503 -0.0018905982800219354 0 -0.076386739674575543 -0.0020325219840650862 0 -0.074530523661481995 -0.002753340240893588 0 -0.075364047446922142 -0.00089606814126985766 0 -0.076662881317607692 -0.0019850697021530079 0 -0.076543515526603503 -0.0018905982800219354 0 -0.076742881679926364 -0.0018234769477591024 0 -0.076543515526603503 -0.0018905982800219354 0 -0.076637926518912033 -0.0016131428626647449 0 -0.076742881679926364 -0.0018234769477591024 0 -0.076543515526603503 -0.0018905982800219354 0 -0.076443507869899396 -0.0017710288352121163 0 -0.076637926518912033 -0.0016131428626647449 0 -0.076415212916108838 -0.0019889563182532754 0 -0.076543515526603503 -0.0018905982800219354 0 -0.076443507869899396 -0.0017710288352121163 0 -0.076358071502717811 -0.0015154085341524308 0 -0.076443507869899396 -0.0017710288352121163 0 -0.076637926518912033 -0.0016131428626647449 0 -0.076358071502717811 -0.0015154085341524308 0 -0.076637926518912033 -0.0016131428626647449 0 -0.076463985642202192 -0.0013117982518304615 0 -0.062329636271969378 -0.0017673530347043533 0 -0.058520656888336194 -0.0021635405535981836 0 -0.062329636271969378 -0.0017673530347043533 0 -0.064684724475008462 -0.0011947662701619259 0 -0.052067037457808635 0.00020328982401842242 0 -0.051644169107647492 0.00095406084950484772 0 -0.051361911170903427 0.00073981085591096421 0 -0.052067037457808635 0.00020328982401842242 0 -0.051644169107647492 0.00095406084950484772 0 -0.05429316573345519 0.00061572327057212405 0 -0.055225414744186609 -0.002015206482392012 0 -0.058520656888336194 -0.0021635405535981836 0 -0.051644169107647492 0.00095406084950484772 0 -0.050529969006175915 0.00074031314027773586 0 -0.050598344423759288 0.0011229445866969439 0 -0.052667478482311632 1.2303114996355515e-06 0 -0.05429316573345519 0.00061572327057212405 0 -0.051395528373244889 0.00080488596677514136 0 -0.052667478482311632 1.2303114996355515e-06 0 -0.05429316573345519 0.00061572327057212405 0 -0.058181254821101543 2.4466080019194531e-06 0 -0.051644169107647492 0.00095406084950484772 0 -0.05429316573345519 0.00061572327057212405 0 -0.051395528373244889 0.00080488596677514136 0 -0.052067037457808635 0.00020328982401842242 0 -0.05429316573345519 0.00061572327057212405 0 -0.054805583281802628 -0.00073001061537779366 0 -0.05429316573345519 0.00061572327057212405 0 -0.058181254821101543 2.4466080019194531e-06 0 -0.058040914581354242 -0.00019822298760164498 0 -0.058181254821101543 2.4466080019194531e-06 0 -0.058040914581354242 -0.00019822298760164498 0 -0.063688022137521338 -7.1866996341229514e-06 0 -0.05429316573345519 0.00061572327057212405 0 -0.058040914581354242 -0.00019822298760164498 0 -0.054805583281802628 -0.00073001061537779366 0 -0.058040914581354242 -0.00019822298760164498 0 -0.054805583281802628 -0.00073001061537779366 0 -0.059353824629282591 -0.0018588250161817564 0 -0.064684724475008462 -0.0011947662701619259 0 -0.066270491827427225 -0.00030710297501138848 0 -0.073163021683707335 -0.00098240737897105118 0 -0.066270491827427225 -0.00030710297501138848 0 -0.074530523661481995 -0.002753340240893588 0 -0.070046095218188775 -0.0036467678859648709 0 -0.07081148735745274 -0.00092409298599322582 0 -0.076662881317607692 -0.0019850697021530079 0 -0.076742881679926364 -0.0018234769477591024 0 -0.076830882465948144 -0.0019569438027354168 0 -0.063701054638033355 -1.7670637055172256e-06 0 -0.066270491827427225 -0.00030710297501138848 0 -0.058040914581354242 -0.00019822298760164498 0 -0.063688022137521338 -7.1866996341229514e-06 0 -0.059353824629282591 -0.0018588250161817564 0 -0.070046095218188775 -0.0036467678859648709 0 -0.066146917335443284 -7.8657688702894711e-06 0 -0.07081148735745274 -0.00092409298599322582 0 -0.063703175617360594 9.4680842686247457e-10 0 -0.063826468218040125 1.4883591417478125e-06 0 -0.06613105015540488 2.571906677922036e-09 0 -0.066270491827427225 -0.00030710297501138848 0 -0.066137879585897424 -5.7568227631570467e-07 0 -0.07081148735745274 -0.00092409298599322582 0 -0.069879606139944914 2.8870133149463639e-06 0 -0.07298171615331181 -0.0003697984511071729 0 -0.066146917335443284 -7.8657688702894711e-06 0 -0.07081148735745274 -0.00092409298599322582 0 -0.069879606139944914 2.8870133149463639e-06 0 -0.069879606139944914 2.8870133149463639e-06 0 -0.073509331337378775 0.00036493367678134869 0 -0.07298171615331181 -0.0003697984511071729 0 -0.069879606139944914 2.8870133149463639e-06 0 -0.073509331337378775 0.00036493367678134869 0 -0.073617487964381695 6.4135288137088712e-07 0 -0.073509331337378775 0.00036493367678134869 0 -0.07298171615331181 -0.0003697984511071729 0 -0.074628708934882895 3.5274079512268468e-05 0 -0.073509331337378775 0.00036493367678134869 0 -0.074628708934882895 3.5274079512268468e-05 0 -0.075525372090285481 0.00044401840436391509 0 -0.074530523661481995 -0.002753340240893588 0 -0.07081148735745274 -0.00092409298599322582 0 -0.07298171615331181 -0.0003697984511071729 0 -0.074530523661481995 -0.002753340240893588 0 -0.07298171615331181 -0.0003697984511071729 0 -0.075364047446922142 -0.00089606814126985766 0 -0.076386739674575543 -0.0020325219840650862 0 -0.075364047446922142 -0.00089606814126985766 0 -0.076441737096142368 -0.0010453008703728475 0 -0.075364047446922142 -0.00089606814126985766 0 -0.076441737096142368 -0.0010453008703728475 0 -0.07622968343870215 0.0002930431289030357 0 -0.075364047446922142 -0.00089606814126985766 0 -0.07622968343870215 0.0002930431289030357 0 -0.074628708934882895 3.5274079512268468e-05 0 -0.07298171615331181 -0.0003697984511071729 0 -0.075364047446922142 -0.00089606814126985766 0 -0.074628708934882895 3.5274079512268468e-05 0 -0.075525372090285481 0.00044401840436391509 0 -0.076482327529534891 0.00040511779032719489 0 -0.076605059542686815 0.00038542319009353485 0 -0.07622968343870215 0.0002930431289030357 0 -0.075525372090285481 0.00044401840436391509 0 -0.076482327529534891 0.00040511779032719489 0 -0.07622968343870215 0.0002930431289030357 0 -0.074628708934882895 3.5274079512268468e-05 0 -0.075525372090285481 0.00044401840436391509 0 -0.076256889463639677 0.00024152513546351248 0 -0.07622968343870215 0.0002930431289030357 0 -0.076482327529534891 0.00040511779032719489 0 -0.076256889463639677 0.00024152513546351248 0 -0.076482327529534891 0.00040511779032719489 0 -0.077005114028748697 0.0001919100484830821 0 -0.077585161790879695 0.00011951951643145751 0 -0.077005114028748697 0.0001919100484830821 0 -0.076605059542686815 0.00038542319009353485 0 -0.076482327529534891 0.00040511779032719489 0 -0.077005114028748697 0.0001919100484830821 0 -0.076605059542686815 0.00038542319009353485 0 -0.076255951696876406 0.00037042826148894704 0 -0.076132202603394789 0.000511171906782233 0 -0.074887926812233732 0.0002772967304763713 0 -0.077585161790879695 0.00011951951643145751 0 -0.076605059542686815 0.00038542319009353485 0 -0.076255951696876406 0.00037042826148894704 0 -0.077412811898107364 8.6622541573158456e-05 0 -0.077585161790879695 0.00011951951643145751 0 -0.076255951696876406 0.00037042826148894704 0 -0.075525372090285481 0.00044401840436391509 0 -0.076605059542686815 0.00038542319009353485 0 -0.076255951696876406 0.00037042826148894704 0 -0.077412811898107364 8.6622541573158456e-05 0 -0.076255951696876406 0.00037042826148894704 0 -0.076132202603394789 0.000511171906782233 0 -0.076132202603394789 0.000511171906782233 0 -0.073617487964381695 6.4135288137088712e-07 0 -0.074887926812233732 0.0002772967304763713 0 -0.079359828936432397 -2.5658076042137548e-07 0 -0.079981125260544197 -0.00035821294105104357 0 -0.073623178460076016 -1.5362392465532394e-06 0 -0.077226776090108945 0.00047482128960649395 0 -0.073627605148872524 -4.1220438092380777e-08 0 -0.073509331337378775 0.00036493367678134869 0 -0.073617487964381695 6.4135288137088712e-07 0 -0.074887926812233732 0.0002772967304763713 0 -0.073509331337378775 0.00036493367678134869 0 -0.075525372090285481 0.00044401840436391509 0 -0.074887926812233732 0.0002772967304763713 0 -0.075525372090285481 0.00044401840436391509 0 -0.076255951696876406 0.00037042826148894704 0 -0.074887926812233732 0.0002772967304763713 0 -0.026606006113021177 -0.00034524332982921712 0 -0.025746624250575278 -0.00082707918882298349 0 -0.024686784732511242 -0.00035633594837790951 0 -0.026606006113021177 -0.00034524332982921712 0 -0.025746624250575278 -0.00082707918882298349 0 -0.028689156171099437 -0.00060781794676048313 0 -0.025746624250575278 -0.00082707918882298349 0 -0.024686784732511242 -0.00035633594837790951 0 -0.023955059866858412 -0.00095245329211763338 0 -0.025746624250575278 -0.00082707918882298349 0 -0.023955059866858412 -0.00095245329211763338 0 -0.025663645413525553 -0.0021483360456211534 0 -0.025746624250575278 -0.00082707918882298349 0 -0.028689156171099437 -0.00060781794676048313 0 -0.025663645413525553 -0.0021483360456211534 0 -0.026606006113021177 -0.00034524332982921712 0 -0.028689156171099437 -0.00060781794676048313 0 -0.028987355583101101 2.2546815176601148e-06 0 -0.028689156171099437 -0.00060781794676048313 0 -0.028987355583101101 2.2546815176601148e-06 0 -0.034916292068422831 -8.3520530265476717e-06 0 -0.026606006113021177 -0.00034524332982921712 0 -0.028987355583101101 2.2546815176601148e-06 0 -0.024409662001745151 5.8988965761289513e-06 0 -0.028987355583101101 2.2546815176601148e-06 0 -0.024409662001745151 5.8988965761289513e-06 0 -0.023290019496712208 1.3353284023337261e-05 0 -0.026606006113021177 -0.00034524332982921712 0 -0.024409662001745151 5.8988965761289513e-06 0 -0.024686784732511242 -0.00035633594837790951 0 -0.024409662001745151 5.8988965761289513e-06 0 -0.024686784732511242 -0.00035633594837790951 0 -0.023432920706210395 -0.00027099970797667534 0 -0.024409662001745151 5.8988965761289513e-06 0 -0.023432920706210395 -0.00027099970797667534 0 -0.022791088295930826 -4.9983293445013032e-05 0 -0.023432920706210395 -0.00027099970797667534 0 -0.022605507156885755 -0.00073994342512329124 0 -0.022481366031113979 -0.00028022625283199244 0 -0.023432920706210395 -0.00027099970797667534 0 -0.022605507156885755 -0.00073994342512329124 0 -0.023955059866858412 -0.00095245329211763338 0 -0.024686784732511242 -0.00035633594837790951 0 -0.023432920706210395 -0.00027099970797667534 0 -0.023955059866858412 -0.00095245329211763338 0 -0.022605507156885755 -0.00073994342512329124 0 -0.021452101831825315 -0.0011590783495400696 0 -0.021529921825428729 -0.00070953401106854251 0 -0.022605507156885755 -0.00073994342512329124 0 -0.021529921825428729 -0.00070953401106854251 0 -0.022481366031113979 -0.00028022625283199244 0 -0.031259618071621899 0.00088669843569940299 0 -0.028850189092517953 0.0023029087452780439 0 -0.022605507156885755 -0.00073994342512329124 0 -0.023150050625605333 -0.0016144986293779289 0 -0.021452101831825315 -0.0011590783495400696 0 -0.032036838587300415 0.0016946861075086811 0 -0.03171755697859166 0.0018493551699166324 0 -0.03179323192128003 0.0022180074617859412 0 -0.032331244699196703 0.001933285119444732 0 -0.032036838587300415 0.0016946861075086811 0 -0.03179323192128003 0.0022180074617859412 0 -0.031259618071621899 0.00088669843569940299 0 -0.0331569202851607 0.0012908925585130803 0 -0.030575545652210146 0.00045326172321515275 0 -0.031259618071621899 0.00088669843569940299 0 -0.022605507156885755 -0.00073994342512329124 0 -0.023955059866858412 -0.00095245329211763338 0 -0.023150050625605333 -0.0016144986293779289 0 -0.023955059866858412 -0.00095245329211763338 0 -0.023193041927167216 -0.0015817699239134475 0 -0.025663645413525553 -0.0021483360456211534 0 -0.037682790436462145 -0.00027752900496897341 0 -0.037572866169085929 -0.0001728937897037965 0 -0.037442604482322409 -0.00019164112811278678 0 -0.031259618071621899 0.00088669843569940299 0 -0.032704340151807426 0.0004417939839129271 0 -0.037653772243789199 -0.00014611188306353312 0 -0.037797591504867258 -9.7323321872850276e-05 0 -0.037504917260880746 -5.1724731708914543e-05 0 -0.037797591504867258 -9.7323321872850276e-05 0 -0.03794236589633003 -0.0001942717069831827 0 -0.03810134651816121 -0.00018367649243379838 0 -0.03715583342454172 -1.3618527215626e-05 0 -0.036734285369417523 4.7862156731524994e-06 0 -0.037572866169085929 -0.0001728937897037965 0 -0.037653772243789199 -0.00014611188306353312 0 -0.037504917260880746 -5.1724731708914543e-05 0 -0.037682790436462145 -0.00027752900496897341 0 -0.037572866169085929 -0.0001728937897037965 0 -0.037653772243789199 -0.00014611188306353312 0 -0.037682790436462145 -0.00027752900496897341 0 -0.037653772243789199 -0.00014611188306353312 0 -0.037811928446258226 -0.00012485852012139191 0 -0.037811928446258226 -0.00012485852012139191 0 -0.037797591504867258 -9.7323321872850276e-05 0 -0.037745456895973431 -0.00011414954219760221 0 -0.037653772243789199 -0.00014611188306353312 0 -0.037811928446258226 -0.00012485852012139191 0 -0.037797591504867258 -9.7323321872850276e-05 0 -0.0331569202851607 0.0012908925585130803 0 -0.034167550044478495 0.00136192600866158 0 -0.037797591504867258 -9.7323321872850276e-05 0 -0.03769166040594879 -0.00021521569821444545 0 -0.037745456895973431 -0.00011414954219760221 0 -0.03587259842738591 -2.3314285558045862e-05 0 -0.034167550044478495 0.00136192600866158 0 -0.03769166040594879 -0.00021521569821444545 0 -0.036604079919942051 0.00030626031543846564 0 -0.03652620188654724 0.0015404826180765035 0 -0.037797591504867258 -9.7323321872850276e-05 0 -0.03794236589633003 -0.0001942717069831827 0 -0.03769166040594879 -0.00021521569821444545 0 -0.03794236589633003 -0.0001942717069831827 0 -0.038107807392685003 -0.00024649599055307257 0 -0.03810134651816121 -0.00018367649243379838 0 -0.03794236589633003 -0.0001942717069831827 0 -0.038026186774228997 -0.00028507035006819406 0 -0.03769166040594879 -0.00021521569821444545 0 -0.03794236589633003 -0.0001942717069831827 0 -0.038107807392685003 -0.00024649599055307257 0 -0.038026186774228997 -0.00028507035006819406 0 -0.038107807392685003 -0.00024649599055307257 0 -0.038248752836253945 -0.00026568163058495462 0 -0.038026186774228997 -0.00028507035006819406 0 -0.038169024041112422 -0.00031765521889974227 0 -0.038107807392685003 -0.00024649599055307257 0 -0.038248752836253945 -0.00026568163058495462 0 -0.038169024041112422 -0.00031765521889974227 0 -0.038107807392685003 -0.00024649599055307257 0 -0.03810134651816121 -0.00018367649243379838 0 -0.036734285369417523 4.7862156731524994e-06 0 -0.034991066449506884 8.5841600615904471e-05 0 -0.037504917260880746 -5.1724731708914543e-05 0 -0.037442604482322409 -0.00019164112811278678 0 -0.037135748030062921 -4.665530798787007e-05 0 -0.038169024041112422 -0.00031765521889974227 0 -0.03810134651816121 -0.00018367649243379838 0 -0.03819935576451642 -0.0006684175360385235 0 -0.028689156171099437 -0.00060781794676048313 0 -0.025663645413525553 -0.0021483360456211534 0 -0.030131944977189407 -0.0023471596941368727 0 -0.032704340151807426 0.0004417939839129271 0 -0.034991066449506884 8.5841600615904471e-05 0 -0.037572866169085929 -0.0001728937897037965 0 -0.037504917260880746 -5.1724731708914543e-05 0 -0.037442604482322409 -0.00019164112811278678 0 -0.028689156171099437 -0.00060781794676048313 0 -0.030131944977189407 -0.0023471596941368727 0 -0.034916292068422831 -8.3520530265476717e-06 0 -0.034991066449506884 8.5841600615904471e-05 0 -0.03612378851028638 -5.9239712144478597e-07 0 -0.034898890147105253 2.0684493546014862e-06 0 -0.034932487106714462 -2.0769524449225531e-09 0 -0.036119260847566545 4.1337732756688956e-09 0 -0.034991066449506884 8.5841600615904471e-05 0 -0.03492456673896948 2.9378355495033365e-07 0 -0.03819935576451642 -0.0006684175360385235 0 -0.03777627176107376 -0.00022423912578467051 0 -0.036134833654567579 -4.638650955155607e-06 0 -0.03777627176107376 -0.00022423912578467051 0 -0.036134833654567579 -4.638650955155607e-06 0 -0.041640815427272625 7.5569593332791746e-07 0 -0.038169024041112422 -0.00031765521889974227 0 -0.03777627176107376 -0.00022423912578467051 0 -0.038248752836253945 -0.00026568163058495462 0 -0.042031457153503343 -0.00074853059165331387 0 -0.042888162992434815 -0.00073049051375182698 0 -0.038169024041112422 -0.00031765521889974227 0 -0.03819935576451642 -0.0006684175360385235 0 -0.03777627176107376 -0.00022423912578467051 0 -0.03777627176107376 -0.00022423912578467051 0 -0.041640815427272625 7.5569593332791746e-07 0 -0.044822255748173175 -0.00097741027977799456 0 -0.041640815427272625 7.5569593332791746e-07 0 -0.044822255748173175 -0.00097741027977799456 0 -0.046783546213829907 0.00039985586372510328 0 -0.042888162992434815 -0.00073049051375182698 0 -0.044313192701510636 -0.0010582208580438544 0 -0.044822255748173175 -0.00097741027977799456 0 -0.046783546213829907 0.00039985586372510328 0 -0.049059760439930718 -0.00011817155717963791 0 -0.041640815427272625 7.5569593332791746e-07 0 -0.046783546213829907 0.00039985586372510328 0 -0.047155555530568945 1.5783267747550927e-06 0 -0.047155555530568945 1.5783267747550927e-06 0 -0.049174731280072222 0.00074064620315585517 0 -0.051395528373244889 0.00080488596677514136 0 -0.046783546213829907 0.00039985586372510328 0 -0.047155555530568945 1.5783267747550927e-06 0 -0.049174731280072222 0.00074064620315585517 0 -0.046783546213829907 0.00039985586372510328 0 -0.049174731280072222 0.00074064620315585517 0 -0.04960305396943257 0.00077453335655823454 0 -0.051644169107647492 0.00095406084950484772 0 -0.051395528373244889 0.00080488596677514136 0 -0.050408491142666996 0.0011333739442767391 0 -0.049174731280072222 0.00074064620315585517 0 -0.051395528373244889 0.00080488596677514136 0 -0.050408491142666996 0.0011333739442767391 0 -0.052667478482311632 1.2303114996355515e-06 0 -0.047155555530568945 1.5783267747550927e-06 0 -0.051395528373244889 0.00080488596677514136 0 -0.050598344423759288 0.0011229445866969439 0 -0.050564438409913023 0.00095232649034082326 0 -0.050461214695499676 0.0010824767844495645 0 -0.050598344423759288 0.0011229445866969439 0 -0.050408491142666996 0.0011333739442767391 0 -0.050564438409913023 0.00095232649034082326 0 -0.050529969006175915 0.00074031314027773586 0 -0.050598344423759288 0.0011229445866969439 0 -0.050461214695499676 0.0010824767844495645 0 -0.051644169107647492 0.00095406084950484772 0 -0.050598344423759288 0.0011229445866969439 0 -0.050408491142666996 0.0011333739442767391 0 -0.049174731280072222 0.00074064620315585517 0 -0.050408491142666996 0.0011333739442767391 0 -0.04960305396943257 0.00077453335655823454 0 -0.050408491142666996 0.0011333739442767391 0 -0.04960305396943257 0.00077453335655823454 0 -0.050564438409913023 0.00095232649034082326 0 -0.04960305396943257 0.00077453335655823454 0 -0.050564438409913023 0.00095232649034082326 0 -0.049059760439930718 -0.00011817155717963791 0 -0.037232086470808598 -0.0020456161780807148 0 -0.037262082432890017 -0.00098287237013187359 0 -0.036663908179085741 -0.001381044407229881 0 -0.037232086470808598 -0.0020456161780807148 0 -0.037262082432890017 -0.00098287237013187359 0 -0.038066595321634193 -0.00090637071535682096 0 -0.046236084731470638 -0.0016585106754958483 0 -0.044313192701510636 -0.0010582208580438544 0 -0.046783546213829907 0.00039985586372510328 0 -0.04960305396943257 0.00077453335655823454 0 -0.049059760439930718 -0.00011817155717963791 0 -0.038248752836253945 -0.00026568163058495462 0 -0.038066595321634193 -0.00090637071535682096 0 -0.038026186774228997 -0.00028507035006819406 0 -0.038066595321634193 -0.00090637071535682096 0 -0.038026186774228997 -0.00028507035006819406 0 -0.03769166040594879 -0.00021521569821444545 0 -0.037262082432890017 -0.00098287237013187359 0 -0.03769166040594879 -0.00021521569821444545 0 -0.036604079919942051 0.00030626031543846564 0 -0.037262082432890017 -0.00098287237013187359 0 -0.038066595321634193 -0.00090637071535682096 0 -0.03769166040594879 -0.00021521569821444545 0 -0.035925122372955323 6.4883016750946545e-05 0 -0.036185745477771938 -0.00073904692224411326 0 -0.036604079919942051 0.00030626031543846564 0 -0.037262082432890017 -0.00098287237013187359 0 -0.036185745477771938 -0.00073904692224411326 0 -0.036604079919942051 0.00030626031543846564 0 -0.035925122372955323 6.4883016750946545e-05 0 -0.035409994431207722 -0.00020678079836838193 0 -0.036185745477771938 -0.00073904692224411326 0 -0.035409994431207722 -0.00020678079836838193 0 -0.034329438066625369 3.2270081397733857e-05 0 -0.035472655730768556 0.00071881110080008505 0 -0.034490485055283265 0.00099896615498792918 0 -0.034632629693238166 0.0012557589892274288 0 -0.035925122372955323 6.4883016750946545e-05 0 -0.035409994431207722 -0.00020678079836838193 0 -0.035472655730768556 0.00071881110080008505 0 -0.035409994431207722 -0.00020678079836838193 0 -0.035363610957964663 -0.00092612630243251045 0 -0.036185745477771938 -0.00073904692224411326 0 -0.035409994431207722 -0.00020678079836838193 0 -0.035363610957964663 -0.00092612630243251045 0 -0.034329438066625369 3.2270081397733857e-05 0 -0.035363610957964663 -0.00092612630243251045 0 -0.035955499267579065 -0.0017390629218974748 0 -0.034819268560624617 -0.0019129637567998146 0 -0.035363610957964663 -0.00092612630243251045 0 -0.034819268560624617 -0.0019129637567998146 0 -0.034329438066625369 3.2270081397733857e-05 0 -0.037262082432890017 -0.00098287237013187359 0 -0.036185745477771938 -0.00073904692224411326 0 -0.036663908179085741 -0.001381044407229881 0 -0.035363610957964663 -0.00092612630243251045 0 -0.036185745477771938 -0.00073904692224411326 0 -0.035955499267579065 -0.0017390629218974748 0 -0.036185745477771938 -0.00073904692224411326 0 -0.036663908179085741 -0.001381044407229881 0 -0.035955499267579065 -0.0017390629218974748 0 -0.046236084731470638 -0.0016585106754958483 0 -0.050912816629127979 -0.0012223641124445329 0 -0.037232086470808598 -0.0020456161780807148 0 -0.036140977636098005 -0.0024488328144035192 0 -0.036151136339742429 -0.0031655987603656875 0 -0.037232086470808598 -0.0020456161780807148 0 -0.036663908179085741 -0.001381044407229881 0 -0.035955499267579065 -0.0017390629218974748 0 -0.037232086470808598 -0.0020456161780807148 0 -0.036140977636098005 -0.0024488328144035192 0 -0.035955499267579065 -0.0017390629218974748 0 -0.036140977636098005 -0.0024488328144035192 0 -0.035955499267579065 -0.0017390629218974748 0 -0.035488817110388877 -0.0023996133965019885 0 -0.036140977636098005 -0.0024488328144035192 0 -0.035488817110388877 -0.0023996133965019885 0 -0.035893020978912248 -0.0029109861730097671 0 -0.035955499267579065 -0.0017390629218974748 0 -0.034819268560624617 -0.0019129637567998146 0 -0.035488817110388877 -0.0023996133965019885 0 -0.034819268560624617 -0.0019129637567998146 0 -0.035488817110388877 -0.0023996133965019885 0 -0.035264364692715301 -0.0030160178726545408 0 -0.035085904689822034 -0.0035499600318383935 0 -0.035264364692715301 -0.0030160178726545408 0 -0.036092940921418688 -0.0031128234777674508 0 -0.035264364692715301 -0.0030160178726545408 0 -0.036092940921418688 -0.0031128234777674508 0 -0.035893020978912248 -0.0029109861730097671 0 -0.034819268560624617 -0.0019129637567998146 0 -0.035264364692715301 -0.0030160178726545408 0 -0.034695076766667242 -0.0031668242040085075 0 -0.035488817110388877 -0.0023996133965019885 0 -0.035264364692715301 -0.0030160178726545408 0 -0.035893020978912248 -0.0029109861730097671 0 -0.035085904689822034 -0.0035499600318383935 0 -0.035264364692715301 -0.0030160178726545408 0 -0.034695076766667242 -0.0031668242040085075 0 -0.036140977636098005 -0.0024488328144035192 0 -0.036151136339742429 -0.0031655987603656875 0 -0.035893020978912248 -0.0029109861730097671 0 -0.050912816629127979 -0.0012223641124445329 0 -0.050522185790994205 -0.0010224763038682678 0 -0.032171932106732942 -0.0045165739958495767 0 -0.033089730622267048 -0.0039762566223297685 0 -0.032051637390863287 -0.0031276062993496291 0 -0.033259536894174872 -0.0030735595684782827 0 -0.033089730622267048 -0.0039762566223297685 0 -0.032051637390863287 -0.0031276062993496291 0 -0.033259536894174872 -0.0030735595684782827 0 -0.033089730622267048 -0.0039762566223297685 0 -0.034337585395629783 -0.0036620521808889152 0 -0.043794051916747075 -0.0046221876825808415 0 -0.045973270263440225 -0.0048445116205453626 0 -0.034819268560624617 -0.0019129637567998146 0 -0.033259536894174872 -0.0030735595684782827 0 -0.032618265757568349 -0.0019596721895856887 0 -0.034819268560624617 -0.0019129637567998146 0 -0.033259536894174872 -0.0030735595684782827 0 -0.034337585395629783 -0.0036620521808889152 0 -0.033259536894174872 -0.0030735595684782827 0 -0.032618265757568349 -0.0019596721895856887 0 -0.032051637390863287 -0.0031276062993496291 0 -0.032618265757568349 -0.0019596721895856887 0 -0.033156757570498407 -0.00073233031680010276 0 -0.0314698204788482 -0.00030409525086878207 0 -0.034819268560624617 -0.0019129637567998146 0 -0.032618265757568349 -0.0019596721895856887 0 -0.033156757570498407 -0.00073233031680010276 0 -0.034819268560624617 -0.0019129637567998146 0 -0.033156757570498407 -0.00073233031680010276 0 -0.034329438066625369 3.2270081397733857e-05 0 -0.033156757570498407 -0.00073233031680010276 0 -0.034329438066625369 3.2270081397733857e-05 0 -0.032759352917603214 0.0006350339670190599 0 -0.033156757570498407 -0.00073233031680010276 0 -0.032759352917603214 0.0006350339670190599 0 -0.0314698204788482 -0.00030409525086878207 0 -0.032759352917603214 0.0006350339670190599 0 -0.032819086925678878 0.0025936358978589547 0 -0.033840507570797644 0.0014860624597298352 0 -0.032759352917603214 0.0006350339670190599 0 -0.032819086925678878 0.0025936358978589547 0 -0.031724803555664809 0.0016752540290804381 0 -0.032819086925678878 0.0025936358978589547 0 -0.034289182422273239 0.0025181747379069419 0 -0.033525293371884611 0.0040235768175706076 0 -0.032819086925678878 0.0025936358978589547 0 -0.034289182422273239 0.0025181747379069419 0 -0.033840507570797644 0.0014860624597298352 0 -0.034329438066625369 3.2270081397733857e-05 0 -0.033840507570797644 0.0014860624597298352 0 -0.034673699139590314 0.0013751591167637288 0 -0.034329438066625369 3.2270081397733857e-05 0 -0.032759352917603214 0.0006350339670190599 0 -0.033840507570797644 0.0014860624597298352 0 -0.034289182422273239 0.0025181747379069419 0 -0.033840507570797644 0.0014860624597298352 0 -0.034673699139590314 0.0013751591167637288 0 -0.034329438066625369 3.2270081397733857e-05 0 -0.035453523811631332 0.0010404271114949157 0 -0.034673699139590314 0.0013751591167637288 0 -0.035453523811631332 0.0010404271114949157 0 -0.035444518841981354 0.0017923045258002473 0 -0.034673699139590314 0.0013751591167637288 0 -0.035925122372955323 6.4883016750946545e-05 0 -0.035472655730768556 0.00071881110080008505 0 -0.036604079919942051 0.00030626031543846564 0 -0.035472655730768556 0.00071881110080008505 0 -0.036604079919942051 0.00030626031543846564 0 -0.03652620188654724 0.0015404826180765035 0 -0.034632629693238166 0.0012557589892274288 0 -0.034167550044478495 0.00136192600866158 0 -0.035453523811631332 0.0010404271114949157 0 -0.035444518841981354 0.0017923045258002473 0 -0.036598189481131589 0.0019915390874208727 0 -0.032036838587300415 0.0016946861075086811 0 -0.03174218061010535 0.0014538590990524052 0 -0.03171755697859166 0.0018493551699166324 0 -0.03174218061010535 0.0014538590990524052 0 -0.031297170059067722 0.002031295786961308 0 -0.03171755697859166 0.0018493551699166324 0 -0.034167550044478495 0.00136192600866158 0 -0.032754271791981142 0.0030648130390211101 0 -0.035444518841981354 0.0017923045258002473 0 -0.036598189481131589 0.0019915390874208727 0 -0.035254730911932868 0.0037305493129198347 0 -0.033385290085911852 0.0025885583385570048 0 -0.032754271791981142 0.0030648130390211101 0 -0.034289182422273239 0.0025181747379069419 0 -0.035444518841981354 0.0017923045258002473 0 -0.035225609023403791 0.0038534410198117646 0 -0.034289182422273239 0.0025181747379069419 0 -0.035444518841981354 0.0017923045258002473 0 -0.034673699139590314 0.0013751591167637288 0 -0.031297170059067722 0.002031295786961308 0 -0.03171755697859166 0.0018493551699166324 0 -0.03179323192128003 0.0022180074617859412 0 -0.028850189092517953 0.0023029087452780439 0 -0.029969239794468302 0.0034141068497504307 0 -0.031297170059067722 0.002031295786961308 0 -0.03179323192128003 0.0022180074617859412 0 -0.031250694712857865 0.0025039281219947185 0 -0.021452101831825315 -0.0011590783495400696 0 -0.020680176692393262 -0.00090344266988901195 0 -0.021529921825428729 -0.00070953401106854251 0 -0.035198478976927676 0.0037895290934254703 0 -0.035062751498613952 0.0053527066784650797 0 -0.03393999247057481 0.0054418707735983674 0 -0.032754271791981142 0.0030648130390211101 0 -0.03299679261469745 0.0036068295020485345 0 -0.032754271791981142 0.0030648130390211101 0 -0.029969239794468302 0.0034141068497504307 0 -0.035225609023403791 0.0038534410198117646 0 -0.03393999247057481 0.0054418707735983674 0 -0.033525293371884611 0.0040235768175706076 0 -0.03393999247057481 0.0054418707735983674 0 -0.032800345008087615 0.0053009599019887381 0 -0.033525293371884611 0.0040235768175706076 0 -0.032059378427924987 0.0043856025847951695 0 -0.032800345008087615 0.0053009599019887381 0 -0.031547299306901713 0.0059616604580568526 0 -0.032059378427924987 0.0043856025847951695 0 -0.032800345008087615 0.0053009599019887381 0 -0.033525293371884611 0.0040235768175706076 0 -0.032819086925678878 0.0025936358978589547 0 -0.032059378427924987 0.0043856025847951695 0 -0.031103464641314936 0.0030289390111288487 0 -0.032819086925678878 0.0025936358978589547 0 -0.032059378427924987 0.0043856025847951695 0 -0.033525293371884611 0.0040235768175706076 0 -0.034289182422273239 0.0025181747379069419 0 -0.035225609023403791 0.0038534410198117646 0 -0.033525293371884611 0.0040235768175706076 0 -0.03061568471991263 0.004638809521795257 0 -0.029094440730606404 0.0048675245895930235 0 -0.029096207703749887 0.0033585334051086375 0 -0.03061568471991263 0.004638809521795257 0 -0.029096207703749887 0.0033585334051086375 0 -0.031103464641314936 0.0030289390111288487 0 -0.032059378427924987 0.0043856025847951695 0 -0.03061568471991263 0.004638809521795257 0 -0.031103464641314936 0.0030289390111288487 0 -0.032059378427924987 0.0043856025847951695 0 -0.03061568471991263 0.004638809521795257 0 -0.031547299306901713 0.0059616604580568526 0 -0.03061568471991263 0.004638809521795257 0 -0.029094440730606404 0.0048675245895930235 0 -0.030011342431639439 0.006144180881449534 0 -0.029094440730606404 0.0048675245895930235 0 -0.027684546641617298 0.0054367027069310951 0 -0.028754640726976172 0.0061142734239843111 0 -0.029094440730606404 0.0048675245895930235 0 -0.027684546641617298 0.0054367027069310951 0 -0.027285236758990954 0.0035747595345177255 0 -0.027684546641617298 0.0054367027069310951 0 -0.027285236758990954 0.0035747595345177255 0 -0.026452681843734203 0.0050050004934729074 0 -0.029094440730606404 0.0048675245895930235 0 -0.027285236758990954 0.0035747595345177255 0 -0.029096207703749887 0.0033585334051086375 0 -0.029096207703749887 0.0033585334051086375 0 -0.027949602128149072 0.0020900372757555129 0 -0.030137037068956551 0.0017808800689537859 0 -0.027285236758990954 0.0035747595345177255 0 -0.027949602128149072 0.0020900372757555129 0 -0.026009700335291652 0.0021425691912817569 0 -0.027285236758990954 0.0035747595345177255 0 -0.029096207703749887 0.0033585334051086375 0 -0.027949602128149072 0.0020900372757555129 0 -0.027949602128149072 0.0020900372757555129 0 -0.028485473774117993 0.00063202753035482599 0 -0.026422926693943014 0.00054655661218493406 0 -0.027949602128149072 0.0020900372757555129 0 -0.030137037068956551 0.0017808800689537859 0 -0.028485473774117993 0.00063202753035482599 0 -0.029096207703749887 0.0033585334051086375 0 -0.030267313775419597 0.001492440838112376 0 -0.031103464641314936 0.0030289390111288487 0 -0.029815634163779109 0.0023446753626732478 0 -0.030360165291364736 0.0014742668155499938 0 -0.030267313775419597 0.001492440838112376 0 -0.031103464641314936 0.0030289390111288487 0 -0.031724803555664809 0.0016752540290804381 0 -0.032819086925678878 0.0025936358978589547 0 -0.031103464641314936 0.0030289390111288487 0 -0.031724803555664809 0.0016752540290804381 0 -0.032759352917603214 0.0006350339670190599 0 -0.031724803555664809 0.0016752540290804381 0 -0.0314698204788482 -0.00030409525086878207 0 -0.030267313775419597 0.001492440838112376 0 -0.031724803555664809 0.0016752540290804381 0 -0.0314698204788482 -0.00030409525086878207 0 -0.030360165291364736 0.0014742668155499938 0 -0.031292248020632019 3.4049394717895342e-07 0 -0.030137037068956551 0.0017808800689537859 0 -0.029887148045675323 -9.552288914050822e-05 0 -0.028485473774117993 0.00063202753035482599 0 -0.030137037068956551 0.0017808800689537859 0 -0.031382738476065715 3.5516141277104127e-05 0 -0.029887148045675323 -9.552288914050822e-05 0 -0.031382738476065715 3.5516141277104127e-05 0 -0.029887148045675323 -9.552288914050822e-05 0 -0.03048360475098345 -0.0020591061107633579 0 -0.029887148045675323 -9.552288914050822e-05 0 -0.03048360475098345 -0.0020591061107633579 0 -0.0289535522588414 -0.0010380373131924675 0 -0.031850922472835719 -0.00089028696867013879 0 -0.031292248020632019 3.4049394717895342e-07 0 -0.032618265757568349 -0.0019596721895856887 0 -0.031382738476065715 3.5516141277104127e-05 0 -0.03048360475098345 -0.0020591061107633579 0 -0.032618265757568349 -0.0019596721895856887 0 -0.03048360475098345 -0.0020591061107633579 0 -0.032051637390863287 -0.0031276062993496291 0 -0.029637538190765728 -0.0044399552208529139 0 -0.03048360475098345 -0.0020591061107633579 0 -0.031129894717519667 -0.004001281830153895 0 -0.03048360475098345 -0.0020591061107633579 0 -0.031129894717519667 -0.004001281830153895 0 -0.032051637390863287 -0.0031276062993496291 0 -0.032171932106732942 -0.0045165739958495767 0 -0.031129894717519667 -0.004001281830153895 0 -0.032051637390863287 -0.0031276062993496291 0 -0.026873384987996529 -0.0010246813023999679 0 -0.027266949318550664 -0.00030629844055740483 0 -0.026273173214227702 -0.0003587491791842788 0 -0.029637538190765728 -0.0044399552208529139 0 -0.03048360475098345 -0.0020591061107633579 0 -0.028500262410192677 -0.0028523171429262911 0 -0.037360349910902174 0.00037015121441068592 0 -0.032246447460647594 0.0006001194316314543 0 -0.026873384987996529 -0.0010246813023999679 0 -0.027773711138340887 -0.00090079068225003593 0 -0.027266949318550664 -0.00030629844055740483 0 -0.028500262410192677 -0.0028523171429262911 0 -0.027424333761675124 -0.0012036790857474812 0 -0.0289535522588414 -0.0010380373131924675 0 -0.03048360475098345 -0.0020591061107633579 0 -0.028500262410192677 -0.0028523171429262911 0 -0.0289535522588414 -0.0010380373131924675 0 -0.027266949318550664 -0.00030629844055740483 0 -0.026782305485091126 0.00020875581034353021 0 -0.026273173214227702 -0.0003587491791842788 0 -0.032246447460647594 0.0006001194316314543 0 -0.029806183326935635 0.00081182593358708824 0 -0.027424333761675124 -0.0012036790857474812 0 -0.0289535522588414 -0.0010380373131924675 0 -0.028485473774117993 0.00063202753035482599 0 -0.029887148045675323 -9.552288914050822e-05 0 -0.0289535522588414 -0.0010380373131924675 0 -0.028485473774117993 0.00063202753035482599 0 -0.027424333761675124 -0.0012036790857474812 0 -0.028485473774117993 0.00063202753035482599 0 -0.026422926693943014 0.00054655661218493406 0 -0.026422926693943014 0.00054655661218493406 0 -0.02534327440501127 0.00059680498928096773 0 -0.025496456135311148 0.0012564862380048611 0 -0.026422926693943014 0.00054655661218493406 0 -0.026082030318411904 0.00018434720111646662 0 -0.02534327440501127 0.00059680498928096773 0 -0.026782305485091126 0.00020875581034353021 0 -0.026422926693943014 0.00054655661218493406 0 -0.026082030318411904 0.00018434720111646662 0 -0.029806183326935635 0.00081182593358708824 0 -0.028985032369688361 0.0010419103751720617 0 -0.026782305485091126 0.00020875581034353021 0 -0.026082030318411904 0.00018434720111646662 0 -0.026273173214227702 -0.0003587491791842788 0 -0.026082030318411904 0.00018434720111646662 0 -0.026273173214227702 -0.0003587491791842788 0 -0.025464455382212179 6.6026139779228889e-05 0 -0.025986851859859293 -0.0011668975675401046 0 -0.026273173214227702 -0.0003587491791842788 0 -0.025422617296298741 -0.00053040411083244256 0 -0.026273173214227702 -0.0003587491791842788 0 -0.025422617296298741 -0.00053040411083244256 0 -0.025464455382212179 6.6026139779228889e-05 0 -0.025301491363114763 -0.0009106987669546294 0 -0.025203871472172158 -0.00037884213631194633 0 -0.02596682579504167 -0.00046425426777077646 0 -0.025203871472172158 -0.00037884213631194633 0 -0.02596682579504167 -0.00046425426777077646 0 -0.02513633825320331 6.0608744297679512e-05 0 -0.027298251637489293 0.00040043380135665373 0 -0.026606378368955092 0.00052522111530392491 0 -0.025422617296298741 -0.00053040411083244256 0 -0.025464455382212179 6.6026139779228889e-05 0 -0.02513633825320331 6.0608744297679512e-05 0 -0.025464455382212179 6.6026139779228889e-05 0 -0.02513633825320331 6.0608744297679512e-05 0 -0.025019619675646001 0.0003945993650315352 0 -0.02534327440501127 0.00059680498928096773 0 -0.024646563345802494 0.001151983858135852 0 -0.024453055118694608 0.0006997689621887638 0 -0.025043588877573977 0.00063324717734454582 0 -0.024719970481159179 0.0005593923573544514 0 -0.025464455382212179 6.6026139779228889e-05 0 -0.02534327440501127 0.00059680498928096773 0 -0.025019619675646001 0.0003945993650315352 0 -0.026082030318411904 0.00018434720111646662 0 -0.025464455382212179 6.6026139779228889e-05 0 -0.02534327440501127 0.00059680498928096773 0 -0.02534327440501127 0.00059680498928096773 0 -0.024646563345802494 0.001151983858135852 0 -0.025496456135311148 0.0012564862380048611 0 -0.024646563345802494 0.001151983858135852 0 -0.024650744817778358 0.0019382895481843989 0 -0.024074934013230763 0.00143167280779916 0 -0.024646563345802494 0.001151983858135852 0 -0.024650744817778358 0.0019382895481843989 0 -0.025496456135311148 0.0012564862380048611 0 -0.024650744817778358 0.0019382895481843989 0 -0.026009700335291652 0.0021425691912817569 0 -0.025191474463303654 0.0026161310770706609 0 -0.024650744817778358 0.0019382895481843989 0 -0.025496456135311148 0.0012564862380048611 0 -0.026009700335291652 0.0021425691912817569 0 -0.026422926693943014 0.00054655661218493406 0 -0.025496456135311148 0.0012564862380048611 0 -0.026009700335291652 0.0021425691912817569 0 -0.027949602128149072 0.0020900372757555129 0 -0.026422926693943014 0.00054655661218493406 0 -0.026009700335291652 0.0021425691912817569 0 -0.024412646871836557 0.002309565206038376 0 -0.023431171838070447 0.0031246673265181049 0 -0.027285236758990954 0.0035747595345177255 0 -0.026009700335291652 0.0021425691912817569 0 -0.024851570728156535 0.0042378113056281723 0 -0.027285236758990954 0.0035747595345177255 0 -0.024851570728156535 0.0042378113056281723 0 -0.026452681843734203 0.0050050004934729074 0 -0.027684546641617298 0.0054367027069310951 0 -0.026452681843734203 0.0050050004934729074 0 -0.026737265156944041 0.0061299695147493238 0 -0.024851570728156535 0.0042378113056281723 0 -0.026452681843734203 0.0050050004934729074 0 -0.025590538955672905 0.0059011811638954121 0 -0.024851570728156535 0.0042378113056281723 0 -0.024699113905006519 0.0059487498655156614 0 -0.025590538955672905 0.0059011811638954121 0 -0.024851570728156535 0.0042378113056281723 0 -0.023744178907926343 0.0062723290431498544 0 -0.024699113905006519 0.0059487498655156614 0 -0.023431171838070447 0.0031246673265181049 0 -0.02005354660593428 0.0058469302469582518 0 -0.024030019998732534 0.0027876870273885338 0 -0.024530204055768251 0.0025222224277411309 0 -0.024513794982580297 0.003313674675076051 0 -0.025191474463303654 0.0026161310770706609 0 -0.024530204055768251 0.0025222224277411309 0 -0.024513794982580297 0.003313674675076051 0 -0.024030019998732534 0.0027876870273885338 0 -0.024094415472509106 0.0024255641206059396 0 -0.024530204055768251 0.0025222224277411309 0 -0.024030019998732534 0.0027876870273885338 0 -0.024094415472509106 0.0024255641206059396 0 -0.023759393182016843 0.0026653216885817801 0 -0.024650744817778358 0.0019382895481843989 0 -0.024094415472509106 0.0024255641206059396 0 -0.024530204055768251 0.0025222224277411309 0 -0.024650744817778358 0.0019382895481843989 0 -0.025191474463303654 0.0026161310770706609 0 -0.024530204055768251 0.0025222224277411309 0 -0.018203623609160766 0.0070843112210523347 0 -0.018514110156450395 0.0067766063231194272 0 -0.018205336263617256 0.0057156368084184724 0 -0.018772914754445365 0.006361400479485968 0 -0.018600829553077267 0.0072024940775482129 0 -0.019770480691080516 0.0057490198045553409 0 -0.018722217411098942 0.0076823656134510053 0 -0.018600829553077267 0.0072024940775482129 0 -0.019770480691080516 0.0057490198045553409 0 -0.018772914754445365 0.006361400479485968 0 -0.018205336263617256 0.0057156368084184724 0 -0.019770480691080516 0.0057490198045553409 0 -0.018514110156450395 0.0067766063231194272 0 -0.018772914754445365 0.006361400479485968 0 -0.018600829553077267 0.0072024940775482129 0 -0.018118636057812193 0.0071640875324266362 0 -0.018131041825440352 0.0071668022364255735 0 -0.018203623609160766 0.0070843112210523347 0 -0.018514110156450395 0.0067766063231194272 0 -0.018600829553077267 0.0072024940775482129 0 -0.018514110156450395 0.0067766063231194272 0 -0.018772914754445365 0.006361400479485968 0 -0.018205336263617256 0.0057156368084184724 0 -0.02005354660593428 0.0058469302469582518 0 -0.021208051588654339 0.0040507481455605253 0 -0.023614693767693557 0.0025846543210510942 0 -0.023609768233415516 0.0026383348181020679 0 -0.023345830187372841 0.0024397535100442692 0 -0.023614693767693557 0.0025846543210510942 0 -0.023795941737864625 0.0026861945598745983 0 -0.023609768233415516 0.0026383348181020679 0 -0.024030019998732534 0.0027876870273885338 0 -0.023795941737864625 0.0026861945598745983 0 -0.023759393182016843 0.0026653216885817801 0 -0.023614693767693557 0.0025846543210510942 0 -0.023795941737864625 0.0026861945598745983 0 -0.023759393182016843 0.0026653216885817801 0 -0.024030019998732534 0.0027876870273885338 0 -0.023795941737864625 0.0026861945598745983 0 -0.023609768233415516 0.0026383348181020679 0 -0.020533695901551997 0.005551662829758555 0 -0.02005354660593428 0.0058469302469582518 0 -0.024233058862675877 0.0068387479308815533 0 -0.023744178907926343 0.0062723290431498544 0 -0.024699113905006519 0.0059487498655156614 0 -0.018206747196866085 0.0070823903554631728 0 -0.018722217411098942 0.0076823656134510053 0 -0.018600829553077267 0.0072024940775482129 0 -0.018118636057812193 0.0071640875324266362 0 -0.02005354660593428 0.0058469302469582518 0 -0.024233058862675877 0.0068387479308815533 0 -0.025590538955672905 0.0059011811638954121 0 -0.026314356659179857 0.0074616853364215677 0 -0.024233058862675877 0.0068387479308815533 0 -0.024699113905006519 0.0059487498655156614 0 -0.025590538955672905 0.0059011811638954121 0 -0.025590538955672905 0.0059011811638954121 0 -0.026737265156944041 0.0061299695147493238 0 -0.026314356659179857 0.0074616853364215677 0 -0.026452681843734203 0.0050050004934729074 0 -0.025590538955672905 0.0059011811638954121 0 -0.026737265156944041 0.0061299695147493238 0 -0.026737265156944041 0.0061299695147493238 0 -0.026314356659179857 0.0074616853364215677 0 -0.027638697084219302 0.0068448217337219799 0 -0.018203623609160766 0.0070843112210523347 0 -0.016745032694665218 0.0053999359199165022 0 -0.018205336263617256 0.0057156368084184724 0 -0.0090085475830870773 0.010288943488742807 0 -0.006826495211919424 0.0096269909362524993 0 -0.0075572559622898829 0.0086699590467003203 0 -0.018118636057812193 0.0071640875324266362 0 -0.017043556452704701 0.0076611892909794069 0 -0.018118636057812193 0.0071640875324266362 0 -0.013227934866224908 0.0063613581322408824 0 -0.016745032694665218 0.0053999359199165022 0 -0.017556215554535744 0.0046439995969044471 0 -0.018205336263617256 0.0057156368084184724 0 -0.016745032694665218 0.0053999359199165022 0 -0.016361297491944045 0.004064289463513367 0 -0.016834141817451409 0.0044978703970692778 0 -0.016745032694665218 0.0053999359199165022 0 -0.017556215554535744 0.0046439995969044471 0 -0.016834141817451409 0.0044978703970692778 0 -0.0075572559622898829 0.0086699590467003203 0 -0.0061674698698482239 0.0086220820124100449 0 -0.0063315533181223394 0.0081555869688382243 0 -0.013227934866224908 0.0063613581322408824 0 -0.0093010883763330783 0.0054866638401608152 0 -0.006826495211919424 0.0096269909362524993 0 -0.0075572559622898829 0.0086699590467003203 0 -0.0061674698698482239 0.0086220820124100449 0 -0.0075572559622898829 0.0086699590467003203 0 -0.0063315533181223394 0.0081555869688382243 0 -0.0061516189456873932 0.0073287273938420295 0 -0.0075572559622898829 0.0086699590467003203 0 -0.0061561727595144337 0.0072147434756412894 0 -0.0061516189456873932 0.0073287273938420295 0 -0.016745032694665218 0.0053999359199165022 0 -0.016361297491944045 0.004064289463513367 0 -0.015297434280037098 0.0037159008135679268 0 -0.016361297491944045 0.004064289463513367 0 -0.016510176589713307 0.0033687009755469189 0 -0.015985514253881471 0.0033513838086232364 0 -0.016361297491944045 0.004064289463513367 0 -0.015985514253881471 0.0033513838086232364 0 -0.015297434280037098 0.0037159008135679268 0 -0.0093010883763330783 0.0054866638401608152 0 -0.009297764717968747 0.0054939984503073356 0 -0.017556215554535744 0.0046439995969044471 0 -0.016953330445969441 0.003899178414919908 0 -0.01789135528428764 0.0036419481438718284 0 -0.017556215554535744 0.0046439995969044471 0 -0.016834141817451409 0.0044978703970692778 0 -0.016953330445969441 0.003899178414919908 0 -0.016361297491944045 0.004064289463513367 0 -0.016834141817451409 0.0044978703970692778 0 -0.016953330445969441 0.003899178414919908 0 -0.016510176589713307 0.0033687009755469189 0 -0.016953330445969441 0.003899178414919908 0 -0.01708556339899563 0.002999828998112593 0 -0.016361297491944045 0.004064289463513367 0 -0.016510176589713307 0.0033687009755469189 0 -0.016953330445969441 0.003899178414919908 0 -0.016953330445969441 0.003899178414919908 0 -0.01789135528428764 0.0036419481438718284 0 -0.01708556339899563 0.002999828998112593 0 -0.017556215554535744 0.0046439995969044471 0 -0.018877776090417926 0.0044620171599904362 0 -0.01789135528428764 0.0036419481438718284 0 -0.018877776090417926 0.0044620171599904362 0 -0.01789135528428764 0.0036419481438718284 0 -0.01906295399167034 0.0030224852018632159 0 -0.017556215554535744 0.0046439995969044471 0 -0.018877776090417926 0.0044620171599904362 0 -0.018205336263617256 0.0057156368084184724 0 -0.018877776090417926 0.0044620171599904362 0 -0.018205336263617256 0.0057156368084184724 0 -0.019770480691080516 0.0057490198045553409 0 -0.021208051588654339 0.0040507481455605253 0 -0.021797700554773498 0.0029111907880167952 0 -0.018877776090417926 0.0044620171599904362 0 -0.019770480691080516 0.0057490198045553409 0 -0.020852035394934985 0.0038188504111224702 0 -0.018877776090417926 0.0044620171599904362 0 -0.01906295399167034 0.0030224852018632159 0 -0.020852035394934985 0.0038188504111224702 0 -0.020099402176711658 0.0019443951009445687 0 -0.01906295399167034 0.0030224852018632159 0 -0.020852035394934985 0.0038188504111224702 0 -0.020099402176711658 0.0019443951009445687 0 -0.01906295399167034 0.0030224852018632159 0 -0.018666291857305936 0.0014822125622525515 0 -0.017994348012883039 0.0026244312215969639 0 -0.01906295399167034 0.0030224852018632159 0 -0.018666291857305936 0.0014822125622525515 0 -0.017994348012883039 0.0026244312215969639 0 -0.018666291857305936 0.0014822125622525515 0 -0.017118512791863303 0.0017131765519180632 0 -0.01789135528428764 0.0036419481438718284 0 -0.017994348012883039 0.0026244312215969639 0 -0.01906295399167034 0.0030224852018632159 0 -0.018666291857305936 0.0014822125622525515 0 -0.019793972515652784 0.00039594816137527715 0 -0.018662143373134328 0.00016161499735308239 0 -0.018666291857305936 0.0014822125622525515 0 -0.018662143373134328 0.00016161499735308239 0 -0.017761408823140149 0.00061045214928352525 0 -0.020099402176711658 0.0019443951009445687 0 -0.018666291857305936 0.0014822125622525515 0 -0.019793972515652784 0.00039594816137527715 0 -0.020099402176711658 0.0019443951009445687 0 -0.019793972515652784 0.00039594816137527715 0 -0.02087948556787033 0.00079586113006353549 0 -0.019793972515652784 0.00039594816137527715 0 -0.019582737438455178 -0.00013919730221121461 0 -0.020426956353667883 -6.7035185803462349e-05 0 -0.016252694291026548 0.0010019012385634773 0 -0.017822537079419561 0.00094680222201019577 0 -0.019793972515652784 0.00039594816137527715 0 -0.018662143373134328 0.00016161499735308239 0 -0.019373906688164994 -0.00070919079913856213 0 -0.01653160485931527 0.0010048042470687914 0 -0.016252694291026548 0.0010019012385634773 0 -0.018662143373134328 0.00016161499735308239 0 -0.017496549860085388 -0.0009539174828102734 0 -0.017761408823140149 0.00061045214928352525 0 -0.018662143373134328 0.00016161499735308239 0 -0.019373906688164994 -0.00070919079913856213 0 -0.017496549860085388 -0.0009539174828102734 0 -0.013672968778781864 0.0029937448523340939 0 -0.015432224477774096 0.0046932609458895554 0 -0.012650114086614385 0.0043454249210958572 0 -0.016252694291026548 0.0010019012385634773 0 -0.014257630488128869 0.0012967699839876877 0 -0.016440752291840648 -0.0022292650746163177 0 -0.016321388172681247 -0.00048657140378851802 0 -0.015401513754095205 -0.0031985216197042282 0 -0.013672968778781864 0.0029937448523340939 0 -0.015432224477774096 0.0046932609458895554 0 -0.01425785989792531 0.0014885002742304129 0 -0.016252694291026548 0.0010019012385634773 0 -0.014897827223155118 -0.0012180088265669137 0 -0.018330574005902902 -0.001295285073337584 0 -0.016321388172681247 -0.00048657140378851802 0 -0.020426956353667883 -6.7035185803462349e-05 0 -0.016440752291840648 -0.0022292650746163177 0 -0.018330574005902902 -0.001295285073337584 0 -0.016796278502307884 -0.0028540743498334784 0 -0.016440752291840648 -0.0022292650746163177 0 -0.018330574005902902 -0.001295285073337584 0 -0.016321388172681247 -0.00048657140378851802 0 -0.009822287891016173 0.0039754279478433048 0 -0.012650114086614385 0.0043454249210958572 0 -0.011233539692866733 0.0023390664653124924 0 -0.010373881128842221 0.0012191491763924632 0 -0.014257630488128869 0.0012967699839876877 0 -0.012650114086614385 0.0043454249210958572 0 -0.01260541550570311 0.0025247133364047201 0 -0.011233539692866733 0.0023390664653124924 0 -0.013672968778781864 0.0029937448523340939 0 -0.012650114086614385 0.0043454249210958572 0 -0.01260541550570311 0.0025247133364047201 0 -0.015626645712124621 -0.0011919108139232968 0 -0.017496549860085388 -0.0009539174828102734 0 -0.016694439384787017 0.00028646317266934354 0 -0.017496549860085388 -0.0009539174828102734 0 -0.017761408823140149 0.00061045214928352525 0 -0.016694439384787017 0.00028646317266934354 0 -0.015626645712124621 -0.0011919108139232968 0 -0.016694439384787017 0.00028646317266934354 0 -0.015469586203926985 0.0012547129867015972 0 -0.010373881128842221 0.0012191491763924632 0 -0.010179929328799764 0.0032325331854705175 0 -0.016694439384787017 0.00028646317266934354 0 -0.015469586203926985 0.0012547129867015972 0 -0.017118512791863303 0.0017131765519180632 0 -0.015469586203926985 0.0012547129867015972 0 -0.017118512791863303 0.0017131765519180632 0 -0.016166638149895773 0.0025330923192879999 0 -0.017761408823140149 0.00061045214928352525 0 -0.016694439384787017 0.00028646317266934354 0 -0.017118512791863303 0.0017131765519180632 0 -0.018666291857305936 0.0014822125622525515 0 -0.017761408823140149 0.00061045214928352525 0 -0.017118512791863303 0.0017131765519180632 0 -0.017994348012883039 0.0026244312215969639 0 -0.017118512791863303 0.0017131765519180632 0 -0.01708556339899563 0.002999828998112593 0 -0.017118512791863303 0.0017131765519180632 0 -0.01708556339899563 0.002999828998112593 0 -0.016166638149895773 0.0025330923192879999 0 -0.016510176589713307 0.0033687009755469189 0 -0.01708556339899563 0.002999828998112593 0 -0.016166638149895773 0.0025330923192879999 0 -0.01789135528428764 0.0036419481438718284 0 -0.017994348012883039 0.0026244312215969639 0 -0.01708556339899563 0.002999828998112593 0 -0.0093010883763330783 0.0054866638401608152 0 -0.010179929328799764 0.0032325331854705175 0 -0.015297434280037098 0.0037159008135679268 0 -0.015469586203926985 0.0012547129867015972 0 -0.016166638149895773 0.0025330923192879999 0 -0.016510176589713307 0.0033687009755469189 0 -0.015985514253881471 0.0033513838086232364 0 -0.016166638149895773 0.0025330923192879999 0 -0.015985514253881471 0.0033513838086232364 0 -0.015297434280037098 0.0037159008135679268 0 -0.016166638149895773 0.0025330923192879999 0 -0.0064095372450958307 0.0077223629478559751 0 -0.0065742446766633147 0.0052248592697715203 0 -0.0053487328289449796 0.0065034471484602787 0 -0.0093010883763330783 0.0054866638401608152 0 -0.0075505669796184427 0.0051514071993391244 0 -0.0042250735742080589 0.0066474561400420009 0 -0.0036812529178126665 0.0067149950032074001 0 -0.0038153662571197566 0.0072621589758988699 0 -0.0052290180931106479 0.0062706857488654399 0 -0.0042250735742080589 0.0066474561400420009 0 -0.0051091313953070521 0.0072468190722359965 0 -0.0052290180931106479 0.0062706857488654399 0 -0.0042250735742080589 0.0066474561400420009 0 -0.0041000614341562417 0.0060054439231129464 0 -0.0052290180931106479 0.0062706857488654399 0 -0.0041000614341562417 0.0060054439231129464 0 -0.0042794079121797083 0.0052686437554556641 0 -0.0042250735742080589 0.0066474561400420009 0 -0.0041000614341562417 0.0060054439231129464 0 -0.0035508794676465429 0.0062361871153540568 0 -0.0041000614341562417 0.0060054439231129464 0 -0.0042794079121797083 0.0052686437554556641 0 -0.0033607293241203163 0.0057543075723014417 0 -0.0053487328289449796 0.0065034471484602787 0 -0.0042794079121797083 0.0052686437554556641 0 -0.0053601986523880976 0.0052703968594008267 0 -0.0075505669796184427 0.0051514071993391244 0 -0.0068779056942776728 0.0048873971057607404 0 -0.0042794079121797083 0.0052686437554556641 0 -0.0053601986523880976 0.0052703968594008267 0 -0.004170530461324283 0.0040912411621621776 0 -0.0042794079121797083 0.0052686437554556641 0 -0.004170530461324283 0.0040912411621621776 0 -0.0034577774976242382 0.0048859895419797036 0 -0.0065742446766633147 0.0052248592697715203 0 -0.0053487328289449796 0.0065034471484602787 0 -0.0053601986523880976 0.0052703968594008267 0 -0.0065742446766633147 0.0052248592697715203 0 -0.0053601986523880976 0.0052703968594008267 0 -0.005482493238334862 0.0039600939981784848 0 -0.0067680807058750026 0.0026570357424629916 0 -0.0065742446766633147 0.0052248592697715203 0 -0.005482493238334862 0.0039600939981784848 0 -0.005482493238334862 0.0039600939981784848 0 -0.004170530461324283 0.0040912411621621776 0 -0.0043748252381277447 0.0023316058505972906 0 -0.0053601986523880976 0.0052703968594008267 0 -0.005482493238334862 0.0039600939981784848 0 -0.004170530461324283 0.0040912411621621776 0 -0.0043748252381277447 0.0023316058505972906 0 -0.0031790401226692764 0.0025180361396129137 0 -0.0034360209515280449 0.00085367990199085796 0 -0.004170530461324283 0.0040912411621621776 0 -0.0043748252381277447 0.0023316058505972906 0 -0.0031790401226692764 0.0025180361396129137 0 -0.007326877020314114 0.0027208667947859516 0 -0.0043748252381277447 0.0023316058505972906 0 -0.005622440657510757 0.00069336685015082729 0 -0.010373881128842221 0.0012191491763924632 0 -0.0070908782720220873 0.0012626105264188048 0 -0.0067680807058750026 0.0026570357424629916 0 -0.005482493238334862 0.0039600939981784848 0 -0.0043748252381277447 0.0023316058505972906 0 -0.00087626495101279821 0.0024166249198928789 0 0.00052884516002034562 0.0029236627076192475 0 -0.0010977426552665579 0.00090726948594821162 0 -0.00087626495101279821 0.0024166249198928789 0 -0.0020745114898769431 0.0042401457848702771 0 0.00052884516002034562 0.0029236627076192475 0 -0.00099707222417707198 0.002995381459789006 0 -0.0011940266001002099 0.0024113409305266706 0 -0.0031790401226692764 0.0025180361396129137 0 -0.0025389323034142645 0.003621199066398695 0 -0.0020591516498243063 0.0013777379168267404 0 -0.0025182675616273078 0.0040523774229669048 0 -0.0024257539495540614 0.0029671029163249921 0 -0.00087626495101279821 0.0024166249198928789 0 -0.0020745114898769431 0.0042401457848702771 0 -0.0020591516498243063 0.0013777379168267404 0 -0.004170530461324283 0.0040912411621621776 0 -0.0025389323034142645 0.003621199066398695 0 -0.0034577774976242382 0.0048859895419797036 0 -0.004170530461324283 0.0040912411621621776 0 -0.0031790401226692764 0.0025180361396129137 0 -0.0025389323034142645 0.003621199066398695 0 -0.0020745114898769431 0.0042401457848702771 0 2.074067012854691e-05 0.0059615689122758655 0 0.00052884516002034562 0.0029236627076192475 0 -0.0020745114898769431 0.0042401457848702771 0 2.074067012854691e-05 0.0059615689122758655 0 -0.0021485757264751281 0.0070272539860285182 0 -0.0035980294622768214 0.0079611041942042153 0 -0.0034489862894204583 0.0075658978287677188 0 -0.0039013121916132098 0.0073409269372197465 0 -0.0023009359323888654 0.0051225027651483302 0 -0.0027309812302120243 0.0057799075951155635 0 -0.0035980294622768214 0.0079611041942042153 0 -0.003087470835224209 0.0076358481897908963 0 -0.0034489862894204583 0.0075658978287677188 0 -0.0025182675616273078 0.0040523774229669048 0 -0.0027309812302120243 0.0057799075951155635 0 -0.0025389323034142645 0.003621199066398695 0 -0.0034577774976242382 0.0048859895419797036 0 -0.0028556632584292576 0.0055553035194664813 0 -0.0027309812302120243 0.0057799075951155635 0 -0.0027505945502806755 0.0057847185736166172 0 -0.0042794079121797083 0.0052686437554556641 0 -0.0034577774976242382 0.0048859895419797036 0 -0.0033607293241203163 0.0057543075723014417 0 -0.0034577774976242382 0.0048859895419797036 0 -0.0028556632584292576 0.0055553035194664813 0 -0.0033607293241203163 0.0057543075723014417 0 -0.0029985709801845675 0.0055694496633688223 0 -0.0035508794676465429 0.0062361871153540568 0 -0.0031462449706233819 0.0067113313342378259 0 -0.003087470835224209 0.0076358481897908963 0 -0.0032279232561822704 0.0072923368162035379 0 -0.0032329114338644966 0.0074306496523659782 0 -0.0027309812302120243 0.0057799075951155635 0 -0.0028672836321095383 0.0066054304494673442 0 -0.0029985709801845675 0.0055694496633688223 0 -0.0033607293241203163 0.0057543075723014417 0 -0.0035508794676465429 0.0062361871153540568 0 -0.0041000614341562417 0.0060054439231129464 0 -0.0033607293241203163 0.0057543075723014417 0 -0.0035508794676465429 0.0062361871153540568 0 -0.0032279232561822704 0.0072923368162035379 0 -0.0032329114338644966 0.0074306496523659782 0 -0.0031850738816301409 0.0072847597211042926 0 -0.0042250735742080589 0.0066474561400420009 0 -0.0035508794676465429 0.0062361871153540568 0 -0.0036812529178126665 0.0067149950032074001 0 -0.0035508794676465429 0.0062361871153540568 0 -0.0031462449706233819 0.0067113313342378259 0 -0.0036812529178126665 0.0067149950032074001 0 -0.0034489862894204583 0.0075658978287677188 0 -0.0033629296747515053 0.0073787302074073352 0 -0.0035663059600751414 0.0072513618445114569 0 -0.0034489862894204583 0.0075658978287677188 0 -0.0035663059600751414 0.0072513618445114569 0 -0.0039013121916132098 0.0073409269372197465 0 -0.003087470835224209 0.0076358481897908963 0 -0.0034489862894204583 0.0075658978287677188 0 -0.0032329114338644966 0.0074306496523659782 0 -0.0034489862894204583 0.0075658978287677188 0 -0.0032329114338644966 0.0074306496523659782 0 -0.0033629296747515053 0.0073787302074073352 0 -0.0033629296747515053 0.0073787302074073352 0 -0.0031850738816301409 0.0072847597211042926 0 -0.0035663059600751414 0.0072513618445114569 0 -0.0032329114338644966 0.0074306496523659782 0 -0.0033629296747515053 0.0073787302074073352 0 -0.0031850738816301409 0.0072847597211042926 0 -0.0031850738816301409 0.0072847597211042926 0 -0.0035663059600751414 0.0072513618445114569 0 -0.0039533282004050639 0.0066225249092310076 0 -0.0031850738816301409 0.0072847597211042926 0 -0.003084421426034789 0.0076514513076716981 0 -0.0024007935055312354 0.0077981696465553871 0 -0.003084421426034789 0.0076514513076716981 0 -0.0032009065705777486 0.0081831046699524894 0 -0.0024007935055312354 0.0077981696465553871 0 -0.0078671877386371682 0.0085657936348912337 0 -0.01447742957149948 0.0053690611852200299 0 -0.030435903330618665 0.0086645289159428002 0 -0.032009621320683225 0.0082520234845653347 0 -0.032429711884020086 0.0092297279574960738 0 -0.016686551851349839 0.0072497680461582484 0 -0.01447742957149948 0.0053690611852200299 0 -0.031087509010818363 0.0079611237709244879 0 -0.030435903330618665 0.0086645289159428002 0 -0.032009621320683225 0.0082520234845653347 0 -0.0032009065705777486 0.0081831046699524894 0 -0.003332862751057293 0.0078321080430203919 0 -0.0041958414960818662 0.0080982701308805107 0 -0.030435903330618665 0.0086645289159428002 0 -0.028382313403161358 0.0080737470233646826 0 -0.029988287592860405 0.0078424861735025189 0 -0.031087509010818363 0.0079611237709244879 0 -0.030435903330618665 0.0086645289159428002 0 -0.029988287592860405 0.0078424861735025189 0 -0.0032279232561822704 0.0072923368162035379 0 -0.003084421426034789 0.0076514513076716981 0 -0.003332862751057293 0.0078321080430203919 0 -0.003332862751057293 0.0078321080430203919 0 -0.0038153662571197566 0.0072621589758988699 0 -0.0041958414960818662 0.0080982701308805107 0 -0.0031462449706233819 0.0067113313342378259 0 -0.003332862751057293 0.0078321080430203919 0 -0.0038153662571197566 0.0072621589758988699 0 -0.0028672836321095383 0.0066054304494673442 0 -0.0029174186230659666 0.0069302066309893705 0 -0.003084421426034789 0.0076514513076716981 0 -0.0032009065705777486 0.0081831046699524894 0 -0.003332862751057293 0.0078321080430203919 0 -0.0032279232561822704 0.0072923368162035379 0 -0.0031850738816301409 0.0072847597211042926 0 -0.003084421426034789 0.0076514513076716981 0 -0.0031462449706233819 0.0067113313342378259 0 -0.0036812529178126665 0.0067149950032074001 0 -0.0038153662571197566 0.0072621589758988699 0 -0.0051091313953070521 0.0072468190722359965 0 -0.0054793518638653269 0.0080011070655777641 0 -0.0041958414960818662 0.0080982701308805107 0 -0.0038153662571197566 0.0072621589758988699 0 -0.0051091313953070521 0.0072468190722359965 0 -0.0041958414960818662 0.0080982701308805107 0 -0.0042250735742080589 0.0066474561400420009 0 -0.0038153662571197566 0.0072621589758988699 0 -0.0051091313953070521 0.0072468190722359965 0 -0.0061547581074916716 0.0072260863445794956 0 -0.0061516189456873932 0.0073287273938420295 0 -0.0051091313953070521 0.0072468190722359965 0 -0.0061547581074916716 0.0072260863445794956 0 -0.0052290180931106479 0.0062706857488654399 0 -0.0051091313953070521 0.0072468190722359965 0 -0.0063315533181223394 0.0081555869688382243 0 -0.0061516189456873932 0.0073287273938420295 0 -0.0054793518638653269 0.0080011070655777641 0 -0.0061516189456873932 0.0073287273938420295 0 -0.0051091313953070521 0.0072468190722359965 0 -0.0054793518638653269 0.0080011070655777641 0 -0.0061674698698482239 0.0086220820124100449 0 -0.0054793518638653269 0.0080011070655777641 0 -0.0048229726086033587 0.0089213297788932368 0 -0.006826495211919424 0.0096269909362524993 0 -0.0061674698698482239 0.0086220820124100449 0 -0.0048229726086033587 0.0089213297788932368 0 -0.0061674698698482239 0.0086220820124100449 0 -0.0063315533181223394 0.0081555869688382243 0 -0.0054793518638653269 0.0080011070655777641 0 -0.016686551851349839 0.0072497680461582484 0 -0.016858750188382812 0.007734994107594307 0 -0.0054793518638653269 0.0080011070655777641 0 -0.0048229726086033587 0.0089213297788932368 0 -0.0041958414960818662 0.0080982701308805107 0 -0.0032009065705777486 0.0081831046699524894 0 -0.0048229726086033587 0.0089213297788932368 0 -0.0041958414960818662 0.0080982701308805107 0 -0.028382313403161358 0.0080737470233646826 0 -0.029272876134670296 0.0071104158026514038 0 -0.029988287592860405 0.0078424861735025189 0 -0.028382313403161358 0.0080737470233646826 0 -0.029272876134670296 0.0071104158026514038 0 -0.027638697084219302 0.0068448217337219799 0 -0.017043556452704701 0.0076611892909794069 0 -0.016858750188382812 0.007734994107594307 0 -0.026314356659179857 0.0074616853364215677 0 -0.028382313403161358 0.0080737470233646826 0 -0.027638697084219302 0.0068448217337219799 0 -0.027684546641617298 0.0054367027069310951 0 -0.026737265156944041 0.0061299695147493238 0 -0.027638697084219302 0.0068448217337219799 0 -0.027684546641617298 0.0054367027069310951 0 -0.027638697084219302 0.0068448217337219799 0 -0.028754640726976172 0.0061142734239843111 0 -0.029094440730606404 0.0048675245895930235 0 -0.028754640726976172 0.0061142734239843111 0 -0.030011342431639439 0.006144180881449534 0 -0.029272876134670296 0.0071104158026514038 0 -0.027638697084219302 0.0068448217337219799 0 -0.028754640726976172 0.0061142734239843111 0 -0.029272876134670296 0.0071104158026514038 0 -0.028754640726976172 0.0061142734239843111 0 -0.030011342431639439 0.006144180881449534 0 -0.030011342431639439 0.006144180881449534 0 -0.031547299306901713 0.0059616604580568526 0 -0.030678892941315691 0.0072373931821114639 0 -0.03061568471991263 0.004638809521795257 0 -0.030011342431639439 0.006144180881449534 0 -0.031547299306901713 0.0059616604580568526 0 -0.031547299306901713 0.0059616604580568526 0 -0.030678892941315691 0.0072373931821114639 0 -0.031820293191695867 0.0074478564135812622 0 -0.031087509010818363 0.0079611237709244879 0 -0.031820293191695867 0.0074478564135812622 0 -0.032009621320683225 0.0082520234845653347 0 -0.031087509010818363 0.0079611237709244879 0 -0.030678892941315691 0.0072373931821114639 0 -0.031820293191695867 0.0074478564135812622 0 -0.029272876134670296 0.0071104158026514038 0 -0.030678892941315691 0.0072373931821114639 0 -0.029988287592860405 0.0078424861735025189 0 -0.031087509010818363 0.0079611237709244879 0 -0.030678892941315691 0.0072373931821114639 0 -0.029988287592860405 0.0078424861735025189 0 -0.029272876134670296 0.0071104158026514038 0 -0.030011342431639439 0.006144180881449534 0 -0.030678892941315691 0.0072373931821114639 0 -0.033528302437078723 0.0073632153566026738 0 -0.032830518432926899 0.0064463650036128582 0 -0.033979581828220903 0.0065400412150952774 0 -0.033528302437078723 0.0073632153566026738 0 -0.032756142105947475 0.0078075130440138944 0 -0.032830518432926899 0.0064463650036128582 0 -0.033528302437078723 0.0073632153566026738 0 -0.033979581828220903 0.0065400412150952774 0 -0.034501600969547956 0.0075899555949238747 0 -0.033528302437078723 0.0073632153566026738 0 -0.034501600969547956 0.0075899555949238747 0 -0.033489663654986908 0.0084045060536004582 0 -0.033528302437078723 0.0073632153566026738 0 -0.032756142105947475 0.0078075130440138944 0 -0.033489663654986908 0.0084045060536004582 0 -0.031820293191695867 0.0074478564135812622 0 -0.032756142105947475 0.0078075130440138944 0 -0.032830518432926899 0.0064463650036128582 0 -0.031820293191695867 0.0074478564135812622 0 -0.032756142105947475 0.0078075130440138944 0 -0.032009621320683225 0.0082520234845653347 0 -0.031547299306901713 0.0059616604580568526 0 -0.031820293191695867 0.0074478564135812622 0 -0.032830518432926899 0.0064463650036128582 0 -0.032800345008087615 0.0053009599019887381 0 -0.031547299306901713 0.0059616604580568526 0 -0.032830518432926899 0.0064463650036128582 0 -0.03393999247057481 0.0054418707735983674 0 -0.032800345008087615 0.0053009599019887381 0 -0.032830518432926899 0.0064463650036128582 0 -0.029969239794468302 0.0034141068497504307 0 -0.031765331378005947 0.0038034561281923831 0 -0.035062751498613952 0.0053527066784650797 0 -0.03393999247057481 0.0054418707735983674 0 -0.032830518432926899 0.0064463650036128582 0 -0.034676243142710061 0.0054811612012061611 0 -0.032830518432926899 0.0064463650036128582 0 -0.033979581828220903 0.0065400412150952774 0 -0.034676243142710061 0.0054811612012061611 0 -0.033979581828220903 0.0065400412150952774 0 -0.034501600969547956 0.0075899555949238747 0 -0.020680176692393262 -0.00090344266988901195 0 -0.020862247079264505 -0.00074033853467133661 0 -0.020655398135358535 -0.00056642406303119089 0 -0.029969239794468302 0.0034141068497504307 0 -0.02278008006251115 0.001724793159024296 0 -0.020680176692393262 -0.00090344266988901195 0 -0.020862247079264505 -0.00074033853467133661 0 -0.021529921825428729 -0.00070953401106854251 0 -0.020862247079264505 -0.00074033853467133661 0 -0.018968526210204718 0.00032755946349921627 0 -0.020750186627857811 0.00035780950348699835 0 -0.020862247079264505 -0.00074033853467133661 0 -0.020750186627857811 0.00035780950348699835 0 -0.021441835431110071 -9.696102824337061e-05 0 -0.021825599248226867 0.0015665679548375804 0 -0.02278008006251115 0.001724793159024296 0 -0.020862247079264505 -0.00074033853467133661 0 -0.018968526210204718 0.00032755946349921627 0 -0.016957092307421533 -0.00013693858662759575 0 -0.018968526210204718 0.00032755946349921627 0 -0.016957092307421533 -0.00013693858662759575 0 -0.016461536139872245 0.00077540222557888089 0 -0.02278008006251115 0.001724793159024296 0 -0.022653423133710045 0.0016862745568756536 0 -0.018968526210204718 0.00032755946349921627 0 -0.016461536139872245 0.00077540222557888089 0 -0.019398982049296777 0.0020156336623929553 0 -0.016461536139872245 0.00077540222557888089 0 -0.016003614897315659 0.0013902638211701933 0 -0.019398982049296777 0.0020156336623929553 0 -0.014520765532321588 0.00098131859683535621 0 -0.014716155031698668 0.0010374695269096997 0 -0.016003614897315659 0.0013902638211701933 0 -0.019398982049296777 0.0020156336623929553 0 -0.014358698837616098 0.0017817406585135351 0 -0.016549237937586121 -0.00025924642173015804 0 -0.016461536139872245 0.00077540222557888089 0 -0.014643012216979549 0.0014758096951541307 0 -0.018968526210204718 0.00032755946349921627 0 -0.020750186627857811 0.00035780950348699835 0 -0.019398982049296777 0.0020156336623929553 0 -0.0062536666836386749 0.0019971578098045557 0 -0.0062230377478545004 0.00067908750755780014 0 -0.00616798708208483 0.00052614806486502832 0 -0.0062536666836386749 0.0019971578098045557 0 -0.0062230377478545004 0.00067908750755780014 0 -0.0068648292146918036 0.00055322650567087635 0 -0.0062230377478545004 0.00067908750755780014 0 -0.00616798708208483 0.00052614806486502832 0 -0.0057048886444147871 0.00016658474144726286 0 -0.0062536666836386749 0.0019971578098045557 0 -0.00616798708208483 0.00052614806486502832 0 -0.0073889845510515476 0.0007450203396458145 0 -0.0062536666836386749 0.0019971578098045557 0 -0.0073889845510515476 0.0007450203396458145 0 -0.0099683760620409567 0.00090717904968371833 0 -0.00616798708208483 0.00052614806486502832 0 -0.0068942157163309221 0.00017422629991711798 0 -0.0059692330901969714 -0.00048896044006482278 0 -0.00616798708208483 0.00052614806486502832 0 -0.0073889845510515476 0.0007450203396458145 0 -0.0068942157163309221 0.00017422629991711798 0 -0.0073889845510515476 0.0007450203396458145 0 -0.0068942157163309221 0.00017422629991711798 0 -0.0084351601947951858 -0.00016499613334935786 0 -0.0070664037151121593 -0.00056411011157882294 0 -0.0070816486237594402 -0.0021685898288948784 0 -0.0084351601947951858 -0.00016499613334935786 0 -0.0068942157163309221 0.00017422629991711798 0 -0.0070664037151121593 -0.00056411011157882294 0 -0.0059692330901969714 -0.00048896044006482278 0 -0.0068942157163309221 0.00017422629991711798 0 -0.0070664037151121593 -0.00056411011157882294 0 -0.0084351601947951858 -0.00016499613334935786 0 -0.0070664037151121593 -0.00056411011157882294 0 -0.0070816486237594402 -0.0021685898288948784 0 -0.0059692330901969714 -0.00048896044006482278 0 -0.0065362297508827815 0.0037883982052316577 0 -0.0065783749614505239 0.0037047410175661297 0 -0.0059692330901969714 -0.00048896044006482278 0 -0.0055134467090999437 -0.00016892368448708802 0 -0.0049537827695044752 -0.00026622531369127199 0 -0.0058100941069160533 -0.00049629550547072008 0 -0.0059692330901969714 -0.00048896044006482278 0 -0.0049537827695044752 -0.00026622531369127199 0 -0.0065362297508827815 0.0037883982052316577 0 -0.0064646746984734311 0.0037277465483310699 0 -0.00616798708208483 0.00052614806486502832 0 -0.0059692330901969714 -0.00048896044006482278 0 -0.0055134467090999437 -0.00016892368448708802 0 -0.00616798708208483 0.00052614806486502832 0 -0.0055134467090999437 -0.00016892368448708802 0 -0.0057048886444147871 0.00016658474144726286 0 -0.0055134467090999437 -0.00016892368448708802 0 -0.0052490541719161518 -7.7727511130970271e-06 0 -0.0049537827695044752 -0.00026622531369127199 0 -0.0055134467090999437 -0.00016892368448708802 0 -0.0052490541719161518 -7.7727511130970271e-06 0 -0.0057048886444147871 0.00016658474144726286 0 -0.0070816486237594402 -0.0021685898288948784 0 -0.0084351601947951858 -0.00016499613334935786 0 -0.0141366105673769 0.00069128636127449377 0 -0.0099683760620409567 0.00090717904968371833 0 -0.0084351601947951858 -0.00016499613334935786 0 -0.0141366105673769 0.00069128636127449377 0 -0.0052777866473312073 0.0070085933124275487 0 -0.0046113309527797434 0.0068153824211224035 0 -0.0047454451866696147 0.0071780944181905866 0 -0.0065362297508827815 0.0037883982052316577 0 -0.0095778173774041658 0.0042175394936102588 0 -0.0062536666836386749 0.0019971578098045557 0 -0.0099683760620409567 0.00090717904968371833 0 -0.014358698837616098 0.0017817406585135351 0 -0.0099683760620409567 0.00090717904968371833 0 -0.0141366105673769 0.00069128636127449377 0 -0.014358698837616098 0.0017817406585135351 0 -0.0073889845510515476 0.0007450203396458145 0 -0.0099683760620409567 0.00090717904968371833 0 -0.0084351601947951858 -0.00016499613334935786 0 -0.0046113309527797434 0.0068153824211224035 0 -0.0042090817847332653 0.0070051480813215989 0 -0.0039533282004050639 0.0066225249092310076 0 -0.0141366105673769 0.00069128636127449377 0 -0.014358698837616098 0.0017817406585135351 0 -0.015382328488981826 0.0017243102911736572 0 -0.0095778173774041658 0.0042175394936102588 0 -0.01447742957149948 0.0053690611852200299 0 -0.0046113309527797434 0.0068153824211224035 0 -0.0042090817847332653 0.0070051480813215989 0 -0.0043665254206091565 0.0072435595410698704 0 -0.014358698837616098 0.0017817406585135351 0 -0.014643012216979549 0.0014758096951541307 0 -0.015382328488981826 0.0017243102911736572 0 -0.016003614897315659 0.0013902638211701933 0 -0.014358698837616098 0.0017817406585135351 0 -0.014643012216979549 0.0014758096951541307 0 -0.02278008006251115 0.001724793159024296 0 -0.020096922867280643 0.0030724162836178186 0 -0.016461536139872245 0.00077540222557888089 0 -0.016003614897315659 0.0013902638211701933 0 -0.014643012216979549 0.0014758096951541307 0 -0.033489663654986908 0.0084045060536004582 0 -0.032009621320683225 0.0082520234845653347 0 -0.032429711884020086 0.0092297279574960738 0 -0.032756142105947475 0.0078075130440138944 0 -0.033489663654986908 0.0084045060536004582 0 -0.032009621320683225 0.0082520234845653347 0 -0.020096922867280643 0.0030724162836178186 0 -0.01447742957149948 0.0053690611852200299 0 -0.0042090817847332653 0.0070051480813215989 0 -0.0039533282004050639 0.0066225249092310076 0 -0.0039013121916132098 0.0073409269372197465 0 -0.0035663059600751414 0.0072513618445114569 0 -0.0039533282004050639 0.0066225249092310076 0 -0.0039013121916132098 0.0073409269372197465 0 -0.0042090817847332653 0.0070051480813215989 0 -0.0039013121916132098 0.0073409269372197465 0 -0.0043665254206091565 0.0072435595410698704 0 -0.0039013121916132098 0.0073409269372197465 0 -0.0043665254206091565 0.0072435595410698704 0 -0.0041780296726918248 0.0077117340488420403 0 -0.0043665254206091565 0.0072435595410698704 0 -0.0041780296726918248 0.0077117340488420403 0 -0.0047259349513515143 0.0076434553567503172 0 -0.0046113309527797434 0.0068153824211224035 0 -0.0043665254206091565 0.0072435595410698704 0 -0.0047454451866696147 0.0071780944181905866 0 -0.0043665254206091565 0.0072435595410698704 0 -0.0047259349513515143 0.0076434553567503172 0 -0.0047454451866696147 0.0071780944181905866 0 -0.0016019823797752159 0.003607222989327496 0 -0.0037745007821726505 0.0040474677010257599 0 -0.0041780296726918248 0.0077117340488420403 0 -0.0041789864297755615 0.0082551456527868248 0 -0.0047259349513515143 0.0076434553567503172 0 -0.0035980294622768214 0.0079611041942042153 0 -0.0039013121916132098 0.0073409269372197465 0 -0.0041780296726918248 0.0077117340488420403 0 -0.0035980294622768214 0.0079611041942042153 0 -0.0041780296726918248 0.0077117340488420403 0 -0.0041789864297755615 0.0082551456527868248 0 -0.0023009359323888654 0.0051225027651483302 0 -0.0016019823797752159 0.003607222989327496 0 2.074067012854691e-05 0.0059615689122758655 0 0.002192009049689483 0.0048867733537710182 0 0.00052884516002034562 0.0029236627076192475 0 -0.0016019823797752159 0.003607222989327496 0 -0.00099707222417707198 0.002995381459789006 0 -0.0016019823797752159 0.003607222989327496 0 -0.00054872765572692821 0.002450314854477297 0 -0.0021032476008922127 0.0012233385165229432 0 -0.0021691638040828016 0.0012795516867913003 0 -0.0022526455090531878 0.0011070860502932606 0 0.0014880095215121809 0.0015665835360659938 0 0.0015788025827021537 0.0012818624403626053 0 0.0017293868846033917 0.0015258949833299527 0 0.0013621340879697217 0.0019904475370118996 0 0.0014880095215121809 0.0015665835360659938 0 0.0015788025827021537 0.0012818624403626053 0 0.0013621340879697217 0.0019904475370118996 0 0.0014880095215121809 0.0015665835360659938 0 0.00057398257853171755 0.0018050348396413934 0 0.0014880095215121809 0.0015665835360659938 0 0.00057398257853171755 0.0018050348396413934 0 0.000386627926521323 0.0010372499449737122 0 -0.00035663443332427023 0.0021759417054731567 0 -0.00054872765572692821 0.002450314854477297 0 7.5345342060185885e-05 0.001254007672663336 0 -0.0021691638040828016 0.0012795516867913003 0 -0.0021404240874537315 0.0014159350952673887 0 7.5345342060185885e-05 0.001254007672663336 0 0.0015788025827021537 0.0012818624403626053 0 0.0017293868846033917 0.0015258949833299527 0 -0.0021691638040828016 0.0012795516867913003 0 -0.0021404240874537315 0.0014159350952673887 0 -0.0022526455090531878 0.0011070860502932606 0 7.5345342060185885e-05 0.001254007672663336 0 -0.0021404240874537315 0.0014159350952673887 0 -0.0022318100281641952 0.0012557020991383148 0 -0.0021404240874537315 0.0014159350952673887 0 -0.0031416699690771052 0.0010542750832226303 0 -0.0022318100281641952 0.0012557020991383148 0 -0.0031416699690771052 0.0010542750832226303 0 -0.0041682618730136114 0.00066726248500342214 0 -0.0035331227083175354 0.00094474655923081042 0 -0.0021404240874537315 0.0014159350952673887 0 -0.0031416699690771052 0.0010542750832226303 0 -0.0022526455090531878 0.0011070860502932606 0 -0.0031416699690771052 0.0010542750832226303 0 -0.0022526455090531878 0.0011070860502932606 0 -0.0034903416098053001 0.00054406874107865068 0 -0.0052777866473312073 0.0070085933124275487 0 -0.0047259349513515143 0.0076434553567503172 0 -0.0047454451866696147 0.0071780944181905866 0 -0.0039074664195013773 -0.0004745772767757229 0 -0.0022526455090531878 0.0011070860502932606 0 -0.0034903416098053001 0.00054406874107865068 0 -0.0065362297508827815 0.0037883982052316577 0 -0.0037745007821726505 0.0040474677010257599 0 -0.00431738442671063 0.00039086661040487435 0 -0.005038939821825213 0.00030661520264856399 0 -0.0041682618730136114 0.00066726248500342214 0 -0.0031416699690771052 0.0010542750832226303 0 -0.00431738442671063 0.00039086661040487435 0 -0.0041682618730136114 0.00066726248500342214 0 -0.0031416699690771052 0.0010542750832226303 0 -0.00431738442671063 0.00039086661040487435 0 -0.0034903416098053001 0.00054406874107865068 0 -0.00431738442671063 0.00039086661040487435 0 -0.0034903416098053001 0.00054406874107865068 0 -0.0049537827695044752 -0.00026622531369127199 0 -0.0039074664195013773 -0.0004745772767757229 0 -0.0034903416098053001 0.00054406874107865068 0 -0.0049537827695044752 -0.00026622531369127199 0 -0.0052490541719161518 -7.7727511130970271e-06 0 -0.00431738442671063 0.00039086661040487435 0 -0.0049537827695044752 -0.00026622531369127199 0 -0.0052490541719161518 -7.7727511130970271e-06 0 -0.00431738442671063 0.00039086661040487435 0 -0.005038939821825213 0.00030661520264856399 0 -0.0052490541719161518 -7.7727511130970271e-06 0 -0.005038939821825213 0.00030661520264856399 0 -0.0056460295076588111 0.00018881146951333432 0 -0.005038939821825213 0.00030661520264856399 0 -0.0058023393023982099 0.00027582300785326575 0 -0.0056460295076588111 0.00018881146951333432 0 -0.005038939821825213 0.00030661520264856399 0 -0.0058023393023982099 0.00027582300785326575 0 -0.0047565828206095747 0.00060087252000754258 0 -0.005038939821825213 0.00030661520264856399 0 -0.0047565828206095747 0.00060087252000754258 0 -0.0041682618730136114 0.00066726248500342214 0 -0.0058023393023982099 0.00027582300785326575 0 -0.0056577898399407219 0.0005820127086820252 0 -0.0070428442724712057 0.00024644438933798006 0 -0.0058023393023982099 0.00027582300785326575 0 -0.0047565828206095747 0.00060087252000754258 0 -0.0056577898399407219 0.0005820127086820252 0 -0.0056577898399407219 0.0005820127086820252 0 -0.0039038283010945723 0.00097435727847695951 0 -0.0068256044239234474 0.00069971425327722411 0 -0.0047565828206095747 0.00060087252000754258 0 -0.0056577898399407219 0.0005820127086820252 0 -0.0039038283010945723 0.00097435727847695951 0 -0.0039038283010945723 0.00097435727847695951 0 -0.0035331227083175354 0.00094474655923081042 0 -0.0022318100281641952 0.0012557020991383148 0 -0.0047565828206095747 0.00060087252000754258 0 -0.0041682618730136114 0.00066726248500342214 0 -0.0035331227083175354 0.00094474655923081042 0 -0.0047565828206095747 0.00060087252000754258 0 -0.0039038283010945723 0.00097435727847695951 0 -0.0035331227083175354 0.00094474655923081042 0 -0.0031416699690771052 0.0010542750832226303 0 -0.0035331227083175354 0.00094474655923081042 0 -0.0022318100281641952 0.0012557020991383148 0 -0.0039038283010945723 0.00097435727847695951 0 -0.0022318100281641952 0.0012557020991383148 0 -0.0016101000989397734 0.0011808982468369314 0 7.5345342060185885e-05 0.001254007672663336 0 -0.0022318100281641952 0.0012557020991383148 0 -0.0016101000989397734 0.0011808982468369314 0 -0.0039038283010945723 0.00097435727847695951 0 -0.0016101000989397734 0.0011808982468369314 0 -0.0033615834446122745 0.00071384061693252328 0 -0.0016101000989397734 0.0011808982468369314 0 -0.00048867293773664246 0.0011953557359544117 0 0.0010449219059709574 0.0014148175339263934 0 -0.0016101000989397734 0.0011808982468369314 0 -0.00048867293773664246 0.0011953557359544117 0 -0.0033615834446122745 0.00071384061693252328 0 7.5345342060185885e-05 0.001254007672663336 0 -0.0016101000989397734 0.0011808982468369314 0 0.0010449219059709574 0.0014148175339263934 0 -0.00048867293773664246 0.0011953557359544117 0 -0.0033615834446122745 0.00071384061693252328 0 0.0018471234386944464 0.0010132337970755218 0 -0.0033615834446122745 0.00071384061693252328 0 -0.0044985190285240445 1.3621915387415029e-06 0 0.0018471234386944464 0.0010132337970755218 0 -0.0044985190285240445 1.3621915387415029e-06 0 0.0018471234386944464 0.0010132337970755218 0 0.0018065898998141006 1.3246522403632488e-06 0 -0.0033615834446122745 0.00071384061693252328 0 -0.0044985190285240445 1.3621915387415029e-06 0 -0.0068256044239234474 0.00069971425327722411 0 -0.0044985190285240445 1.3621915387415029e-06 0 -0.0068256044239234474 0.00069971425327722411 0 -0.010806058221679004 3.5118926734352104e-06 0 -0.0039038283010945723 0.00097435727847695951 0 -0.0033615834446122745 0.00071384061693252328 0 -0.0068256044239234474 0.00069971425327722411 0 -0.0068256044239234474 0.00069971425327722411 0 -0.010085221268615654 0.00033632257093027334 0 -0.0070428442724712057 0.00024644438933798006 0 -0.0056577898399407219 0.0005820127086820252 0 -0.0068256044239234474 0.00069971425327722411 0 -0.0070428442724712057 0.00024644438933798006 0 -0.0068256044239234474 0.00069971425327722411 0 -0.010806058221679004 3.5118926734352104e-06 0 -0.010085221268615654 0.00033632257093027334 0 -0.010806058221679004 3.5118926734352104e-06 0 -0.017101311510440084 -7.3114421632291975e-06 0 -0.010085221268615654 0.00033632257093027334 0 -0.017101311510440084 -7.3114421632291975e-06 0 -0.0087724231492227397 -0.0019465787782413583 0 -0.010085221268615654 0.00033632257093027334 0 -0.017123058233527576 2.3664699457553826e-07 0 -0.020620609688664058 0.0018544925847692919 0 -0.021391656437587083 0.0003192550755780711 0 -0.017110271705976083 1.840801886667965e-07 0 -0.014484169755906405 -0.00012924864184474922 0 -0.0087724231492227397 -0.0019465787782413583 0 -0.0080185529104898484 -0.00058052056517544871 0 -0.010085221268615654 0.00033632257093027334 0 -0.0080185529104898484 -0.00058052056517544871 0 -0.010085221268615654 0.00033632257093027334 0 -0.0070428442724712057 0.00024644438933798006 0 -0.0070428442724712057 0.00024644438933798006 0 -0.0073851326755100862 -0.0001384601038035647 0 -0.0066073456539557183 0.00013442673215060757 0 -0.0058023393023982099 0.00027582300785326575 0 -0.0070428442724712057 0.00024644438933798006 0 -0.0066073456539557183 0.00013442673215060757 0 -0.0073851326755100862 -0.0001384601038035647 0 -0.0066073456539557183 0.00013442673215060757 0 -0.0073348414111655286 0.00025990279623207556 0 -0.0080185529104898484 -0.00058052056517544871 0 -0.0070428442724712057 0.00024644438933798006 0 -0.0073851326755100862 -0.0001384601038035647 0 -0.0080185529104898484 -0.00058052056517544871 0 -0.0073851326755100862 -0.0001384601038035647 0 -0.0081024109214341434 -0.0003274526215939349 0 -0.0057048886444147871 0.00016658474144726286 0 -0.0056460295076588111 0.00018881146951333432 0 -0.0062895222952067831 0.0002998999518532605 0 -0.0052490541719161518 -7.7727511130970271e-06 0 -0.0057048886444147871 0.00016658474144726286 0 -0.0056460295076588111 0.00018881146951333432 0 -0.0058023393023982099 0.00027582300785326575 0 -0.0056460295076588111 0.00018881146951333432 0 -0.0062895222952067831 0.0002998999518532605 0 -0.0058023393023982099 0.00027582300785326575 0 -0.0066073456539557183 0.00013442673215060757 0 -0.0062895222952067831 0.0002998999518532605 0 -0.0066073456539557183 0.00013442673215060757 0 -0.0062895222952067831 0.0002998999518532605 0 -0.0073348414111655286 0.00025990279623207556 0 -0.0062895222952067831 0.0002998999518532605 0 -0.0066673884078948141 0.00046705476658707025 0 -0.0073348414111655286 0.00025990279623207556 0 -0.0062230377478545004 0.00067908750755780014 0 -0.0057048886444147871 0.00016658474144726286 0 -0.0062895222952067831 0.0002998999518532605 0 -0.0062230377478545004 0.00067908750755780014 0 -0.0062895222952067831 0.0002998999518532605 0 -0.0066673884078948141 0.00046705476658707025 0 -0.020750186627857811 0.00035780950348699835 0 -0.019398982049296777 0.0020156336623929553 0 -0.022408199495896959 0.00023990778811434698 0 -0.014520765532321588 0.00098131859683535621 0 -0.015416501104147459 0.00040030842247551127 0 -0.0062536666836386749 0.0019971578098045557 0 -0.0068648292146918036 0.00055322650567087635 0 -0.0077141415032729727 -0.0012742662183382488 0 -0.0068648292146918036 0.00055322650567087635 0 -0.0066673884078948141 0.00046705476658707025 0 -0.0073348414111655286 0.00025990279623207556 0 -0.0062230377478545004 0.00067908750755780014 0 -0.0068648292146918036 0.00055322650567087635 0 -0.0066673884078948141 0.00046705476658707025 0 -0.0068648292146918036 0.00055322650567087635 0 -0.0073348414111655286 0.00025990279623207556 0 -0.0076223534674950385 0.00018125405810285721 0 -0.0073348414111655286 0.00025990279623207556 0 -0.0079785951496208849 0.00026808478123770525 0 -0.0076223534674950385 0.00018125405810285721 0 -0.0068648292146918036 0.00055322650567087635 0 -0.0076223534674950385 0.00018125405810285721 0 -0.0077141415032729727 -0.0012742662183382488 0 -0.0079785951496208849 0.00026808478123770525 0 -0.0076223534674950385 0.00018125405810285721 0 -0.0087871966771266366 0.0005985381447019527 0 -0.0076223534674950385 0.00018125405810285721 0 -0.0087871966771266366 0.0005985381447019527 0 -0.0077141415032729727 -0.0012742662183382488 0 -0.0087724231492227397 -0.0019465787782413583 0 -0.0080185529104898484 -0.00058052056517544871 0 -0.0081024109214341434 -0.0003274526215939349 0 -0.014484169755906405 -0.00012924864184474922 0 -0.012699848489031907 -0.00022917858696403363 0 -0.020620609688664058 0.0018544925847692919 0 -0.0087871966771266366 0.0005985381447019527 0 -0.015028221960878095 7.1480322396787693e-05 0 -0.0087724231492227397 -0.0019465787782413583 0 -0.0081024109214341434 -0.0003274526215939349 0 -0.0087871966771266366 0.0005985381447019527 0 -0.0073348414111655286 0.00025990279623207556 0 -0.0079785951496208849 0.00026808478123770525 0 -0.0081024109214341434 -0.0003274526215939349 0 -0.0073851326755100862 -0.0001384601038035647 0 -0.0073348414111655286 0.00025990279623207556 0 -0.0081024109214341434 -0.0003274526215939349 0 -0.0087871966771266366 0.0005985381447019527 0 -0.015028221960878095 7.1480322396787693e-05 0 -0.0077141415032729727 -0.0012742662183382488 0 -0.0079785951496208849 0.00026808478123770525 0 -0.0081024109214341434 -0.0003274526215939349 0 -0.0087871966771266366 0.0005985381447019527 0 -0.015028221960878095 7.1480322396787693e-05 0 -0.0077141415032729727 -0.0012742662183382488 0 -0.021203026636356224 -0.0010447919280674909 0 -0.015416501104147459 0.00040030842247551127 0 -0.016746026901440943 -8.5341793111777365e-05 0 -0.022353105789424902 -0.00020037507844183078 0 -0.022408199495896959 0.00023990778811434698 0 -0.021203026636356224 -0.0010447919280674909 0 -0.020862247079264505 -0.00074033853467133661 0 -0.021908056857867744 -0.00027676827694457024 0 -0.021441835431110071 -9.696102824337061e-05 0 -0.020750186627857811 0.00035780950348699835 0 -0.022408199495896959 0.00023990778811434698 0 -0.021441835431110071 -9.696102824337061e-05 0 -0.022353105789424902 -0.00020037507844183078 0 -0.022408199495896959 0.00023990778811434698 0 -0.021908056857867744 -0.00027676827694457024 0 -0.022408199495896959 0.00023990778811434698 0 -0.021908056857867744 -0.00027676827694457024 0 -0.021441835431110071 -9.696102824337061e-05 0 -0.020862247079264505 -0.00074033853467133661 0 -0.021908056857867744 -0.00027676827694457024 0 -0.021529921825428729 -0.00070953401106854251 0 -0.021908056857867744 -0.00027676827694457024 0 -0.021529921825428729 -0.00070953401106854251 0 -0.022481366031113979 -0.00028022625283199244 0 -0.022353105789424902 -0.00020037507844183078 0 -0.022791088295930826 -4.9983293445013032e-05 0 -0.021203026636356224 -0.0010447919280674909 0 -0.022353105789424902 -0.00020037507844183078 0 -0.022481366031113979 -0.00028022625283199244 0 -0.022791088295930826 -4.9983293445013032e-05 0 -0.022353105789424902 -0.00020037507844183078 0 -0.021908056857867744 -0.00027676827694457024 0 -0.022481366031113979 -0.00028022625283199244 0 -0.023432920706210395 -0.00027099970797667534 0 -0.022481366031113979 -0.00028022625283199244 0 -0.022791088295930826 -4.9983293445013032e-05 0 -0.024409662001745151 5.8988965761289513e-06 0 -0.022791088295930826 -4.9983293445013032e-05 0 -0.023290019496712208 1.3353284023337261e-05 0 -0.022791088295930826 -4.9983293445013032e-05 0 -0.023290019496712208 1.3353284023337261e-05 0 -0.021203026636356224 -0.0010447919280674909 0 -0.028987355583101101 2.2546815176601148e-06 0 -0.023048292873181473 4.330171629739165e-07 0 -0.023290019496712208 1.3353284023337261e-05 0 -0.023048292873181473 4.330171629739165e-07 0 -0.023290019496712208 1.3353284023337261e-05 0 -0.021391656437587083 0.0003192550755780711 0 -0.017123058233527576 2.3664699457553826e-07 0 -0.023048292873181473 4.330171629739165e-07 0 -0.021391656437587083 0.0003192550755780711 0 -0.020620609688664058 0.0018544925847692919 0 -0.015028221960878095 7.1480322396787693e-05 0 -0.021203026636356224 -0.0010447919280674909 0 -0.020620609688664058 0.0018544925847692919 0 -0.021391656437587083 0.0003192550755780711 0 -0.021203026636356224 -0.0010447919280674909 0 -0.023290019496712208 1.3353284023337261e-05 0 -0.021391656437587083 0.0003192550755780711 0 -0.021203026636356224 -0.0010447919280674909 0 -0.034374322509287257 0.004941060607574402 0 -0.034294135813303428 0.0063691893308803855 0 -0.033370390829989029 0.0047805709654475323 0 -0.033622460755036283 0.0059625723360756718 0 -0.034675272108521352 0.0065542890086550849 0 -0.033723075638407089 0.0047423294496314371 0 -0.034249394876641366 0.0062042045832871387 0 -0.033530784416347333 0.0047851258010336746 0 -0.034374322509287257 0.004941060607574402 0 -0.034880124606260804 0.0056551785073449129 0 -0.034294135813303428 0.0063691893308803855 0 -0.034374322509287257 0.004941060607574402 0 -0.035229727333787611 0.0048658362551268599 0 -0.034880124606260804 0.0056551785073449129 0 -0.034880124606260804 0.0056551785073449129 0 -0.035213366674493325 0.006577115102940157 0 -0.034294135813303428 0.0063691893308803855 0 -0.034880124606260804 0.0056551785073449129 0 -0.035213366674493325 0.006577115102940157 0 -0.036351745394365059 0.0066328714418281021 0 -0.035213366674493325 0.006577115102940157 0 -0.034294135813303428 0.0063691893308803855 0 -0.035408946177685169 0.0080633320626941601 0 -0.035213366674493325 0.006577115102940157 0 -0.036351745394365059 0.0066328714418281021 0 -0.035825373558300566 0.0070871486761411419 0 -0.033622460755036283 0.0059625723360756718 0 -0.034656783202194952 0.0069996070888758734 0 -0.032430678446793121 0.0063258926897121689 0 -0.033622460755036283 0.0059625723360756718 0 -0.034656783202194952 0.0069996070888758734 0 -0.034675272108521352 0.0065542890086550849 0 -0.034656783202194952 0.0069996070888758734 0 -0.032430678446793121 0.0063258926897121689 0 -0.032401032464509816 0.0080901075299451859 0 -0.032430678446793121 0.0063258926897121689 0 -0.031041808043749727 0.0053826702521539427 0 -0.030729614910379434 0.0065558389334960188 0 -0.032430678446793121 0.0063258926897121689 0 -0.032401032464509816 0.0080901075299451859 0 -0.030729614910379434 0.0065558389334960188 0 -0.031041808043749727 0.0053826702521539427 0 -0.032646875873599213 0.0051741224664636036 0 -0.031676371742474459 0.0045544206598840944 0 -0.032430678446793121 0.0063258926897121689 0 -0.031041808043749727 0.0053826702521539427 0 -0.032646875873599213 0.0051741224664636036 0 -0.033622460755036283 0.0059625723360756718 0 -0.032430678446793121 0.0063258926897121689 0 -0.032646875873599213 0.0051741224664636036 0 -0.033622460755036283 0.0059625723360756718 0 -0.032646875873599213 0.0051741224664636036 0 -0.033723075638407089 0.0047423294496314371 0 -0.032646875873599213 0.0051741224664636036 0 -0.032770597226720245 0.0030650357299735072 0 -0.033723075638407089 0.0047423294496314371 0 -0.032646875873599213 0.0051741224664636036 0 -0.031676371742474459 0.0045544206598840944 0 -0.032770597226720245 0.0030650357299735072 0 -0.032814659344598519 0.003398243686731688 0 -0.033530784416347333 0.0047851258010336746 0 -0.031676371742474459 0.0045544206598840944 0 -0.031646977932338623 0.0035139759892635256 0 -0.029866042335682724 0.0046424711178418704 0 -0.031676371742474459 0.0045544206598840944 0 -0.031646977932338623 0.0035139759892635256 0 -0.032770597226720245 0.0030650357299735072 0 -0.031646977932338623 0.0035139759892635256 0 -0.031579625573921279 0.0025618365861610403 0 -0.030952710687038094 0.0027743208218453013 0 -0.031646977932338623 0.0035139759892635256 0 -0.031579625573921279 0.0025618365861610403 0 -0.032770597226720245 0.0030650357299735072 0 -0.03246065060746179 0.0032168208324111101 0 -0.033316102225579639 0.0027301229454415742 0 -0.033794668367729624 0.0037127610323244332 0 -0.033316102225579639 0.0027301229454415742 0 -0.033794668367729624 0.0037127610323244332 0 -0.034171705059632768 0.0027013075399764282 0 -0.034374322509287257 0.004941060607574402 0 -0.033794668367729624 0.0037127610323244332 0 -0.033370390829989029 0.0047805709654475323 0 -0.03246065060746179 0.0032168208324111101 0 -0.033794668367729624 0.0037127610323244332 0 -0.033370390829989029 0.0047805709654475323 0 -0.034374322509287257 0.004941060607574402 0 -0.033794668367729624 0.0037127610323244332 0 -0.034676780532040402 0.0041855779321126902 0 -0.035229727333787611 0.0048658362551268599 0 -0.034676780532040402 0.0041855779321126902 0 -0.035554263733201759 0.0041482694978338189 0 -0.034374322509287257 0.004941060607574402 0 -0.035229727333787611 0.0048658362551268599 0 -0.034676780532040402 0.0041855779321126902 0 -0.033794668367729624 0.0037127610323244332 0 -0.034676780532040402 0.0041855779321126902 0 -0.034768431121875908 0.0033911105712386967 0 -0.034676780532040402 0.0041855779321126902 0 -0.034768431121875908 0.0033911105712386967 0 -0.035554263733201759 0.0041482694978338189 0 -0.033794668367729624 0.0037127610323244332 0 -0.034768431121875908 0.0033911105712386967 0 -0.034171705059632768 0.0027013075399764282 0 -0.034768431121875908 0.0033911105712386967 0 -0.034171705059632768 0.0027013075399764282 0 -0.03503558328105788 0.0025088133278093889 0 -0.034768431121875908 0.0033911105712386967 0 -0.03503558328105788 0.0025088133278093889 0 -0.035662722486833817 0.0030364143376896842 0 -0.035662722486833817 0.0030364143376896842 0 -0.035628963959476609 0.0020737880845901695 0 -0.036188069152226401 0.0024198464758620969 0 -0.03503558328105788 0.0025088133278093889 0 -0.035662722486833817 0.0030364143376896842 0 -0.035628963959476609 0.0020737880845901695 0 -0.034768431121875908 0.0033911105712386967 0 -0.035662722486833817 0.0030364143376896842 0 -0.035554263733201759 0.0041482694978338189 0 -0.035662722486833817 0.0030364143376896842 0 -0.036721245107789839 0.0029123100992878978 0 -0.036405824807243289 0.0038560942981141623 0 -0.035662722486833817 0.0030364143376896842 0 -0.036721245107789839 0.0029123100992878978 0 -0.036188069152226401 0.0024198464758620969 0 -0.036721245107789839 0.0029123100992878978 0 -0.037331392692042706 0.0037183484194005891 0 -0.037918213512071058 0.002298646863621156 0 -0.036721245107789839 0.0029123100992878978 0 -0.037918213512071058 0.002298646863621156 0 -0.036870618076172812 0.0021115546700875422 0 -0.036721245107789839 0.0029123100992878978 0 -0.036870618076172812 0.0021115546700875422 0 -0.036188069152226401 0.0024198464758620969 0 -0.036721245107789839 0.0029123100992878978 0 -0.037331392692042706 0.0037183484194005891 0 -0.036405824807243289 0.0038560942981141623 0 -0.037331392692042706 0.0037183484194005891 0 -0.038138652683278929 0.0044483841638726816 0 -0.036574747858136573 0.0053430562494431143 0 -0.037331392692042706 0.0037183484194005891 0 -0.036405824807243289 0.0038560942981141623 0 -0.036574747858136573 0.0053430562494431143 0 -0.035229727333787611 0.0048658362551268599 0 -0.035554263733201759 0.0041482694978338189 0 -0.036574747858136573 0.0053430562494431143 0 -0.035554263733201759 0.0041482694978338189 0 -0.036405824807243289 0.0038560942981141623 0 -0.036574747858136573 0.0053430562494431143 0 -0.035662722486833817 0.0030364143376896842 0 -0.035554263733201759 0.0041482694978338189 0 -0.036405824807243289 0.0038560942981141623 0 -0.040302225487757595 0.0020982941747192834 0 -0.038807751914861736 0.0027893308679256385 0 -0.037918213512071058 0.002298646863621156 0 -0.040302225487757595 0.0020982941747192834 0 -0.039630981452546885 0.0028941994843036428 0 -0.038807751914861736 0.0027893308679256385 0 -0.040287857136420933 0.0032926602898275654 0 -0.039630981452546885 0.0028941994843036428 0 -0.039139773884523159 0.003397081093601235 0 -0.040302225487757595 0.0020982941747192834 0 -0.040287857136420933 0.0032926602898275654 0 -0.039630981452546885 0.0028941994843036428 0 -0.039630981452546885 0.0028941994843036428 0 -0.039139773884523159 0.003397081093601235 0 -0.038807751914861736 0.0027893308679256385 0 -0.037331392692042706 0.0037183484194005891 0 -0.038256661761807309 0.0035035271211429405 0 -0.037918213512071058 0.002298646863621156 0 -0.039139773884523159 0.003397081093601235 0 -0.038256661761807309 0.0035035271211429405 0 -0.038807751914861736 0.0027893308679256385 0 -0.038256661761807309 0.0035035271211429405 0 -0.038807751914861736 0.0027893308679256385 0 -0.037918213512071058 0.002298646863621156 0 -0.037331392692042706 0.0037183484194005891 0 -0.038256661761807309 0.0035035271211429405 0 -0.038138652683278929 0.0044483841638726816 0 -0.038138652683278929 0.0044483841638726816 0 -0.038708614662581665 0.0045089983339617109 0 -0.03880330713542645 0.0040709460934698983 0 -0.038138652683278929 0.0044483841638726816 0 -0.038675708441261177 0.0050307654398058146 0 -0.038700069603304355 0.0049116275719641687 0 -0.038138652683278929 0.0044483841638726816 0 -0.038708614662581665 0.0045089983339617109 0 -0.038700069603304355 0.0049116275719641687 0 -0.038892299178133423 0.0047137274499556353 0 -0.038708614662581665 0.0045089983339617109 0 -0.038700069603304355 0.0049116275719641687 0 -0.039139773884523159 0.003397081093601235 0 -0.038256661761807309 0.0035035271211429405 0 -0.03880330713542645 0.0040709460934698983 0 -0.038256661761807309 0.0035035271211429405 0 -0.038138652683278929 0.0044483841638726816 0 -0.03880330713542645 0.0040709460934698983 0 -0.040723178763736601 0.0047548060075839633 0 -0.040287857136420933 0.0032926602898275654 0 -0.039604913783505169 0.0040211939855144645 0 -0.040915424509437866 0.0049334474515458316 0 -0.039289676734832565 0.0053001670895846424 0 -0.040723178763736601 0.0047548060075839633 0 -0.03922808599338555 0.0045151264835929135 0 -0.038673906565779424 0.0050518753615549153 0 -0.040723178763736601 0.0047548060075839633 0 -0.03922808599338555 0.0045151264835929135 0 -0.039604913783505169 0.0040211939855144645 0 -0.039139773884523159 0.003397081093601235 0 -0.03880330713542645 0.0040709460934698983 0 -0.039604913783505169 0.0040211939855144645 0 -0.03880330713542645 0.0040709460934698983 0 -0.03922808599338555 0.0045151264835929135 0 -0.039604913783505169 0.0040211939855144645 0 -0.038708614662581665 0.0045089983339617109 0 -0.03880330713542645 0.0040709460934698983 0 -0.03922808599338555 0.0045151264835929135 0 -0.038892299178133423 0.0047137274499556353 0 -0.03922808599338555 0.0045151264835929135 0 -0.038673906565779424 0.0050518753615549153 0 -0.038892299178133423 0.0047137274499556353 0 -0.038708614662581665 0.0045089983339617109 0 -0.03922808599338555 0.0045151264835929135 0 -0.040287857136420933 0.0032926602898275654 0 -0.039139773884523159 0.003397081093601235 0 -0.039604913783505169 0.0040211939855144645 0 -0.041386459248189997 0.0050264552531542736 0 -0.040726603475839146 0.0059837479206561062 0 -0.040256874982141443 0.0055111089340422669 0 -0.040726603475839146 0.0059837479206561062 0 -0.040256874982141443 0.0055111089340422669 0 -0.04042008617112456 0.006058585243508113 0 -0.039333749216389623 0.0047910718412342334 0 -0.038391748130278985 0.0057520754486319924 0 -0.038959270620843631 0.0067805564131486014 0 -0.039333749216389623 0.0047910718412342334 0 -0.038391748130278985 0.0057520754486319924 0 -0.037257394054608817 0.0051739870854308487 0 -0.038138652683278929 0.0044483841638726816 0 -0.038675708441261177 0.0050307654398058146 0 -0.036574747858136573 0.0053430562494431143 0 -0.039289676734832565 0.0053001670895846424 0 -0.039347505143055912 0.006695803046705538 0 -0.038892299178133423 0.0047137274499556353 0 -0.038673906565779424 0.0050518753615549153 0 -0.038700069603304355 0.0049116275719641687 0 -0.039289676734832565 0.0053001670895846424 0 -0.039289186394933326 0.0052990518648658759 0 -0.040256874982141443 0.0055111089340422669 0 -0.040269635706109294 0.0064350149917412613 0 -0.04042008617112456 0.006058585243508113 0 -0.038391748130278985 0.0057520754486319924 0 -0.038959270620843631 0.0067805564131486014 0 -0.037825708261107351 0.0065832301588980707 0 -0.040269635706109294 0.0064350149917412613 0 -0.04046233104101768 0.0062677264077147634 0 -0.040637508951336353 0.0064745515689943762 0 -0.040269635706109294 0.0064350149917412613 0 -0.04042008617112456 0.006058585243508113 0 -0.04046233104101768 0.0062677264077147634 0 -0.041550077589119008 0.0068554280660656011 0 -0.040726603475839146 0.0059837479206561062 0 -0.040885101909178601 0.0081047158786346201 0 -0.041806818832159275 0.0069466850801151343 0 -0.042252724419680067 0.0077718426267705644 0 -0.040726603475839146 0.0059837479206561062 0 -0.040637508951336353 0.0064745515689943762 0 -0.041019483281621992 0.0066790311323884468 0 -0.040726603475839146 0.0059837479206561062 0 -0.04046233104101768 0.0062677264077147634 0 -0.040637508951336353 0.0064745515689943762 0 -0.040726603475839146 0.0059837479206561062 0 -0.04042008617112456 0.006058585243508113 0 -0.04046233104101768 0.0062677264077147634 0 -0.034880124606260804 0.0056551785073449129 0 -0.037257394054608817 0.0051739870854308487 0 -0.036351745394365059 0.0066328714418281021 0 -0.035229727333787611 0.0048658362551268599 0 -0.034880124606260804 0.0056551785073449129 0 -0.036574747858136573 0.0053430562494431143 0 -0.036137093105284672 0.0056142095002589499 0 -0.037221985265939624 0.0054676997206601291 0 -0.039289676734832565 0.0053001670895846424 0 -0.037221985265939624 0.0054676997206601291 0 -0.038391748130278985 0.0057520754486319924 0 -0.037257394054608817 0.0051739870854308487 0 -0.037825708261107351 0.0065832301588980707 0 -0.037825708261107351 0.0065832301588980707 0 -0.036351745394365059 0.0066328714418281021 0 -0.037219223139942116 0.0075936238068678372 0 -0.037257394054608817 0.0051739870854308487 0 -0.037825708261107351 0.0065832301588980707 0 -0.036351745394365059 0.0066328714418281021 0 -0.038959270620843631 0.0067805564131486014 0 -0.037825708261107351 0.0065832301588980707 0 -0.038040295302175696 0.0076087659965820564 0 -0.036242160168463024 0.0076939278136331554 0 -0.03658291520912417 0.008565627819984864 0 -0.035408946177685169 0.0080633320626941601 0 -0.036351745394365059 0.0066328714418281021 0 -0.036242160168463024 0.0076939278136331554 0 -0.035825373558300566 0.0070871486761411419 0 -0.036242160168463024 0.0076939278136331554 0 -0.037219223139942116 0.0075936238068678372 0 -0.03658291520912417 0.008565627819984864 0 -0.036351745394365059 0.0066328714418281021 0 -0.036242160168463024 0.0076939278136331554 0 -0.037219223139942116 0.0075936238068678372 0 -0.037825708261107351 0.0065832301588980707 0 -0.037219223139942116 0.0075936238068678372 0 -0.038040295302175696 0.0076087659965820564 0 -0.037219223139942116 0.0075936238068678372 0 -0.038040295302175696 0.0076087659965820564 0 -0.037602021695389752 0.0083948209177556743 0 -0.037602021695389752 0.0083948209177556743 0 -0.038589831154384739 0.0086396907025841716 0 -0.037462760768292407 0.0093570693820058913 0 -0.038040295302175696 0.0076087659965820564 0 -0.037602021695389752 0.0083948209177556743 0 -0.038589831154384739 0.0086396907025841716 0 -0.037602021695389752 0.0083948209177556743 0 -0.03658291520912417 0.008565627819984864 0 -0.037462760768292407 0.0093570693820058913 0 -0.03658291520912417 0.008565627819984864 0 -0.03639984960027174 0.0097414461398680798 0 -0.035471763578096456 0.0091558449421564308 0 -0.037219223139942116 0.0075936238068678372 0 -0.037602021695389752 0.0083948209177556743 0 -0.03658291520912417 0.008565627819984864 0 -0.04224020054310676 0.008167944888147087 0 -0.040875280890289689 0.0075097911876332432 0 -0.041848506223419242 0.0069595199243624251 0 -0.040637508951336353 0.0064745515689943762 0 -0.040875280890289689 0.0075097911876332432 0 -0.041848506223419242 0.0069595199243624251 0 -0.04175612329879369 0.0074595424237299136 0 -0.042252724419680067 0.0077718426267705644 0 -0.039347505143055912 0.006695803046705538 0 -0.039198528669529616 0.008446753991100878 0 -0.040269635706109294 0.0064350149917412613 0 -0.040637508951336353 0.0064745515689943762 0 -0.040875280890289689 0.0075097911876332432 0 -0.040269635706109294 0.0064350149917412613 0 -0.040875280890289689 0.0075097911876332432 0 -0.040011311031848684 0.0081014419231035962 0 -0.038959270620843631 0.0067805564131486014 0 -0.038040295302175696 0.0076087659965820564 0 -0.038589831154384739 0.0086396907025841716 0 -0.040875280890289689 0.0075097911876332432 0 -0.040011311031848684 0.0081014419231035962 0 -0.041432387453699468 0.0085665783253768227 0 -0.04224020054310676 0.008167944888147087 0 -0.040875280890289689 0.0075097911876332432 0 -0.041432387453699468 0.0085665783253768227 0 -0.04256628338252591 0.0093507404502158123 0 -0.041432387453699468 0.0085665783253768227 0 -0.041358718638031915 0.0096469730015655009 0 -0.043414762514741863 0.010103740273740593 0 -0.042824483018685404 0.010104836212218275 0 -0.040011311031848684 0.0081014419231035962 0 -0.041432387453699468 0.0085665783253768227 0 -0.041358718638031915 0.0096469730015655009 0 -0.039198528669529616 0.008446753991100878 0 -0.038958099951618731 0.0103959226866112 0 -0.040011311031848684 0.0081014419231035962 0 -0.041358718638031915 0.0096469730015655009 0 -0.039580932288348032 0.010132270153817157 0 -0.041358718638031915 0.0096469730015655009 0 -0.040600230206976638 0.011352362589334098 0 -0.039580932288348032 0.010132270153817157 0 -0.039057018589049225 0.012602794907660374 0 -0.040600230206976638 0.011352362589334098 0 -0.039580932288348032 0.010132270153817157 0 -0.041358718638031915 0.0096469730015655009 0 -0.040600230206976638 0.011352362589334098 0 -0.042246279413552509 0.011137697470345563 0 -0.043419792794020036 0.0091647953355421617 0 -0.041358718638031915 0.0096469730015655009 0 -0.042246279413552509 0.011137697470345563 0 -0.03658291520912417 0.008565627819984864 0 -0.03639984960027174 0.0097414461398680798 0 -0.037462760768292407 0.0093570693820058913 0 -0.03639984960027174 0.0097414461398680798 0 -0.037462760768292407 0.0093570693820058913 0 -0.037286517712431723 0.010596020527873274 0 -0.037462760768292407 0.0093570693820058913 0 -0.038410157892797496 0.010356286763760254 0 -0.037286517712431723 0.010596020527873274 0 -0.038589831154384739 0.0086396907025841716 0 -0.037462760768292407 0.0093570693820058913 0 -0.038410157892797496 0.010356286763760254 0 -0.038685769066681495 0.012421173180445449 0 -0.038958099951618731 0.0103959226866112 0 -0.038440713386431402 0.012324076441097696 0 -0.038410157892797496 0.010356286763760254 0 -0.037286517712431723 0.010596020527873274 0 -0.036843486690033268 0.011466092943891053 0 -0.037286517712431723 0.010596020527873274 0 -0.03631058354506804 0.010641916339441719 0 -0.03639984960027174 0.0097414461398680798 0 -0.037286517712431723 0.010596020527873274 0 -0.03631058354506804 0.010641916339441719 0 -0.036843486690033268 0.011466092943891053 0 -0.03631058354506804 0.010641916339441719 0 -0.035980849653493852 0.011171499121185055 0 -0.03639984960027174 0.0097414461398680798 0 -0.03631058354506804 0.010641916339441719 0 -0.035334535637937384 0.01045410818993717 0 -0.03631058354506804 0.010641916339441719 0 -0.035980849653493852 0.011171499121185055 0 -0.035334535637937384 0.01045410818993717 0 -0.035381383546413278 0.011236027111997745 0 -0.035334535637937384 0.01045410818993717 0 -0.035010886486560297 0.0110414583745233 0 -0.035381383546413278 0.011236027111997745 0 -0.035980849653493852 0.011171499121185055 0 -0.035334535637937384 0.01045410818993717 0 -0.035334535637937384 0.01045410818993717 0 -0.034481693661321845 0.010704009102907929 0 -0.034715256998105334 0.0097386092758522131 0 -0.034643491429456559 0.011239004950030197 0 -0.034481693661321845 0.010704009102907929 0 -0.035010886486560297 0.0110414583745233 0 -0.035334535637937384 0.01045410818993717 0 -0.034481693661321845 0.010704009102907929 0 -0.035010886486560297 0.0110414583745233 0 -0.03639984960027174 0.0097414461398680798 0 -0.035334535637937384 0.01045410818993717 0 -0.035471763578096456 0.0091558449421564308 0 -0.035334535637937384 0.01045410818993717 0 -0.034715256998105334 0.0097386092758522131 0 -0.035471763578096456 0.0091558449421564308 0 -0.03658291520912417 0.008565627819984864 0 -0.035471763578096456 0.0091558449421564308 0 -0.035408946177685169 0.0080633320626941601 0 -0.035471763578096456 0.0091558449421564308 0 -0.034534600759189425 0.0083456889951987086 0 -0.035408946177685169 0.0080633320626941601 0 -0.034715256998105334 0.0097386092758522131 0 -0.035471763578096456 0.0091558449421564308 0 -0.034534600759189425 0.0083456889951987086 0 -0.034715256998105334 0.0097386092758522131 0 -0.034534600759189425 0.0083456889951987086 0 -0.033801413461359127 0.0090684158427238055 0 -0.034656783202194952 0.0069996070888758734 0 -0.034534600759189425 0.0083456889951987086 0 -0.035408946177685169 0.0080633320626941601 0 -0.034656783202194952 0.0069996070888758734 0 -0.034534600759189425 0.0083456889951987086 0 -0.033318935771812712 0.007933474258889725 0 -0.034249394876641366 0.0062042045832871387 0 -0.034629038426130382 0.0069706464871334799 0 -0.034656783202194952 0.0069996070888758734 0 -0.034675272108521352 0.0065542890086550849 0 -0.035408946177685169 0.0080633320626941601 0 -0.035213366674493325 0.006577115102940157 0 -0.035825373558300566 0.0070871486761411419 0 -0.035408946177685169 0.0080633320626941601 0 -0.036242160168463024 0.0076939278136331554 0 -0.035825373558300566 0.0070871486761411419 0 -0.035408946177685169 0.0080633320626941601 0 -0.033318935771812712 0.007933474258889725 0 -0.033801413461359127 0.0090684158427238055 0 -0.031380071550502389 0.0088243518618391081 0 -0.032401032464509816 0.0080901075299451859 0 -0.030903984753045663 0.007863898092113469 0 -0.030729614910379434 0.0065558389334960188 0 -0.033733091126508623 0.0074678915813348595 0 -0.032723386069885625 0.0080233319676192537 0 -0.034534600759189425 0.0083456889951987086 0 -0.033318935771812712 0.007933474258889725 0 -0.033801413461359127 0.0090684158427238055 0 -0.032723386069885625 0.0080233319676192537 0 -0.031014360765748039 0.0089467039060333528 0 -0.032401032464509816 0.0080901075299451859 0 -0.030903984753045663 0.007863898092113469 0 -0.030514451685212569 0.0090300736491987273 0 -0.033801413461359127 0.0090684158427238055 0 -0.033420893963938665 0.010232367769241838 0 -0.031380071550502389 0.0088243518618391081 0 -0.034481693661321845 0.010704009102907929 0 -0.034715256998105334 0.0097386092758522131 0 -0.033420893963938665 0.010232367769241838 0 -0.034715256998105334 0.0097386092758522131 0 -0.033801413461359127 0.0090684158427238055 0 -0.033420893963938665 0.010232367769241838 0 -0.033884201529707385 0.011292951525787066 0 -0.034481693661321845 0.010704009102907929 0 -0.033420893963938665 0.010232367769241838 0 -0.033884201529707385 0.011292951525787066 0 -0.033420893963938665 0.010232367769241838 0 -0.033113154803265647 0.01096076310761346 0 -0.033420893963938665 0.010232367769241838 0 -0.033113154803265647 0.01096076310761346 0 -0.032663511935745224 0.010672037725332647 0 -0.032615565070165491 0.0094703673327121221 0 -0.032314773367266021 0.0091513234158628696 0 -0.032647731924394248 0.011088666415892743 0 -0.033113154803265647 0.01096076310761346 0 -0.032663511935745224 0.010672037725332647 0 -0.033420893963938665 0.010232367769241838 0 -0.030981972187911051 0.010910492302768932 0 -0.031380071550502389 0.0088243518618391081 0 -0.030981972187911051 0.010910492302768932 0 -0.028863531069166198 0.01007423356651274 0 -0.031380071550502389 0.0088243518618391081 0 -0.029926220945622653 0.0095438846266212626 0 -0.031014360765748039 0.0089467039060333528 0 -0.032434705238266838 0.011050266718689274 0 -0.032663511935745224 0.010672037725332647 0 -0.032142883436043275 0.010853805662337632 0 -0.030981972187911051 0.010910492302768932 0 -0.02832750400389393 0.011438617845776652 0 -0.028863531069166198 0.01007423356651274 0 -0.032434705238266838 0.011050266718689274 0 -0.032647731924394248 0.011088666415892743 0 -0.032663511935745224 0.010672037725332647 0 -0.032314773367266021 0.0091513234158628696 0 -0.035608204668386004 0.0069069301509746403 0 -0.032016891792923427 0.0039579744636655655 0 -0.03275241011665208 0.0044095671382485789 0 -0.032221792260228706 0.0049425398856080731 0 -0.032016891792923427 0.0039579744636655655 0 -0.033061089335946099 0.0037204937795364684 0 -0.03275241011665208 0.0044095671382485789 0 -0.035608204668386004 0.0069069301509746403 0 -0.037469675330717024 0.0038210067731753723 0 -0.03275241011665208 0.0044095671382485789 0 -0.032987920293483949 0.0051193640953644155 0 -0.032221792260228706 0.0049425398856080731 0 -0.02832750400389393 0.011438617845776652 0 -0.028022196870245757 0.0096553025364650748 0 -0.028863531069166198 0.01007423356651274 0 -0.028022196870245757 0.0096553025364650748 0 -0.028863531069166198 0.01007423356651274 0 -0.028976654257984701 0.0087073280974717341 0 -0.035608204668386004 0.0069069301509746403 0 -0.032222978258161061 0.0065180908550260281 0 -0.028022196870245757 0.0096553025364650748 0 -0.027689754924825682 0.0082124806988990943 0 -0.028976654257984701 0.0087073280974717341 0 -0.027689754924825682 0.0082124806988990943 0 -0.028976654257984701 0.0087073280974717341 0 -0.028774693376876583 0.0064867015965386519 0 -0.032222978258161061 0.0065180908550260281 0 -0.029537566210047338 0.0052717839907320376 0 -0.032987920293483949 0.0051193640953644155 0 -0.032221792260228706 0.0049425398856080731 0 -0.032425757528612459 0.0059285500190928275 0 -0.030170720959333246 0.004146120248541013 0 -0.029537566210047338 0.0052717839907320376 0 -0.022956295060906112 0.00055753385908188498 0 -0.022573285029513088 0.0011355499264972522 0 -0.023188521699827037 0.0010339988229639708 0 -0.029537566210047338 0.0052717839907320376 0 -0.025817211538314386 0.0034490868580835973 0 -0.022573285029513088 0.0011355499264972522 0 -0.023268480433041451 0.0015916962470580724 0 -0.022780921586990872 0.002084848128484237 0 -0.022573285029513088 0.0011355499264972522 0 -0.023188521699827037 0.0010339988229639708 0 -0.023268480433041451 0.0015916962470580724 0 -0.029537566210047338 0.0052717839907320376 0 -0.029203126656918044 0.0056054091905611975 0 -0.029992909468398912 0.0077443590560459484 0 -0.028976654257984701 0.0087073280974717341 0 -0.028774693376876583 0.0064867015965386519 0 -0.030903984753045663 0.007863898092113469 0 -0.029992909468398912 0.0077443590560459484 0 -0.030729614910379434 0.0065558389334960188 0 -0.030903984753045663 0.007863898092113469 0 -0.029992909468398912 0.0077443590560459484 0 -0.030514451685212569 0.0090300736491987273 0 -0.028863531069166198 0.01007423356651274 0 -0.030514451685212569 0.0090300736491987273 0 -0.028976654257984701 0.0087073280974717341 0 -0.029992909468398912 0.0077443590560459484 0 -0.030514451685212569 0.0090300736491987273 0 -0.028976654257984701 0.0087073280974717341 0 -0.024790125320051089 -8.5923708493722251e-05 0 -0.024365354557843319 0.00032824074409029609 0 -0.025019619675646001 0.0003945993650315352 0 -0.02513633825320331 6.0608744297679512e-05 0 -0.024790125320051089 -8.5923708493722251e-05 0 -0.025019619675646001 0.0003945993650315352 0 -0.025203871472172158 -0.00037884213631194633 0 -0.02513633825320331 6.0608744297679512e-05 0 -0.024790125320051089 -8.5923708493722251e-05 0 -0.025203871472172158 -0.00037884213631194633 0 -0.024790125320051089 -8.5923708493722251e-05 0 -0.024929777707406647 -0.00055425828543999084 0 -0.025301491363114763 -0.0009106987669546294 0 -0.025203871472172158 -0.00037884213631194633 0 -0.024929777707406647 -0.00055425828543999084 0 -0.024693411044085553 -0.00069123390013081036 0 -0.024929777707406647 -0.00055425828543999084 0 -0.024645868556788773 -0.00045055804658381866 0 -0.024790125320051089 -8.5923708493722251e-05 0 -0.024929777707406647 -0.00055425828543999084 0 -0.024645868556788773 -0.00045055804658381866 0 -0.024790125320051089 -8.5923708493722251e-05 0 -0.024645868556788773 -0.00045055804658381866 0 -0.024355528238404162 -0.00027843428487640804 0 -0.024645868556788773 -0.00045055804658381866 0 -0.024459233653275379 -0.00063490923020959413 0 -0.024355528238404162 -0.00027843428487640804 0 -0.024693411044085553 -0.00069123390013081036 0 -0.024645868556788773 -0.00045055804658381866 0 -0.024459233653275379 -0.00063490923020959413 0 -0.024459233653275379 -0.00063490923020959413 0 -0.024216719560417693 -0.00059950388393229025 0 -0.024355528238404162 -0.00027843428487640804 0 -0.024216719560417693 -0.00059950388393229025 0 -0.024355528238404162 -0.00027843428487640804 0 -0.023927344567954735 -0.00038695252186656426 0 -0.024355528238404162 -0.00027843428487640804 0 -0.024365354557843319 0.00032824074409029609 0 -0.023971177835429243 -2.9260273870333649e-05 0 -0.024790125320051089 -8.5923708493722251e-05 0 -0.024355528238404162 -0.00027843428487640804 0 -0.024365354557843319 0.00032824074409029609 0 -0.023993485188102084 0.00064786538411446405 0 -0.023422992035910733 0.00026549953113007486 0 -0.023578488216789324 0.0008849753013184193 0 -0.024365354557843319 0.00032824074409029609 0 -0.023971177835429243 -2.9260273870333649e-05 0 -0.023422992035910733 0.00026549953113007486 0 -0.024159035311575906 0.00042582497073135646 0 -0.023796180518163797 0.00032909714231993842 0 -0.023971177835429243 -2.9260273870333649e-05 0 -0.023664467356743719 -5.131391628179824e-05 0 -0.023422992035910733 0.00026549953113007486 0 -0.035098778249342266 0.0020384035112484063 0 -0.031719284964978389 0.003335076431563931 0 -0.024355528238404162 -0.00027843428487640804 0 -0.023971177835429243 -2.9260273870333649e-05 0 -0.023927344567954735 -0.00038695252186656426 0 -0.023833843159499105 -0.00078597552138710901 0 -0.023927344567954735 -0.00038695252186656426 0 -0.023380215818071093 -0.00012913221540418622 0 -0.024045724922848517 -0.00082774008578633126 0 -0.024216719560417693 -0.00059950388393229025 0 -0.023927344567954735 -0.00038695252186656426 0 -0.023927344567954735 -0.00038695252186656426 0 -0.023664467356743719 -5.131391628179824e-05 0 -0.023380215818071093 -0.00012913221540418622 0 -0.023971177835429243 -2.9260273870333649e-05 0 -0.023927344567954735 -0.00038695252186656426 0 -0.023664467356743719 -5.131391628179824e-05 0 -0.034114215930999149 0.0034809519029946846 0 -0.033061089335946099 0.0037204937795364684 0 -0.033551189639647393 0.0043052282854145543 0 -0.033061089335946099 0.0037204937795364684 0 -0.03275241011665208 0.0044095671382485789 0 -0.033551189639647393 0.0043052282854145543 0 -0.030170720959333246 0.004146120248541013 0 -0.031719284964978389 0.003335076431563931 0 -0.022956295060906112 0.00055753385908188498 0 -0.023380215818071093 -0.00012913221540418622 0 -0.023422992035910733 0.00026549953113007486 0 -0.03275241011665208 0.0044095671382485789 0 -0.032987920293483949 0.0051193640953644155 0 -0.033551189639647393 0.0043052282854145543 0 -0.023664467356743719 -5.131391628179824e-05 0 -0.023380215818071093 -0.00012913221540418622 0 -0.023422992035910733 0.00026549953113007486 0 -0.022956295060906112 0.00055753385908188498 0 -0.023422992035910733 0.00026549953113007486 0 -0.023288182256372348 0.00069225377127915056 0 -0.023422992035910733 0.00026549953113007486 0 -0.023288182256372348 0.00069225377127915056 0 -0.023578488216789324 0.0008849753013184193 0 -0.022956295060906112 0.00055753385908188498 0 -0.023288182256372348 0.00069225377127915056 0 -0.023188521699827037 0.0010339988229639708 0 -0.023288182256372348 0.00069225377127915056 0 -0.023188521699827037 0.0010339988229639708 0 -0.023578488216789324 0.0008849753013184193 0 -0.023188521699827037 0.0010339988229639708 0 -0.02354136241801429 0.0012731114172733131 0 -0.023578488216789324 0.0008849753013184193 0 -0.023188521699827037 0.0010339988229639708 0 -0.023268480433041451 0.0015916962470580724 0 -0.02354136241801429 0.0012731114172733131 0 -0.023268480433041451 0.0015916962470580724 0 -0.02354136241801429 0.0012731114172733131 0 -0.023683833985184491 0.0016664249436243398 0 -0.02354136241801429 0.0012731114172733131 0 -0.023851046245063817 0.0012277329286158819 0 -0.023578488216789324 0.0008849753013184193 0 -0.02354136241801429 0.0012731114172733131 0 -0.023851046245063817 0.0012277329286158819 0 -0.023683833985184491 0.0016664249436243398 0 -0.023851046245063817 0.0012277329286158819 0 -0.023825433887533568 0.0016097042514481945 0 -0.023683833985184491 0.0016664249436243398 0 -0.023993485188102084 0.00064786538411446405 0 -0.023851046245063817 0.0012277329286158819 0 -0.023578488216789324 0.0008849753013184193 0 -0.023993485188102084 0.00064786538411446405 0 -0.023851046245063817 0.0012277329286158819 0 -0.024155108902564944 0.0010014584258799602 0 -0.023851046245063817 0.0012277329286158819 0 -0.024074934013230763 0.00143167280779916 0 -0.023825433887533568 0.0016097042514481945 0 -0.023851046245063817 0.0012277329286158819 0 -0.024155108902564944 0.0010014584258799602 0 -0.024074934013230763 0.00143167280779916 0 -0.024646563345802494 0.001151983858135852 0 -0.024155108902564944 0.0010014584258799602 0 -0.024074934013230763 0.00143167280779916 0 -0.024646563345802494 0.001151983858135852 0 -0.024155108902564944 0.0010014584258799602 0 -0.024453055118694608 0.0006997689621887638 0 -0.024159035311575906 0.00042582497073135646 0 -0.024719970481159179 0.0005593923573544514 0 -0.023993485188102084 0.00064786538411446405 0 -0.024155108902564944 0.0010014584258799602 0 -0.024453055118694608 0.0006997689621887638 0 -0.024650744817778358 0.0019382895481843989 0 -0.024074934013230763 0.00143167280779916 0 -0.023826236834567346 0.0020803201626400686 0 -0.024650744817778358 0.0019382895481843989 0 -0.024094415472509106 0.0024255641206059396 0 -0.023826236834567346 0.0020803201626400686 0 -0.023901608071965307 0.0018052530510416032 0 -0.023853731560061077 0.002036856008268102 0 -0.024074934013230763 0.00143167280779916 0 -0.023825433887533568 0.0016097042514481945 0 -0.02398045108206116 0.0020040969552183492 0 -0.02398045108206116 0.0020040969552183492 0 -0.023722282051916864 0.0018996044006561364 0 -0.023654730477446564 0.0022416283012569116 0 -0.023825433887533568 0.0016097042514481945 0 -0.02398045108206116 0.0020040969552183492 0 -0.023722282051916864 0.0018996044006561364 0 -0.023722282051916864 0.0018996044006561364 0 -0.023498831318256856 0.0020704573475828747 0 -0.023654730477446564 0.0022416283012569116 0 -0.023722282051916864 0.0018996044006561364 0 -0.023683833985184491 0.0016664249436243398 0 -0.023498831318256856 0.0020704573475828747 0 -0.023825433887533568 0.0016097042514481945 0 -0.023722282051916864 0.0018996044006561364 0 -0.023683833985184491 0.0016664249436243398 0 -0.023683833985184491 0.0016664249436243398 0 -0.023345312820428617 0.0024575638264446118 0 -0.023568168493606243 0.0034442500144605337 0 -0.023268480433041451 0.0015916962470580724 0 -0.023683833985184491 0.0016664249436243398 0 -0.023345312820428617 0.0024575638264446118 0 -0.023268480433041451 0.0015916962470580724 0 -0.023345312820428617 0.0024575638264446118 0 -0.022695996674031362 0.0024617625530089769 0 -0.023345312820428617 0.0024575638264446118 0 -0.023337461463392807 0.003043878451502086 0 -0.022695996674031362 0.0024617625530089769 0 -0.023635424298866652 0.0022283715615579553 0 -0.023584064888772086 0.0025296860024450361 0 -0.023345312820428617 0.0024575638264446118 0 -0.023337461463392807 0.003043878451502086 0 -0.023568168493606243 0.0034442500144605337 0 -0.023337461463392807 0.003043878451502086 0 -0.023568168493606243 0.0034442500144605337 0 -0.023456290551705207 0.0035417774930074351 0 -0.023568168493606243 0.0034442500144605337 0 -0.023468575324374751 0.0030230630079582837 0 -0.023456290551705207 0.0035417774930074351 0 -0.023498831318256856 0.0020704573475828747 0 -0.023534432837391404 0.0024585105228142829 0 -0.023654730477446564 0.0022416283012569116 0 -0.023584064888772086 0.0025296860024450361 0 -0.023617842657644869 0.002540201182667796 0 -0.023534432837391404 0.0024585105228142829 0 -0.023654730477446564 0.0022416283012569116 0 -0.023589209533114452 0.002442194988027098 0 -0.02398045108206116 0.0020040969552183492 0 -0.023654730477446564 0.0022416283012569116 0 -0.023787935281355654 0.0023562751987551761 0 -0.023853731560061077 0.002036856008268102 0 -0.023772578314174488 0.0023309979426759668 0 -0.023654730477446564 0.0022416283012569116 0 -0.023787935281355654 0.0023562751987551761 0 -0.023589209533114452 0.002442194988027098 0 -0.024094415472509106 0.0024255641206059396 0 -0.023689897995432013 0.002576561570284199 0 -0.023759393182016843 0.0026653216885817801 0 -0.024094415472509106 0.0024255641206059396 0 -0.023826236834567346 0.0020803201626400686 0 -0.023689897995432013 0.002576561570284199 0 -0.029135170354931097 0.0053179055967257924 0 -0.028989528352580674 0.0042179042417187368 0 -0.030003196584852537 0.0040980280098142528 0 -0.030729614910379434 0.0065558389334960188 0 -0.028774693376876583 0.0064867015965386519 0 -0.029866042335682724 0.0046424711178418704 0 -0.029203126656918044 0.0056054091905611975 0 -0.029950208250255895 0.0044166694978969231 0 -0.031041808043749727 0.0053826702521539427 0 -0.031676371742474459 0.0045544206598840944 0 -0.029866042335682724 0.0046424711178418704 0 -0.031041808043749727 0.0053826702521539427 0 -0.030729614910379434 0.0065558389334960188 0 -0.029866042335682724 0.0046424711178418704 0 -0.029992909468398912 0.0077443590560459484 0 -0.030729614910379434 0.0065558389334960188 0 -0.028774693376876583 0.0064867015965386519 0 -0.028315877249306353 0.0065082837284397193 0 -0.029135170354931097 0.0053179055967257924 0 -0.028022255101066873 0.0051846076511864233 0 -0.025275782270131456 0.0033632514440070246 0 -0.025817211538314386 0.0034490868580835973 0 -0.023337461463392807 0.003043878451502086 0 -0.022695996674031362 0.0024617625530089769 0 -0.023456290551705207 0.0035417774930074351 0 -0.025817211538314386 0.0034490868580835973 0 -0.025420693254853029 0.0032456528625454022 0 -0.023624942216010879 0.0043372537766229796 0 -0.023456290551705207 0.0035417774930074351 0 -0.024395515344459013 0.0037823882919904299 0 -0.029135170354931097 0.0053179055967257924 0 -0.028022255101066873 0.0051846076511864233 0 -0.028989528352580674 0.0042179042417187368 0 -0.025817211538314386 0.0034490868580835973 0 -0.02665527720142355 0.0035908719191602972 0 -0.024395515344459013 0.0037823882919904299 0 -0.023984215616878798 0.0033264474290616848 0 -0.024544649238438715 0.0033439361236815481 0 -0.023456290551705207 0.0035417774930074351 0 -0.024395515344459013 0.0037823882919904299 0 -0.023984215616878798 0.0033264474290616848 0 -0.023468575324374751 0.0030230630079582837 0 -0.023456290551705207 0.0035417774930074351 0 -0.023984215616878798 0.0033264474290616848 0 -0.023468575324374751 0.0030230630079582837 0 -0.023984215616878798 0.0033264474290616848 0 -0.024185346099291953 0.0028638065697566186 0 -0.023984215616878798 0.0033264474290616848 0 -0.024544649238438715 0.0033439361236815481 0 -0.024185346099291953 0.0028638065697566186 0 -0.024544649238438715 0.0033439361236815481 0 -0.024768855165152773 0.0029064673308840344 0 -0.024185346099291953 0.0028638065697566186 0 -0.024544649238438715 0.0033439361236815481 0 -0.025369412776084725 0.0036163943329968052 0 -0.024768855165152773 0.0029064673308840344 0 -0.02665527720142355 0.0035908719191602972 0 -0.027868732972504476 0.0030205886154776912 0 -0.028989528352580674 0.0042179042417187368 0 -0.030012204675053698 0.0031857144218870601 0 -0.030003196584852537 0.0040980280098142528 0 -0.024395515344459013 0.0037823882919904299 0 -0.024544649238438715 0.0033439361236815481 0 -0.025369412776084725 0.0036163943329968052 0 -0.030480057396043415 0.003602025106348738 0 -0.029950208250255895 0.0044166694978969231 0 -0.031646977932338623 0.0035139759892635256 0 -0.030952710687038094 0.0027743208218453013 0 -0.029866042335682724 0.0046424711178418704 0 -0.027868732972504476 0.0030205886154776912 0 -0.029327913050494557 0.0020240802714402138 0 -0.030952710687038094 0.0027743208218453013 0 -0.030012204675053698 0.0031857144218870601 0 -0.031116976156088372 0.0020705993723183543 0 -0.030952710687038094 0.0027743208218453013 0 -0.030012204675053698 0.0031857144218870601 0 -0.030003196584852537 0.0040980280098142528 0 -0.025369412776084725 0.0036163943329968052 0 -0.026335752635522482 0.0026869506060569941 0 -0.025350366501238078 0.0024703471271968983 0 -0.025369412776084725 0.0036163943329968052 0 -0.026335752635522482 0.0026869506060569941 0 -0.027412145723898145 0.0031293752908802329 0 -0.026335752635522482 0.0026869506060569941 0 -0.026498638713741387 0.0017211390031942439 0 -0.025350366501238078 0.0024703471271968983 0 -0.026335752635522482 0.0026869506060569941 0 -0.026498638713741387 0.0017211390031942439 0 -0.02753715649179464 0.0018152313996599655 0 -0.026498638713741387 0.0017211390031942439 0 -0.025040776662990601 0.0012176258866782846 0 -0.028322951335755332 -1.0951754318226936e-05 0 -0.026498638713741387 0.0017211390031942439 0 -0.025350366501238078 0.0024703471271968983 0 -0.025040776662990601 0.0012176258866782846 0 -0.024536692002505429 0.0021718887648713909 0 -0.024460001208722784 0.0016325975254082893 0 -0.025040776662990601 0.0012176258866782846 0 -0.025350366501238078 0.0024703471271968983 0 -0.024536692002505429 0.0021718887648713909 0 -0.025040776662990601 0.0012176258866782846 0 -0.025369412776084725 0.0036163943329968052 0 -0.025350366501238078 0.0024703471271968983 0 -0.024768855165152773 0.0029064673308840344 0 -0.025350366501238078 0.0024703471271968983 0 -0.024768855165152773 0.0029064673308840344 0 -0.024536692002505429 0.0021718887648713909 0 -0.024185346099291953 0.0028638065697566186 0 -0.023802734221581519 0.0019409608890377475 0 -0.024536692002505429 0.0021718887648713909 0 -0.024768855165152773 0.0029064673308840344 0 -0.024185346099291953 0.0028638065697566186 0 -0.024536692002505429 0.0021718887648713909 0 -0.023468575324374751 0.0030230630079582837 0 -0.024185346099291953 0.0028638065697566186 0 -0.023802734221581519 0.0019409608890377475 0 -0.023802734221581519 0.0019409608890377475 0 -0.024536692002505429 0.0021718887648713909 0 -0.024460001208722784 0.0016325975254082893 0 -0.024460001208722784 0.0016325975254082893 0 -0.024111154524420957 0.0016351023254550321 0 -0.024551747279713296 0.0014998342307759194 0 -0.023802734221581519 0.0019409608890377475 0 -0.024460001208722784 0.0016325975254082893 0 -0.024111154524420957 0.0016351023254550321 0 -0.023768060538222599 0.0021823986600864667 0 -0.023874981247174885 0.0019118201210593609 0 -0.024111154524420957 0.0016351023254550321 0 -0.024551747279713296 0.0014998342307759194 0 -0.024438012610384571 0.0013594043625375987 0 -0.024551747279713296 0.0014998342307759194 0 -0.024645741134531243 0.001437334575314206 0 -0.024438012610384571 0.0013594043625375987 0 -0.024551747279713296 0.0014998342307759194 0 -0.024645741134531243 0.001437334575314206 0 -0.024715074523594522 0.0014698162519155235 0 -0.024551747279713296 0.0014998342307759194 0 -0.024715074523594522 0.0014698162519155235 0 -0.024755277239165038 0.0014431484087381692 0 -0.024715074523594522 0.0014698162519155235 0 -0.024741105339570305 0.0014965163292549638 0 -0.024760892223396856 0.0014390514083339712 0 -0.024645741134531243 0.001437334575314206 0 -0.024715074523594522 0.0014698162519155235 0 -0.024741105339570305 0.0014965163292549638 0 -0.024645741134531243 0.001437334575314206 0 -0.024741105339570305 0.0014965163292549638 0 -0.024588714747649072 0.0013190101501523209 0 -0.011630299655011452 0.0070129246595546316 0 -0.014219895959265068 0.0060349599057725615 0 -0.024481935573978625 0.0020081698893559792 0 -0.024446900315021409 0.0013672349906326453 0 -0.024277243420689366 0.0017615380598697034 0 -0.024481935573978625 0.0020081698893559792 0 -0.02435877871208629 0.0020922814206653746 0 -0.024277243420689366 0.0017615380598697034 0 -0.024446900315021409 0.0013672349906326453 0 -0.025040776662990601 0.0012176258866782846 0 -0.024112051859609403 0.0011780705633323365 0 -0.024741105339570305 0.0014965163292549638 0 -0.024760892223396856 0.0014390514083339712 0 -0.024446900315021409 0.0013672349906326453 0 -0.025324632484204995 0.0018658589557634835 0 -0.024724376223943613 0.0020802137501733904 0 -0.024760892223396856 0.0014390514083339712 0 -0.024446900315021409 0.0013672349906326453 0 -0.025040776662990601 0.0012176258866782846 0 -0.024460001208722784 0.0016325975254082893 0 -0.025040776662990601 0.0012176258866782846 0 -0.024755277239165038 0.0014431484087381692 0 -0.024460001208722784 0.0016325975254082893 0 -0.024551747279713296 0.0014998342307759194 0 -0.024755277239165038 0.0014431484087381692 0 -0.024715074523594522 0.0014698162519155235 0 -0.024760892223396856 0.0014390514083339712 0 -0.024755277239165038 0.0014431484087381692 0 -0.024760892223396856 0.0014390514083339712 0 -0.025040776662990601 0.0012176258866782846 0 -0.024755277239165038 0.0014431484087381692 0 -0.023614693767693557 0.0025846543210510942 0 -0.023522431482910743 0.0025239512255422142 0 -0.02327130647538795 0.0023925435301563303 0 -0.023614693767693557 0.0025846543210510942 0 -0.023345830187372841 0.0024397535100442692 0 -0.02327130647538795 0.0023925435301563303 0 -0.023689897995432013 0.002576561570284199 0 -0.023759393182016843 0.0026653216885817801 0 -0.023522431482910743 0.0025239512255422142 0 -0.023614693767693557 0.0025846543210510942 0 -0.023759393182016843 0.0026653216885817801 0 -0.023522431482910743 0.0025239512255422142 0 -0.023772578314174488 0.0023309979426759668 0 -0.023727658869121149 0.0024319169673094232 0 -0.023787935281355654 0.0023562751987551761 0 -0.023522431482910743 0.0025239512255422142 0 -0.023589209533114452 0.002442194988027098 0 -0.023522431482910743 0.0025239512255422142 0 -0.023512921267135927 0.0024482436870404667 0 -0.02327130647538795 0.0023925435301563303 0 -0.023522431482910743 0.0025239512255422142 0 -0.023512921267135927 0.0024482436870404667 0 -0.023589209533114452 0.002442194988027098 0 -0.023534432837391404 0.0024585105228142829 0 -0.023512921267135927 0.0024482436870404667 0 -0.023589209533114452 0.002442194988027098 0 -0.023617842657644869 0.002540201182667796 0 -0.023768060538222599 0.0021823986600864667 0 -0.023534432837391404 0.0024585105228142829 0 -0.023782611010504384 0.0024059943220828108 0 -0.023512921267135927 0.0024482436870404667 0 -0.023782611010504384 0.0024059943220828108 0 -0.024111154524420957 0.0016351023254550321 0 -0.023329550390011555 0.0021273066764957451 0 -0.024111154524420957 0.0016351023254550321 0 -0.023329550390011555 0.0021273066764957451 0 -0.023760068088070897 0.0015201240597980882 0 -0.023782611010504384 0.0024059943220828108 0 -0.023512921267135927 0.0024482436870404667 0 -0.023329550390011555 0.0021273066764957451 0 -0.023329550390011555 0.0021273066764957451 0 -0.022942435960241113 0.0017669208280843187 0 -0.023760068088070897 0.0015201240597980882 0 -0.023512921267135927 0.0024482436870404667 0 -0.023329550390011555 0.0021273066764957451 0 -0.02327130647538795 0.0023925435301563303 0 -0.023329550390011555 0.0021273066764957451 0 -0.022811573999212346 0.0021490093198711989 0 -0.02327130647538795 0.0023925435301563303 0 -0.023329550390011555 0.0021273066764957451 0 -0.022811573999212346 0.0021490093198711989 0 -0.022942435960241113 0.0017669208280843187 0 -0.023345830187372841 0.0024397535100442692 0 -0.022811573999212346 0.0021490093198711989 0 -0.02327130647538795 0.0023925435301563303 0 -0.02087948556787033 0.00079586113006353549 0 -0.02210461092029219 0.0016387025243444868 0 -0.021945822890355186 0.00040588811753334365 0 -0.020099402176711658 0.0019443951009445687 0 -0.02087948556787033 0.00079586113006353549 0 -0.02210461092029219 0.0016387025243444868 0 -0.020099402176711658 0.0019443951009445687 0 -0.020852035394934985 0.0038188504111224702 0 -0.02210461092029219 0.0016387025243444868 0 -0.021797700554773498 0.0029111907880167952 0 -0.022072906654131912 0.0022993535107318757 0 -0.022811573999212346 0.0021490093198711989 0 -0.02210461092029219 0.0016387025243444868 0 -0.022942435960241113 0.0017669208280843187 0 -0.02210461092029219 0.0016387025243444868 0 -0.022927628410488995 0.0010187033453562687 0 -0.021945822890355186 0.00040588811753334365 0 -0.02210461092029219 0.0016387025243444868 0 -0.022927628410488995 0.0010187033453562687 0 -0.022942435960241113 0.0017669208280843187 0 -0.022927628410488995 0.0010187033453562687 0 -0.022942435960241113 0.0017669208280843187 0 -0.023465842127575524 0.0012180846035754233 0 -0.022927628410488995 0.0010187033453562687 0 -0.023465842127575524 0.0012180846035754233 0 -0.02361728832901493 0.00073753165205303563 0 -0.022942435960241113 0.0017669208280843187 0 -0.023760068088070897 0.0015201240597980882 0 -0.023465842127575524 0.0012180846035754233 0 -0.023760068088070897 0.0015201240597980882 0 -0.02392146071115691 0.001031601557091501 0 -0.023465842127575524 0.0012180846035754233 0 -0.02392146071115691 0.001031601557091501 0 -0.02361728832901493 0.00073753165205303563 0 -0.024103000027518317 0.00064568044764233459 0 -0.02392146071115691 0.001031601557091501 0 -0.023465842127575524 0.0012180846035754233 0 -0.02361728832901493 0.00073753165205303563 0 -0.017114658126659521 0.0013852685697286831 0 -0.014548521378751742 0.0046001212940343667 0 -0.02361728832901493 0.00073753165205303563 0 -0.023353894332666301 -9.7837919759403776e-05 0 -0.024103000027518317 0.00064568044764233459 0 -0.014210656232352648 -0.0025996131011924999 0 -0.013974475393791005 -0.0027673586945372044 0 -0.014164222407857339 -0.0025414819103939394 0 -0.014210656232352648 -0.0025996131011924999 0 -0.014507910135475118 -0.0025348171850931587 0 -0.014074608586336032 -0.0024975755056978848 0 -0.014210656232352648 -0.0025996131011924999 0 -0.014507910135475118 -0.0025348171850931587 0 -0.013949586167675431 -0.002687092737886245 0 -0.014507910135475118 -0.0025348171850931587 0 -0.013949586167675431 -0.002687092737886245 0 -0.01334060529401775 -0.0030518940529073815 0 -0.014210656232352648 -0.0025996131011924999 0 -0.013949586167675431 -0.002687092737886245 0 -0.013974475393791005 -0.0027673586945372044 0 -0.014071528803455184 -0.0029088197039304001 0 -0.013974475393791005 -0.0027673586945372044 0 -0.014950965327932286 -0.0032525307004353022 0 -0.013949586167675431 -0.002687092737886245 0 -0.014071528803455184 -0.0029088197039304001 0 -0.013974475393791005 -0.0027673586945372044 0 -0.013949586167675431 -0.002687092737886245 0 -0.014071528803455184 -0.0029088197039304001 0 -0.01334060529401775 -0.0030518940529073815 0 -0.022927628410488995 0.0010187033453562687 0 -0.023353894332666301 -9.7837919759403776e-05 0 -0.021945822890355186 0.00040588811753334365 0 -0.022927628410488995 0.0010187033453562687 0 -0.02361728832901493 0.00073753165205303563 0 -0.023353894332666301 -9.7837919759403776e-05 0 -0.023353894332666301 -9.7837919759403776e-05 0 -0.021945822890355186 0.00040588811753334365 0 -0.021581809549573439 -0.0013957680481672503 0 -0.017114658126659521 0.0013852685697286831 0 -0.017432989680250765 -0.0004142144986555223 0 -0.014071528803455184 -0.0029088197039304001 0 -0.014950965327932286 -0.0032525307004353022 0 -0.014476594771416544 -0.0027103261919252577 0 -0.014950965327932286 -0.0032525307004353022 0 -0.016101538048528062 -0.0027857305095570842 0 -0.016796278502307884 -0.0028540743498334784 0 -0.017432989680250765 -0.0004142144986555223 0 -0.017122591672667772 -0.0010792169367040917 0 -0.018330574005902902 -0.001295285073337584 0 -0.021581809549573439 -0.0013957680481672503 0 -0.020426956353667883 -6.7035185803462349e-05 0 -0.018330574005902902 -0.001295285073337584 0 -0.021581809549573439 -0.0013957680481672503 0 -0.016796278502307884 -0.0028540743498334784 0 -0.021945822890355186 0.00040588811753334365 0 -0.021581809549573439 -0.0013957680481672503 0 -0.020426956353667883 -6.7035185803462349e-05 0 -0.019793972515652784 0.00039594816137527715 0 -0.02087948556787033 0.00079586113006353549 0 -0.020426956353667883 -6.7035185803462349e-05 0 -0.02087948556787033 0.00079586113006353549 0 -0.021945822890355186 0.00040588811753334365 0 -0.020426956353667883 -6.7035185803462349e-05 0 0.019619454117021061 0.035790372296300187 0 0.019764102332317915 0.029143256262242425 0 0.014871149666015512 0.024906355531113384 0 0.019619454117021061 0.035790372296300187 0 0.019764102332317915 0.029143256262242425 0 0.023430133775395035 0.02790302835374469 0 0.019207687628105916 0.036927787516795076 0 0.022064686576356008 0.033779622730926898 0 0.023308466046279515 0.02852286809697336 0 0.00047847807049822424 0.0070139575952946256 0 -9.9395202564752169e-05 0.0068012655735196379 0 -0.00022984367532568963 0.0053713011160335172 0 -0.0011256194797732812 0.0095330708885303476 0 0.0055232043379187636 0.016174937755727498 0 -0.0011256194797732812 0.0095330708885303476 0 0.011470204650083736 0.012959593955639023 0 -0.0011256194797732812 0.0095330708885303476 0 -0.002592343624253258 0.0089875230492914848 0 -0.024659366140818529 0.0011473006213994054 0 -0.024504292796038912 0.0011834686928798193 0 -0.024526376242614237 0.00099504394250525909 0 0.019207687628105916 0.036927787516795076 0 0.022064686576356008 0.033779622730926898 0 0.024060927392768362 0.033015379544131439 0 0.022064686576356008 0.033779622730926898 0 0.024078693011661347 0.033038419869529774 0 0.023308466046279515 0.02852286809697336 0 -0.0021244236769645346 0.0090499553380447208 0 -0.002592343624253258 0.0089875230492914848 0 -0.00072652722298258035 0.0065146443211836387 0 -9.9395202564752169e-05 0.0068012655735196379 0 -0.00022984367532568963 0.0053713011160335172 0 -0.00072652722298258035 0.0065146443211836387 0 -0.00090800236402900874 0.0058822188148683306 0 -0.0012263345523987241 0.0063083840311248772 0 -0.00072652722298258035 0.0065146443211836387 0 -0.00061007412117214377 0.0072422422054952964 0 -0.0015271061847535426 0.0071851255733165623 0 -0.00072652722298258035 0.0065146443211836387 0 -9.9395202564752169e-05 0.0068012655735196379 0 -0.00061007412117214377 0.0072422422054952964 0 0.00047847807049822424 0.0070139575952946256 0 -9.9395202564752169e-05 0.0068012655735196379 0 -0.00061007412117214377 0.0072422422054952964 0 -0.024481935573978625 0.0020081698893559792 0 -0.024481495484818341 0.0023334307157465853 0 -0.02435877871208629 0.0020922814206653746 0 -0.0011256194797732812 0.0095330708885303476 0 -0.0093308365454631021 0.0072962331421262518 0 0.00047847807049822424 0.0070139575952946256 0 -0.00061007412117214377 0.0072422422054952964 0 -0.00088483549249728009 0.00828935520044124 0 -0.00061007412117214377 0.0072422422054952964 0 -0.00088483549249728009 0.00828935520044124 0 -0.0015271061847535426 0.0071851255733165623 0 -0.024741105339570305 0.0014965163292549638 0 -0.024610376776252843 0.0012217421035793255 0 -0.024588714747649072 0.0013190101501523209 0 -0.011630299655011452 0.0070129246595546316 0 -0.0011256194797732812 0.0095330708885303476 0 -0.0011256194797732812 0.0095330708885303476 0 -0.0030228914120676523 0.0072635418650494757 0 -0.024659366140818529 0.0011473006213994054 0 -0.024588714747649072 0.0013190101501523209 0 -0.024504292796038912 0.0011834686928798193 0 -0.024645741134531243 0.001437334575314206 0 -0.024588714747649072 0.0013190101501523209 0 -0.024438012610384571 0.0013594043625375987 0 -0.024438012610384571 0.0013594043625375987 0 -0.024141182907292967 0.001272941467179834 0 -0.024367692016462196 0.0011501368906628809 0 -0.024588714747649072 0.0013190101501523209 0 -0.024438012610384571 0.0013594043625375987 0 -0.024504292796038912 0.0011834686928798193 0 -0.024438012610384571 0.0013594043625375987 0 -0.024504292796038912 0.0011834686928798193 0 -0.024367692016462196 0.0011501368906628809 0 -0.024111154524420957 0.0016351023254550321 0 -0.023760068088070897 0.0015201240597980882 0 -0.024141182907292967 0.001272941467179834 0 -0.024111154524420957 0.0016351023254550321 0 -0.024438012610384571 0.0013594043625375987 0 -0.024141182907292967 0.001272941467179834 0 -0.023760068088070897 0.0015201240597980882 0 -0.02392146071115691 0.001031601557091501 0 -0.024141182907292967 0.001272941467179834 0 -0.02392146071115691 0.001031601557091501 0 -0.024141182907292967 0.001272941467179834 0 -0.024229246172397637 0.0010143582602367099 0 -0.024141182907292967 0.001272941467179834 0 -0.024229246172397637 0.0010143582602367099 0 -0.024367692016462196 0.0011501368906628809 0 -0.02392146071115691 0.001031601557091501 0 -0.024229246172397637 0.0010143582602367099 0 -0.024103000027518317 0.00064568044764233459 0 -0.024229246172397637 0.0010143582602367099 0 -0.024526376242614237 0.00099504394250525909 0 -0.024103000027518317 0.00064568044764233459 0 -0.002592343624253258 0.0089875230492914848 0 -0.014548521378751742 0.0046001212940343667 0 -0.024229246172397637 0.0010143582602367099 0 -0.024367692016462196 0.0011501368906628809 0 -0.024526376242614237 0.00099504394250525909 0 -0.024504292796038912 0.0011834686928798193 0 -0.024367692016462196 0.0011501368906628809 0 -0.024526376242614237 0.00099504394250525909 0 0.034255131593570416 0.024185005116003435 0 0.027466267861195007 0.01998366654751137 0 0.023308466046279515 0.02852286809697336 0 0.0084678154040513046 0.016264357210274152 0 0.0055232043379187636 0.016174937755727498 0 -0.002592343624253258 0.0089875230492914848 0 0.0070276539571314332 0.007485176794578525 0 0.024078693011661347 0.033038419869529774 0 0.034255131593570416 0.024185005116003435 0 0.023308466046279515 0.02852286809697336 0 -0.014210656232352648 -0.0025996131011924999 0 -0.014074608586336032 -0.0024975755056978848 0 -0.014164222407857339 -0.0025414819103939394 0 -0.013781924842341784 -0.0025762147473612912 0 -0.014074608586336032 -0.0024975755056978848 0 -0.014164222407857339 -0.0025414819103939394 0 0.034255131593570416 0.024185005116003435 0 0.027466267861195007 0.01998366654751137 0 0.034975815680160491 0.014236233435628538 0 0.044676817313833064 0.015319146090307873 0 0.034255131593570416 0.024185005116003435 0 0.034975815680160491 0.014236233435628538 0 0.014345541306719613 0.0043134932152444939 0 0.0070276539571314332 0.007485176794578525 0 0.027466267861195007 0.01998366654751137 0 0.023687491706132432 0.0136389276474497 0 0.034975815680160491 0.014236233435628538 0 0.020696183475895445 0.022089476052312183 0 0.013629235600153914 0.02225488341743731 0 0.023687491706132432 0.0136389276474497 0 0.029063116327247354 0.01770090152394721 0 0.03635889647941927 0.01159097004305166 0 0.031316776956191075 0.0080913337097192201 0 0.027466267861195007 0.01998366654751137 0 0.020696183475895445 0.022089476052312183 0 0.023687491706132432 0.0136389276474497 0 0.012919310659733396 0.011997640510176861 0 0.026659278375698179 0.0087398651841525555 0 0.020696183475895445 0.022089476052312183 0 0.020106623163145317 0.025768436871470735 0 0.023430133775395035 0.02790302835374469 0 0.027466267861195007 0.01998366654751137 0 0.020696183475895445 0.022089476052312183 0 0.023430133775395035 0.02790302835374469 0 0.020696183475895445 0.022089476052312183 0 0.020106623163145317 0.025768436871470735 0 0.014829681535038981 0.024942608636470499 0 0.020696183475895445 0.022089476052312183 0 0.014829681535038981 0.024942608636470499 0 0.013629235600153914 0.02225488341743731 0 0.013906446021415702 0.015708060181273832 0 0.011470204650083736 0.012959593955639023 0 0.020106623163145317 0.025768436871470735 0 0.019764102332317915 0.029143256262242425 0 0.014829681535038981 0.024942608636470499 0 0.020106623163145317 0.025768436871470735 0 0.019764102332317915 0.029143256262242425 0 0.023430133775395035 0.02790302835374469 0 -0.00090800236402900874 0.0058822188148683306 0 -0.00054692011374634448 0.0050970133113304086 0 -0.001809714903526055 0.0061221815946813371 0 -0.00072652722298258035 0.0065146443211836387 0 -0.00090800236402900874 0.0058822188148683306 0 -0.00022984367532568963 0.0053713011160335172 0 0.011581574445471173 0.010275411457991183 0 0.013480153136704195 0.014627956724633379 0 0.015062910837252416 0.013291307507866616 0 0.011470204650083736 0.012959593955639023 0 0.012919310659733396 0.011997640510176861 0 0.011470204650083736 0.012959593955639023 0 0.011322139483972784 0.011753985878863648 0 0.012919310659733396 0.011997640510176861 0 0.011322139483972784 0.011753985878863648 0 -0.00090800236402900874 0.0058822188148683306 0 -0.00022984367532568963 0.0053713011160335172 0 -0.00054692011374634448 0.0050970133113304086 0 0.01107109550096122 0.0065513202309621455 0 0.01108589764248637 0.0065384077557026085 0 0.011182114052061005 0.0066197585237134926 0 0.01107109550096122 0.0065513202309621455 0 0.011182114052061005 0.0066197585237134926 0 0.011138956494032275 0.0067161181586856515 0 0.011322139483972784 0.011753985878863648 0 0.007482918128502606 0.0034432850152891058 0 0.012919310659733396 0.011997640510176861 0 0.012489393130423188 0.0066202452789029592 0 -0.0092295669611778628 -0.0085920862768565191 0 -0.010243098799425638 -0.0086853022190486479 0 -0.0098435322513490513 -0.0068966022468626067 0 -0.000459260484248419 0.0050423495060896292 0 -0.0015365816221294714 0.0041083631269229559 0 -0.0014815161124379489 0.0051703278269868052 0 -0.010243098799425638 -0.0086853022190486479 0 -0.01084515986080695 -0.0079120040745554558 0 -0.0118277584940472 -0.0092701027797992257 0 -0.0092295669611778628 -0.0085920862768565191 0 -0.010243098799425638 -0.0086853022190486479 0 -0.010444749379675572 -0.0095465932448877081 0 -0.010243098799425638 -0.0086853022190486479 0 -0.01084515986080695 -0.0079120040745554558 0 -0.0098435322513490513 -0.0068966022468626067 0 -0.01084515986080695 -0.0079120040745554558 0 -0.01106992509879977 -0.0068686363105128099 0 -0.0098435322513490513 -0.0068966022468626067 0 -0.0015365816221294714 0.0041083631269229559 0 -0.0022894263880031767 0.0057853038047853125 0 -0.0014815161124379489 0.0051703278269868052 0 -0.000459260484248419 0.0050423495060896292 0 -0.0014815161124379489 0.0051703278269868052 0 -0.001809714903526055 0.0061221815946813371 0 -0.0022894263880031767 0.0057853038047853125 0 -0.0014815161124379489 0.0051703278269868052 0 -0.001809714903526055 0.0061221815946813371 0 0.007482918128502606 0.0034432850152891058 0 -0.00042695865223395393 0.0020866412902540623 0 0.011322139483972784 0.011753985878863648 0 0.0074602554504266585 0.011990670630028363 0 -0.013916142912616869 -0.0089938914120493707 0 -0.012455051745441084 -0.0083157818020379599 0 -0.013751024355989329 -0.0076818352057159457 0 -0.013916142912616869 -0.0089938914120493707 0 -0.012455051745441084 -0.0083157818020379599 0 -0.012567359325446238 -0.0095181626258199412 0 -0.01084515986080695 -0.0079120040745554558 0 -0.012455051745441084 -0.0083157818020379599 0 -0.012562026324796973 -0.0099545744998553124 0 -0.0075920243388357938 -0.009439630967438134 0 -0.0049559738024943139 -0.0079306668339829151 0 -0.0057211975326279295 -0.008332474095046628 0 -0.0049559738024943139 -0.0079306668339829151 0 -0.01106992509879977 -0.0068686363105128099 0 -0.012455051745441084 -0.0083157818020379599 0 -0.012326395875588736 -0.0064522741856064417 0 -0.01084515986080695 -0.0079120040745554558 0 -0.01106992509879977 -0.0068686363105128099 0 -0.012455051745441084 -0.0083157818020379599 0 -0.013751024355989329 -0.0076818352057159457 0 -0.013658829478367355 -0.0065696577773064558 0 -0.014802022092915378 -0.0069553779985842149 0 -0.013751024355989329 -0.0076818352057159457 0 -0.013658829478367355 -0.0065696577773064558 0 -0.012326395875588736 -0.0064522741856064417 0 -0.012455051745441084 -0.0083157818020379599 0 -0.013751024355989329 -0.0076818352057159457 0 -0.012326395875588736 -0.0064522741856064417 0 -0.01415906453706412 -0.0052900614474738813 0 -0.012326395875588736 -0.0064522741856064417 0 -0.012397510934473882 -0.0038948489876654462 0 -0.01415906453706412 -0.0052900614474738813 0 -0.013658829478367355 -0.0065696577773064558 0 -0.014802022092915378 -0.0069553779985842149 0 -0.01415906453706412 -0.0052900614474738813 0 -0.013658829478367355 -0.0065696577773064558 0 -0.012326395875588736 -0.0064522741856064417 0 -0.01106992509879977 -0.0068686363105128099 0 -0.012326395875588736 -0.0064522741856064417 0 -0.010528496344167375 -0.0046057871037955616 0 -0.012326395875588736 -0.0064522741856064417 0 -0.012397510934473882 -0.0038948489876654462 0 -0.010528496344167375 -0.0046057871037955616 0 -0.012397510934473882 -0.0038948489876654462 0 -0.010528496344167375 -0.0046057871037955616 0 -0.011466468619976211 -0.001635956889892459 0 -0.01415906453706412 -0.0052900614474738813 0 -0.012397510934473882 -0.0038948489876654462 0 -0.014595066315741151 -0.0029026013445641982 0 -0.001809714903526055 0.0061221815946813371 0 -0.0030537373071882188 0.0073996606205699866 0 -0.0015271061847535426 0.0071851255733165623 0 -0.00072652722298258035 0.0065146443211836387 0 -0.0012263345523987241 0.0063083840311248772 0 -0.0015271061847535426 0.0071851255733165623 0 -0.00090800236402900874 0.0058822188148683306 0 -0.0012263345523987241 0.0063083840311248772 0 -0.001809714903526055 0.0061221815946813371 0 -0.0012263345523987241 0.0063083840311248772 0 -0.001809714903526055 0.0061221815946813371 0 -0.0015271061847535426 0.0071851255733165623 0 -0.01106992509879977 -0.0068686363105128099 0 -0.0098435322513490513 -0.0068966022468626067 0 -0.010528496344167375 -0.0046057871037955616 0 -0.00042695865223395393 0.0020866412902540623 0 -0.0054761186038250007 0.0022120311534905945 0 -0.0022894263880031767 0.0057853038047853125 0 -0.001809714903526055 0.0061221815946813371 0 -0.0030537373071882188 0.0073996606205699866 0 -0.0054761186038250007 0.0022120311534905945 0 -0.0098778102859549532 0.0028308446141042331 0 -0.0030537373071882188 0.0073996606205699866 0 -0.0022776107383069306 0.0082928798537631188 0 -0.0038330718306543048 0.0090411464094231585 0 -0.00088483549249728009 0.00828935520044124 0 -0.0022776107383069306 0.0082928798537631188 0 -0.0015271061847535426 0.0071851255733165623 0 -0.0030537373071882188 0.0073996606205699866 0 -0.0022776107383069306 0.0082928798537631188 0 -0.0015271061847535426 0.0071851255733165623 0 -0.00088483549249728009 0.00828935520044124 0 -0.0022776107383069306 0.0082928798537631188 0 -0.0022367057314151332 0.0094878827432642397 0 -0.0093308365454631021 0.0072962331421262518 0 -0.013835286632560449 0.0050645918526962931 0 -0.02435877871208629 0.0020922814206653746 0 -0.024277243420689366 0.0017615380598697034 0 -0.023893424188893227 0.0017132703268267126 0 -0.024446900315021409 0.0013672349906326453 0 -0.024277243420689366 0.0017615380598697034 0 -0.024176532251162272 0.0015308209169633182 0 -0.024176532251162272 0.0015308209169633182 0 -0.023893424188893227 0.0017132703268267126 0 -0.024112051859609403 0.0011780705633323365 0 -0.024277243420689366 0.0017615380598697034 0 -0.024176532251162272 0.0015308209169633182 0 -0.023893424188893227 0.0017132703268267126 0 -0.024446900315021409 0.0013672349906326453 0 -0.024176532251162272 0.0015308209169633182 0 -0.024112051859609403 0.0011780705633323365 0 -0.0022367057314151332 0.0094878827432642397 0 -0.0038330718306543048 0.0090411464094231585 0 -0.0036188300916912409 0.0107047134004106 0 -0.023893424188893227 0.0017132703268267126 0 -0.023248685916353626 0.001168133730317296 0 -0.024112051859609403 0.0011780705633323365 0 -0.013835286632560449 0.0050645918526962931 0 -0.019142101627847772 0.0029319404854093465 0 -0.0022776107383069306 0.0082928798537631188 0 -0.0022367057314151332 0.0094878827432642397 0 -0.0038330718306543048 0.0090411464094231585 0 -0.012397510934473882 -0.0038948489876654462 0 -0.011466468619976211 -0.001635956889892459 0 -0.014595066315741151 -0.0029026013445641982 0 -0.011466468619976211 -0.001635956889892459 0 -0.014595066315741151 -0.0029026013445641982 0 -0.01411781951694626 -0.00054262794734406242 0 -0.014595066315741151 -0.0029026013445641982 0 -0.01411781951694626 -0.00054262794734406242 0 -0.016637943959408947 -0.001452999939021695 0 -0.01411781951694626 -0.00054262794734406242 0 -0.012790395918989221 0.0016077675911807831 0 -0.015201139100652645 0.0016795754489325825 0 -0.011466468619976211 -0.001635956889892459 0 -0.01411781951694626 -0.00054262794734406242 0 -0.012790395918989221 0.0016077675911807831 0 -0.0038330718306543048 0.0090411464094231585 0 -0.0036188300916912409 0.0107047134004106 0 -0.0046089872417929443 0.010722246667878538 0 -0.0098778102859549532 0.0028308446141042331 0 -0.015388187681153794 0.0029222349872582627 0 -0.018978390173193676 0.0020109696732144868 0 -0.019184041565954889 0.0021583105336906569 0 -0.019225557691914526 0.0022367957020785782 0 -0.018978390173193676 0.0020109696732144868 0 -0.019122438863053797 0.0020146992479234491 0 -0.019184041565954889 0.0021583105336906569 0 -0.019142101627847772 0.0029319404854093465 0 -0.015388187681153794 0.0029222349872582627 0 -0.032831857522569965 0.00012312987851625254 0 -0.034554225289895941 0.0018172213379885167 0 -0.032858365245278298 0.0016221188695594386 0 -0.019142101627847772 0.0029319404854093465 0 -0.022915693386769187 0.0023924257742809285 0 -0.015388187681153794 0.0029222349872582627 0 -0.021632929272931329 -1.5434320609177893e-05 0 -0.019125286517680948 0.0020335767380020484 0 -0.019307021952381157 0.0020331177585218617 0 -0.019184041565954889 0.0021583105336906569 0 -0.035216311531305368 0.0002183159428499811 0 -0.034606299176537923 0.0016627412828448989 0 -0.035448675698491701 0.0011775943271743147 0 -0.019307021952381157 0.0020331177585218617 0 -0.019184041565954889 0.0021583105336906569 0 -0.019225557691914526 0.0022367957020785782 0 -0.021632929272931329 -1.5434320609177893e-05 0 -0.022915693386769187 0.0023924257742809285 0 -0.015388187681153794 0.0029222349872582627 0 -0.01570703390833934 0.0029875203011964896 0 -0.03523331272116393 0.001574880454818444 0 -0.034776582204274271 0.001816001232146791 0 -0.034606299176537923 0.0016627412828448989 0 -0.03523331272116393 0.001574880454818444 0 -0.034606299176537923 0.0016627412828448989 0 -0.035448675698491701 0.0011775943271743147 0 -0.03523331272116393 0.001574880454818444 0 -0.034776582204274271 0.001816001232146791 0 -0.035169990367956254 0.0019918159043269862 0 -0.02302456436930404 0.0024500902237650597 0 -0.022915693386769187 0.0023924257742809285 0 -0.024042697834712308 0.0016554900363381121 0 -0.022915693386769187 0.0023924257742809285 0 -0.034171705059632768 0.0027013075399764282 0 -0.034554225289895941 0.0018172213379885167 0 -0.033703728482040791 0.0022314074158161085 0 -0.034171705059632768 0.0027013075399764282 0 -0.034776582204274271 0.001816001232146791 0 -0.034589024444542212 0.0016492393902658496 0 -0.034171705059632768 0.0027013075399764282 0 -0.03503558328105788 0.0025088133278093889 0 -0.034776582204274271 0.001816001232146791 0 -0.03503558328105788 0.0025088133278093889 0 -0.034776582204274271 0.001816001232146791 0 -0.035169990367956254 0.0019918159043269862 0 -0.03246065060746179 0.0032168208324111101 0 -0.033316102225579639 0.0027301229454415742 0 -0.032858365245278298 0.0016221188695594386 0 -0.034554225289895941 0.0018172213379885167 0 -0.032858365245278298 0.0016221188695594386 0 -0.033703728482040791 0.0022314074158161085 0 -0.033316102225579639 0.0027301229454415742 0 -0.032858365245278298 0.0016221188695594386 0 -0.033703728482040791 0.0022314074158161085 0 -0.033316102225579639 0.0027301229454415742 0 -0.034171705059632768 0.0027013075399764282 0 -0.033703728482040791 0.0022314074158161085 0 -0.031579625573921279 0.0025618365861610403 0 -0.032770597226720245 0.0030650357299735072 0 -0.031544927289297663 0.0016120681147068119 0 -0.03246065060746179 0.0032168208324111101 0 -0.032858365245278298 0.0016221188695594386 0 -0.031544927289297663 0.0016120681147068119 0 -0.032814659344598519 0.003398243686731688 0 -0.032429279990080967 0.0026578408651615195 0 -0.032858365245278298 0.0016221188695594386 0 -0.031544927289297663 0.0016120681147068119 0 -0.032037050444498082 0.0012501915452237851 0 -0.031579625573921279 0.0025618365861610403 0 -0.031544927289297663 0.0016120681147068119 0 -0.031116976156088372 0.0020705993723183543 0 -0.031579625573921279 0.0025618365861610403 0 -0.030952710687038094 0.0027743208218453013 0 -0.031116976156088372 0.0020705993723183543 0 -0.026335752635522482 0.0026869506060569941 0 -0.027412145723898145 0.0031293752908802329 0 -0.02753715649179464 0.0018152313996599655 0 -0.028683492814788328 0.0014169190853920285 0 -0.028322951335755332 -1.0951754318226936e-05 0 -0.031462703782586726 0.00058681191000273171 0 -0.031544927289297663 0.0016120681147068119 0 -0.031116976156088372 0.0020705993723183543 0 -0.031462703782586726 0.00058681191000273171 0 -0.027412145723898145 0.0031293752908802329 0 -0.028683492814788328 0.0014169190853920285 0 -0.031462703782586726 0.00058681191000273171 0 -0.029327913050494557 0.0020240802714402138 0 -0.030349204923134799 0.0011741325139476007 0 -0.027412145723898145 0.0031293752908802329 0 -0.028683492814788328 0.0014169190853920285 0 -0.02753715649179464 0.0018152313996599655 0 -0.026498638713741387 0.0017211390031942439 0 -0.02753715649179464 0.0018152313996599655 0 -0.028322951335755332 -1.0951754318226936e-05 0 -0.028683492814788328 0.0014169190853920285 0 -0.02753715649179464 0.0018152313996599655 0 -0.028322951335755332 -1.0951754318226936e-05 0 -0.032831857522569965 0.00012312987851625254 0 -0.032858365245278298 0.0016221188695594386 0 -0.032037050444498082 0.0012501915452237851 0 -0.019142101627847772 0.0029319404854093465 0 -0.024724376223943613 0.0020802137501733904 0 -0.032831857522569965 0.00012312987851625254 0 -0.028322951335755332 -1.0951754318226936e-05 0 -0.031462703782586726 0.00058681191000273171 0 -0.032831857522569965 0.00012312987851625254 0 -0.031462703782586726 0.00058681191000273171 0 -0.032037050444498082 0.0012501915452237851 0 -0.031544927289297663 0.0016120681147068119 0 -0.031462703782586726 0.00058681191000273171 0 -0.032037050444498082 0.0012501915452237851 0 -0.021652710656467122 -0.0032200085073147288 0 -0.022697603133716444 -0.0039403148737378489 0 -0.021980325610285966 -0.0013750213557262112 0 -0.021652710656467122 -0.0032200085073147288 0 -0.021980325610285966 -0.0013750213557262112 0 -0.020670764619744326 -0.003214565865793309 0 -0.038615495410231196 0.0015355646609090416 0 -0.037327432558663158 0.0016022521194369024 0 -0.037448010460739492 0.00069110840515530553 0 -0.031684719230557067 0.00031155485981944087 0 -0.028655473498681555 -0.00052607369073014935 0 -0.021652710656467122 -0.0032200085073147288 0 -0.020670764619744326 -0.003214565865793309 0 -0.021418632402841691 -0.004190941853056014 0 -0.021652710656467122 -0.0032200085073147288 0 -0.022697603133716444 -0.0039403148737378489 0 -0.021418632402841691 -0.004190941853056014 0 -0.024544661958478368 -0.0033370580920302289 0 -0.022697603133716444 -0.0039403148737378489 0 -0.023907617719886604 -0.0047092502466485799 0 -0.024544661958478368 -0.0033370580920302289 0 -0.022697603133716444 -0.0039403148737378489 0 -0.021980325610285966 -0.0013750213557262112 0 -0.035881573057625349 0.0016908703089171734 0 -0.037738912072928919 0.0018437981868487041 0 -0.03969173443473558 0.0022948224410300226 0 -0.038615495410231196 0.0015355646609090416 0 -0.037918213512071058 0.002298646863621156 0 -0.035881573057625349 0.0016908703089171734 0 -0.031684719230557067 0.00031155485981944087 0 -0.025672730191380531 0.002510284336596209 0 -0.024544661958478368 -0.0033370580920302289 0 -0.021980325610285966 -0.0013750213557262112 0 -0.038615495410231196 0.0015355646609090416 0 -0.037918213512071058 0.002298646863621156 0 -0.037327432558663158 0.0016022521194369024 0 -0.037918213512071058 0.002298646863621156 0 -0.036870618076172812 0.0021115546700875422 0 -0.037327432558663158 0.0016022521194369024 0 -0.036870618076172812 0.0021115546700875422 0 -0.036188069152226401 0.0024198464758620969 0 -0.03634405669122704 0.001712679365382057 0 -0.037327432558663158 0.0016022521194369024 0 -0.03634405669122704 0.001712679365382057 0 -0.036856336412248121 0.0010579700662313347 0 -0.036870618076172812 0.0021115546700875422 0 -0.037327432558663158 0.0016022521194369024 0 -0.03634405669122704 0.001712679365382057 0 -0.03503558328105788 0.0025088133278093889 0 -0.035169990367956254 0.0019918159043269862 0 -0.035628963959476609 0.0020737880845901695 0 -0.035628963959476609 0.0020737880845901695 0 -0.036188069152226401 0.0024198464758620969 0 -0.03634405669122704 0.001712679365382057 0 -0.03634405669122704 0.001712679365382057 0 -0.035831474468495099 0.0015217368722752985 0 -0.036163388831068552 0.00097070660339329713 0 -0.035628963959476609 0.0020737880845901695 0 -0.03634405669122704 0.001712679365382057 0 -0.035831474468495099 0.0015217368722752985 0 -0.03523331272116393 0.001574880454818444 0 -0.035628963959476609 0.0020737880845901695 0 -0.035831474468495099 0.0015217368722752985 0 -0.03523331272116393 0.001574880454818444 0 -0.035831474468495099 0.0015217368722752985 0 -0.035448675698491701 0.0011775943271743147 0 -0.03523331272116393 0.001574880454818444 0 -0.035169990367956254 0.0019918159043269862 0 -0.035628963959476609 0.0020737880845901695 0 -0.035216311531305368 0.0002183159428499811 0 -0.036163388831068552 0.00097070660339329713 0 -0.03681827624782999 0.00024198943952788687 0 -0.021632929272931329 -1.5434320609177893e-05 0 -0.027114743782242611 -0.00086072592953901738 0 -0.035831474468495099 0.0015217368722752985 0 -0.035448675698491701 0.0011775943271743147 0 -0.036163388831068552 0.00097070660339329713 0 -0.035216311531305368 0.0002183159428499811 0 -0.035448675698491701 0.0011775943271743147 0 -0.036163388831068552 0.00097070660339329713 0 -0.037327432558663158 0.0016022521194369024 0 -0.036856336412248121 0.0010579700662313347 0 -0.037448010460739492 0.00069110840515530553 0 -0.036163388831068552 0.00097070660339329713 0 -0.036856336412248121 0.0010579700662313347 0 -0.03681827624782999 0.00024198943952788687 0 -0.03634405669122704 0.001712679365382057 0 -0.036163388831068552 0.00097070660339329713 0 -0.036856336412248121 0.0010579700662313347 0 -0.020071381844848257 -0.0037940543452766951 0 -0.020670764619744326 -0.003214565865793309 0 -0.020472438554771443 -0.0043800166028367116 0 -0.036856336412248121 0.0010579700662313347 0 -0.03681827624782999 0.00024198943952788687 0 -0.037448010460739492 0.00069110840515530553 0 -0.027114743782242611 -0.00086072592953901738 0 -0.028655473498681555 -0.00052607369073014935 0 -0.020670764619744326 -0.003214565865793309 0 -0.020472438554771443 -0.0043800166028367116 0 -0.021418632402841691 -0.004190941853056014 0 -0.020472438554771443 -0.0043800166028367116 0 -0.020917578805906351 -0.0050163392720079794 0 -0.021418632402841691 -0.004190941853056014 0 -0.020472438554771443 -0.0043800166028367116 0 -0.019970656397168138 -0.0051144665355876539 0 -0.019444314885974038 -0.0042861731536792888 0 -0.020071381844848257 -0.0037940543452766951 0 -0.020472438554771443 -0.0043800166028367116 0 -0.019444314885974038 -0.0042861731536792888 0 -0.027114743782242611 -0.00086072592953901738 0 -0.026131270005458885 -0.0014680413081345788 0 -0.020472438554771443 -0.0043800166028367116 0 -0.019970656397168138 -0.0051144665355876539 0 -0.020917578805906351 -0.0050163392720079794 0 -0.018368657847895525 -0.0038265939726995057 0 -0.019444314885974038 -0.0042861731536792888 0 -0.019174947814332748 -0.0057112829920910888 0 -0.018368657847895525 -0.0038265939726995057 0 -0.020134194499589645 -0.0038113861183589511 0 -0.019444314885974038 -0.0042861731536792888 0 -0.021632929272931329 -1.5434320609177893e-05 0 -0.02029590513343427 -0.0028180203055642493 0 -0.01411781951694626 -0.00054262794734406242 0 -0.015201139100652645 0.0016795754489325825 0 -0.016637943959408947 -0.001452999939021695 0 -0.019970656397168138 -0.0051144665355876539 0 -0.019444314885974038 -0.0042861731536792888 0 -0.019174947814332748 -0.0057112829920910888 0 -0.019970656397168138 -0.0051144665355876539 0 -0.019174947814332748 -0.0057112829920910888 0 -0.020514915640331755 -0.0062569529952583268 0 -0.019174947814332748 -0.0057112829920910888 0 -0.020514915640331755 -0.0062569529952583268 0 -0.019966167457509496 -0.0075294176448391691 0 -0.019970656397168138 -0.0051144665355876539 0 -0.020917578805906351 -0.0050163392720079794 0 -0.020514915640331755 -0.0062569529952583268 0 -0.020917578805906351 -0.0050163392720079794 0 -0.020514915640331755 -0.0062569529952583268 0 -0.02143588518359028 -0.0059723418246641598 0 -0.02143588518359028 -0.0059723418246641598 0 -0.022476566733896811 -0.0054857044539332669 0 -0.02183197950010668 -0.0070621361639580495 0 -0.020514915640331755 -0.0062569529952583268 0 -0.02143588518359028 -0.0059723418246641598 0 -0.02183197950010668 -0.0070621361639580495 0 -0.020917578805906351 -0.0050163392720079794 0 -0.02143588518359028 -0.0059723418246641598 0 -0.022476566733896811 -0.0054857044539332669 0 -0.020917578805906351 -0.0050163392720079794 0 -0.021418632402841691 -0.004190941853056014 0 -0.022476566733896811 -0.0054857044539332669 0 -0.022697603133716444 -0.0039403148737378489 0 -0.021418632402841691 -0.004190941853056014 0 -0.022476566733896811 -0.0054857044539332669 0 -0.022697603133716444 -0.0039403148737378489 0 -0.023907617719886604 -0.0047092502466485799 0 -0.022476566733896811 -0.0054857044539332669 0 -0.022476566733896811 -0.0054857044539332669 0 -0.023675318867969124 -0.0063003849808314855 0 -0.02183197950010668 -0.0070621361639580495 0 -0.023907617719886604 -0.0047092502466485799 0 -0.022476566733896811 -0.0054857044539332669 0 -0.023675318867969124 -0.0063003849808314855 0 -0.023662643339376677 -0.0079070943389016272 0 -0.023675318867969124 -0.0063003849808314855 0 -0.02183197950010668 -0.0070621361639580495 0 -0.02183197950010668 -0.0070621361639580495 0 -0.021067747133580225 -0.0081294091728927997 0 -0.019966167457509496 -0.0075294176448391691 0 -0.02183197950010668 -0.0070621361639580495 0 -0.022202715202123031 -0.0088477615937648836 0 -0.021067747133580225 -0.0081294091728927997 0 -0.022202715202123031 -0.0088477615937648836 0 -0.021067747133580225 -0.0081294091728927997 0 -0.020393574722077337 -0.0091284955854265357 0 -0.023662643339376677 -0.0079070943389016272 0 -0.02183197950010668 -0.0070621361639580495 0 -0.022202715202123031 -0.0088477615937648836 0 -0.023662643339376677 -0.0079070943389016272 0 -0.024257923986743979 -0.009374862608769588 0 -0.022202715202123031 -0.0088477615937648836 0 -0.014595066315741151 -0.0029026013445641982 0 -0.016637943959408947 -0.001452999939021695 0 -0.018463960292703075 -0.0048882090361854072 0 -0.01415906453706412 -0.0052900614474738813 0 -0.014595066315741151 -0.0029026013445641982 0 -0.018463960292703075 -0.0048882090361854072 0 -0.02029590513343427 -0.0028180203055642493 0 -0.020332727862558454 -0.0054838047292847126 0 -0.020514915640331755 -0.0062569529952583268 0 -0.02183197950010668 -0.0070621361639580495 0 -0.019966167457509496 -0.0075294176448391691 0 -0.020332727862558454 -0.0054838047292847126 0 -0.020629691664922498 -0.0069155811635808672 0 -0.021067747133580225 -0.0081294091728927997 0 -0.019966167457509496 -0.0075294176448391691 0 -0.020393574722077337 -0.0091284955854265357 0 -0.018463960292703075 -0.0048882090361854072 0 -0.016980216588734342 -0.0087619923341726545 0 -0.020393574722077337 -0.0091284955854265357 0 -0.015363660600937058 -0.0067985111299184485 0 -0.01617388661807774 -0.0077695182112634056 0 -0.01415906453706412 -0.0052900614474738813 0 -0.018463960292703075 -0.0048882090361854072 0 -0.016980216588734342 -0.0087619923341726545 0 -0.014802022092915378 -0.0069553779985842149 0 -0.015564674392874532 -0.0082845745854407613 0 -0.014678600067723922 -0.0083371685401896212 0 -0.013751024355989329 -0.0076818352057159457 0 -0.014802022092915378 -0.0069553779985842149 0 -0.014678600067723922 -0.0083371685401896212 0 -0.01617388661807774 -0.0077695182112634056 0 -0.017641316201764522 -0.0094052922869948454 0 -0.020393574722077337 -0.0091284955854265357 0 -0.019760473046229399 -0.011190873908643555 0 -0.021558581836644268 -0.0098877798124259054 0 -0.016980216588734342 -0.0087619923341726545 0 -0.020393574722077337 -0.0091284955854265357 0 -0.019760473046229399 -0.011190873908643555 0 -0.017641316201764522 -0.0094052922869948454 0 -0.019155218820996078 -0.010955479616928302 0 -0.015564674392874532 -0.0082845745854407613 0 -0.015154295773982113 -0.0087890516117406139 0 -0.015667923160116195 -0.0093944973916949663 0 -0.015564674392874532 -0.0082845745854407613 0 -0.015154295773982113 -0.0087890516117406139 0 -0.014678600067723922 -0.0083371685401896212 0 -0.013916142912616869 -0.0089938914120493707 0 -0.013751024355989329 -0.0076818352057159457 0 -0.014678600067723922 -0.0083371685401896212 0 -0.015154295773982113 -0.0087890516117406139 0 -0.014678600067723922 -0.0083371685401896212 0 -0.014718131799375606 -0.0091505807128449534 0 -0.013916142912616869 -0.0089938914120493707 0 -0.014678600067723922 -0.0083371685401896212 0 -0.014718131799375606 -0.0091505807128449534 0 -0.024257923986743979 -0.009374862608769588 0 -0.022202715202123031 -0.0088477615937648836 0 -0.02264842836786286 -0.010399005922416903 0 -0.022202715202123031 -0.0088477615937648836 0 -0.020393574722077337 -0.0091284955854265357 0 -0.021558581836644268 -0.0098877798124259054 0 -0.022202715202123031 -0.0088477615937648836 0 -0.02264842836786286 -0.010399005922416903 0 -0.021558581836644268 -0.0098877798124259054 0 -0.019760473046229399 -0.011190873908643555 0 -0.021558581836644268 -0.0098877798124259054 0 -0.021457229961595305 -0.011241022967491602 0 -0.02264842836786286 -0.010399005922416903 0 -0.021558581836644268 -0.0098877798124259054 0 -0.021457229961595305 -0.011241022967491602 0 -0.019760473046229399 -0.011190873908643555 0 -0.021457229961595305 -0.011241022967491602 0 -0.021325006415376702 -0.012624868530738794 0 -0.023834017441675015 -0.010963856502694857 0 -0.02264842836786286 -0.010399005922416903 0 -0.022654029405589537 -0.011979669636779546 0 -0.023834017441675015 -0.010963856502694857 0 -0.022654029405589537 -0.011979669636779546 0 -0.024033453543149511 -0.012470673032345878 0 -0.02264842836786286 -0.010399005922416903 0 -0.021457229961595305 -0.011241022967491602 0 -0.022654029405589537 -0.011979669636779546 0 -0.022654029405589537 -0.011979669636779546 0 -0.021325006415376702 -0.012624868530738794 0 -0.022656551123750951 -0.014219844288977601 0 -0.022654029405589537 -0.011979669636779546 0 -0.022656551123750951 -0.014219844288977601 0 -0.024033453543149511 -0.012470673032345878 0 -0.021457229961595305 -0.011241022967491602 0 -0.022654029405589537 -0.011979669636779546 0 -0.021325006415376702 -0.012624868530738794 0 -0.016747587342486589 -0.0096610098670214684 0 -0.016546554409378484 -0.011520383391297415 0 -0.015689475354123888 -0.010560671631109089 0 -0.016546554409378484 -0.011520383391297415 0 -0.018419163550443027 -0.011641884767101958 0 -0.017293635609078175 -0.013069932709739412 0 -0.016747587342486589 -0.0096610098670214684 0 -0.016546554409378484 -0.011520383391297415 0 -0.018419163550443027 -0.011641884767101958 0 -0.019155218820996078 -0.010955479616928302 0 -0.020599522225362477 -0.012248002288754627 0 -0.020599522225362477 -0.012248002288754627 0 -0.022523991048094553 -0.011416356789662737 0 -0.0071939474916251243 -0.0069949301778320381 0 -0.011496857885395667 -0.0067313751598658223 0 -0.013916142912616869 -0.0089938914120493707 0 -0.014061374863520911 -0.0099670248759771707 0 -0.014718131799375606 -0.0091505807128449534 0 -0.014061374863520911 -0.0099670248759771707 0 -0.014718131799375606 -0.0091505807128449534 0 -0.015667923160116195 -0.0093944973916949663 0 -0.012589935921339727 -0.010389644351345494 0 -0.015667923160116195 -0.0093944973916949663 0 -0.014491937566150239 -0.010651971298519931 0 -0.015564674392874532 -0.0082845745854407613 0 -0.016747587342486589 -0.0096610098670214684 0 -0.015667923160116195 -0.0093944973916949663 0 -0.015154295773982113 -0.0087890516117406139 0 -0.014718131799375606 -0.0091505807128449534 0 -0.015667923160116195 -0.0093944973916949663 0 -0.015667923160116195 -0.0093944973916949663 0 -0.015689475354123888 -0.010560671631109089 0 -0.014491937566150239 -0.010651971298519931 0 -0.016747587342486589 -0.0096610098670214684 0 -0.015667923160116195 -0.0093944973916949663 0 -0.015689475354123888 -0.010560671631109089 0 -0.016546554409378484 -0.011520383391297415 0 -0.015689475354123888 -0.010560671631109089 0 -0.015116068244350066 -0.011675115574095878 0 -0.016546554409378484 -0.011520383391297415 0 -0.015116068244350066 -0.011675115574095878 0 -0.015536901741205259 -0.013057670152421983 0 -0.015689475354123888 -0.010560671631109089 0 -0.015116068244350066 -0.011675115574095878 0 -0.014491937566150239 -0.010651971298519931 0 -0.015116068244350066 -0.011675115574095878 0 -0.014491937566150239 -0.010651971298519931 0 -0.013432562419248456 -0.011217955727227091 0 -0.012589935921339727 -0.010389644351345494 0 -0.014491937566150239 -0.010651971298519931 0 -0.013432562419248456 -0.011217955727227091 0 -0.012589935921339727 -0.010389644351345494 0 -0.013432562419248456 -0.011217955727227091 0 -0.012842063818874172 -0.0121946974160111 0 -0.0071939474916251243 -0.0069949301778320381 0 -0.0055512959778108344 -0.0075570164166945857 0 -0.013432562419248456 -0.011217955727227091 0 -0.012842063818874172 -0.0121946974160111 0 -0.014235413617563985 -0.012443425438786555 0 -0.015116068244350066 -0.011675115574095878 0 -0.013432562419248456 -0.011217955727227091 0 -0.014235413617563985 -0.012443425438786555 0 -0.012842063818874172 -0.0121946974160111 0 -0.014235413617563985 -0.012443425438786555 0 -0.014267344299635668 -0.014067994572962966 0 -0.0055512959778108344 -0.0075570164166945857 0 -0.0024196455019982457 -0.0068023712489315947 0 -0.0028581539980376425 -0.0059705826042924523 0 -0.0028054309379175373 -0.0055485945947605043 0 -0.0030829127645389709 -0.0060378969971187123 0 0.0011000406237638128 0.0021375907829194662 0 -0.0045857307023700784 -0.0046910169218110399 0 0.00017100520808081468 -0.0050122276661376088 0 -0.0055512959778108344 -0.0075570164166945857 0 -0.0088260189608186518 -0.010402920957312928 0 -0.015536901741205259 -0.013057670152421983 0 -0.014267344299635668 -0.014067994572962966 0 -0.016097906786967254 -0.014556284097997398 0 -0.014235413617563985 -0.012443425438786555 0 -0.015536901741205259 -0.013057670152421983 0 -0.014267344299635668 -0.014067994572962966 0 -0.015116068244350066 -0.011675115574095878 0 -0.014235413617563985 -0.012443425438786555 0 -0.015536901741205259 -0.013057670152421983 0 -0.0067349498386839977 -0.011040721277760313 0 -0.0045857307023700784 -0.0046910169218110399 0 -0.010541752350075165 -0.011751648020697491 0 -0.0088260189608186518 -0.010402920957312928 0 -0.012101121989850878 -0.013943557284634563 0 -0.014267344299635668 -0.014067994572962966 0 -0.016097906786967254 -0.014556284097997398 0 -0.015685903769142202 -0.016353168532565632 0 -0.0065436791432322335 -0.010922800549904459 0 0.00070910420688439645 -0.0046445896518168455 0 -0.00068177950874717056 -0.015332705586763263 0 -0.0024196455019982457 -0.0068023712489315947 0 -0.0018917746411999377 -0.013766695454126985 0 -0.0062981595095729292 -0.010385908336446408 0 -0.0024196455019982457 -0.0068023712489315947 0 -0.0067349498386839977 -0.011040721277760313 0 -0.0045857307023700784 -0.0046910169218110399 0 0.00017100520808081468 -0.0050122276661376088 0 0.0022718765028248169 -0.0028840766679155846 0 0.00071598254468580665 -0.013650248237444982 0 0.0061572927886145452 -0.0085579262183166551 0 -0.019712238664608125 -0.013035220301557255 0 -0.017775905030572373 -0.012552508452566502 0 -0.018115497370261715 -0.014643936836927322 0 -0.019712238664608125 -0.013035220301557255 0 -0.020998123495603739 -0.013951381713642476 0 -0.02183873357677401 -0.01319736516310124 0 -0.020599522225362477 -0.012248002288754627 0 -0.020845458972313734 -0.012466731065676088 0 -0.019589400699262429 -0.010246639153597897 0 -0.019712238664608125 -0.013035220301557255 0 -0.02183873357677401 -0.01319736516310124 0 -0.019589400699262429 -0.010246639153597897 0 -0.019712238664608125 -0.013035220301557255 0 -0.017775905030572373 -0.012552508452566502 0 -0.020599522225362477 -0.012248002288754627 0 -0.019243557691280066 -0.013148220682663017 0 -0.016546554409378484 -0.011520383391297415 0 -0.015536901741205259 -0.013057670152421983 0 -0.017293635609078175 -0.013069932709739412 0 -0.019243557691280066 -0.013148220682663017 0 -0.018641889868601071 -0.01365148728182836 0 -0.015536901741205259 -0.013057670152421983 0 -0.017293635609078175 -0.013069932709739412 0 -0.016097906786967254 -0.014556284097997398 0 -0.017775905030572373 -0.012552508452566502 0 -0.018115497370261715 -0.014643936836927322 0 -0.016097906786967254 -0.014556284097997398 0 -0.016097906786967254 -0.014556284097997398 0 -0.01699623281459578 -0.016134002889318096 0 -0.015685903769142202 -0.016353168532565632 0 -0.018115497370261715 -0.014643936836927322 0 -0.01699623281459578 -0.016134002889318096 0 -0.018366912030620894 -0.016517304579268147 0 -0.018115497370261715 -0.014643936836927322 0 -0.016097906786967254 -0.014556284097997398 0 -0.01699623281459578 -0.016134002889318096 0 -0.019990963322149408 -0.015157102692100534 0 -0.020573578826638045 -0.018230021970839345 0 -0.022236188954361014 -0.014308145090911205 0 -0.018115497370261715 -0.014643936836927322 0 -0.019990963322149408 -0.015157102692100534 0 -0.018366912030620894 -0.016517304579268147 0 -0.019712238664608125 -0.013035220301557255 0 -0.018115497370261715 -0.014643936836927322 0 -0.019990963322149408 -0.015157102692100534 0 -0.020998123495603739 -0.013951381713642476 0 -0.019990963322149408 -0.015157102692100534 0 -0.022236188954361014 -0.014308145090911205 0 -0.019712238664608125 -0.013035220301557255 0 -0.020998123495603739 -0.013951381713642476 0 -0.019990963322149408 -0.015157102692100534 0 -0.020573578826638045 -0.018230021970839345 0 -0.018366912030620894 -0.016517304579268147 0 -0.016680029044466169 -0.019604159813537428 0 -0.019990963322149408 -0.015157102692100534 0 -0.020573578826638045 -0.018230021970839345 0 -0.018366912030620894 -0.016517304579268147 0 -0.016179963085105119 -0.01679648297106854 0 -0.009821483690085956 -0.020316978692530994 0 -0.020864231269187784 -0.016434913611304759 0 -0.019512837270140825 -0.018817544763566795 0 -0.021691128611619086 -0.018523680388204747 0 -0.020573578826638045 -0.018230021970839345 0 -0.016680029044466169 -0.019604159813537428 0 -0.017324548601497979 -0.027348063398138431 0 -0.012541982308978657 -0.022280405965382531 0 -0.016680029044466169 -0.019604159813537428 0 -0.017324548601497979 -0.027348063398138431 0 -0.012541982308978657 -0.022280405965382531 0 -0.016680029044466169 -0.019604159813537428 0 -0.014018294440610628 -0.017644483157371375 0 -0.012541982308978657 -0.022280405965382531 0 -0.014018294440610628 -0.017644483157371375 0 -0.010216383695556237 -0.019753890992267688 0 -0.016680029044466169 -0.019604159813537428 0 -0.014018294440610628 -0.017644483157371375 0 -0.010541752350075165 -0.011751648020697491 0 -0.01699623281459578 -0.016134002889318096 0 -0.018366912030620894 -0.016517304579268147 0 -0.016680029044466169 -0.019604159813537428 0 -0.013848904554077619 -0.016013174461941102 0 -0.012101121989850878 -0.013943557284634563 0 -0.01699623281459578 -0.016134002889318096 0 -0.016680029044466169 -0.019604159813537428 0 -0.015685903769142202 -0.016353168532565632 0 -0.0062981595095729292 -0.010385908336446408 0 -0.0090644139238037595 -0.012864684172930079 0 -0.0065436791432322335 -0.010922800549904459 0 -0.014018294440610628 -0.017644483157371375 0 -0.0075698445254210175 -0.017160537670211171 0 -0.0067349498386839977 -0.011040721277760313 0 -0.014018294440610628 -0.017644483157371375 0 -0.010541752350075165 -0.011751648020697491 0 -0.0065436791432322335 -0.010922800549904459 0 -0.0075698445254210175 -0.017160537670211171 0 -0.00068177950874717056 -0.015332705586763263 0 -0.00068177950874717056 -0.015332705586763263 0 -0.0066960366153024347 -0.021967600179062623 0 -0.0016095242120101219 -0.025553063261956933 0 -0.0018917746411999377 -0.013766695454126985 0 -0.0021339242149994221 -0.018616781359724451 0 0.00071598254468580665 -0.013650248237444982 0 -0.0016095242120101219 -0.025553063261956933 0 0.0070815143646846424 -0.021549484800582216 0 -0.0075698445254210175 -0.017160537670211171 0 -0.00068177950874717056 -0.015332705586763263 0 -0.0066960366153024347 -0.021967600179062623 0 -0.0075698445254210175 -0.017160537670211171 0 -0.010216383695556237 -0.019753890992267688 0 -0.0066960366153024347 -0.021967600179062623 0 -0.014018294440610628 -0.017644483157371375 0 -0.0075698445254210175 -0.017160537670211171 0 -0.010216383695556237 -0.019753890992267688 0 -0.012541982308978657 -0.022280405965382531 0 -0.0066960366153024347 -0.021967600179062623 0 -0.010243441785584019 -0.026465928843661592 0 -0.012541982308978657 -0.022280405965382531 0 -0.010216383695556237 -0.019753890992267688 0 -0.0066960366153024347 -0.021967600179062623 0 -0.010243441785584019 -0.026465928843661592 0 -0.0059329552962357895 -0.02656824848096756 0 -0.0073216570917538524 -0.030092577849280194 0 -0.0066960366153024347 -0.021967600179062623 0 -0.010243441785584019 -0.026465928843661592 0 -0.0059329552962357895 -0.02656824848096756 0 -0.0066960366153024347 -0.021967600179062623 0 -0.0059329552962357895 -0.02656824848096756 0 -0.0016095242120101219 -0.025553063261956933 0 -0.0059329552962357895 -0.02656824848096756 0 -0.003667943407014357 -0.028889138139928643 0 -0.0016095242120101219 -0.025553063261956933 0 -0.003667943407014357 -0.028889138139928643 0 -0.0041742570078985453 -0.031421935239426636 0 -0.0073216570917538524 -0.030092577849280194 0 -0.0059329552962357895 -0.02656824848096756 0 -0.003667943407014357 -0.028889138139928643 0 -0.0073216570917538524 -0.030092577849280194 0 -0.010243441785584019 -0.026465928843661592 0 -0.0073216570917538524 -0.030092577849280194 0 -0.011524418496220221 -0.030735986056386909 0 -0.0073216570917538524 -0.030092577849280194 0 -0.0082324417010630774 -0.033380732258732344 0 -0.011524418496220221 -0.030735986056386909 0 0.0013767133550956409 -0.027761520178386435 0 0.0028098428271573347 -0.031188922774010482 0 0.0070815143646846424 -0.021549484800582216 0 0.0013767133550956409 -0.027761520178386435 0 -0.0016095242120101219 -0.025553063261956933 0 0.0070815143646846424 -0.021549484800582216 0 0.0013767133550956409 -0.027761520178386435 0 -0.0016095242120101219 -0.025553063261956933 0 -0.00099654484769950698 -0.029046461608110058 0 -0.003667943407014357 -0.028889138139928643 0 -0.0016095242120101219 -0.025553063261956933 0 -0.00099654484769950698 -0.029046461608110058 0 -0.003667943407014357 -0.028889138139928643 0 -0.0024161732162509032 -0.031060318924547393 0 -0.00099654484769950698 -0.029046461608110058 0 -0.003667943407014357 -0.028889138139928643 0 -0.0041742570078985453 -0.031421935239426636 0 -0.0024161732162509032 -0.031060318924547393 0 -0.0024161732162509032 -0.031060318924547393 0 -0.00099654484769950698 -0.029046461608110058 0 0.00047179994547689639 -0.031323917693713357 0 0.0013767133550956409 -0.027761520178386435 0 -0.00099654484769950698 -0.029046461608110058 0 0.00047179994547689639 -0.031323917693713357 0 0.0013767133550956409 -0.027761520178386435 0 0.00047179994547689639 -0.031323917693713357 0 0.0028098428271573347 -0.031188922774010482 0 0.010179252617939845 -0.028976669294521765 0 0.013918939224583964 -0.027045532227765359 0 0.00047179994547689639 -0.031323917693713357 0 0.0028098428271573347 -0.031188922774010482 0 -0.00085389915107323593 -0.039855549368379178 0 0.0050511477960819649 -0.028223364574421511 0 0.0066775136461010923 -0.03284349268054431 0 0.0026103469212758646 -0.034782241540536232 0 0.00047179994547689639 -0.031323917693713357 0 -0.0042756023319339836 -0.034527752400962577 0 -0.00085389915107323593 -0.039855549368379178 0 0.0077120837368806691 -0.02926430630374564 0 0.0097464809857419777 -0.028074707466727817 0 -0.0024161732162509032 -0.031060318924547393 0 0.00047179994547689639 -0.031323917693713357 0 -0.0045406114608241548 -0.03432672343731679 0 0.0097464809857419777 -0.028074707466727817 0 0.013918939224583964 -0.027045532227765359 0 0.024389339803970872 -0.01828765325537015 0 0.022436323394413173 -0.019583720203762242 0 0.023901320111265043 -0.019999524567817589 0 -0.0082324417010630774 -0.033380732258732344 0 -0.0045377345139778445 -0.03422351215545031 0 -0.012087530203366696 -0.039220087035596929 0 -0.0082324417010630774 -0.033380732258732344 0 -0.011524418496220221 -0.030735986056386909 0 -0.012087530203366696 -0.039220087035596929 0 0.0097464809857419777 -0.028074707466727817 0 0.0035076698828501091 -0.02382080623686093 0 -0.0041742570078985453 -0.031421935239426636 0 -0.0073216570917538524 -0.030092577849280194 0 -0.005213050384234425 -0.033227270588149733 0 -0.0082324417010630774 -0.033380732258732344 0 -0.005213050384234425 -0.033227270588149733 0 -0.0045377345139778445 -0.03422351215545031 0 -0.0073216570917538524 -0.030092577849280194 0 -0.0082324417010630774 -0.033380732258732344 0 -0.005213050384234425 -0.033227270588149733 0 -0.0041742570078985453 -0.031421935239426636 0 -0.0024161732162509032 -0.031060318924547393 0 -0.0045406114608241548 -0.03432672343731679 0 -0.0041742570078985453 -0.031421935239426636 0 -0.005213050384234425 -0.033227270588149733 0 -0.0045406114608241548 -0.03432672343731679 0 0.0096878894415341615 -0.028067512448488215 0 0.0097464809857419777 -0.028074707466727817 0 0.024389339803970872 -0.01828765325537015 0 0.023901320111265043 -0.019999524567817589 0 0.02526879727858487 -0.019615664659090537 0 -0.020372774451099002 -0.020514948461348138 0 -0.019512837270140825 -0.018817544763566795 0 -0.01827343783268346 -0.021282489322322108 0 -0.009821483690085956 -0.020316978692530994 0 0.0035076698828501091 -0.02382080623686093 0 -0.017324548601497979 -0.027348063398138431 0 -0.011524418496220221 -0.030735986056386909 0 -0.012087530203366696 -0.039220087035596929 0 -0.020372774451099002 -0.020514948461348138 0 -0.019512837270140825 -0.018817544763566795 0 -0.021691128611619086 -0.018523680388204747 0 -0.012541982308978657 -0.022280405965382531 0 -0.010243441785584019 -0.026465928843661592 0 -0.017324548601497979 -0.027348063398138431 0 -0.010243441785584019 -0.026465928843661592 0 -0.017324548601497979 -0.027348063398138431 0 -0.011524418496220221 -0.030735986056386909 0 0.023044315492436854 -0.025721385147643178 0 0.018330245481277874 -0.031859200473927936 0 0.017555014781221349 -0.024055552388269133 0 0.023079653782974816 -0.024866820607619362 0 0.027760198711628662 -0.021993791679571828 0 0.030512262452388673 -0.028886076881870025 0 0.02667277098094268 -0.033481083789143933 0 0.030512262452388673 -0.028886076881870025 0 0.029438397393295627 -0.039700987245717835 0 0.023079653782974816 -0.024866820607619362 0 0.02667277098094268 -0.033481083789143933 0 0.030512262452388673 -0.028886076881870025 0 0.022567950536033686 -0.023992458467223858 0 0.024197432947885209 -0.027734348750802107 0 0.023044315492436854 -0.025721385147643178 0 0.02667277098094268 -0.033481083789143933 0 0.018330245481277874 -0.031859200473927936 0 0.018330245481277874 -0.031859200473927936 0 0.013001488016561952 -0.027940532714401993 0 0.010614301003206974 -0.034847749615996924 0 0.0085432459813269794 -0.029809519533547348 0 0.013001488016561952 -0.027940532714401993 0 0.010614301003206974 -0.034847749615996924 0 0.0066775136461010923 -0.03284349268054431 0 0.0085432459813269794 -0.029809519533547348 0 0.010614301003206974 -0.034847749615996924 0 0.0050511477960819649 -0.028223364574421511 0 0.0066775136461010923 -0.03284349268054431 0 0.0085432459813269794 -0.029809519533547348 0 0.010179252617939845 -0.028976669294521765 0 0.0099460804656728036 -0.027380300731509762 0 0.008684446022461427 -0.025780364736149225 0 0.013001488016561952 -0.027940532714401993 0 0.013018466845603977 -0.021332871695036063 0 0.0050511477960819649 -0.028223364574421511 0 0.008684446022461427 -0.025780364736149225 0 0.0070815143646846424 -0.021549484800582216 0 0.0050511477960819649 -0.028223364574421511 0 0.0085432459813269794 -0.029809519533547348 0 0.008684446022461427 -0.025780364736149225 0 0.0085432459813269794 -0.029809519533547348 0 0.008684446022461427 -0.025780364736149225 0 0.013001488016561952 -0.027940532714401993 0 0.018330245481277874 -0.031859200473927936 0 0.017555014781221349 -0.024055552388269133 0 0.013001488016561952 -0.027940532714401993 0 0.017555014781221349 -0.024055552388269133 0 0.013001488016561952 -0.027940532714401993 0 0.013018466845603977 -0.021332871695036063 0 0.017555014781221349 -0.024055552388269133 0 0.013018466845603977 -0.021332871695036063 0 0.01964602775454951 -0.017537624441991924 0 0.013018466845603977 -0.021332871695036063 0 0.010593887500392992 -0.013737169850116738 0 0.01964602775454951 -0.017537624441991924 0 0.013018466845603977 -0.021332871695036063 0 0.0070815143646846424 -0.021549484800582216 0 0.010593887500392992 -0.013737169850116738 0 0.008684446022461427 -0.025780364736149225 0 0.013018466845603977 -0.021332871695036063 0 0.0070815143646846424 -0.021549484800582216 0 0.00071598254468580665 -0.013650248237444982 0 0.0070815143646846424 -0.021549484800582216 0 0.010593887500392992 -0.013737169850116738 0 0.00071598254468580665 -0.013650248237444982 0 0.010593887500392992 -0.013737169850116738 0 0.0061572927886145452 -0.0085579262183166551 0 0.010593887500392992 -0.013737169850116738 0 0.01964602775454951 -0.017537624441991924 0 0.015927866951585167 -0.0089982029373768604 0 0.02264211170337143 -0.012361949593376277 0 0.02105084359260348 -0.0084697305142773464 0 0.016026163781995936 -0.0085267907350839688 0 0.019560262169344776 -0.017062993082330488 0 0.016576837558297489 -0.010230969726973967 0 0.02264211170337143 -0.012361949593376277 0 0.019581726674647273 -0.016502268222954388 0 0.026010797819087474 -0.016784685661543897 0 0.02264211170337143 -0.012361949593376277 0 0.019581726674647273 -0.016502268222954388 0 0.016026163781995936 -0.0085267907350839688 0 0.02264211170337143 -0.012361949593376277 0 0.023920771131418706 -0.010272309760275494 0 0.02105084359260348 -0.0084697305142773464 0 0.023079653782974816 -0.024866820607619362 0 0.019581726674647273 -0.016502268222954388 0 0.026010797819087474 -0.016784685661543897 0 0.022567950536033686 -0.023992458467223858 0 0.019560262169344776 -0.017062993082330488 0 0.023044315492436854 -0.025721385147643178 0 0.017555014781221349 -0.024055552388269133 0 0.01964602775454951 -0.017537624441991924 0 0.023079653782974816 -0.024866820607619362 0 0.027760198711628662 -0.021993791679571828 0 0.026010797819087474 -0.016784685661543897 0 0.027760198711628662 -0.021993791679571828 0 0.026010797819087474 -0.016784685661543897 0 0.031550010665351381 -0.017509185015429501 0 0.026010797819087474 -0.016784685661543897 0 0.029169177584405712 -0.013095063746657159 0 0.031550010665351381 -0.017509185015429501 0 0.026010797819087474 -0.016784685661543897 0 0.029169177584405712 -0.013095063746657159 0 0.025904720983507379 -0.011853212148894477 0 0.02264211170337143 -0.012361949593376277 0 0.026010797819087474 -0.016784685661543897 0 0.025904720983507379 -0.011853212148894477 0 0.025904720983507379 -0.011853212148894477 0 0.023920771131418706 -0.010272309760275494 0 0.026111246773546929 -0.0084014531481973551 0 0.02264211170337143 -0.012361949593376277 0 0.025904720983507379 -0.011853212148894477 0 0.023920771131418706 -0.010272309760275494 0 0.029169177584405712 -0.013095063746657159 0 0.025904720983507379 -0.011853212148894477 0 0.026111246773546929 -0.0084014531481973551 0 0.025973855469505779 -0.0070420706558656189 0 0.020606656585089183 -0.0041500288977473782 0 0.023774060510277247 -0.003545685999749144 0 0.027638457950822794 -0.0076067151956040269 0 0.02529846172138395 -0.008697250475905435 0 0.017990605748995955 -0.0041892242439888813 0 0.025973855469505779 -0.0070420706558656189 0 0.026290499108201141 -0.0044375658060642961 0 0.023774060510277247 -0.003545685999749144 0 0.027596205775400947 -0.0077164200399707878 0 0.022941223153271923 -0.0060541601613910449 0 0.025973855469505779 -0.0070420706558656189 0 0.017990605748995955 -0.0041892242439888813 0 0.020606656585089183 -0.0041500288977473782 0 0.026111246773546929 -0.0084014531481973551 0 0.02105084359260348 -0.0084697305142773464 0 0.017226641047484007 -0.004590152568340989 0 0.023920771131418706 -0.010272309760275494 0 0.026111246773546929 -0.0084014531481973551 0 0.02105084359260348 -0.0084697305142773464 0 0.02529846172138395 -0.008697250475905435 0 0.017990605748995955 -0.0041892242439888813 0 0.017226641047484007 -0.004590152568340989 0 0.02668708613859605 -0.0091432438730055295 0 0.022766049129317324 -0.007198877209015464 0 0.02105084359260348 -0.0084697305142773464 0 0.016026163781995936 -0.0085267907350839688 0 0.017226641047484007 -0.004590152568340989 0 0.020606656585089183 -0.0041500288977473782 0 0.021459376823391035 0.00052546967216996962 0 0.023774060510277247 -0.003545685999749144 0 0.020606656585089183 -0.0041500288977473782 0 0.019128851820199723 -0.0018234422122773812 0 0.021459376823391035 0.00052546967216996962 0 0.017990605748995955 -0.0041892242439888813 0 0.020606656585089183 -0.0041500288977473782 0 0.018914837044211569 -0.0032895092189234717 0 0.017911304041586265 -0.0029708881083351218 0 0.019128851820199723 -0.0018234422122773812 0 0.016515009943976124 -0.0019001689728560818 0 0.017990605748995955 -0.0041892242439888813 0 0.017911304041586265 -0.0029708881083351218 0 0.016554688163557322 -0.0029848318279083203 0 0.017990605748995955 -0.0041892242439888813 0 0.017911304041586265 -0.0029708881083351218 0 0.018914837044211569 -0.0032895092189234717 0 0.020606656585089183 -0.0041500288977473782 0 0.018914837044211569 -0.0032895092189234717 0 0.019128851820199723 -0.0018234422122773812 0 0.017911304041586265 -0.0029708881083351218 0 0.018914837044211569 -0.0032895092189234717 0 0.019128851820199723 -0.0018234422122773812 0 0.019128851820199723 -0.0018234422122773812 0 0.016515009943976124 -0.0019001689728560818 0 0.016950434876199613 5.6505749712818799e-05 0 0.019128851820199723 -0.0018234422122773812 0 0.021459376823391035 0.00052546967216996962 0 0.016950434876199613 5.6505749712818799e-05 0 0.021459376823391035 0.00052546967216996962 0 0.023774060510277247 -0.003545685999749144 0 0.027784473421577426 -0.0021615916561702753 0 0.01887123488858981 0.0010217909837644007 0 0.023508520499761782 0.0026724718517165394 0 0.02657047943538355 -0.0019045534526776144 0 0.016165431190656481 -0.0036232164855155777 0 0.024241649515809389 -0.0044666869169021975 0 0.026290499108201141 -0.0044375658060642961 0 0.023774060510277247 -0.003545685999749144 0 0.027784473421577426 -0.0021615916561702753 0 0.010593887500392992 -0.013737169850116738 0 0.011133794630462384 -0.0040475494476589612 0 0.0061572927886145452 -0.0085579262183166551 0 0.0060077986048339763 -0.0079238097816635329 0 0.0052227993449447882 -0.0053027544690257208 0 0.0022718765028248169 -0.0028840766679155846 0 0.011133794630462384 -0.0040475494476589612 0 0.0061572927886145452 -0.0085579262183166551 0 0.016026163781995936 -0.0085267907350839688 0 0.017226641047484007 -0.004590152568340989 0 0.012649623166724012 -0.0013605478688118824 0 0.011557303324493657 -0.0057474984557739812 0 0.015927866951585167 -0.0089982029373768604 0 0.012649623166724012 -0.0013605478688118824 0 0.016576837558297489 -0.010230969726973967 0 0.015020615110619145 -0.0066875324467668079 0 0.010593887500392992 -0.013737169850116738 0 0.011557303324493657 -0.0057474984557739812 0 0.015927866951585167 -0.0089982029373768604 0 0.011557303324493657 -0.0057474984557739812 0 0.012649623166724012 -0.0013605478688118824 0 0.012313791294894325 0.0017416686898176568 0 0.016554688163557322 -0.0029848318279083203 0 0.016515009943976124 -0.0019001689728560818 0 0.012649623166724012 -0.0013605478688118824 0 0.017226641047484007 -0.004590152568340989 0 0.016554688163557322 -0.0029848318279083203 0 0.012649623166724012 -0.0013605478688118824 0 0.017990605748995955 -0.0041892242439888813 0 0.017226641047484007 -0.004590152568340989 0 0.016554688163557322 -0.0029848318279083203 0 0.017911304041586265 -0.0029708881083351218 0 0.016554688163557322 -0.0029848318279083203 0 0.016515009943976124 -0.0019001689728560818 0 0.016515009943976124 -0.0019001689728560818 0 0.016950434876199613 5.6505749712818799e-05 0 0.014768115886796909 -0.00027038777730972578 0 0.016950434876199613 5.6505749712818799e-05 0 0.014768115886796909 -0.00027038777730972578 0 0.014657675525937823 0.0012626936367465412 0 0.016515009943976124 -0.0019001689728560818 0 0.014768115886796909 -0.00027038777730972578 0 0.012649623166724012 -0.0013605478688118824 0 0.014768115886796909 -0.00027038777730972578 0 0.012649623166724012 -0.0013605478688118824 0 0.012313791294894325 0.0017416686898176568 0 0.014768115886796909 -0.00027038777730972578 0 0.012313791294894325 0.0017416686898176568 0 0.014657675525937823 0.0012626936367465412 0 -0.0028054309379175373 -0.0055485945947605043 0 -0.0030829127645389709 -0.0060378969971187123 0 -0.0033133332448754124 -0.0059938612094729031 0 0.0022718765028248169 -0.0028840766679155846 0 0.011133794630462384 -0.0040475494476589612 0 0.011785751652140398 0.0053352137051909882 0 0.0052227993449447882 -0.0053027544690257208 0 0.0020058691683071559 -0.003777511343253161 0 -0.0024196455019982457 -0.0068023712489315947 0 0.0020058691683071559 -0.003777511343253161 0 -0.0062047632566176944 -0.0082659208638374039 0 -0.0059399139130925328 -0.0062464787975980863 0 -0.0072650533018789563 -0.0078544424160665316 0 -0.0071939474916251243 -0.0069949301778320381 0 -0.004827442398653653 -0.0063369669293713137 0 -0.0055512959778108344 -0.0075570164166945857 0 -0.004827442398653653 -0.0063369669293713137 0 -0.0028581539980376425 -0.0059705826042924523 0 -0.0031061660788465999 -0.0062760682504408956 0 -0.0030829127645389709 -0.0060378969971187123 0 -0.0030829127645389709 -0.0060378969971187123 0 -0.0033277496167739853 -0.0061880704345052802 0 -0.0033133332448754124 -0.0059938612094729031 0 -0.0031061660788465999 -0.0062760682504408956 0 -0.0030829127645389709 -0.0060378969971187123 0 -0.0033277496167739853 -0.0061880704345052802 0 -0.004827442398653653 -0.0063369669293713137 0 -0.0001114320254883452 -0.0045684878102836175 0 0.0028433808166664566 -0.0034222780340640558 0 0.0044806350374635906 -0.00035538916544187944 0 -0.011860038083272203 -0.010276573583124523 0 -0.01149651275608031 -0.010416095788556536 0 -0.011476896391433572 -0.0098048540990698201 0 -0.0001114320254883452 -0.0045684878102836175 0 0.0028433808166664566 -0.0034222780340640558 0 0.00070691923933041668 -0.0061859656090855024 0 0.0009250498212840521 -0.0031672226423752853 0 -0.0015473651198618435 -0.0053115728396238328 0 -0.0001114320254883452 -0.0045684878102836175 0 0.0020058691683071559 -0.003777511343253161 0 0.012313791294894325 0.0017416686898176568 0 0.014657675525937823 0.0012626936367465412 0 0.014559941114912845 0.0035237695909914875 0 0.0020058691683071559 -0.003777511343253161 0 0.0028433808166664566 -0.0034222780340640558 0 0.016950434876199613 5.6505749712818799e-05 0 0.014657675525937823 0.0012626936367465412 0 0.014559941114912845 0.0035237695909914875 0 -0.01149651275608031 -0.010416095788556536 0 -0.011476896391433572 -0.0098048540990698201 0 -0.010444749379675572 -0.0095465932448877081 0 -0.0118277584940472 -0.0092701027797992257 0 -0.011476896391433572 -0.0098048540990698201 0 -0.010444749379675572 -0.0095465932448877081 0 -0.0001114320254883452 -0.0045684878102836175 0 -0.0049559738024943139 -0.0079306668339829151 0 -0.011860038083272203 -0.010276573583124523 0 -0.0118277584940472 -0.0092701027797992257 0 -0.011476896391433572 -0.0098048540990698201 0 -0.0079336294684591822 -0.007936898359416248 0 -0.0071939474916251243 -0.0069949301778320381 0 -0.013916142912616869 -0.0089938914120493707 0 -0.014056444558753475 -0.010254348682973433 0 -0.013474000785568587 -0.0097425372724795501 0 -0.00064478097022617606 -0.0045301275025378127 0 -0.0024106195599127413 -0.0038443920588058975 0 -0.0026378468266263131 -0.0069527355665743454 0 -0.013916142912616869 -0.0089938914120493707 0 -0.012567359325446238 -0.0095181626258199412 0 -0.013474000785568587 -0.0097425372724795501 0 -0.013397192937643848 -0.010506661520101962 0 -0.012567359325446238 -0.0095181626258199412 0 -0.013474000785568587 -0.0097425372724795501 0 -0.004827442398653653 -0.0063369669293713137 0 -0.0049559738024943139 -0.0079306668339829151 0 -0.014056444558753475 -0.010254348682973433 0 -0.013397192937643848 -0.010506661520101962 0 -0.013474000785568587 -0.0097425372724795501 0 0.020347833844992693 0.0054991564839647674 0 0.023827359100585612 0.0062719744577411432 0 0.023508520499761782 0.0026724718517165394 0 0.023827359100585612 0.0062719744577411432 0 0.023508520499761782 0.0026724718517165394 0 0.028462543966090773 0.002423849536247752 0 0.01887123488858981 0.0010217909837644007 0 0.020347833844992693 0.0054991564839647674 0 0.023508520499761782 0.0026724718517165394 0 0.021459376823391035 0.00052546967216996962 0 0.016950434876199613 5.6505749712818799e-05 0 0.014559941114912845 0.0035237695909914875 0 0.011245832796556941 0.0039613880202893619 0 0.016799423405299978 0.0049143735491339064 0 0.017234259993106443 0.0091191613398702992 0 0.016165431190656481 -0.0036232164855155777 0 0.0028433808166664566 -0.0034222780340640558 0 0.01887123488858981 0.0010217909837644007 0 0.011245832796556941 0.0039613880202893619 0 0.016799423405299978 0.0049143735491339064 0 0.01887123488858981 0.0010217909837644007 0 0.020347833844992693 0.0054991564839647674 0 0.016799423405299978 0.0049143735491339064 0 0.020347833844992693 0.0054991564839647674 0 0.016799423405299978 0.0049143735491339064 0 0.017234259993106443 0.0091191613398702992 0 -0.010243098799425638 -0.0086853022190486479 0 -0.0118277584940472 -0.0092701027797992257 0 -0.010444749379675572 -0.0095465932448877081 0 0.020347833844992693 0.0054991564839647674 0 0.017234259993106443 0.0091191613398702992 0 0.021856145089066928 0.0089355766304566216 0 0.007482918128502606 0.0034432850152891058 0 0.0044806350374635906 -0.00035538916544187944 0 0.023150322494058666 0.014207799301683997 0 0.017234259993106443 0.0091191613398702992 0 0.021856145089066928 0.0089355766304566216 0 0.020347833844992693 0.0054991564839647674 0 0.023827359100585612 0.0062719744577411432 0 0.021856145089066928 0.0089355766304566216 0 0.013183837852136329 0.007175971451488663 0 0.012489393130423188 0.0066202452789029592 0 0.023827359100585612 0.0062719744577411432 0 0.021856145089066928 0.0089355766304566216 0 0.025199783102917775 0.0095092240254000659 0 0.023150322494058666 0.014207799301683997 0 0.021856145089066928 0.0089355766304566216 0 0.025199783102917775 0.0095092240254000659 0 0.007482918128502606 0.0034432850152891058 0 0.012489393130423188 0.0066202452789029592 0 0.029063116327247354 0.01770090152394721 0 0.025448293153122109 0.0093810166333800106 0 0.031316776956191075 0.0080913337097192201 0 0.023827359100585612 0.0062719744577411432 0 0.025255384691427993 0.0095902088651045325 0 0.028462543966090773 0.002423849536247752 0 0.012489393130423188 0.0066202452789029592 0 0.016029174855388292 0.0039484393854228965 0 0.025448293153122109 0.0093810166333800106 0 0.028462543966090773 0.002423849536247752 0 0.031316776956191075 0.0080913337097192201 0 0.028462543966090773 0.002423849536247752 0 0.035350633114341973 0.0028892455412999544 0 0.031179833917819387 -0.00030729250575615644 0 0.028462543966090773 0.002423849536247752 0 0.035350633114341973 0.0028892455412999544 0 0.031316776956191075 0.0080913337097192201 0 0.035350633114341973 0.0028892455412999544 0 0.03635889647941927 0.01159097004305166 0 0.031316776956191075 0.0080913337097192201 0 0.023687491706132432 0.0136389276474497 0 0.034975815680160491 0.014236233435628538 0 0.034435349365300363 0.00448161954373783 0 0.026659278375698179 0.0087398651841525555 0 0.037721025072363634 0.0033209037200918248 0 0.034975815680160491 0.014236233435628538 0 0.034435349365300363 0.00448161954373783 0 0.045096757041658518 0.0053083962386101186 0 0.037721025072363634 0.0033209037200918248 0 0.047937702394134814 -0.0032059269291702394 0 0.035350633114341973 0.0028892455412999544 0 0.03635889647941927 0.01159097004305166 0 0.043630786888905683 0.0054624359915390591 0 0.035350633114341973 0.0028892455412999544 0 0.043630786888905683 0.0054624359915390591 0 0.041924259807881739 -0.0011227369704053284 0 0.035350633114341973 0.0028892455412999544 0 0.041924259807881739 -0.0011227369704053284 0 0.034269386291931769 -0.0046748414733907831 0 0.043630786888905683 0.0054624359915390591 0 0.041924259807881739 -0.0011227369704053284 0 0.050837760034240287 -0.00060303617487704171 0 0.041924259807881739 -0.0011227369704053284 0 0.045461537910664013 -0.0064339351686182574 0 0.050837760034240287 -0.00060303617487704171 0 0.045461537910664013 -0.0064339351686182574 0 0.039982077282733813 -0.0072376627398510049 0 0.043380921843395807 -0.013719141440533152 0 0.041924259807881739 -0.0011227369704053284 0 0.045461537910664013 -0.0064339351686182574 0 0.039982077282733813 -0.0072376627398510049 0 0.041924259807881739 -0.0011227369704053284 0 0.039982077282733813 -0.0072376627398510049 0 0.034269386291931769 -0.0046748414733907831 0 0.034269386291931769 -0.0046748414733907831 0 0.030680096416595606 -0.0068027570569492418 0 0.034207172789100293 -0.010315356761347748 0 0.039982077282733813 -0.0072376627398510049 0 0.034269386291931769 -0.0046748414733907831 0 0.034207172789100293 -0.010315356761347748 0 0.034269386291931769 -0.0046748414733907831 0 0.030680096416595606 -0.0068027570569492418 0 0.028516185975285484 -0.0051092171201795461 0 0.027638457950822794 -0.0076067151956040269 0 0.02529846172138395 -0.008697250475905435 0 0.033262947377131216 -0.012669707709849836 0 0.025973855469505779 -0.0070420706558656189 0 0.030680096416595606 -0.0068027570569492418 0 0.034207172789100293 -0.010315356761347748 0 0.027596205775400947 -0.0077164200399707878 0 0.035807639541935686 -0.010679454072373192 0 0.025973855469505779 -0.0070420706558656189 0 0.026290499108201141 -0.0044375658060642961 0 0.028516185975285484 -0.0051092171201795461 0 0.025973855469505779 -0.0070420706558656189 0 0.030680096416595606 -0.0068027570569492418 0 0.028516185975285484 -0.0051092171201795461 0 0.027893596214509139 -0.0052140475160371699 0 0.024241649515809389 -0.0044666869169021975 0 0.034269386291931769 -0.0046748414733907831 0 0.02657047943538355 -0.0019045534526776144 0 0.031179833917819387 -0.00030729250575615644 0 0.034269386291931769 -0.0046748414733907831 0 0.028516185975285484 -0.0051092171201795461 0 0.027784473421577426 -0.0021615916561702753 0 0.026290499108201141 -0.0044375658060642961 0 0.028516185975285484 -0.0051092171201795461 0 0.027784473421577426 -0.0021615916561702753 0 0.023508520499761782 0.0026724718517165394 0 0.028462543966090773 0.002423849536247752 0 0.02657047943538355 -0.0019045534526776144 0 0.028462543966090773 0.002423849536247752 0 0.02657047943538355 -0.0019045534526776144 0 0.031179833917819387 -0.00030729250575615644 0 0.035350633114341973 0.0028892455412999544 0 0.034269386291931769 -0.0046748414733907831 0 0.031179833917819387 -0.00030729250575615644 0 -0.0087944287684820852 -0.0055686143015377864 0 -0.007123411059969346 -0.0090762235631896889 0 -0.0022022142855607279 -0.0097232299891639434 0 -0.01575210267751722 -0.0017927237775139761 0 -0.014853893338727457 -0.0016519295314395301 0 -0.016101007036559003 -0.0013648571452462965 0 -0.014853893338727457 -0.0016519295314395301 0 -0.016101007036559003 -0.0013648571452462965 0 -0.016137779552203191 -0.00092263757319400216 0 -0.010427504672036183 -0.0031669244283777311 0 -0.0069838919807649648 -0.0041349216855916101 0 -0.01575210267751722 -0.0017927237775139761 0 -0.015264330552989893 -0.0023903889656715568 0 -0.014853893338727457 -0.0016519295314395301 0 -0.01575210267751722 -0.0017927237775139761 0 -0.015912436103466963 -0.0021251851387784847 0 -0.015264330552989893 -0.0023903889656715568 0 -0.015912436103466963 -0.0021251851387784847 0 -0.016101538048528062 -0.0027857305095570842 0 -0.015264330552989893 -0.0023903889656715568 0 -0.014950965327932286 -0.0032525307004353022 0 -0.016101538048528062 -0.0027857305095570842 0 -0.015264330552989893 -0.0023903889656715568 0 -0.015264330552989893 -0.0023903889656715568 0 -0.014476594771416544 -0.0027103261919252577 0 -0.014853893338727457 -0.0016519295314395301 0 -0.014476594771416544 -0.0027103261919252577 0 -0.014853893338727457 -0.0016519295314395301 0 -0.01334060529401775 -0.0030518940529073815 0 -0.014950965327932286 -0.0032525307004353022 0 -0.015264330552989893 -0.0023903889656715568 0 -0.014476594771416544 -0.0027103261919252577 0 0.055496012637244095 0.0061874566126556016 0 0.056027596973378828 -0.0040696302293487833 0 0.066623273035447281 -0.0032638218610125183 0 -0.0087944287684820852 -0.0055686143015377864 0 -0.011711488144983278 -0.0048944011094370337 0 -0.007123411059969346 -0.0090762235631896889 0 0.021720560699522735 -0.0006272473783197883 0 0.029657639938185199 -0.0069388939852393847 0 0.045096757041658518 0.0053083962386101186 0 0.045604849073635538 -0.004958172702806839 0 0.056027596973378828 -0.0040696302293487833 0 0.055496012637244095 0.0061874566126556016 0 0.045096757041658518 0.0053083962386101186 0 0.056027596973378828 -0.0040696302293487833 0 -0.010427504672036183 -0.0031669244283777311 0 -0.011659630820589763 -0.0027452198290893893 0 -0.014071528803455184 -0.0029088197039304001 0 -0.014476594771416544 -0.0027103261919252577 0 -0.01334060529401775 -0.0030518940529073815 0 0.014345541306719613 0.0043134932152444939 0 0.021720560699522735 -0.0006272473783197883 0 -0.014507910135475118 -0.0025348171850931587 0 -0.011711488144983278 -0.0048944011094370337 0 -0.01334060529401775 -0.0030518940529073815 0 -0.0087944287684820852 -0.0055686143015377864 0 -0.011711488144983278 -0.0048944011094370337 0 -0.01334060529401775 -0.0030518940529073815 0 0.044676817313833064 0.015319146090307873 0 0.055496012637244095 0.0061874566126556016 0 0.045096757041658518 0.0053083962386101186 0 0.044676817313833064 0.015319146090307873 0 0.034975815680160491 0.014236233435628538 0 0.045096757041658518 0.0053083962386101186 0 0.034435349365300363 0.00448161954373783 0 0.045096757041658518 0.0053083962386101186 0 0.045604849073635538 -0.004958172702806839 0 0.045461537910664013 -0.0064339351686182574 0 0.050837760034240287 -0.00060303617487704171 0 0.051203337737089738 -0.0095006829953637548 0 0.050837760034240287 -0.00060303617487704171 0 0.058053897882330063 -0.0066931017866580103 0 0.051203337737089738 -0.0095006829953637548 0 0.047937702394134814 -0.0032059269291702394 0 0.058005669812578139 -0.010051820624109486 0 0.045604849073635538 -0.004958172702806839 0 0.05722202633398988 -0.014634683662066706 0 0.056027596973378828 -0.0040696302293487833 0 0.05722202633398988 -0.014634683662066706 0 0.056027596973378828 -0.0040696302293487833 0 0.066623273035447281 -0.0032638218610125183 0 0.05722202633398988 -0.014634683662066706 0 0.069362292563623959 -0.014964203441943118 0 0.066623273035447281 -0.0032638218610125183 0 0.05722202633398988 -0.014634683662066706 0 0.069362292563623959 -0.014964203441943118 0 0.069199539669535889 -0.024208617690411081 0 0.069362292563623959 -0.014964203441943118 0 0.066623273035447281 -0.0032638218610125183 0 0.077915895656082659 -0.013052128910613582 0 0.069362292563623959 -0.014964203441943118 0 0.077915895656082659 -0.013052128910613582 0 0.075897888217984655 -0.019549153079425906 0 -0.007123411059969346 -0.0090762235631896889 0 -0.0022022142855607279 -0.0097232299891639434 0 -0.0011993553974512764 -0.014570357837750654 0 0.029657639938185199 -0.0069388939852393847 0 0.037752109668394408 -0.013899908893435614 0 0.065050249184159623 -0.012818145273059601 0 0.062052606438258745 -0.019926224250388692 0 0.071511826833128067 -0.018515873028384627 0 0.068243586263895026 -0.016443883852043005 0 0.078814276264393177 -0.021137118131939109 0 0.069362292563623959 -0.014964203441943118 0 0.069199539669535889 -0.024208617690411081 0 0.075897888217984655 -0.019549153079425906 0 0.069199539669535889 -0.024208617690411081 0 0.075897888217984655 -0.019549153079425906 0 0.076824061973018845 -0.025149677070437502 0 0.058005669812578139 -0.010051820624109486 0 0.068243586263895026 -0.016443883852043005 0 0.058053897882330063 -0.0066931017866580103 0 0.065050249184159623 -0.012818145273059601 0 0.058836590273657348 -0.014344252361423875 0 0.065050249184159623 -0.012818145273059601 0 0.058836590273657348 -0.014344252361423875 0 0.062052606438258745 -0.019926224250388692 0 0.054224071082543804 -0.017208904207328964 0 0.057959548245805424 -0.022130870878636473 0 0.062052606438258745 -0.019926224250388692 0 0.052628698324947994 -0.016684262766280978 0 0.057159207167324401 -0.01826255663214733 0 0.058836590273657348 -0.014344252361423875 0 0.052738214838653139 -0.01695901667611082 0 0.062052606438258745 -0.019926224250388692 0 0.058836590273657348 -0.014344252361423875 0 0.051203337737089738 -0.0095006829953637548 0 0.052738214838653139 -0.01695901667611082 0 0.058053897882330063 -0.0066931017866580103 0 0.058836590273657348 -0.014344252361423875 0 0.051203337737089738 -0.0095006829953637548 0 0.051203337737089738 -0.0095006829953637548 0 0.052738214838653139 -0.01695901667611082 0 0.043380921843395807 -0.013719141440533152 0 0.052628698324947994 -0.016684262766280978 0 0.044508676576575389 -0.013808034896656628 0 0.054224071082543804 -0.017208904207328964 0 0.051103768788105894 -0.02241413234856943 0 0.048264800431099479 -0.019927989037105309 0 0.054224071082543804 -0.017208904207328964 0 0.051103768788105894 -0.02241413234856943 0 0.054514891654358633 -0.022597320606995472 0 0.051103768788105894 -0.02241413234856943 0 0.053223979209913168 -0.024983467402048199 0 0.054514891654358633 -0.022597320606995472 0 0.051103768788105894 -0.02241413234856943 0 0.050384177750101983 -0.025761626938890166 0 0.053223979209913168 -0.024983467402048199 0 0.051103768788105894 -0.02241413234856943 0 0.050384177750101983 -0.025761626938890166 0 0.047441300790300206 -0.023515816014310624 0 0.073272534169556341 -0.024705186874524027 0 0.074464538785717876 -0.025476499867945607 0 0.050384177750101983 -0.025761626938890166 0 0.051651962717146824 -0.028124229726957512 0 0.048103728701148291 -0.02770331305852923 0 0.05171436326588065 -0.028089105164843226 0 0.054104873686450873 -0.027637696574211827 0 0.053587524555842335 -0.031410780494549345 0 0.050384177750101983 -0.025761626938890166 0 0.05171436326588065 -0.028089105164843226 0 0.054104873686450873 -0.027637696574211827 0 0.050384177750101983 -0.025761626938890166 0 0.054104873686450873 -0.027637696574211827 0 0.053223979209913168 -0.024983467402048199 0 0.054104873686450873 -0.027637696574211827 0 0.053223979209913168 -0.024983467402048199 0 0.056424981713552494 -0.026170057281209962 0 0.054104873686450873 -0.027637696574211827 0 0.056424981713552494 -0.026170057281209962 0 0.056873947458987516 -0.029854005259381963 0 0.056424981713552494 -0.026170057281209962 0 0.06072188119088303 -0.030330181193797684 0 0.056873947458987516 -0.029854005259381963 0 0.056424981713552494 -0.026170057281209962 0 0.057959548245805424 -0.022130870878636473 0 0.061637803769938507 -0.025295142764931236 0 0.054224071082543804 -0.017208904207328964 0 0.054514891654358633 -0.022597320606995472 0 0.057959548245805424 -0.022130870878636473 0 0.053223979209913168 -0.024983467402048199 0 0.056424981713552494 -0.026170057281209962 0 0.054514891654358633 -0.022597320606995472 0 0.056424981713552494 -0.026170057281209962 0 0.054514891654358633 -0.022597320606995472 0 0.057959548245805424 -0.022130870878636473 0 0.057959548245805424 -0.022130870878636473 0 0.062052606438258745 -0.019926224250388692 0 0.061637803769938507 -0.025295142764931236 0 0.056424981713552494 -0.026170057281209962 0 0.061637803769938507 -0.025295142764931236 0 0.06072188119088303 -0.030330181193797684 0 0.061637803769938507 -0.025295142764931236 0 0.06072188119088303 -0.030330181193797684 0 0.06881164212225134 -0.026610559278784949 0 0.062052606438258745 -0.019926224250388692 0 0.071511826833128067 -0.018515873028384627 0 0.06881164212225134 -0.026610559278784949 0 0.062052606438258745 -0.019926224250388692 0 0.061637803769938507 -0.025295142764931236 0 0.06881164212225134 -0.026610559278784949 0 0.036704440268744032 -0.017826976867274625 0 0.034667078485054882 -0.012862041394197178 0 0.04164715314525292 -0.016658024509430071 0 0.036704440268744032 -0.017826976867274625 0 0.04164715314525292 -0.016658024509430071 0 0.039155706632063469 -0.0214689138508747 0 0.036704440268744032 -0.017826976867274625 0 0.031550010665351381 -0.017509185015429501 0 0.035573251485689426 -0.021542221259542169 0 0.036704440268744032 -0.017826976867274625 0 0.031550010665351381 -0.017509185015429501 0 0.034667078485054882 -0.012862041394197178 0 0.029169177584405712 -0.013095063746657159 0 0.026111246773546929 -0.0084014531481973551 0 0.034667078485054882 -0.012862041394197178 0 0.02668708613859605 -0.0091432438730055295 0 0.033624820551204714 -0.012621158808095383 0 0.027638457950822794 -0.0076067151956040269 0 0.033262947377131216 -0.012669707709849836 0 0.037030221120209844 -0.01094953879521301 0 0.029169177584405712 -0.013095063746657159 0 0.031550010665351381 -0.017509185015429501 0 0.034667078485054882 -0.012862041394197178 0 0.033624820551204714 -0.012621158808095383 0 0.04018996903377161 -0.015924339822769085 0 0.033262947377131216 -0.012669707709849836 0 0.037030221120209844 -0.01094953879521301 0 0.04095141408365021 -0.016430761497600487 0 0.039982077282733813 -0.0072376627398510049 0 0.034207172789100293 -0.010315356761347748 0 0.043380921843395807 -0.013719141440533152 0 0.037030221120209844 -0.01094953879521301 0 0.045946743476830094 -0.014176868117720641 0 0.04095141408365021 -0.016430761497600487 0 0.035807639541935686 -0.010679454072373192 0 0.044508676576575389 -0.013808034896656628 0 0.045461537910664013 -0.0064339351686182574 0 0.051203337737089738 -0.0095006829953637548 0 0.043380921843395807 -0.013719141440533152 0 0.045946743476830094 -0.014176868117720641 0 0.048264800431099479 -0.019927989037105309 0 0.04095141408365021 -0.016430761497600487 0 0.054224071082543804 -0.017208904207328964 0 0.045946743476830094 -0.014176868117720641 0 0.048264800431099479 -0.019927989037105309 0 0.048264800431099479 -0.019927989037105309 0 0.04164715314525292 -0.016658024509430071 0 0.043755256157677287 -0.02247825015899339 0 0.04365994248814159 -0.017661018123871209 0 0.04018996903377161 -0.015924339822769085 0 0.04164715314525292 -0.016658024509430071 0 0.043755256157677287 -0.02247825015899339 0 0.039155706632063469 -0.0214689138508747 0 0.043755256157677287 -0.02247825015899339 0 0.040492584264788176 -0.02478383143221121 0 0.039155706632063469 -0.0214689138508747 0 0.051103768788105894 -0.02241413234856943 0 0.048264800431099479 -0.019927989037105309 0 0.047441300790300206 -0.023515816014310624 0 0.048264800431099479 -0.019927989037105309 0 0.043755256157677287 -0.02247825015899339 0 0.047441300790300206 -0.023515816014310624 0 0.043755256157677287 -0.02247825015899339 0 0.047441300790300206 -0.023515816014310624 0 0.045807093802501808 -0.026147769316301674 0 0.050384177750101983 -0.025761626938890166 0 0.047941774587760604 -0.025830095900777107 0 0.048103728701148291 -0.02770331305852923 0 0.050384177750101983 -0.025761626938890166 0 0.047441300790300206 -0.023515816014310624 0 0.047941774587760604 -0.025830095900777107 0 0.047441300790300206 -0.023515816014310624 0 0.047941774587760604 -0.025830095900777107 0 0.045807093802501808 -0.026147769316301674 0 0.047941774587760604 -0.025830095900777107 0 0.045807093802501808 -0.026147769316301674 0 0.048103728701148291 -0.02770331305852923 0 0.045807093802501808 -0.026147769316301674 0 0.045495359005929603 -0.028689985529884422 0 0.048103728701148291 -0.02770331305852923 0 0.045495359005929603 -0.028689985529884422 0 0.048103728701148291 -0.02770331305852923 0 0.047141362245583421 -0.03120050441066442 0 0.051651962717146824 -0.028124229726957512 0 0.048103728701148291 -0.02770331305852923 0 0.047141362245583421 -0.03120050441066442 0 0.043755256157677287 -0.02247825015899339 0 0.045807093802501808 -0.026147769316301674 0 0.042586624519065613 -0.027342658299288392 0 0.043755256157677287 -0.02247825015899339 0 0.040492584264788176 -0.02478383143221121 0 0.042586624519065613 -0.027342658299288392 0 0.040492584264788176 -0.02478383143221121 0 0.042586624519065613 -0.027342658299288392 0 0.039867003883896829 -0.02820854876430089 0 0.045807093802501808 -0.026147769316301674 0 0.045495359005929603 -0.028689985529884422 0 0.042586624519065613 -0.027342658299288392 0 0.045495359005929603 -0.028689985529884422 0 0.042586624519065613 -0.027342658299288392 0 0.04315524388686897 -0.030368649348033482 0 0.042586624519065613 -0.027342658299288392 0 0.039867003883896829 -0.02820854876430089 0 0.04315524388686897 -0.030368649348033482 0 0.039867003883896829 -0.02820854876430089 0 0.03640802372719016 -0.028908946519271627 0 0.037113323000310366 -0.025202872106778351 0 0.040492584264788176 -0.02478383143221121 0 0.039867003883896829 -0.02820854876430089 0 0.037113323000310366 -0.025202872106778351 0 0.040492584264788176 -0.02478383143221121 0 0.037113323000310366 -0.025202872106778351 0 0.039155706632063469 -0.0214689138508747 0 0.037113323000310366 -0.025202872106778351 0 0.035573251485689426 -0.021542221259542169 0 0.039155706632063469 -0.0214689138508747 0 0.036704440268744032 -0.017826976867274625 0 0.035573251485689426 -0.021542221259542169 0 0.039155706632063469 -0.0214689138508747 0 0.036134003454681901 -0.023088810868402133 0 0.037468032408855434 -0.027745274253093175 0 0.027760198711628662 -0.021993791679571828 0 0.031550010665351381 -0.017509185015429501 0 0.030512262452388673 -0.028886076881870025 0 0.031550010665351381 -0.017509185015429501 0 0.035573251485689426 -0.021542221259542169 0 0.031624570451858264 -0.025548664358668444 0 0.037113323000310366 -0.025202872106778351 0 0.035573251485689426 -0.021542221259542169 0 0.031624570451858264 -0.025548664358668444 0 0.03640802372719016 -0.028908946519271627 0 0.037113323000310366 -0.025202872106778351 0 0.031624570451858264 -0.025548664358668444 0 0.03640802372719016 -0.028908946519271627 0 0.031624570451858264 -0.025548664358668444 0 0.034738685804597373 -0.031867994968577479 0 0.031624570451858264 -0.025548664358668444 0 0.034738685804597373 -0.031867994968577479 0 0.031267024784163613 -0.033479684001220721 0 0.037468032408855434 -0.027745274253093175 0 0.043170260088157185 -0.033711790633242929 0 0.034738685804597373 -0.031867994968577479 0 0.035708621542384196 -0.035839894383323294 0 0.031267024784163613 -0.033479684001220721 0 0.035708621542384196 -0.035839894383323294 0 0.031267024784163613 -0.033479684001220721 0 0.030760050488269929 -0.04133427824241747 0 0.035708621542384196 -0.035839894383323294 0 0.040240167180271395 -0.036291903956386991 0 0.037540420068244214 -0.04021403772922643 0 0.035708621542384196 -0.035839894383323294 0 0.040240167180271395 -0.036291903956386991 0 0.039458537793227139 -0.032592116648659714 0 0.03640802372719016 -0.028908946519271627 0 0.034738685804597373 -0.031867994968577479 0 0.039458537793227139 -0.032592116648659714 0 0.034738685804597373 -0.031867994968577479 0 0.035708621542384196 -0.035839894383323294 0 0.039458537793227139 -0.032592116648659714 0 0.039867003883896829 -0.02820854876430089 0 0.03640802372719016 -0.028908946519271627 0 0.039458537793227139 -0.032592116648659714 0 0.039867003883896829 -0.02820854876430089 0 0.039458537793227139 -0.032592116648659714 0 0.04315524388686897 -0.030368649348033482 0 0.039458537793227139 -0.032592116648659714 0 0.04315524388686897 -0.030368649348033482 0 0.044075451633037131 -0.033712225894958876 0 0.04315524388686897 -0.030368649348033482 0 0.044075451633037131 -0.033712225894958876 0 0.047141362245583421 -0.03120050441066442 0 0.051651962717146824 -0.028124229726957512 0 0.047141362245583421 -0.03120050441066442 0 0.047681624914846919 -0.034211424115124137 0 0.045495359005929603 -0.028689985529884422 0 0.04315524388686897 -0.030368649348033482 0 0.047141362245583421 -0.03120050441066442 0 0.044075451633037131 -0.033712225894958876 0 0.047141362245583421 -0.03120050441066442 0 0.047629963980711114 -0.034131554453195739 0 0.074666611679763878 -0.025795409001541668 0 0.07581469640509797 -0.025293109873816846 0 0.078326409516208298 -0.021802720925943923 0 0.079370511748973721 -0.02014306087115772 0 0.07808462000039211 -0.0203674360203112 0 0.07581469640509797 -0.025293109873816846 0 0.079237722162651569 -0.022104848342933286 0 0.044075451633037131 -0.033712225894958876 0 0.047629963980711114 -0.034131554453195739 0 0.044457844460970168 -0.039080871817893374 0 0.078683656971477667 -0.023510886813435685 0 0.078751248978947849 -0.023915734992628921 0 0.078954306501764479 -0.023663261083205628 0 0.07581469640509797 -0.025293109873816846 0 0.082962507025419158 -0.020455320700453118 0 0.040240167180271395 -0.036291903956386991 0 0.044075451633037131 -0.033712225894958876 0 0.044457844460970168 -0.039080871817893374 0 0.040240167180271395 -0.036291903956386991 0 0.039458537793227139 -0.032592116648659714 0 0.044075451633037131 -0.033712225894958876 0 0.040240167180271395 -0.036291903956386991 0 0.044457844460970168 -0.039080871817893374 0 0.037540420068244214 -0.04021403772922643 0 0.096692755958391358 -0.015506864314739336 0 0.099551008758632195 -0.011146036434732182 0 0.10098254204518445 -0.01471434424826522 0 0.079237722162651569 -0.022104848342933286 0 0.06887831736906555 -0.024217296366864843 0 0.079237722162651569 -0.022104848342933286 0 0.093898761383403959 -0.0097715693033438057 0 0.099743354879624255 -0.011459686998090994 0 0.098486533817730662 -0.011682187379442118 0 0.099435850848301865 -0.010075175866980776 0 0.082962507025419158 -0.020455320700453118 0 0.089253473816392426 -0.013478229994035659 0 0.098486533817730662 -0.011682187379442118 0 0.099435850848301865 -0.010075175866980776 0 0.09819536554950975 -0.0096645952070701889 0 0.079237722162651569 -0.022104848342933286 0 0.082962507025419158 -0.020455320700453118 0 0.099435850848301865 -0.010075175866980776 0 0.09819536554950975 -0.0096645952070701889 0 0.099556069331877384 -0.008410160058131182 0 0.099743354879624255 -0.011459686998090994 0 0.099435850848301865 -0.010075175866980776 0 0.10118192060354637 -0.009179498499993546 0 0.099435850848301865 -0.010075175866980776 0 0.10118192060354637 -0.009179498499993546 0 0.099556069331877384 -0.008410160058131182 0 0.099551008758632195 -0.011146036434732182 0 0.10291530567929669 -0.0114185157009714 0 0.10098254204518445 -0.01471434424826522 0 0.10291530567929669 -0.0114185157009714 0 0.10536568887746658 -0.0093210608791528728 0 0.10507080386866723 -0.013910985076360896 0 0.06887831736906555 -0.024217296366864843 0 0.058732118849681936 -0.024613418012510237 0 0.035708621542384196 -0.035839894383323294 0 0.037540420068244214 -0.04021403772922643 0 0.030760050488269929 -0.04133427824241747 0 0.10291530567929669 -0.0114185157009714 0 0.10098254204518445 -0.01471434424826522 0 0.10507080386866723 -0.013910985076360896 0 0.078510608213549521 -0.024396708489166901 0 0.079028475506753848 -0.021102405823679872 0 0.078510608213549521 -0.024396708489166901 0 0.078821869588416596 -0.023152495693734464 0 0.066288075585002521 -0.034348491485397023 0 0.06072188119088303 -0.030330181193797684 0 0.06881164212225134 -0.026610559278784949 0 0.066288075585002521 -0.034348491485397023 0 0.06072188119088303 -0.030330181193797684 0 0.060198692134272987 -0.034253908751481113 0 0.06072188119088303 -0.030330181193797684 0 0.060198692134272987 -0.034253908751481113 0 0.05691834867307341 -0.033339454778494655 0 0.066288075585002521 -0.034348491485397023 0 0.060198692134272987 -0.034253908751481113 0 0.063877047478639856 -0.042024392850385589 0 0.060198692134272987 -0.034253908751481113 0 0.057784635241065349 -0.036918755249614951 0 0.063877047478639856 -0.042024392850385589 0 0.081718436270180092 -0.021960551882296009 0 0.075738131237086906 -0.024178360639250059 0 0.056766676000104037 -0.037073443062170086 0 0.05691834867307341 -0.033339454778494655 0 0.053587524555842335 -0.031410780494549345 0 0.057784635241065349 -0.036918755249614951 0 0.056766676000104037 -0.037073443062170086 0 0.058061425456899268 -0.035146805646348714 0 0.081222323375467073 -0.022090408910395824 0 0.081718436270180092 -0.021960551882296009 0 0.056766676000104037 -0.037073443062170086 0 0.058061425456899268 -0.035146805646348714 0 0.05691834867307341 -0.033339454778494655 0 0.060198692134272987 -0.034253908751481113 0 0.057784635241065349 -0.036918755249614951 0 0.058061425456899268 -0.035146805646348714 0 0.060198692134272987 -0.034253908751481113 0 0.058061425456899268 -0.035146805646348714 0 0.05691834867307341 -0.033339454778494655 0 0.06072188119088303 -0.030330181193797684 0 0.05691834867307341 -0.033339454778494655 0 0.056873947458987516 -0.029854005259381963 0 0.054104873686450873 -0.027637696574211827 0 0.056873947458987516 -0.029854005259381963 0 0.053587524555842335 -0.031410780494549345 0 0.05691834867307341 -0.033339454778494655 0 0.056873947458987516 -0.029854005259381963 0 0.053587524555842335 -0.031410780494549345 0 0.079028863355841514 -0.022982478197930405 0 0.079185385884645104 -0.023271516474054392 0 0.078964088236434707 -0.023415025867988448 0 0.079028863355841514 -0.022982478197930405 0 0.078683656971477667 -0.023510886813435685 0 0.078964088236434707 -0.023415025867988448 0 0.074464538785717876 -0.025476499867945607 0 0.07581469640509797 -0.025293109873816846 0 0.074464538785717876 -0.025476499867945607 0 0.075738131237086906 -0.024178360639250059 0 0.078751248978947849 -0.023915734992628921 0 0.079506347017994458 -0.023783620613042199 0 0.078954306501764479 -0.023663261083205628 0 0.078683656971477667 -0.023510886813435685 0 0.078964088236434707 -0.023415025867988448 0 0.078954306501764479 -0.023663261083205628 0 0.079506347017994458 -0.023783620613042199 0 0.078964088236434707 -0.023415025867988448 0 0.078954306501764479 -0.023663261083205628 0 0.082962507025419158 -0.020455320700453118 0 0.081718436270180092 -0.021960551882296009 0 0.079452962004456965 -0.023752072422557804 0 0.079185385884645104 -0.023271516474054392 0 0.078964088236434707 -0.023415025867988448 0 0.081718436270180092 -0.021960551882296009 0 0.080854968110738168 -0.022015038127204574 0 0.099150339608197607 -0.013739933676818238 0 0.098756244887277272 -0.011186946111047971 0 0.096667989084781872 -0.01204917856634375 0 0.099150339608197607 -0.013739933676818238 0 0.095906391924160173 -0.01430366664241902 0 0.096667989084781872 -0.01204917856634375 0 0.098756244887277272 -0.011186946111047971 0 0.096550124974328647 -0.010108631604516166 0 0.096667989084781872 -0.01204917856634375 0 0.096550124974328647 -0.010108631604516166 0 0.095314702139017174 -0.010772409563507042 0 0.096667989084781872 -0.01204917856634375 0 0.095314702139017174 -0.010772409563507042 0 0.096667989084781872 -0.01204917856634375 0 0.094798590288533116 -0.012173895442868666 0 0.081718436270180092 -0.021960551882296009 0 0.086522877522126312 -0.017239446047852436 0 0.095906391924160173 -0.01430366664241902 0 0.096667989084781872 -0.01204917856634375 0 0.094798590288533116 -0.012173895442868666 0 0.081718436270180092 -0.021960551882296009 0 0.079028475506753848 -0.021102405823679872 0 0.096288029181434462 -0.015840743526224391 0 0.095060576718674586 -0.013460311043789005 0 0.09312436004952282 -0.013555458301938375 0 0.057784635241065349 -0.036918755249614951 0 0.056773164182868013 -0.037069054414089413 0 0.063877047478639856 -0.042024392850385589 0 0.095060576718674586 -0.013460311043789005 0 0.093301260913371709 -0.012992208899313759 0 0.09312436004952282 -0.013555458301938375 0 0.095314702139017174 -0.010772409563507042 0 0.094798590288533116 -0.012173895442868666 0 0.093713704148021493 -0.01008095588150475 0 0.095060576718674586 -0.013460311043789005 0 0.093868499232148336 -0.010973236393289967 0 0.093301260913371709 -0.012992208899313759 0 0.086522877522126312 -0.017239446047852436 0 0.088362640018414026 -0.013999340930132725 0 0.079028475506753848 -0.021102405823679872 0 0.083814159658503681 -0.019703013920604973 0 0.09224705529036599 -0.011712391082258968 0 0.093115568826669423 -0.013585921139504974 0 0.089785308345781856 -0.011235964362521047 0 0.093301260913371709 -0.012992208899313759 0 0.09224705529036599 -0.011712391082258968 0 0.093115568826669423 -0.013585921139504974 0 0.093868499232148336 -0.010973236393289967 0 0.093301260913371709 -0.012992208899313759 0 0.09224705529036599 -0.011712391082258968 0 0.091628484684012704 -0.017193291595133761 0 0.092863079857616437 -0.013585111759426696 0 0.089994210296005128 -0.014350222905012111 0 0.079216691625100172 -0.020788022530661591 0 0.079028475506753848 -0.021102405823679872 0 0.092542248888906692 -0.008203084089106534 0 0.093692649942421075 -0.0055777137670697963 0 0.091032834770039844 -0.0069494144463155081 0 0.092542248888906692 -0.008203084089106534 0 0.091147818329178745 -0.0083568950022772839 0 0.091032834770039844 -0.0069494144463155081 0 0.092542248888906692 -0.008203084089106534 0 0.091147818329178745 -0.0083568950022772839 0 0.091253621120779255 -0.0097518531844204108 0 0.093868499232148336 -0.010973236393289967 0 0.09224705529036599 -0.011712391082258968 0 0.091253621120779255 -0.0097518531844204108 0 0.088362640018414026 -0.013999340930132725 0 0.088692690276754499 -0.012619251771544281 0 0.09224705529036599 -0.011712391082258968 0 0.091253621120779255 -0.0097518531844204108 0 0.089785308345781856 -0.011235964362521047 0 0.093868499232148336 -0.010973236393289967 0 0.092542248888906692 -0.008203084089106534 0 0.091253621120779255 -0.0097518531844204108 0 0.093713704148021493 -0.01008095588150475 0 0.092542248888906692 -0.008203084089106534 0 0.094079378803812119 -0.0085269554568639851 0 0.095314702139017174 -0.010772409563507042 0 0.093713704148021493 -0.01008095588150475 0 0.095260076534763205 -0.0092679783709657699 0 0.093713704148021493 -0.01008095588150475 0 0.094079378803812119 -0.0085269554568639851 0 0.095260076534763205 -0.0092679783709657699 0 0.094079378803812119 -0.0085269554568639851 0 0.095251072709222284 -0.0075078370528313988 0 0.095260076534763205 -0.0092679783709657699 0 0.092542248888906692 -0.008203084089106534 0 0.09403951095703901 -0.0072529501288059748 0 0.093692649942421075 -0.0055777137670697963 0 0.094079378803812119 -0.0085269554568639851 0 0.09403951095703901 -0.0072529501288059748 0 0.095251072709222284 -0.0075078370528313988 0 0.092542248888906692 -0.008203084089106534 0 0.094079378803812119 -0.0085269554568639851 0 0.09403951095703901 -0.0072529501288059748 0 0.09403951095703901 -0.0072529501288059748 0 0.095251072709222284 -0.0075078370528313988 0 0.094651765222890816 -0.0059438268863513666 0 0.096714504319520903 -0.0070510506197218915 0 0.095251072709222284 -0.0075078370528313988 0 0.095894336433389571 -0.0055672904184490861 0 0.095251072709222284 -0.0075078370528313988 0 0.095894336433389571 -0.0055672904184490861 0 0.094651765222890816 -0.0059438268863513666 0 0.096714504319520903 -0.0070510506197218915 0 0.095251072709222284 -0.0075078370528313988 0 0.096603230301381793 -0.008518228044306372 0 0.095251072709222284 -0.0075078370528313988 0 0.095260076534763205 -0.0092679783709657699 0 0.096603230301381793 -0.008518228044306372 0 0.096550124974328647 -0.010108631604516166 0 0.095314702139017174 -0.010772409563507042 0 0.095260076534763205 -0.0092679783709657699 0 0.096550124974328647 -0.010108631604516166 0 0.095260076534763205 -0.0092679783709657699 0 0.096603230301381793 -0.008518228044306372 0 0.096550124974328647 -0.010108631604516166 0 0.096603230301381793 -0.008518228044306372 0 0.09837280727030201 -0.0085737192653153015 0 0.089253473816392426 -0.013478229994035659 0 0.092226923049292128 -0.010027906328567262 0 0.098756244887277272 -0.011186946111047971 0 0.096550124974328647 -0.010108631604516166 0 0.09837280727030201 -0.0085737192653153015 0 0.096714504319520903 -0.0070510506197218915 0 0.09837280727030201 -0.0085737192653153015 0 0.097778866416259005 -0.0057842640982524616 0 0.092226923049292128 -0.010027906328567262 0 0.093045467183174704 -0.0086750470024492127 0 0.096714504319520903 -0.0070510506197218915 0 0.096603230301381793 -0.008518228044306372 0 0.09837280727030201 -0.0085737192653153015 0 0.097778866416259005 -0.0057842640982524616 0 0.097922687195600933 -0.0037488220378138547 0 0.096811586609310052 -0.0046363695559390019 0 0.097778866416259005 -0.0057842640982524616 0 0.097922687195600933 -0.0037488220378138547 0 0.099064217808360264 -0.0048198481173851232 0 0.098525415070148087 -0.0032138595655734686 0 0.097154257464283925 -0.0032842013832950555 0 0.099311584240467987 -0.0028770590894248793 0 0.095570399077220702 -0.0034822175704344559 0 0.098275451600776761 -0.00153709943772706 0 0.097922687195600933 -0.0037488220378138547 0 0.095570399077220702 -0.0034822175704344559 0 0.096811586609310052 -0.0046363695559390019 0 0.095570399077220702 -0.0034822175704344559 0 0.096035024029132041 -0.0016839365548858424 0 0.098275451600776761 -0.00153709943772706 0 0.095570399077220702 -0.0034822175704344559 0 0.095894336433389571 -0.0055672904184490861 0 0.094919393004131616 -0.0048539775517560373 0 0.096714504319520903 -0.0070510506197218915 0 0.097778866416259005 -0.0057842640982524616 0 0.095894336433389571 -0.0055672904184490861 0 0.097778866416259005 -0.0057842640982524616 0 0.096811586609310052 -0.0046363695559390019 0 0.095894336433389571 -0.0055672904184490861 0 0.095570399077220702 -0.0034822175704344559 0 0.096811586609310052 -0.0046363695559390019 0 0.095894336433389571 -0.0055672904184490861 0 0.095894336433389571 -0.0055672904184490861 0 0.094651765222890816 -0.0059438268863513666 0 0.094919393004131616 -0.0048539775517560373 0 0.094651765222890816 -0.0059438268863513666 0 0.093692649942421075 -0.0055777137670697963 0 0.093994136216533644 -0.004899577641335643 0 0.09403951095703901 -0.0072529501288059748 0 0.094651765222890816 -0.0059438268863513666 0 0.093692649942421075 -0.0055777137670697963 0 0.093994136216533644 -0.004899577641335643 0 0.093383128494223019 -0.0044085059862109472 0 0.094785734360949087 -0.0039073239764455371 0 0.093994136216533644 -0.004899577641335643 0 0.093383128494223019 -0.0044085059862109472 0 0.093088989697386659 -0.0054237134385322931 0 0.093692649942421075 -0.0055777137670697963 0 0.093994136216533644 -0.004899577641335643 0 0.093088989697386659 -0.0054237134385322931 0 0.093994136216533644 -0.004899577641335643 0 0.094919393004131616 -0.0048539775517560373 0 0.094785734360949087 -0.0039073239764455371 0 0.094651765222890816 -0.0059438268863513666 0 0.093994136216533644 -0.004899577641335643 0 0.094919393004131616 -0.0048539775517560373 0 0.095570399077220702 -0.0034822175704344559 0 0.094919393004131616 -0.0048539775517560373 0 0.094785734360949087 -0.0039073239764455371 0 0.095570399077220702 -0.0034822175704344559 0 0.094785734360949087 -0.0039073239764455371 0 0.096035024029132041 -0.0016839365548858424 0 0.097813383296415771 -0.0019298166479920908 0 0.097795855154289416 -0.00065438753476396237 0 0.098559916593989133 -0.00021371688897378074 0 0.093383128494223019 -0.0044085059862109472 0 0.094785734360949087 -0.0039073239764455371 0 0.096035024029132041 -0.0016839365548858424 0 0.095066734532131159 -0.0034274614936253569 0 0.096849764799060795 -0.0015222296903640768 0 0.097795855154289416 -0.00065438753476396237 0 0.097523472081465654 -0.0014757383614329646 0 0.097406530223790685 -0.00078478767610503763 0 0.097813383296415771 -0.0019298166479920908 0 0.097795855154289416 -0.00065438753476396237 0 0.097523472081465654 -0.0014757383614329646 0 0.097813383296415771 -0.0019298166479920908 0 0.097534699621823262 -0.0018095251602748979 0 0.097538531062176193 -0.0020068442349900606 0 0.097534699621823262 -0.0018095251602748979 0 0.096991715251207297 -0.0017802097989226718 0 0.097538531062176193 -0.0020068442349900606 0 0.096991715251207297 -0.0017802097989226718 0 0.097523472081465654 -0.0014757383614329646 0 0.096881400946702459 -0.00093206162043212796 0 0.097534699621823262 -0.0018095251602748979 0 0.096991715251207297 -0.0017802097989226718 0 0.097523472081465654 -0.0014757383614329646 0 0.097813383296415771 -0.0019298166479920908 0 0.097534699621823262 -0.0018095251602748979 0 0.097523472081465654 -0.0014757383614329646 0 0.096881400946702459 -0.00093206162043212796 0 0.097406530223790685 -0.00078478767610503763 0 0.097250191459056973 -0.00018192682382328759 0 0.097523472081465654 -0.0014757383614329646 0 0.096881400946702459 -0.00093206162043212796 0 0.097406530223790685 -0.00078478767610503763 0 0.096881400946702459 -0.00093206162043212796 0 0.096054084731896069 -0.0014640192695135168 0 0.095957573736218563 -1.2141632500332275e-05 0 0.096991715251207297 -0.0017802097989226718 0 0.096881400946702459 -0.00093206162043212796 0 0.096054084731896069 -0.0014640192695135168 0 0.096991715251207297 -0.0017802097989226718 0 0.095649956665310218 -0.0024889431759560553 0 0.096054084731896069 -0.0014640192695135168 0 0.097538531062176193 -0.0020068442349900606 0 0.093976234444913986 -0.0045082642048505286 0 0.095361581385841651 -0.0048677874023346935 0 0.097813383296415771 -0.0019298166479920908 0 0.097538531062176193 -0.0020068442349900606 0 0.095361581385841651 -0.0048677874023346935 0 0.095066734532131159 -0.0034274614936253569 0 0.09247781352661294 -0.0060708685729082478 0 0.092648194610261969 -0.0060060924086805254 0 0.09247781352661294 -0.0060708685729082478 0 0.093383128494223019 -0.0044085059862109472 0 0.093088989697386659 -0.0054237134385322931 0 0.091339381312814591 -0.0068098430020821169 0 0.097538531062176193 -0.0020068442349900606 0 0.095128953804571065 -0.0045815470062980585 0 0.095649956665310218 -0.0024889431759560553 0 0.096991715251207297 -0.0017802097989226718 0 0.097538531062176193 -0.0020068442349900606 0 0.095649956665310218 -0.0024889431759560553 0 0.095765075231629151 -0.0035425335053148291 0 0.09395261946352329 -0.0048527510428707146 0 0.093692649942421075 -0.0055777137670697963 0 0.093088989697386659 -0.0054237134385322931 0 0.091339381312814591 -0.0068098430020821169 0 0.10259307072040087 -0.0070876958101065085 0 0.10095553074496844 -0.0073443740487968813 0 0.10145298645852328 -0.0048161087415207263 0 0.10259307072040087 -0.0070876958101065085 0 0.10363100301277135 -0.0046232075043787122 0 0.10543868357583851 -0.0055321635705957778 0 0.10259307072040087 -0.0070876958101065085 0 0.10543868357583851 -0.0055321635705957778 0 0.10536568887746658 -0.0093210608791528728 0 0.10291530567929669 -0.0114185157009714 0 0.10259307072040087 -0.0070876958101065085 0 0.10536568887746658 -0.0093210608791528728 0 0.093898761383403959 -0.0097715693033438057 0 0.097322673019843722 -0.0073052265069044513 0 0.099551008758632195 -0.011146036434732182 0 0.10291530567929669 -0.0114185157009714 0 0.10259307072040087 -0.0070876958101065085 0 0.10118192060354637 -0.009179498499993546 0 0.10259307072040087 -0.0070876958101065085 0 0.10095553074496844 -0.0073443740487968813 0 0.10118192060354637 -0.009179498499993546 0 0.099556069331877384 -0.008410160058131182 0 0.10095553074496844 -0.0073443740487968813 0 0.099556069331877384 -0.008410160058131182 0 0.099734422443482948 -0.0063920905566720683 0 0.10095553074496844 -0.0073443740487968813 0 0.097949222334618904 -0.0076557645541827993 0 0.099556069331877384 -0.008410160058131182 0 0.099734422443482948 -0.0063920905566720683 0 0.09819536554950975 -0.0096645952070701889 0 0.097949222334618904 -0.0076557645541827993 0 0.099556069331877384 -0.008410160058131182 0 0.097949222334618904 -0.0076557645541827993 0 0.097778866416259005 -0.0057842640982524616 0 0.099734422443482948 -0.0063920905566720683 0 0.099734422443482948 -0.0063920905566720683 0 0.10095553074496844 -0.0073443740487968813 0 0.10145298645852328 -0.0048161087415207263 0 0.099064217808360264 -0.0048198481173851232 0 0.10017486364045591 -0.0034999872504726643 0 0.10145298645852328 -0.0048161087415207263 0 0.099734422443482948 -0.0063920905566720683 0 0.099064217808360264 -0.0048198481173851232 0 0.10145298645852328 -0.0048161087415207263 0 0.097778866416259005 -0.0057842640982524616 0 0.099734422443482948 -0.0063920905566720683 0 0.099064217808360264 -0.0048198481173851232 0 0.098525415070148087 -0.0032138595655734686 0 0.10057691894342859 -0.0030848652857375031 0 0.099311584240467987 -0.0028770590894248793 0 0.10121465569594695 -0.0024631483690490215 0 0.10008722240428987 -0.00098937331723293956 0 0.097922687195600933 -0.0037488220378138547 0 0.099064217808360264 -0.0048198481173851232 0 0.10017486364045591 -0.0034999872504726643 0 0.10057691894342859 -0.0030848652857375031 0 0.10175946171462481 -0.0030186050722304596 0 0.10121465569594695 -0.0024631483690490215 0 0.10292419735636954 -0.0028290218409525916 0 0.10202142586625527 -0.0015946360142202335 0 0.10145298645852328 -0.0048161087415207263 0 0.10340648989953932 -0.0036367675730936107 0 0.10292419735636954 -0.0028290218409525916 0 0.10017486364045591 -0.0034999872504726643 0 0.10145298645852328 -0.0048161087415207263 0 0.10292419735636954 -0.0028290218409525916 0 0.10259307072040087 -0.0070876958101065085 0 0.10145298645852328 -0.0048161087415207263 0 0.10363100301277135 -0.0046232075043787122 0 0.10363100301277135 -0.0046232075043787122 0 0.10397901447939997 -0.0027214271015680372 0 0.10543868357583851 -0.0055321635705957778 0 0.10145298645852328 -0.0048161087415207263 0 0.10363100301277135 -0.0046232075043787122 0 0.10340648989953932 -0.0036367675730936107 0 0.10363100301277135 -0.0046232075043787122 0 0.10340648989953932 -0.0036367675730936107 0 0.10397901447939997 -0.0027214271015680372 0 0.10340648989953932 -0.0036367675730936107 0 0.10292419735636954 -0.0028290218409525916 0 0.10397901447939997 -0.0027214271015680372 0 0.078526906929197129 -0.0082911216021637427 0 0.077827184135738886 -0.0093260963079597539 0 0.07800491154309297 -0.0072603129826435226 0 0.10304002698598751 -0.0014588923512397708 0 0.10348242186248265 -0.001727095534058371 0 0.10355694130659311 -0.0010397314626695508 0 0.085876232315428971 -0.0073976287960828392 0 0.08893598076637052 -0.0064618290829895272 0 0.077827184135738886 -0.0093260963079597539 0 0.078678953021480494 -0.0089895378810845236 0 0.078979716582661993 -0.0096000668376690565 0 0.078526906929197129 -0.0082911216021637427 0 0.077827184135738886 -0.0093260963079597539 0 0.078678953021480494 -0.0089895378810845236 0 0.079042940472119086 -0.0076376212710573058 0 0.079516325015324171 -0.0088567950182485682 0 0.080217320196802541 -0.0071319809992831835 0 0.073279793633510421 -0.011385454268934636 0 0.080615160390831178 -0.0062555388804260608 0 0.079042940472119086 -0.0076376212710573058 0 0.080217320196802541 -0.0071319809992831835 0 0.079698678116154151 -0.0064837887957965483 0 0.081799167175649168 -0.0082480062112214071 0 0.085925823733177267 -0.0048425177887803737 0 0.078526906929197129 -0.0082911216021637427 0 0.079413873343539193 -0.0088484504023059896 0 0.078730022008515949 -0.0070993288174726644 0 0.081799167175649168 -0.0082480062112214071 0 0.087819706515781082 -0.0056136439356401962 0 0.078526906929197129 -0.0082911216021637427 0 0.078678953021480494 -0.0089895378810845236 0 0.079413873343539193 -0.0088484504023059896 0 0.078979716582661993 -0.0096000668376690565 0 0.079396307172602223 -0.0088590031831792884 0 0.080020074799085683 -0.010447736068264978 0 0.078678953021480494 -0.0089895378810845236 0 0.078979716582661993 -0.0096000668376690565 0 0.079413873343539193 -0.0088484504023059896 0 0.081677089369705025 -0.0083885636187089468 0 0.081799167175649168 -0.0082480062112214071 0 0.081799167175649168 -0.0082480062112214071 0 0.073279793633510421 -0.011385454268934636 0 0.078979716582661993 -0.0096000668376690565 0 0.080020074799085683 -0.010447736068264978 0 0.078633558445181898 -0.010894277452525065 0 0.085876232315428971 -0.0073976287960828392 0 0.08142972219222859 -0.010877292740090498 0 0.077827184135738886 -0.0093260963079597539 0 0.077647010451007165 -0.011380439488063034 0 0.078633558445181898 -0.010894277452525065 0 0.10304002698598751 -0.0014588923512397708 0 0.10348242186248265 -0.001727095534058371 0 0.10336069529930218 -0.0024419818794539118 0 0.091737147739143377 -0.0071864471580313826 0 0.08142972219222859 -0.010877292740090498 0 0.077827184135738886 -0.0093260963079597539 0 0.078979716582661993 -0.0096000668376690565 0 0.078633558445181898 -0.010894277452525065 0 0.070571575937867725 -0.011767015436906865 0 0.072567832158669382 -0.016169986021280034 0 0.07007092899580035 -0.01763912545682058 0 0.08142972219222859 -0.010877292740090498 0 0.066537435863959993 -0.017623938892405128 0 0.08142972219222859 -0.010877292740090498 0 0.074449209208803796 -0.014519725383122703 0 0.077647010451007165 -0.011380439488063034 0 0.078633558445181898 -0.010894277452525065 0 0.078692012877327841 -0.013718437167186891 0 0.080020074799085683 -0.010447736068264978 0 0.078633558445181898 -0.010894277452525065 0 0.078692012877327841 -0.013718437167186891 0 0.056668543316838516 -0.017807334881989708 0 0.056684916000635133 -0.017674232105763951 0 0.056547033865274508 -0.017684367545957886 0 0.073279793633510421 -0.011385454268934636 0 0.066537435863959993 -0.017623938892405128 0 0.058213846139865785 -0.022955717469978196 0 0.05740748486621524 -0.024967208977151854 0 0.059012825039623809 -0.024739700325582963 0 0.056684916000635133 -0.017674232105763951 0 0.056547033865274508 -0.017684367545957886 0 0.0566221518757982 -0.017593705507665369 0 0.066537435863959993 -0.017623938892405128 0 0.054994217681038689 -0.022482395758218709 0 0.072567832158669382 -0.016169986021280034 0 0.07007092899580035 -0.01763912545682058 0 0.071131026775934594 -0.019751655780926993 0 0.066537435863959993 -0.017623938892405128 0 0.062877823900238841 -0.021315688408656379 0 0.061791506923431695 -0.0099451059193588331 0 0.063487440056826439 -0.010824413521700209 0 0.062139109335202926 -0.013054134040539837 0 0.061791506923431695 -0.0099451059193588331 0 0.062139109335202926 -0.013054134040539837 0 0.060424399786530768 -0.011023600245092913 0 0.061791506923431695 -0.0099451059193588331 0 0.063487440056826439 -0.010824413521700209 0 0.062443423502136962 -0.0083511605973309588 0 0.059349213133346963 -0.015033807491139443 0 0.045633046401314353 -0.021014991355340094 0 0.056547033865274508 -0.017684367545957886 0 0.0566221518757982 -0.017593705507665369 0 0.056487260491109956 -0.017549009289323847 0 0.064530951659309138 -0.013291741446466646 0 0.063487440056826439 -0.010824413521700209 0 0.062139109335202926 -0.013054134040539837 0 0.073279793633510421 -0.011385454268934636 0 0.059349213133346963 -0.015033807491139443 0 0.071295711807801601 -0.0078772707990132952 0 0.063557368712375273 -0.0094128130386307886 0 0.064530951659309138 -0.013291741446466646 0 0.062139109335202926 -0.013054134040539837 0 0.063845769518527745 -0.015069896602178419 0 0.071295711807801601 -0.0078772707990132952 0 0.080615160390831178 -0.0062555388804260608 0 0.077376978992100151 -0.0046713453865955424 0 0.07939965915586733 -0.0071180440602970551 0 0.077307176058238378 -0.0072743705343304519 0 0.077376978992100151 -0.0046713453865955424 0 0.077307176058238378 -0.0072743705343304519 0 0.075172941128343773 -0.0070018927373703688 0 0.087381748301418607 -0.0012266961737886176 0 0.081989976510638829 -0.0019830183573096957 0 0.098907016464639383 0.002847030706835188 0 0.098393603061379287 0.0027092771040902342 0 0.098562303266124404 0.0038495163233499478 0 0.096599880884274528 0.0023079532554371148 0 0.097036332790709806 0.0031257020566483429 0 0.098393603061379287 0.0027092771040902342 0 0.098562303266124404 0.0038495163233499478 0 0.09759434966666547 0.0036948023200286794 0 0.098562303266124404 0.0038495163233499478 0 0.09759434966666547 0.0036948023200286794 0 0.097965261439717788 0.0042208425580175547 0 0.077376978992100151 -0.0046713453865955424 0 0.075172941128343773 -0.0070018927373703688 0 0.07415216182352477 -0.004660501011615783 0 0.097790198612206072 0.004233177508144584 0 0.097864356339586678 0.0040361735144276139 0 0.0975755005474475 0.0041609570475992829 0 0.097790198612206072 0.004233177508144584 0 0.098027549655285498 0.003990401357557031 0 0.097864356339586678 0.0040361735144276139 0 0.098323975496144869 0.0040439458900639212 0 0.09811102368967313 0.0040667988519384893 0 0.098027299315018787 0.004341458447083806 0 0.097790198612206072 0.004233177508144584 0 0.09811102368967313 0.0040667988519384893 0 0.098027549655285498 0.003990401357557031 0 0.097790198612206072 0.004233177508144584 0 0.09811102368967313 0.0040667988519384893 0 0.098027299315018787 0.004341458447083806 0 0.09759434966666547 0.0036948023200286794 0 0.097340273519528356 0.0044043299805807722 0 0.097965261439717788 0.0042208425580175547 0 0.097036332790709806 0.0031257020566483429 0 0.097070924220330104 0.0034627727684248023 0 0.098027299315018787 0.004341458447083806 0 0.097625232118826552 0.0044040754106107203 0 0.097416626107362056 0.0044893627836483105 0 0.097790198612206072 0.004233177508144584 0 0.097625232118826552 0.0044040754106107203 0 0.097533145494861834 0.0043610779259102639 0 0.097790198612206072 0.004233177508144584 0 0.098027299315018787 0.004341458447083806 0 0.097625232118826552 0.0044040754106107203 0 0.097416626107362056 0.0044893627836483105 0 0.097340273519528356 0.0044043299805807722 0 0.097490488117977545 0.0045629260359190665 0 0.097340273519528356 0.0044043299805807722 0 0.095403379864366283 0.0058930198825047951 0 0.092705250309037368 0.0047802205129089245 0 0.094241530489133377 0.0021034768618654375 0 0.090282479700974735 0.0018727535688868734 0 0.097625232118826552 0.0044040754106107203 0 0.097416626107362056 0.0044893627836483105 0 0.097515737532657076 0.0044785772141128369 0 0.09759434966666547 0.0036948023200286794 0 0.097416626107362056 0.0044893627836483105 0 0.097340273519528356 0.0044043299805807722 0 0.097340273519528356 0.0044043299805807722 0 0.097283243211393075 0.0058197650458790412 0 0.095403379864366283 0.0058930198825047951 0 0.097340273519528356 0.0044043299805807722 0 0.097965261439717788 0.0042208425580175547 0 0.098453999244078577 0.0051690088864164221 0 0.097340273519528356 0.0044043299805807722 0 0.097283243211393075 0.0058197650458790412 0 0.098453999244078577 0.0051690088864164221 0 0.097283243211393075 0.0058197650458790412 0 0.098453999244078577 0.0051690088864164221 0 0.097733708267131347 0.0079976954501405437 0 0.097283243211393075 0.0058197650458790412 0 0.095403379864366283 0.0058930198825047951 0 0.097733708267131347 0.0079976954501405437 0 0.095403379864366283 0.0058930198825047951 0 0.092705250309037368 0.0047802205129089245 0 0.093451527890953331 0.0076544278353858162 0 0.095403379864366283 0.0058930198825047951 0 0.097733708267131347 0.0079976954501405437 0 0.093451527890953331 0.0076544278353858162 0 0.077376978992100151 -0.0046713453865955424 0 0.07415216182352477 -0.004660501011615783 0 0.075326925228767147 -0.0022004356482160092 0 0.081989976510638829 -0.0019830183573096957 0 0.074622074321794671 -0.0033056361823186756 0 0.098562303266124404 0.0038495163233499478 0 0.097965261439717788 0.0042208425580175547 0 0.098453999244078577 0.0051690088864164221 0 0.07415216182352477 -0.004660501011615783 0 0.075326925228767147 -0.0022004356482160092 0 0.073102625827627679 -0.0022919887361018015 0 0.073102625827627679 -0.0022919887361018015 0 0.073231567163845476 0.00032766898377588371 0 0.072052826702963729 0.00012606415492023417 0 0.075326925228767147 -0.0022004356482160092 0 0.073102625827627679 -0.0022919887361018015 0 0.073231567163845476 0.00032766898377588371 0 0.063557368712375273 -0.0094128130386307886 0 0.051533663404160372 -0.011405889325011279 0 0.074622074321794671 -0.0033056361823186756 0 0.062695247556143294 -0.0074998654486100992 0 0.060424399786530768 -0.011023600245092913 0 0.060590047789869136 -0.008655218278486072 0 0.058715508624179374 -0.0089705242334371764 0 0.061791506923431695 -0.0099451059193588331 0 0.060424399786530768 -0.011023600245092913 0 0.060590047789869136 -0.008655218278486072 0 0.046350835420305631 -0.016668412180132042 0 0.051533663404160372 -0.011405889325011279 0 0.026748149988582232 -0.026466782473491594 0 0.023767750618258851 -0.026915053083059002 0 0.023661940544886909 -0.024244947329597921 0 0.051533663404160372 -0.011405889325011279 0 0.062695247556143294 -0.0074998654486100992 0 0.023767750618258851 -0.026915053083059002 0 0.023661940544886909 -0.024244947329597921 0 0.021466584027185636 -0.024008731732609843 0 0.026748149988582232 -0.026466782473491594 0 0.023661940544886909 -0.024244947329597921 0 0.026152779009522384 -0.023628566136445699 0 0.026748149988582232 -0.026466782473491594 0 0.026152779009522384 -0.023628566136445699 0 0.028064398175265095 -0.024655971727388457 0 0.026152779009522384 -0.023628566136445699 0 0.028283228766349817 -0.022239041551622502 0 0.028064398175265095 -0.024655971727388457 0 0.033348603650773294 -0.0085824563368327236 0 0.029757141645424645 -0.0094292497712651063 0 0.029787334775162006 -0.012889496784840433 0 0.062695247556143294 -0.0074998654486100992 0 0.061938225156115301 -0.0030826313120288803 0 0.037383955205338659 -0.011707191225557443 0 0.033348603650773294 -0.0085824563368327236 0 0.029787334775162006 -0.012889496784840433 0 0.040124571521349198 -0.011325461064405859 0 0.036230879973575554 -0.0089733366771174734 0 0.035754535616363624 -0.0060793839091515724 0 0.051533663404160372 -0.011405889325011279 0 0.031080988021562495 -0.012970001579703074 0 0.036230879973575554 -0.0089733366771174734 0 0.037383955205338659 -0.011707191225557443 0 0.033348603650773294 -0.0085824563368327236 0 0.060987549305045997 -0.0066737408699254243 0 0.062695247556143294 -0.0074998654486100992 0 0.040124571521349198 -0.011325461064405859 0 0.036230879973575554 -0.0089733366771174734 0 0.037420423457108491 -0.011802979081705595 0 0.023661940544886909 -0.024244947329597921 0 0.021466584027185636 -0.024008731732609843 0 0.022812238834233032 -0.022477268986604296 0 0.036230879973575554 -0.0089733366771174734 0 0.035754535616363624 -0.0060793839091515724 0 0.033348603650773294 -0.0085824563368327236 0 0.035754535616363624 -0.0060793839091515724 0 0.033348603650773294 -0.0085824563368327236 0 0.032987700345981669 -0.0052489782173775357 0 0.033348603650773294 -0.0085824563368327236 0 0.032987700345981669 -0.0052489782173775357 0 0.030696530236340055 -0.0063055908355444459 0 0.032987700345981669 -0.0052489782173775357 0 0.030696530236340055 -0.0063055908355444459 0 0.031118462119577146 -0.0041882029629932054 0 0.033348603650773294 -0.0085824563368327236 0 0.030696530236340055 -0.0063055908355444459 0 0.029757141645424645 -0.0094292497712651063 0 0.031080988021562495 -0.012970001579703074 0 0.01179569474893017 -0.013034223342276585 0 0.032987700345981669 -0.0052489782173775357 0 0.031529978317509658 -0.0010220100013862991 0 0.031118462119577146 -0.0041882029629932054 0 0.031529978317509658 -0.0010220100013862991 0 0.031118462119577146 -0.0041882029629932054 0 0.028748705326430403 -0.0052157252164231234 0 0.035754535616363624 -0.0060793839091515724 0 0.032987700345981669 -0.0052489782173775357 0 0.031529978317509658 -0.0010220100013862991 0 0.021466584027185636 -0.024008731732609843 0 0.019370669448895293 -0.021409547176105822 0 0.021648789232717867 -0.02156726928722549 0 0.021466584027185636 -0.024008731732609843 0 0.021648789232717867 -0.02156726928722549 0 0.022812238834233032 -0.022477268986604296 0 0.021648789232717867 -0.02156726928722549 0 0.022812238834233032 -0.022477268986604296 0 0.022989086262281064 -0.020750128299685679 0 0.021648789232717867 -0.02156726928722549 0 0.022365772923579889 -0.019433152315049978 0 0.022989086262281064 -0.020750128299685679 0 0.019370669448895293 -0.021409547176105822 0 0.021648789232717867 -0.02156726928722549 0 0.022365772923579889 -0.019433152315049978 0 -0.020330417978109767 -0.022663889056456079 0 -0.01827343783268346 -0.021282489322322108 0 -0.019468103872712403 -0.021795700097577024 0 0.01179569474893017 -0.013034223342276585 0 0.0035076698828501091 -0.02382080623686093 0 -0.020372774451099002 -0.020514948461348138 0 -0.01827343783268346 -0.021282489322322108 0 -0.019468103872712403 -0.021795700097577024 0 0.0035076698828501091 -0.02382080623686093 0 0.0046847323368341539 -0.02421982594313421 0 -0.020372774451099002 -0.020514948461348138 0 -0.019468103872712403 -0.021795700097577024 0 -0.020861023174646796 -0.022313453592536781 0 -4.4142553891491448e-05 -0.015451489617189607 0 0.0077084675457219573 -0.012712264392499423 0 -0.020330417978109767 -0.022663889056456079 0 -0.019468103872712403 -0.021795700097577024 0 -0.020651223207380946 -0.022238115011406923 0 0.01179569474893017 -0.013034223342276585 0 0.0077084675457219573 -0.012712264392499423 0 0.026152779009522384 -0.023628566136445699 0 0.024819012151585308 -0.021460091014691977 0 0.028283228766349817 -0.022239041551622502 0 0.024819012151585308 -0.021460091014691977 0 0.025941922264847102 -0.0187074929025615 0 0.028283228766349817 -0.022239041551622502 0 0.023661940544886909 -0.024244947329597921 0 0.022812238834233032 -0.022477268986604296 0 0.024450686783252368 -0.021821601392707432 0 0.023661940544886909 -0.024244947329597921 0 0.026152779009522384 -0.023628566136445699 0 0.024819012151585308 -0.021460091014691977 0 0.0194317035774654 -0.022384546639543482 0 0.018487658793714001 -0.022655525989054435 0 0.022812238834233032 -0.022477268986604296 0 0.024450686783252368 -0.021821601392707432 0 0.022989086262281064 -0.020750128299685679 0 0.024450686783252368 -0.021821601392707432 0 0.023901320111265043 -0.019999524567817589 0 0.02526879727858487 -0.019615664659090537 0 0.024450686783252368 -0.021821601392707432 0 0.022989086262281064 -0.020750128299685679 0 0.023901320111265043 -0.019999524567817589 0 0.022436323394413173 -0.019583720203762242 0 0.022989086262281064 -0.020750128299685679 0 0.023901320111265043 -0.019999524567817589 0 0.0026103469212758646 -0.034782241540536232 0 0.0069769359798649696 -0.036316581802822247 0 0.0080184386649451468 -0.042705515313171828 0 0.018487658793714001 -0.022655525989054435 0 0.013918939224583964 -0.027045532227765359 0 0.013918939224583964 -0.027045532227765359 0 0.024975984160180854 -0.02763014018381383 0 0.0066775136461010923 -0.03284349268054431 0 0.0026103469212758646 -0.034782241540536232 0 0.0069769359798649696 -0.036316581802822247 0 0.0069769359798649696 -0.036316581802822247 0 0.010614301003206974 -0.034847749615996924 0 0.0080184386649451468 -0.042705515313171828 0 0.0066775136461010923 -0.03284349268054431 0 0.0069769359798649696 -0.036316581802822247 0 0.010614301003206974 -0.034847749615996924 0 0.010614301003206974 -0.034847749615996924 0 0.0080184386649451468 -0.042705515313171828 0 0.014109185487306546 -0.042284341215627838 0 0.018330245481277874 -0.031859200473927936 0 0.010614301003206974 -0.034847749615996924 0 0.016323750455693113 -0.037347131653586836 0 0.0146817735746593 -0.043345724029230905 0 0.016323750455693113 -0.037347131653586836 0 0.021634216637964707 -0.039354845148036839 0 0.025943286430989112 -0.033092386191702017 0 0.030653113545948889 -0.033980263663887303 0 0.010614301003206974 -0.034847749615996924 0 0.0146817735746593 -0.043345724029230905 0 0.016323750455693113 -0.037347131653586836 0 0.02667277098094268 -0.033481083789143933 0 0.018330245481277874 -0.031859200473927936 0 0.021634216637964707 -0.039354845148036839 0 0.018330245481277874 -0.031859200473927936 0 0.016323750455693113 -0.037347131653586836 0 0.021634216637964707 -0.039354845148036839 0 0.02667277098094268 -0.033481083789143933 0 0.021634216637964707 -0.039354845148036839 0 0.029438397393295627 -0.039700987245717835 0 0.029438397393295627 -0.039700987245717835 0 0.025069845287685463 -0.043709286917408101 0 0.028611487763128784 -0.049993156408377537 0 0.043170260088157185 -0.033711790633242929 0 0.058732118849681936 -0.024613418012510237 0 0.021634216637964707 -0.039354845148036839 0 0.029438397393295627 -0.039700987245717835 0 0.025069845287685463 -0.043709286917408101 0 0.0146817735746593 -0.043345724029230905 0 0.021634216637964707 -0.039354845148036839 0 0.020574323138540473 -0.045747252915900871 0 0.021634216637964707 -0.039354845148036839 0 0.025069845287685463 -0.043709286917408101 0 0.020574323138540473 -0.045747252915900871 0 0.020574323138540473 -0.045747252915900871 0 0.018670563745330798 -0.051709083024696588 0 0.028611487763128784 -0.049993156408377537 0 0.042876382826894363 -0.027617873897057704 0 0.058732118849681936 -0.024613418012510237 0 0.0146817735746593 -0.043345724029230905 0 0.020574323138540473 -0.045747252915900871 0 0.018670563745330798 -0.051709083024696588 0 0.025069845287685463 -0.043709286917408101 0 0.020574323138540473 -0.045747252915900871 0 0.028611487763128784 -0.049993156408377537 0 0.058732118849681936 -0.024613418012510237 0 0.062877823900238841 -0.021315688408656379 0 0.059810801863933415 -0.026517982510531068 0 0.056552215224119094 -0.027083430091237991 0 0.05740748486621524 -0.024967208977151854 0 0.074449209208803796 -0.014519725383122703 0 0.058732118849681936 -0.024613418012510237 0 0.07007092899580035 -0.01763912545682058 0 0.069559023354797411 -0.023554438063746026 0 0.071131026775934594 -0.019751655780926993 0 0.059810801863933415 -0.026517982510531068 0 0.05740748486621524 -0.024967208977151854 0 0.059012825039623809 -0.024739700325582963 0 0.056550241546747274 -0.017503030125973384 0 0.0566221518757982 -0.017593705507665369 0 0.056487260491109956 -0.017549009289323847 0 0.042876382826894363 -0.027617873897057704 0 0.054994217681038689 -0.022482395758218709 0 0.056547033865274508 -0.017684367545957886 0 0.056487260491109956 -0.017549009289323847 0 0.056401853372289402 -0.017519050152424852 0 0.042876382826894363 -0.027617873897057704 0 0.040238954137355017 -0.023842313980192709 0 0.056550241546747274 -0.017503030125973384 0 0.056487260491109956 -0.017549009289323847 0 0.056452426732910441 -0.017516838238532968 0 0.056487260491109956 -0.017549009289323847 0 0.056449496814253326 -0.01750611150491628 0 0.056401853372289402 -0.017519050152424852 0 0.040238954137355017 -0.023842313980192709 0 0.045633046401314353 -0.021014991355340094 0 0.040601396092810896 -0.02387750181316314 0 0.040238954137355017 -0.023842313980192709 0 0.046350835420305631 -0.016668412180132042 0 0.045633046401314353 -0.021014991355340094 0 0.061791506923431695 -0.0099451059193588331 0 0.060590047789869136 -0.008655218278486072 0 0.062443423502136962 -0.0083511605973309588 0 0.026748149988582232 -0.026466782473491594 0 0.029780924706064284 -0.025976520842300288 0 0.028064398175265095 -0.024655971727388457 0 0.030673047130144321 -0.025825870640239799 0 0.029787392728399351 -0.025984408065602524 0 0.029368297587979843 -0.024971552379168177 0 0.028283228766349817 -0.022239041551622502 0 0.029368297587979843 -0.024971552379168177 0 0.028064398175265095 -0.024655971727388457 0 0.029780924706064284 -0.025976520842300288 0 0.029368297587979843 -0.024971552379168177 0 0.028064398175265095 -0.024655971727388457 0 0.028283228766349817 -0.022239041551622502 0 0.030673047130144321 -0.025825870640239799 0 0.029368297587979843 -0.024971552379168177 0 0.045633046401314353 -0.021014991355340094 0 0.045268597833327144 -0.020994720992704548 0 0.024975984160180854 -0.02763014018381383 0 0.040238954137355017 -0.023842313980192709 0 0.030653113545948889 -0.033980263663887303 0 0.042876382826894363 -0.027617873897057704 0 0.014109185487306546 -0.042284341215627838 0 0.017600888328165362 -0.049624170137377084 0 0.013180721227967209 -0.050399787259713114 0 0.0080184386649451468 -0.042705515313171828 0 0.014109185487306546 -0.042284341215627838 0 0.013180721227967209 -0.050399787259713114 0 0.013875051429363058 -0.0004072167378307775 0 0.020727052394516533 3.1442459666320467e-06 0 0.017213671172709992 -0.0031489397679399728 0 0.020727052394516533 3.1442459666320467e-06 0 0.017213671172709992 -0.0031489397679399728 0 0.027019181874886607 -1.3185530594105409e-05 0 0.025011822633204676 -0.0023733950648564912 0 0.020620334231223298 -0.0040307720250087123 0 0.013875051429363058 -0.0004072167378307775 0 0.017213671172709992 -0.0031489397679399728 0 0.011488677124290671 -0.0029360958622053012 0 0.025011822633204676 -0.0023733950648564912 0 0.028937368064286519 -0.0064873631656606409 0 0.022728695044768106 -0.0068768638313187217 0 0.025178428953666246 -0.0079499080997600911 0 0.025926853286826989 -0.0073736967863376572 0 0.020620334231223298 -0.0040307720250087123 0 0.020279508235943929 -0.0063992086530880229 0 0.025178428953666246 -0.0079499080997600911 0 0.025926853286826989 -0.0073736967863376572 0 0.027630648506877641 -0.0090153555424528752 0 0.011488677124290671 -0.0029360958622053012 0 0.010062526517102148 -0.0011433427913353845 0 0.0089245957327383375 -0.0019168755269969187 0 0.013875051429363058 -0.0004072167378307775 0 0.011488677124290671 -0.0029360958622053012 0 0.010062526517102148 -0.0011433427913353845 0 0.013875051429363058 -0.0004072167378307775 0 0.0086960216421719545 -0.00052796268782566316 0 0.010087365110659255 0.00016866392278529405 0 0.013875051429363058 -0.0004072167378307775 0 0.010062526517102148 -0.0011433427913353845 0 0.0086960216421719545 -0.00052796268782566316 0 0.010062526517102148 -0.0011433427913353845 0 0.0086960216421719545 -0.00052796268782566316 0 0.0086414934512443545 -0.00070774339513444691 0 0.0092982559961488093 -0.0050497545884317504 0 0.0097173339248183502 -0.0062245414543649572 0 0.0086960216421719545 -0.00052796268782566316 0 0.0052887043459978432 0.00066852960128277331 0 0.0039353671074541631 -9.1009940338610237e-05 0 0.0086960216421719545 -0.00052796268782566316 0 0.010087365110659255 0.00016866392278529405 0 0.0065606414806020268 0.0008345800780848884 0 0.013875051429363058 -0.0004072167378307775 0 0.010087365110659255 0.00016866392278529405 0 0.014418103804460593 4.4470328634401805e-07 0 0.013875051429363058 -0.0004072167378307775 0 0.020727052394516533 3.1442459666320467e-06 0 0.014418103804460593 4.4470328634401805e-07 0 0.014418103804460593 4.4470328634401805e-07 0 0.0072057041101390882 0.00078605470038875644 0 0.0081129036022833546 1.6666754487977521e-06 0 0.010087365110659255 0.00016866392278529405 0 0.014418103804460593 4.4470328634401805e-07 0 0.0072057041101390882 0.00078605470038875644 0 0.0081129036022833546 1.6666754487977521e-06 0 0.0018471234386944464 0.0010132337970755218 0 0.0018065898998141006 1.3246522403632488e-06 0 0.0072057041101390882 0.00078605470038875644 0 0.0081129036022833546 1.6666754487977521e-06 0 0.0018471234386944464 0.0010132337970755218 0 0.0072057041101390882 0.00078605470038875644 0 0.0018471234386944464 0.0010132337970755218 0 0.0039380965656621355 0.0013717984288623686 0 7.5345342060185885e-05 0.001254007672663336 0 0.0010449219059709574 0.0014148175339263934 0 0.0014683437828533169 0.0015985468888031328 0 0.0010449219059709574 0.0014148175339263934 0 0.002738245541664215 0.0015533752581120392 0 0.0014683437828533169 0.0015985468888031328 0 -0.00048867293773664246 0.0011953557359544117 0 0.0018471234386944464 0.0010132337970755218 0 0.0010449219059709574 0.0014148175339263934 0 0.0018471234386944464 0.0010132337970755218 0 0.0010449219059709574 0.0014148175339263934 0 0.0039380965656621355 0.0013717984288623686 0 0.0039380965656621355 0.0013717984288623686 0 0.002738245541664215 0.0015533752581120392 0 0.0040789361633623697 0.0013069080194031747 0 0.0010449219059709574 0.0014148175339263934 0 0.0039380965656621355 0.0013717984288623686 0 0.002738245541664215 0.0015533752581120392 0 0.0039380965656621355 0.0013717984288623686 0 0.0040789361633623697 0.0013069080194031747 0 0.0065606414806020268 0.0008345800780848884 0 0.0072057041101390882 0.00078605470038875644 0 0.0039380965656621355 0.0013717984288623686 0 0.0065606414806020268 0.0008345800780848884 0 0.010087365110659255 0.00016866392278529405 0 0.0072057041101390882 0.00078605470038875644 0 0.0065606414806020268 0.0008345800780848884 0 0.0040789361633623697 0.0013069080194031747 0 0.0065606414806020268 0.0008345800780848884 0 0.0052887043459978432 0.00066852960128277331 0 0.0086960216421719545 -0.00052796268782566316 0 0.0065606414806020268 0.0008345800780848884 0 0.0052887043459978432 0.00066852960128277331 0 0.0052887043459978432 0.00066852960128277331 0 0.0032893810192236436 0.0011267082990609667 0 0.0039353671074541631 -9.1009940338610237e-05 0 0.0027971375624614766 0.00050887562580321968 0 0.0024313438309012596 -0.00033795103219830871 0 0.0039353671074541631 -9.1009940338610237e-05 0 0.0027971375624614766 0.00050887562580321968 0 0.0032893810192236436 0.0011267082990609667 0 0.0022145197632046309 0.0010396871377577103 0 0.0027971375624614766 0.00050887562580321968 0 0.0032893810192236436 0.0011267082990609667 0 0.0039353671074541631 -9.1009940338610237e-05 0 0.0027971375624614766 0.00050887562580321968 0 0.0021405778689034417 0.00051652346960619493 0 0.0024313438309012596 -0.00033795103219830871 0 0.0027971375624614766 0.00050887562580321968 0 0.0022145197632046309 0.0010396871377577103 0 0.0021405778689034417 0.00051652346960619493 0 0.0022621555838657726 0.0014228432460345738 0 0.0032893810192236436 0.0011267082990609667 0 0.0022145197632046309 0.0010396871377577103 0 0.0022621555838657726 0.0014228432460345738 0 0.0032893810192236436 0.0011267082990609667 0 0.0026442516286284069 0.0015466694774953092 0 0.0040789361633623697 0.0013069080194031747 0 0.0052887043459978432 0.00066852960128277331 0 0.0032893810192236436 0.0011267082990609667 0 0.0040789361633623697 0.0013069080194031747 0 0.0032893810192236436 0.0011267082990609667 0 0.0026442516286284069 0.0015466694774953092 0 0.002738245541664215 0.0015533752581120392 0 0.0040789361633623697 0.0013069080194031747 0 0.0026442516286284069 0.0015466694774953092 0 0.002738245541664215 0.0015533752581120392 0 0.0026442516286284069 0.0015466694774953092 0 0.0014683437828533169 0.0015985468888031328 0 0.0026442516286284069 0.0015466694774953092 0 0.0020295273890066734 0.0015992908062426969 0 0.0014683437828533169 0.0015985468888031328 0 0.0022621555838657726 0.0014228432460345738 0 0.0026442516286284069 0.0015466694774953092 0 0.0020295273890066734 0.0015992908062426969 0 0.0022621555838657726 0.0014228432460345738 0 0.0020295273890066734 0.0015992908062426969 0 0.001823878140519847 0.0014539719183074217 0 0.0020295273890066734 0.0015992908062426969 0 0.0017293868846033917 0.0015258949833299527 0 0.001823878140519847 0.0014539719183074217 0 0.0020295273890066734 0.0015992908062426969 0 0.0017293868846033917 0.0015258949833299527 0 0.0014683437828533169 0.0015985468888031328 0 7.5345342060185885e-05 0.001254007672663336 0 0.0017293868846033917 0.0015258949833299527 0 0.0014683437828533169 0.0015985468888031328 0 0.0014880095215121809 0.0015665835360659938 0 0.000386627926521323 0.0010372499449737122 0 0.0016359830903786539 0.0011908201625272564 0 0.000386627926521323 0.0010372499449737122 0 0.0016359830903786539 0.0011908201625272564 0 0.00042921295129698454 1.566901404527286e-06 0 0.000386627926521323 0.0010372499449737122 0 0.00042921295129698454 1.566901404527286e-06 0 -0.00036694112959589193 0.00014528423641360478 0 0.0014880095215121809 0.0015665835360659938 0 0.0017293868846033917 0.0015258949833299527 0 0.0016359830903786539 0.0011908201625272564 0 0.0017293868846033917 0.0015258949833299527 0 0.0016359830903786539 0.0011908201625272564 0 0.001823878140519847 0.0014539719183074217 0 0.0016359830903786539 0.0011908201625272564 0 0.001823878140519847 0.0014539719183074217 0 0.0016101014537262229 0.0013750335508070644 0 0.0022621555838657726 0.0014228432460345738 0 0.001823878140519847 0.0014539719183074217 0 0.001797333131049555 0.0012721597875961143 0 0.001823878140519847 0.0014539719183074217 0 0.0016101014537262229 0.0013750335508070644 0 0.001797333131049555 0.0012721597875961143 0 0.0016359830903786539 0.0011908201625272564 0 0.0016101014537262229 0.0013750335508070644 0 0.0014865300061238885 0.0014153380017597706 0 0.00042921295129698454 1.566901404527286e-06 0 0.0010097454241335363 -0.0018020251843369334 0 -0.00030897228079376809 -0.00081302202174277332 0 0.0016359830903786539 0.0011908201625272564 0 0.00042921295129698454 1.566901404527286e-06 0 0.0010097454241335363 -0.0018020251843369334 0 0.002081633986887908 -0.00048850892744118008 0 0.001821026559917893 -0.0019691462302445762 0 0.0016101014537262229 0.0013750335508070644 0 0.0014870578601413357 0.0014033071882451429 0 0.0014865300061238885 0.0014153380017597706 0 0.0016101014537262229 0.0013750335508070644 0 0.0014870578601413357 0.0014033071882451429 0 0.0016067145151707361 0.0013341979495282309 0 0.0012906001966935972 0.001397863867007841 0 0.0014705582754322431 0.0010630378087654541 0 0.00045537221852945712 0.00027326989279581203 0 0.001821026559917893 -0.0019691462302445762 0 0.0027963734635233898 -0.0034880409226247201 0 0.0018222783863837925 -0.0019592846805782512 0 0.001821026559917893 -0.0019691462302445762 0 0.0014870578601413357 0.0014033071882451429 0 0.0014705582754322431 0.0010630378087654541 0 0.0016067145151707361 0.0013341979495282309 0 0.0014870578601413357 0.0014033071882451429 0 0.0012906001966935972 0.001397863867007841 0 0.0014705582754322431 0.0010630378087654541 0 0.0022621555838657726 0.0014228432460345738 0 0.001797333131049555 0.0012721597875961143 0 0.0022145197632046309 0.0010396871377577103 0 0.0014705582754322431 0.0010630378087654541 0 0.001797333131049555 0.0012721597875961143 0 0.0016067145151707361 0.0013341979495282309 0 0.0016101014537262229 0.0013750335508070644 0 0.001797333131049555 0.0012721597875961143 0 0.0016067145151707361 0.0013341979495282309 0 0.0014705582754322431 0.0010630378087654541 0 0.001797333131049555 0.0012721597875961143 0 0.0018172785498114846 0.00090919806016346466 0 0.0014705582754322431 0.0010630378087654541 0 0.0018172785498114846 0.00090919806016346466 0 0.0014563763954244854 0.00050586030209992137 0 0.0018172785498114846 0.00090919806016346466 0 0.0022145197632046309 0.0010396871377577103 0 0.0021405778689034417 0.00051652346960619493 0 0.001797333131049555 0.0012721597875961143 0 0.0018172785498114846 0.00090919806016346466 0 0.0022145197632046309 0.0010396871377577103 0 0.0021405778689034417 0.00051652346960619493 0 0.0013188116492723683 -0.00042243256099708585 0 0.0024313438309012596 -0.00033795103219830871 0 0.0018172785498114846 0.00090919806016346466 0 0.0021405778689034417 0.00051652346960619493 0 0.0014563763954244854 0.00050586030209992137 0 0.0021405778689034417 0.00051652346960619493 0 0.0014563763954244854 0.00050586030209992137 0 0.0013188116492723683 -0.00042243256099708585 0 0.0014563763954244854 0.00050586030209992137 0 0.0013188116492723683 -0.00042243256099708585 0 0.00045537221852945712 0.00027326989279581203 0 0.0014705582754322431 0.0010630378087654541 0 0.0014563763954244854 0.00050586030209992137 0 0.00045537221852945712 0.00027326989279581203 0 0.0013188116492723683 -0.00042243256099708585 0 0.00061056793038230951 -0.00076070861969022765 0 0.00045537221852945712 0.00027326989279581203 0 0.0013188116492723683 -0.00042243256099708585 0 0.00061056793038230951 -0.00076070861969022765 0 0.00093876669685244625 -0.0017684719766124304 0 0.0013188116492723683 -0.00042243256099708585 0 0.00093876669685244625 -0.0017684719766124304 0 0.0018765621878751382 -0.0013286779527006624 0 0.015036833362542201 -0.014846749230002494 0 0.020373761881432844 -0.017165346662388125 0 0.012607534031019605 -0.019723555364959389 0 0.015036833362542201 -0.014846749230002494 0 0.012607534031019605 -0.019723555364959389 0 0.011301080836349861 -0.016295241237782743 0 0.0091222696319108228 -0.0077754601082980256 0 0.015485160381112162 -0.0089839796515244173 0 0.00093876669685244625 -0.0017684719766124304 0 0.0021713145494067589 -0.0025452679720463257 0 0.0018765621878751382 -0.0013286779527006624 0 0.0021713145494067589 -0.0025452679720463257 0 0.0018765621878751382 -0.0013286779527006624 0 0.0028886431462776989 -0.001356899598209313 0 0.0013188116492723683 -0.00042243256099708585 0 0.0018765621878751382 -0.0013286779527006624 0 0.0024313438309012596 -0.00033795103219830871 0 0.0018765621878751382 -0.0013286779527006624 0 0.0024313438309012596 -0.00033795103219830871 0 0.0028886431462776989 -0.001356899598209313 0 0.0024313438309012596 -0.00033795103219830871 0 0.0028886431462776989 -0.001356899598209313 0 0.0039353671074541631 -9.1009940338610237e-05 0 0.0028886431462776989 -0.001356899598209313 0 0.0039353671074541631 -9.1009940338610237e-05 0 0.0044047713905414412 -0.002272904352568834 0 0.0086960216421719545 -0.00052796268782566316 0 0.0039353671074541631 -9.1009940338610237e-05 0 0.0044047713905414412 -0.002272904352568834 0 0.015485160381112162 -0.0089839796515244173 0 0.0097173339248183502 -0.0062245414543649572 0 0.0021713145494067589 -0.0025452679720463257 0 0.0028886431462776989 -0.001356899598209313 0 0.0044047713905414412 -0.002272904352568834 0 0.0073851553194472551 -0.001166812290998518 0 0.0086414934512443545 -0.00070774339513444691 0 0.0078303310255090925 -0.0013503801836657421 0 0.024749808756322905 -0.010926918925497794 0 0.020279508235943929 -0.0063992086530880229 0 0.033609103571687414 -0.015335238125845391 0 0.032638895890496296 -0.013039105643349319 0 0.035117385903163677 -0.01340859304362022 0 0.030069529229578097 -0.010085439977382669 0 0.027630648506877641 -0.0090153555424528752 0 0.029127314056506658 -0.0078675760861175396 0 0.024749808756322905 -0.010926918925497794 0 0.037270388094197228 -0.012888533191131873 0 0.0086414934512443545 -0.00070774339513444691 0 0.0078303310255090925 -0.0013503801836657421 0 0.0089245957327383375 -0.0019168755269969187 0 0.010062526517102148 -0.0011433427913353845 0 0.0086414934512443545 -0.00070774339513444691 0 0.0089245957327383375 -0.0019168755269969187 0 0.028937368064286519 -0.0064873631656606409 0 0.037270388094197228 -0.012888533191131873 0 0.025926853286826989 -0.0073736967863376572 0 0.027630648506877641 -0.0090153555424528752 0 0.029127314056506658 -0.0078675760861175396 0 0.037270388094197228 -0.012888533191131873 0 0.046587464954729811 -0.016123367577936337 0 0.065611379363777256 -0.023976700580661085 0 0.069439522680283305 -0.021616329146911094 0 0.066009394154940143 -0.020870117479294077 0 0.060776513599046733 -0.023392513880087191 0 0.065611379363777256 -0.023976700580661085 0 0.066009394154940143 -0.020870117479294077 0 0.046587464954729811 -0.016123367577936337 0 0.048376205461088451 -0.017440898702383533 0 0.065611379363777256 -0.023976700580661085 0 0.070278727213996806 -0.024369739117395657 0 0.069439522680283305 -0.021616329146911094 0 0.02058039752542486 -0.017135820029915223 0 0.015044005349877284 -0.019678812296794024 0 0.012607534031019605 -0.019723555364959389 0 0.035117385903163677 -0.01340859304362022 0 0.037602310760572889 -0.013765266777247705 0 0.036858036317838121 -0.014738518879026762 0 0.015485160381112162 -0.0089839796515244173 0 0.014075313018335665 -0.012062619023098312 0 0.02058039752542486 -0.017135820029915223 0 0.023114420175571429 -0.018197485214069765 0 0.015044005349877284 -0.019678812296794024 0 0.024749808756322905 -0.010926918925497794 0 0.027805300726421435 -0.015252187224309195 0 0.033609103571687414 -0.015335238125845391 0 0.035117385903163677 -0.01340859304362022 0 0.036858036317838121 -0.014738518879026762 0 0.015485160381112162 -0.0089839796515244173 0 0.024749808756322905 -0.010926918925497794 0 0.039569412102374857 -0.016836568035416315 0 0.035275803043724643 -0.015683719640146351 0 0.0070661540748832826 -0.021161502853123522 0 0.005079789139866597 -0.018171222445521076 0 0.0078618451026808908 -0.016534516697691154 0 0.040887306722215896 -0.016923599699518514 0 0.040358559009748815 -0.017002159008057321 0 0.039888696452453007 -0.016736480466615716 0 0.0070661540748832826 -0.021161502853123522 0 0.005079789139866597 -0.018171222445521076 0 0.0023472131172178369 -0.020432634613936639 0 0.039569412102374857 -0.016836568035416315 0 0.043473990976637282 -0.017535572519826657 0 0.043473990976637282 -0.017535572519826657 0 0.044695125608625777 -0.018068076698142612 0 0.074661808189040543 -0.024658020034131131 0 0.076412186271078639 -0.024254675367307407 0 0.075486715687246284 -0.02376793400847043 0 0.0070661540748832826 -0.021161502853123522 0 0.009710082167879365 -0.018429168193516598 0 0.0078618451026808908 -0.016534516697691154 0 0.048376205461088451 -0.017440898702383533 0 0.039569412102374857 -0.016836568035416315 0 0.037602310760572889 -0.013765266777247705 0 0.036858036317838121 -0.014738518879026762 0 0.040091225101829414 -0.014114385126549413 0 0.0070661540748832826 -0.021161502853123522 0 0.009710082167879365 -0.018429168193516598 0 0.012607534031019605 -0.019723555364959389 0 0.027805300726421435 -0.015252187224309195 0 0.039569412102374857 -0.016836568035416315 0 0.015044005349877284 -0.019678812296794024 0 0.0070661540748832826 -0.021161502853123522 0 0.012607534031019605 -0.019723555364959389 0 0.009710082167879365 -0.018429168193516598 0 0.012607534031019605 -0.019723555364959389 0 0.011301080836349861 -0.016295241237782743 0 0.069439522680283305 -0.021616329146911094 0 0.073211207509393833 -0.022532567252173737 0 0.072781060299360156 -0.01954204312218245 0 0.070278727213996806 -0.024369739117395657 0 0.074661808189040543 -0.024658020034131131 0 0.073211207509393833 -0.022532567252173737 0 0.070278727213996806 -0.024369739117395657 0 0.069439522680283305 -0.021616329146911094 0 0.073211207509393833 -0.022532567252173737 0 0.073211207509393833 -0.022532567252173737 0 0.075377450568761356 -0.021278331620982992 0 0.072781060299360156 -0.01954204312218245 0 0.074661808189040543 -0.024658020034131131 0 0.073211207509393833 -0.022532567252173737 0 0.075486715687246284 -0.02376793400847043 0 0.073211207509393833 -0.022532567252173737 0 0.075377450568761356 -0.021278331620982992 0 0.075486715687246284 -0.02376793400847043 0 0.076405862343376041 -0.024128032264192242 0 0.075486715687246284 -0.02376793400847043 0 0.076749951696524987 -0.022402572438994371 0 0.075377450568761356 -0.021278331620982992 0 0.075486715687246284 -0.02376793400847043 0 0.076749951696524987 -0.022402572438994371 0 0.075377450568761356 -0.021278331620982992 0 0.076749951696524987 -0.022402572438994371 0 0.077832620070724001 -0.020558523331614013 0 0.076405862343376041 -0.024128032264192242 0 0.078274070215658159 -0.02213849411798479 0 0.080125015698496588 -0.022936959089936454 0 0.043473990976637282 -0.017535572519826657 0 0.052831951512442757 -0.016683756621452283 0 0.076749951696524987 -0.022402572438994371 0 0.078274070215658159 -0.02213849411798479 0 0.077832620070724001 -0.020558523331614013 0 0.078274070215658159 -0.02213849411798479 0 0.080185731501419555 -0.020740237269972601 0 0.077832620070724001 -0.020558523331614013 0 0.078274070215658159 -0.02213849411798479 0 0.080185731501419555 -0.020740237269972601 0 0.080125015698496588 -0.022936959089936454 0 0.076405862343376041 -0.024128032264192242 0 0.076749951696524987 -0.022402572438994371 0 0.078274070215658159 -0.02213849411798479 0 0.052831951512442757 -0.016683756621452283 0 0.052341425833896366 -0.015847951494355795 0 0.039361454639449775 -0.018376986060585822 0 0.039040988753539264 -0.018279008191628733 0 0.038728075307037736 -0.018433914899070231 0 0.082309271832343656 -0.020830847323600781 0 0.080125015698496588 -0.022936959089936454 0 0.083420708420941694 -0.021655696128646481 0 0.082309271832343656 -0.020830847323600781 0 0.080185731501419555 -0.020740237269972601 0 0.08182382537603472 -0.019787043369302485 0 0.082309271832343656 -0.020830847323600781 0 0.080185731501419555 -0.020740237269972601 0 0.080125015698496588 -0.022936959089936454 0 0.035275803043724643 -0.015683719640146351 0 0.02246814208407975 -0.012998753824659693 0 0.039993026158603069 -0.018042901206495283 0 0.039496860128626063 -0.017933734125022208 0 0.038670084213762813 -0.017214476801476208 0 0.03907581529077029 -0.017937656917887946 0 0.039496860128626063 -0.017933734125022208 0 0.038670084213762813 -0.017214476801476208 0 0.039040988753539264 -0.018279008191628733 0 0.03907581529077029 -0.017937656917887946 0 0.038757586504178931 -0.017778726961133709 0 0.039040988753539264 -0.018279008191628733 0 0.038757586504178931 -0.017778726961133709 0 0.038168524366132661 -0.017655508068655811 0 0.039361454639449775 -0.018376986060585822 0 0.039040988753539264 -0.018279008191628733 0 0.03907581529077029 -0.017937656917887946 0 0.039361454639449775 -0.018376986060585822 0 0.03907581529077029 -0.017937656917887946 0 0.039496860128626063 -0.017933734125022208 0 0.03907581529077029 -0.017937656917887946 0 0.038757586504178931 -0.017778726961133709 0 0.038670084213762813 -0.017214476801476208 0 0.005079789139866597 -0.018171222445521076 0 0.0023472131172178369 -0.020432634613936639 0 0.0027199431062923081 -0.015183031960544154 0 0.040388807661739669 -0.018242268406458949 0 0.039361454639449775 -0.018376986060585822 0 0.039989297651538969 -0.018015089248379763 0 0.043473990976637282 -0.017535572519826657 0 0.035275803043724643 -0.015683719640146351 0 0.039361454639449775 -0.018376986060585822 0 0.039989297651538969 -0.018015089248379763 0 0.039496860128626063 -0.017933734125022208 0 0.035275803043724643 -0.015683719640146351 0 0.035937497530184104 -0.01584790657620944 0 0.0023472131172178369 -0.020432634613936639 0 0.0027199431062923081 -0.015183031960544154 0 -0.0053002564453411343 -0.016350373779258565 0 0.0027199431062923081 -0.015183031960544154 0 -0.0053002564453411343 -0.016350373779258565 0 -0.0015025894828301571 -0.011782716203794482 0 -0.0015025894828301571 -0.011782716203794482 0 -0.0021315873746315986 -0.0076198613953137656 0 -0.0064495424294843846 -0.0097103651754227565 0 -0.0053002564453411343 -0.016350373779258565 0 -0.0015025894828301571 -0.011782716203794482 0 -0.0064495424294843846 -0.0097103651754227565 0 0.0015544940916185522 -0.0066509578315203854 0 -0.0018777063524428419 -0.0057493249545336736 0 0.0027199431062923081 -0.015183031960544154 0 -0.0015025894828301571 -0.011782716203794482 0 0.0037308276520317224 -0.010029076055301607 0 -0.0015025894828301571 -0.011782716203794482 0 0.0037308276520317224 -0.010029076055301607 0 -0.0021315873746315986 -0.0076198613953137656 0 0.0037308276520317224 -0.010029076055301607 0 0.0058670548852905978 -0.013961213048596327 0 0.009553020675955249 -0.012515297336829635 0 0.0015544940916185522 -0.0066509578315203854 0 0.0041184199792206316 -0.0067955277152982364 0 -0.00035619658643608944 -0.005228822049750283 0 0.0010587509056034187 -0.0058415797693990692 0 0.00056862045558845665 -0.0045831960765482013 0 0.0027199431062923081 -0.015183031960544154 0 0.0037308276520317224 -0.010029076055301607 0 0.0058670548852905978 -0.013961213048596327 0 0.0058670548852905978 -0.013961213048596327 0 0.0078618451026808908 -0.016534516697691154 0 0.009553020675955249 -0.012515297336829635 0 0.005079789139866597 -0.018171222445521076 0 0.0058670548852905978 -0.013961213048596327 0 0.0078618451026808908 -0.016534516697691154 0 0.005079789139866597 -0.018171222445521076 0 0.0027199431062923081 -0.015183031960544154 0 0.0058670548852905978 -0.013961213048596327 0 0.015036833362542201 -0.014846749230002494 0 0.011301080836349861 -0.016295241237782743 0 0.0096207058153066367 -0.012456183898916449 0 0.0091222696319108228 -0.0077754601082980256 0 0.0041184199792206316 -0.0067955277152982364 0 0.009710082167879365 -0.018429168193516598 0 0.0078618451026808908 -0.016534516697691154 0 0.011301080836349861 -0.016295241237782743 0 0.0078618451026808908 -0.016534516697691154 0 0.011301080836349861 -0.016295241237782743 0 0.0096207058153066367 -0.012456183898916449 0 0.0039961047582060321 -0.0086801280831111643 0 0.0041184199792206316 -0.0067955277152982364 0 0.0010587509056034187 -0.0058415797693990692 0 0.0017087054310383843 -0.0043137353094546936 0 0.00056862045558845665 -0.0045831960765482013 0 0.00061056793038230951 -0.00076070861969022765 0 0.00093876669685244625 -0.0017684719766124304 0 -0.00025639635568437777 -0.0011732529071355616 0 0.00061056793038230951 -0.00076070861969022765 0 -0.00025639635568437777 -0.0011732529071355616 0 0.00045537221852945712 0.00027326989279581203 0 0.0041184199792206316 -0.0067955277152982364 0 0.0027963734635233898 -0.0034880409226247201 0 0.0017087054310383843 -0.0043137353094546936 0 0.00056862045558845665 -0.0045831960765482013 0 0.00051676394150881812 -0.0031917962778754147 0 -0.00035619658643608944 -0.005228822049750283 0 0.00056862045558845665 -0.0045831960765482013 0 -0.00026325198545152945 -0.0040619125706890004 0 0.00056862045558845665 -0.0045831960765482013 0 -0.00026325198545152945 -0.0040619125706890004 0 0.00051676394150881812 -0.0031917962778754147 0 -0.0018690034198809696 -0.0027483406629763871 0 -0.001072307974073675 -0.0017815723380186922 0 -0.0044384411203887324 -0.0012713436551217512 0 -0.00026325198545152945 -0.0040619125706890004 0 0.00051676394150881812 -0.0031917962778754147 0 -0.0013407219719061415 -0.0035899150874526362 0 0.0010097454241335363 -0.0018020251843369334 0 -0.0018690034198809696 -0.0027483406629763871 0 -0.001072307974073675 -0.0017815723380186922 0 0.0023607104527048088 -0.0027908113045027041 0 0.0017087054310383843 -0.0043137353094546936 0 0.00051676394150881812 -0.0031917962778754147 0 0.001821026559917893 -0.0019691462302445762 0 -0.00077217580314073323 -0.0029076164908650218 0 0.0010097454241335363 -0.0018020251843369334 0 -0.001072307974073675 -0.0017815723380186922 0 -0.00030897228079376809 -0.00081302202174277332 0 0.00042921295129698454 1.566901404527286e-06 0 -0.00030897228079376809 -0.00081302202174277332 0 -0.00036694112959589193 0.00014528423641360478 0 -0.00030897228079376809 -0.00081302202174277332 0 -0.0011573090637658945 -0.00036706394427436692 0 -0.00036694112959589193 0.00014528423641360478 0 -0.001072307974073675 -0.0017815723380186922 0 -0.0011573090637658945 -0.00036706394427436692 0 -0.002488370439387631 -0.00042757051082177735 0 -0.001072307974073675 -0.0017815723380186922 0 -0.00030897228079376809 -0.00081302202174277332 0 -0.0011573090637658945 -0.00036706394427436692 0 -0.0029078201218137984 -0.0014081376537308577 0 -0.0048788246656686577 -0.0010006236564572505 0 -0.001072307974073675 -0.0017815723380186922 0 -0.002488370439387631 -0.00042757051082177735 0 -0.0043881705950045893 -0.001101183841168335 0 -0.0011573090637658945 -0.00036706394427436692 0 -0.002488370439387631 -0.00042757051082177735 0 -0.0020526866835836122 0.00043376658712025739 0 -0.0020526866835836122 0.00043376658712025739 0 -0.0020591516498243063 0.0013777379168267404 0 -0.0010977426552665579 0.00090726948594821162 0 -0.0031790401226692764 0.0025180361396129137 0 -0.0034360209515280449 0.00085367990199085796 0 -0.0020591516498243063 0.0013777379168267404 0 -0.0020526866835836122 0.00043376658712025739 0 -0.0034360209515280449 0.00085367990199085796 0 -0.0020591516498243063 0.0013777379168267404 0 -0.002488370439387631 -0.00042757051082177735 0 -0.0020526866835836122 0.00043376658712025739 0 -0.0034360209515280449 0.00085367990199085796 0 -0.00087626495101279821 0.0024166249198928789 0 -0.0020591516498243063 0.0013777379168267404 0 -0.0010977426552665579 0.00090726948594821162 0 0.00057398257853171755 0.0018050348396413934 0 0.000386627926521323 0.0010372499449737122 0 -0.0010977426552665579 0.00090726948594821162 0 0.000386627926521323 0.0010372499449737122 0 -0.0010977426552665579 0.00090726948594821162 0 -0.00036694112959589193 0.00014528423641360478 0 -0.0011573090637658945 -0.00036706394427436692 0 -0.0010977426552665579 0.00090726948594821162 0 -0.00036694112959589193 0.00014528423641360478 0 -0.0011573090637658945 -0.00036706394427436692 0 -0.0020526866835836122 0.00043376658712025739 0 -0.0010977426552665579 0.00090726948594821162 0 -0.007326877020314114 0.0027208667947859516 0 -0.005622440657510757 0.00069336685015082729 0 -0.0075354615895408712 -0.00045350638041592294 0 -0.0043748252381277447 0.0023316058505972906 0 -0.0034360209515280449 0.00085367990199085796 0 -0.005622440657510757 0.00069336685015082729 0 -0.0034360209515280449 0.00085367990199085796 0 -0.005622440657510757 0.00069336685015082729 0 -0.0043881705950045893 -0.001101183841168335 0 -0.002488370439387631 -0.00042757051082177735 0 -0.0034360209515280449 0.00085367990199085796 0 -0.0043881705950045893 -0.001101183841168335 0 -0.0048788246656686577 -0.0010006236564572505 0 -0.0090957421150095873 -8.9212619296495961e-05 0 -0.0044384411203887324 -0.0012713436551217512 0 -0.0071414466129296403 -0.002549006157661033 0 -0.0085540187144939866 -0.00031617945718977089 0 -0.005622440657510757 0.00069336685015082729 0 -0.0043881705950045893 -0.001101183841168335 0 -0.0075354615895408712 -0.00045350638041592294 0 -0.0071414466129296403 -0.002549006157661033 0 -0.0050219138590701833 -0.0038413117959045866 0 -0.0088415647913238932 -0.0052021855938791947 0 -0.0044384411203887324 -0.0012713436551217512 0 -0.0071414466129296403 -0.002549006157661033 0 -0.0050219138590701833 -0.0038413117959045866 0 -0.0018690034198809696 -0.0027483406629763871 0 -0.0044384411203887324 -0.0012713436551217512 0 -0.0050219138590701833 -0.0038413117959045866 0 -0.00077217580314073323 -0.0029076164908650218 0 -0.0032719458704790171 -0.0037683221972595977 0 -0.00035619658643608944 -0.005228822049750283 0 -0.00026325198545152945 -0.0040619125706890004 0 -0.0017807297943272043 -0.0046138883067928403 0 -0.00026325198545152945 -0.0040619125706890004 0 -0.0013407219719061415 -0.0035899150874526362 0 -0.0017807297943272043 -0.0046138883067928403 0 -0.0032719458704790171 -0.0037683221972595977 0 -0.0055184088199320587 -0.0045883730568246879 0 -0.0013407219719061415 -0.0035899150874526362 0 -0.0017807297943272043 -0.0046138883067928403 0 -0.0032134372655932943 -0.0039921822911658106 0 -0.0018777063524428419 -0.0057493249545336736 0 -0.0055184088199320587 -0.0045883730568246879 0 -0.0021315873746315986 -0.0076198613953137656 0 -0.00788950770122996 -0.0053946079551900738 0 -0.0064495424294843846 -0.0097103651754227565 0 -0.00872163654601457 -0.0077798532561123715 0 -0.00788950770122996 -0.0053946079551900738 0 -0.0064495424294843846 -0.0097103651754227565 0 -0.0098883090801664946 -0.0049934362108789076 0 -0.0083385838796218668 -0.0056651774843509703 0 -0.010443920685335541 -0.0061893851945735504 0 -0.00872163654601457 -0.0077798532561123715 0 -0.00788950770122996 -0.0053946079551900738 0 -0.010443920685335541 -0.0061893851945735504 0 -0.0055184088199320587 -0.0045883730568246879 0 -0.0060625976964405583 -0.0047237209104828122 0 -0.0057935809737294525 -0.0045147815247533396 0 -0.0055184088199320587 -0.0045883730568246879 0 -0.010443920685335541 -0.0061893851945735504 0 -0.012802911038865316 -0.0027771235891163094 0 -0.011039574560861338 -0.0087711804147137581 0 -0.013924514623245524 -0.0047268776199080988 0 -0.014100123773195737 -0.0063440182501875424 0 -0.011039574560861338 -0.0087711804147137581 0 -0.0134188213631312 -0.0042725878008346473 0 -0.012430649153053223 -0.0065123397123031251 0 -0.014100123773195737 -0.0063440182501875424 0 -0.014503990298498587 -0.0073204854805776114 0 -0.011039574560861338 -0.0087711804147137581 0 -0.00872163654601457 -0.0077798532561123715 0 -0.010443920685335541 -0.0061893851945735504 0 -0.011039574560861338 -0.0087711804147137581 0 -0.0098883090801664946 -0.0049934362108789076 0 -0.01034777463751861 -0.0027832644204273459 0 -0.012802911038865316 -0.0027771235891163094 0 -0.0098883090801664946 -0.0049934362108789076 0 -0.010443920685335541 -0.0061893851945735504 0 -0.012802911038865316 -0.0027771235891163094 0 -0.01034777463751861 -0.0027832644204273459 0 -0.012802911038865316 -0.0027771235891163094 0 -0.010328187863878359 -0.0013111478014863379 0 -0.0071414466129296403 -0.002549006157661033 0 -0.0088415647913238932 -0.0052021855938791947 0 -0.0088748741682812757 -0.0034390386302980778 0 -0.0098883090801664946 -0.0049934362108789076 0 -0.0088415647913238932 -0.0052021855938791947 0 -0.0088748741682812757 -0.0034390386302980778 0 -0.0098883090801664946 -0.0049934362108789076 0 -0.01034777463751861 -0.0027832644204273459 0 -0.0088748741682812757 -0.0034390386302980778 0 -0.01034777463751861 -0.0027832644204273459 0 -0.0088748741682812757 -0.0034390386302980778 0 -0.0086604817908781644 -0.0015771229394761751 0 -0.0071414466129296403 -0.002549006157661033 0 -0.0088748741682812757 -0.0034390386302980778 0 -0.0086604817908781644 -0.0015771229394761751 0 -0.0071414466129296403 -0.002549006157661033 0 -0.0086604817908781644 -0.0015771229394761751 0 -0.0085540187144939866 -0.00031617945718977089 0 -0.0090871582942739209 -0.00020571073818986669 0 -0.0090957421150095873 -8.9212619296495961e-05 0 -0.0085800593618096214 4.4911160724382626e-05 0 -0.010328187863878359 -0.0013111478014863379 0 -0.01129402126595512 0.00056702459011962478 0 -0.0090957421150095873 -8.9212619296495961e-05 0 -0.010662715905100569 0.00026844931206224099 0 -0.01034777463751861 -0.0027832644204273459 0 -0.0086604817908781644 -0.0015771229394761751 0 -0.010328187863878359 -0.0013111478014863379 0 -0.0086604817908781644 -0.0015771229394761751 0 -0.0085800593618096214 4.4911160724382626e-05 0 -0.010328187863878359 -0.0013111478014863379 0 -0.012802911038865316 -0.0027771235891163094 0 -0.01129402126595512 0.00056702459011962478 0 -0.013825411333336804 0.0010188616066209391 0 -0.012802911038865316 -0.0027771235891163094 0 -0.010328187863878359 -0.0013111478014863379 0 -0.01129402126595512 0.00056702459011962478 0 -0.011943471123666423 0.00068706440693551353 0 -0.013388485052983528 0.001883760087418439 0 -0.013825411333336804 0.0010188616066209391 0 -0.010662715905100569 0.00026844931206224099 0 -0.011400223622592605 0.00042830786310362091 0 -0.011943471123666423 0.00068706440693551353 0 -0.01260541550570311 0.0025247133364047201 0 -0.013388485052983528 0.001883760087418439 0 -0.011943471123666423 0.00068706440693551353 0 -0.01260541550570311 0.0025247133364047201 0 -0.011233539692866733 0.0023390664653124924 0 -0.01005588323637604 0.0003092304969645063 0 -0.011943471123666423 0.00068706440693551353 0 -0.011233539692866733 0.0023390664653124924 0 -0.010373881128842221 0.0012191491763924632 0 -0.0090957421150095873 -8.9212619296495961e-05 0 -0.009822287891016173 0.0039754279478433048 0 -0.01005588323637604 0.0003092304969645063 0 -0.011233539692866733 0.0023390664653124924 0 -0.015912436103466963 -0.0021251851387784847 0 -0.016101538048528062 -0.0027857305095570842 0 -0.016532119961166963 -0.0013040163554145312 0 -0.016101538048528062 -0.0027857305095570842 0 -0.016306796648032619 -0.0032068842014392786 0 -0.016347181109590714 -0.0039086898870170222 0 -0.011759560360055956 -0.0011419350505833467 0 -0.0097056751397834057 -0.0012876428125187668 0 -0.016306796648032619 -0.0032068842014392786 0 -0.016213271626700086 -0.0029015010276925725 0 -0.01584195179803018 -0.0032932269379538901 0 -0.016101538048528062 -0.0027857305095570842 0 -0.016306796648032619 -0.0032068842014392786 0 -0.016796278502307884 -0.0028540743498334784 0 -0.016306796648032619 -0.0032068842014392786 0 -0.016796278502307884 -0.0028540743498334784 0 -0.016213271626700086 -0.0029015010276925725 0 -0.016440752291840648 -0.0022292650746163177 0 -0.016796278502307884 -0.0028540743498334784 0 -0.016213271626700086 -0.0029015010276925725 0 -0.016440752291840648 -0.0022292650746163177 0 -0.016213271626700086 -0.0029015010276925725 0 -0.015401513754095205 -0.0031985216197042282 0 -0.013672968778781864 0.0029937448523340939 0 -0.013388485052983528 0.001883760087418439 0 -0.01425785989792531 0.0014885002742304129 0 -0.013672968778781864 0.0029937448523340939 0 -0.01260541550570311 0.0025247133364047201 0 -0.013388485052983528 0.001883760087418439 0 -0.013388485052983528 0.001883760087418439 0 -0.013825411333336804 0.0010188616066209391 0 -0.01425785989792531 0.0014885002742304129 0 -0.015401513754095205 -0.0031985216197042282 0 -0.01584195179803018 -0.0032932269379538901 0 -0.01554562814211566 -0.0037913448069554997 0 -0.016213271626700086 -0.0029015010276925725 0 -0.015401513754095205 -0.0031985216197042282 0 -0.01584195179803018 -0.0032932269379538901 0 -0.013924514623245524 -0.0047268776199080988 0 -0.015401513754095205 -0.0031985216197042282 0 -0.01554562814211566 -0.0037913448069554997 0 -0.016306796648032619 -0.0032068842014392786 0 -0.01584195179803018 -0.0032932269379538901 0 -0.01554562814211566 -0.0037913448069554997 0 -0.012802911038865316 -0.0027771235891163094 0 -0.013825411333336804 0.0010188616066209391 0 -0.01425785989792531 0.0014885002742304129 0 -0.0134188213631312 -0.0042725878008346473 0 -0.014897827223155118 -0.0012180088265669137 0 -0.013924514623245524 -0.0047268776199080988 0 -0.01554562814211566 -0.0037913448069554997 0 -0.015152740150800148 -0.0045058630562047073 0 -0.01554562814211566 -0.0037913448069554997 0 -0.016347181109590714 -0.0039086898870170222 0 -0.015152740150800148 -0.0045058630562047073 0 -0.01575210267751722 -0.0017927237775139761 0 -0.015912436103466963 -0.0021251851387784847 0 -0.016532119961166963 -0.0013040163554145312 0 -0.01575210267751722 -0.0017927237775139761 0 -0.016532119961166963 -0.0013040163554145312 0 -0.016101007036559003 -0.0013648571452462965 0 -0.016306796648032619 -0.0032068842014392786 0 -0.01554562814211566 -0.0037913448069554997 0 -0.016347181109590714 -0.0039086898870170222 0 -0.016532119961166963 -0.0013040163554145312 0 -0.016101007036559003 -0.0013648571452462965 0 -0.016137779552203191 -0.00092263757319400216 0 -0.016532119961166963 -0.0013040163554145312 0 -0.016137779552203191 -0.00092263757319400216 0 -0.016921660479465358 -0.00036643236167971507 0 -0.0069838919807649648 -0.0041349216855916101 0 0.00023451280043125365 -0.0058921324159636173 0 -0.016347181109590714 -0.0039086898870170222 0 -0.014911967493136512 -0.0052757816612894236 0 -0.014895577435980764 -0.0069328701458733523 0 -0.0097056751397834057 -0.0012876428125187668 0 0.00023451280043125365 -0.0058921324159636173 0 -0.013924514623245524 -0.0047268776199080988 0 -0.015152740150800148 -0.0045058630562047073 0 -0.014911967493136512 -0.0052757816612894236 0 -0.016347181109590714 -0.0039086898870170222 0 -0.015152740150800148 -0.0045058630562047073 0 -0.014911967493136512 -0.0052757816612894236 0 -0.014911967493136512 -0.0052757816612894236 0 -0.014100123773195737 -0.0063440182501875424 0 -0.014895577435980764 -0.0069328701458733523 0 -0.013924514623245524 -0.0047268776199080988 0 -0.014911967493136512 -0.0052757816612894236 0 -0.014100123773195737 -0.0063440182501875424 0 0.0053530064667964951 -0.014909683020718729 0 -0.0011993553974512764 -0.014570357837750654 0 0.0053514661550052318 -0.020546006436731531 0 -0.015077004148499475 -0.00686756067322638 0 -0.014503990298498587 -0.0073204854805776114 0 -0.012599621360596934 -0.012169725148903736 0 -0.014100123773195737 -0.0063440182501875424 0 -0.014895577435980764 -0.0069328701458733523 0 -0.014503990298498587 -0.0073204854805776114 0 0.00023451280043125365 -0.0058921324159636173 0 4.4202587618530963e-05 -0.0058097430072875326 0 0.037752109668394408 -0.013899908893435614 0 0.04425590389980992 -0.019790546269755394 0 -0.0022022142855607279 -0.0097232299891639434 0 0.0053530064667964951 -0.014909683020718729 0 -0.0011993553974512764 -0.014570357837750654 0 0.077915895656082659 -0.013052128910613582 0 0.081677965298681626 -0.019306995975255987 0 0.089273502299750174 -0.023416974032384658 0 0.077915895656082659 -0.013052128910613582 0 0.081677965298681626 -0.019306995975255987 0 0.075897888217984655 -0.019549153079425906 0 0.080039607383078137 -0.023263676497791919 0 0.08064975876369429 -0.033219386784723269 0 0.083779728814123447 -0.020822597251629455 0 0.075897888217984655 -0.019549153079425906 0 0.080039607383078137 -0.023263676497791919 0 0.076824061973018845 -0.025149677070437502 0 0.081677965298681626 -0.019306995975255987 0 0.075897888217984655 -0.019549153079425906 0 0.080039607383078137 -0.023263676497791919 0 0.081677965298681626 -0.019306995975255987 0 0.080039607383078137 -0.023263676497791919 0 0.083779728814123447 -0.020822597251629455 0 0.080039607383078137 -0.023263676497791919 0 0.076824061973018845 -0.025149677070437502 0 0.08064975876369429 -0.033219386784723269 0 0.069199539669535889 -0.024208617690411081 0 0.076824061973018845 -0.025149677070437502 0 0.08064975876369429 -0.033219386784723269 0 0.078814276264393177 -0.021137118131939109 0 0.079720228520164263 -0.021607929525146199 0 0.085054560659198031 -0.02285511567988234 0 0.085900196753149416 -0.022636745331801281 0 0.083779728814123447 -0.020822597251629455 0 0.085900196753149416 -0.022636745331801281 0 0.085830770759495911 -0.021429134165993662 0 0.085948268519528817 -0.022819492636677017 0 0.085900196753149416 -0.022636745331801281 0 0.085977318118346191 -0.02266037972341672 0 0.086655113580822077 -0.022795858134642636 0 0.085054560659198031 -0.02285511567988234 0 0.085900196753149416 -0.022636745331801281 0 0.086655113580822077 -0.022795858134642636 0 0.085900196753149416 -0.022636745331801281 0 0.083779728814123447 -0.020822597251629455 0 0.085830770759495911 -0.021429134165993662 0 0.0053530064667964951 -0.014909683020718729 0 0.0053514661550052318 -0.020546006436731531 0 0.0096182272080275674 -0.022809340440293334 0 0.00023451280043125365 -0.0058921324159636173 0 0.027776127525585042 -0.014443871122788263 0 0.04425590389980992 -0.019790546269755394 0 0.027776127525585042 -0.014443871122788263 0 0.053858886434464126 -0.023188422852434502 0 0.04425590389980992 -0.019790546269755394 0 0.081677965298681626 -0.019306995975255987 0 0.083779728814123447 -0.020822597251629455 0 0.085830770759495911 -0.021429134165993662 0 0.04425590389980992 -0.019790546269755394 0 0.040074150810121958 -0.019877943545595387 0 0.039856216603468761 -0.017039708352821294 0 0.037714520152077456 -0.015960065148811296 0 0.036892415330008775 -0.014485865714984414 0 -0.011039574560861338 -0.0087711804147137581 0 -0.012599621360596934 -0.012169725148903736 0 -0.0064495424294843846 -0.0097103651754227565 0 -0.014503990298498587 -0.0073204854805776114 0 -0.011039574560861338 -0.0087711804147137581 0 -0.012599621360596934 -0.012169725148903736 0 -0.0053002564453411343 -0.016350373779258565 0 -0.012599621360596934 -0.012169725148903736 0 -0.0064495424294843846 -0.0097103651754227565 0 -0.00872163654601457 -0.0077798532561123715 0 -0.011039574560861338 -0.0087711804147137581 0 -0.0064495424294843846 -0.0097103651754227565 0 0.038670084213762813 -0.017214476801476208 0 0.036959179498636391 -0.016235396086510128 0 0.037271060557295135 -0.016845282399368562 0 0.02246814208407975 -0.012998753824659693 0 0.027776127525585042 -0.014443871122788263 0 0.038670084213762813 -0.017214476801476208 0 0.037271060557295135 -0.016845282399368562 0 0.038168524366132661 -0.017655508068655811 0 0.040074150810121958 -0.019877943545595387 0 0.039005004954823862 -0.018742948536995808 0 0.085900196753149416 -0.022636745331801281 0 0.085948268519528817 -0.022819492636677017 0 0.085977318118346191 -0.02266037972341672 0 0.027776127525585042 -0.014443871122788263 0 0.040074150810121958 -0.019877943545595387 0 0.085948268519528817 -0.022819492636677017 0 0.085977318118346191 -0.02266037972341672 0 0.084885165059907772 -0.022387384271701651 0 0.040074150810121958 -0.019877943545595387 0 0.048950056734781297 -0.020104931310705232 0 0.085977318118346191 -0.02266037972341672 0 0.085868740158451223 -0.021795998108722216 0 0.084885165059907772 -0.022387384271701651 0 0.085868740158451223 -0.021795998108722216 0 0.084885165059907772 -0.022387384271701651 0 0.084858587209375738 -0.021639631063380835 0 0.038757586504178931 -0.017778726961133709 0 0.038670084213762813 -0.017214476801476208 0 0.038168524366132661 -0.017655508068655811 0 0.038559410094502422 -0.017898445898974342 0 0.038710157622645375 -0.018043935351865513 0 0.038633313932967955 -0.018087255034633591 0 0.038710157622645375 -0.018043935351865513 0 0.038633313932967955 -0.018087255034633591 0 0.03876907839297531 -0.018208653517889875 0 0.084885165059907772 -0.022387384271701651 0 0.083848958023396675 -0.02118885743539254 0 0.084858587209375738 -0.021639631063380835 0 0.048950056734781297 -0.020104931310705232 0 0.052341425833896366 -0.015847951494355795 0 0.039040988753539264 -0.018279008191628733 0 0.038710157622645375 -0.018043935351865513 0 0.03876907839297531 -0.018208653517889875 0 0.038633313932967955 -0.018087255034633591 0 0.03876907839297531 -0.018208653517889875 0 0.038728075307037736 -0.018433914899070231 0 0.038870901758596421 -0.018565544014262164 0 0.039005004954823862 -0.018742948536995808 0 0.039040988753539264 -0.018279008191628733 0 0.03876907839297531 -0.018208653517889875 0 0.038728075307037736 -0.018433914899070231 0 0.083420708420941694 -0.021655696128646481 0 0.084360650896486256 -0.021106845650074944 0 0.083629541933429419 -0.021108684139118435 0 0.083848958023396675 -0.02118885743539254 0 0.084858587209375738 -0.021639631063380835 0 0.084360650896486256 -0.021106845650074944 0 0.084858587209375738 -0.021639631063380835 0 0.084360650896486256 -0.021106845650074944 0 0.085275831178024217 -0.020933018735439731 0 0.052341425833896366 -0.015847951494355795 0 0.054048096011804631 -0.015701663100414428 0 0.084360650896486256 -0.021106845650074944 0 0.084616708472008362 -0.020325395971042159 0 0.085275831178024217 -0.020933018735439731 0 0.084616708472008362 -0.020325395971042159 0 0.083977323825226047 -0.020654601855347867 0 0.08378679653862306 -0.020141493489027804 0 0.084360650896486256 -0.021106845650074944 0 0.084616708472008362 -0.020325395971042159 0 0.083977323825226047 -0.020654601855347867 0 0.084360650896486256 -0.021106845650074944 0 0.083977323825226047 -0.020654601855347867 0 0.083629541933429419 -0.021108684139118435 0 0.083977323825226047 -0.020654601855347867 0 0.083629541933429419 -0.021108684139118435 0 0.083373503097606855 -0.020661297831691204 0 0.083420708420941694 -0.021655696128646481 0 0.083629541933429419 -0.021108684139118435 0 0.083161632315830861 -0.021024158260621251 0 0.083629541933429419 -0.021108684139118435 0 0.083373503097606855 -0.020661297831691204 0 0.083161632315830861 -0.021024158260621251 0 0.08378679653862306 -0.020141493489027804 0 0.083373503097606855 -0.020661297831691204 0 0.083171159910748638 -0.020219200259478015 0 0.083977323825226047 -0.020654601855347867 0 0.08378679653862306 -0.020141493489027804 0 0.083373503097606855 -0.020661297831691204 0 0.082309271832343656 -0.020830847323600781 0 0.083171159910748638 -0.020219200259478015 0 0.083061284317686473 -0.019516461199494906 0 0.082309271832343656 -0.020830847323600781 0 0.083373503097606855 -0.020661297831691204 0 0.083171159910748638 -0.020219200259478015 0 0.082309271832343656 -0.020830847323600781 0 0.083420708420941694 -0.021655696128646481 0 0.083161632315830861 -0.021024158260621251 0 0.082309271832343656 -0.020830847323600781 0 0.083373503097606855 -0.020661297831691204 0 0.083161632315830861 -0.021024158260621251 0 0.085868740158451223 -0.021795998108722216 0 0.085275831178024217 -0.020933018735439731 0 0.086522464392967791 -0.02025247637064868 0 0.085868740158451223 -0.021795998108722216 0 0.084858587209375738 -0.021639631063380835 0 0.085275831178024217 -0.020933018735439731 0 0.084616708472008362 -0.020325395971042159 0 0.085275831178024217 -0.020933018735439731 0 0.085598690836843433 -0.019703082679756467 0 0.085275831178024217 -0.020933018735439731 0 0.086522464392967791 -0.02025247637064868 0 0.085598690836843433 -0.019703082679756467 0 0.085868740158451223 -0.021795998108722216 0 0.086522464392967791 -0.02025247637064868 0 0.087404397602922665 -0.020952067990059282 0 0.086522464392967791 -0.02025247637064868 0 0.087404397602922665 -0.020952067990059282 0 0.088360676437103242 -0.019202991667928035 0 0.087404397602922665 -0.020952067990059282 0 0.090156566052435383 -0.020710037819520931 0 0.086655113580822077 -0.022795858134642636 0 0.087404397602922665 -0.020952067990059282 0 0.090156566052435383 -0.020710037819520931 0 0.088360676437103242 -0.019202991667928035 0 0.078814276264393177 -0.021137118131939109 0 0.078821869588416596 -0.023152495693734464 0 0.088548751523307226 -0.024418363983216056 0 0.090156566052435383 -0.020710037819520931 0 0.086655113580822077 -0.022795858134642636 0 0.078814276264393177 -0.021137118131939109 0 0.080679202032036032 -0.022271352974918172 0 0.085977318118346191 -0.02266037972341672 0 0.085868740158451223 -0.021795998108722216 0 0.086655113580822077 -0.022795858134642636 0 0.085868740158451223 -0.021795998108722216 0 0.087404397602922665 -0.020952067990059282 0 0.086655113580822077 -0.022795858134642636 0 0.088371837314179469 -0.016698043893336172 0 0.086831265162257046 -0.01726448569475774 0 0.086908702920916237 -0.018574228136717656 0 0.088371837314179469 -0.016698043893336172 0 0.086831265162257046 -0.01726448569475774 0 0.087042859389014682 -0.015632808302740959 0 0.088371837314179469 -0.016698043893336172 0 0.087042859389014682 -0.015632808302740959 0 0.088148910704833175 -0.014630566427699963 0 0.091628484684012704 -0.017193291595133761 0 0.088371837314179469 -0.016698043893336172 0 0.089994210296005128 -0.014350222905012111 0 0.091628484684012704 -0.017193291595133761 0 0.090156566052435383 -0.020710037819520931 0 0.088360676437103242 -0.019202991667928035 0 0.091628484684012704 -0.017193291595133761 0 0.088371837314179469 -0.016698043893336172 0 0.088360676437103242 -0.019202991667928035 0 0.088371837314179469 -0.016698043893336172 0 0.088360676437103242 -0.019202991667928035 0 0.086908702920916237 -0.018574228136717656 0 0.086522464392967791 -0.02025247637064868 0 0.088360676437103242 -0.019202991667928035 0 0.086908702920916237 -0.018574228136717656 0 0.086908702920916237 -0.018574228136717656 0 0.085598690836843433 -0.019703082679756467 0 0.085623891230626331 -0.0184715245087992 0 0.086522464392967791 -0.02025247637064868 0 0.086908702920916237 -0.018574228136717656 0 0.085598690836843433 -0.019703082679756467 0 0.084616708472008362 -0.020325395971042159 0 0.085598690836843433 -0.019703082679756467 0 0.084881138651545243 -0.019314492074423359 0 0.085598690836843433 -0.019703082679756467 0 0.084881138651545243 -0.019314492074423359 0 0.085623891230626331 -0.0184715245087992 0 0.085623891230626331 -0.0184715245087992 0 0.08460644519933172 -0.018416735667915067 0 0.085015564154312065 -0.017462563213405755 0 0.084881138651545243 -0.019314492074423359 0 0.085623891230626331 -0.0184715245087992 0 0.08460644519933172 -0.018416735667915067 0 0.086831265162257046 -0.01726448569475774 0 0.086908702920916237 -0.018574228136717656 0 0.085623891230626331 -0.0184715245087992 0 0.08378679653862306 -0.020141493489027804 0 0.083171159910748638 -0.020219200259478015 0 0.083061284317686473 -0.019516461199494906 0 0.08378679653862306 -0.020141493489027804 0 0.083061284317686473 -0.019516461199494906 0 0.084142156450966954 -0.019407710741435099 0 0.083061284317686473 -0.019516461199494906 0 0.084142156450966954 -0.019407710741435099 0 0.083780107298351891 -0.018679947062664657 0 0.084616708472008362 -0.020325395971042159 0 0.08378679653862306 -0.020141493489027804 0 0.084142156450966954 -0.019407710741435099 0 0.084616708472008362 -0.020325395971042159 0 0.084881138651545243 -0.019314492074423359 0 0.084142156450966954 -0.019407710741435099 0 0.084881138651545243 -0.019314492074423359 0 0.084142156450966954 -0.019407710741435099 0 0.08460644519933172 -0.018416735667915067 0 0.08460644519933172 -0.018416735667915067 0 0.083950349705783342 -0.017489132380429696 0 0.085015564154312065 -0.017462563213405755 0 0.08460644519933172 -0.018416735667915067 0 0.083780107298351891 -0.018679947062664657 0 0.083950349705783342 -0.017489132380429696 0 0.084142156450966954 -0.019407710741435099 0 0.08460644519933172 -0.018416735667915067 0 0.083780107298351891 -0.018679947062664657 0 0.083036801806953081 -0.018425084632146028 0 0.082824241732047152 -0.017593415948334169 0 0.083950349705783342 -0.017489132380429696 0 0.083061284317686473 -0.019516461199494906 0 0.083780107298351891 -0.018679947062664657 0 0.083036801806953081 -0.018425084632146028 0 0.083780107298351891 -0.018679947062664657 0 0.083036801806953081 -0.018425084632146028 0 0.083950349705783342 -0.017489132380429696 0 0.083036801806953081 -0.018425084632146028 0 0.082824241732047152 -0.017593415948334169 0 0.082150477988588197 -0.018596962574717983 0 0.083061284317686473 -0.019516461199494906 0 0.083036801806953081 -0.018425084632146028 0 0.082150477988588197 -0.018596962574717983 0 0.082928599970520545 -0.016472099235002861 0 0.082824241732047152 -0.017593415948334169 0 0.083950349705783342 -0.017489132380429696 0 0.082928599970520545 -0.016472099235002861 0 0.083950349705783342 -0.017489132380429696 0 0.083929572457276391 -0.015987291830011095 0 0.083950349705783342 -0.017489132380429696 0 0.08486989868727203 -0.016307913251759724 0 0.083929572457276391 -0.015987291830011095 0 0.083950349705783342 -0.017489132380429696 0 0.08486989868727203 -0.016307913251759724 0 0.085015564154312065 -0.017462563213405755 0 0.083929572457276391 -0.015987291830011095 0 0.083357363809891658 -0.014865646238216994 0 0.084525131259649111 -0.015161062725185286 0 0.08486989868727203 -0.016307913251759724 0 0.083929572457276391 -0.015987291830011095 0 0.084525131259649111 -0.015161062725185286 0 0.082928599970520545 -0.016472099235002861 0 0.083929572457276391 -0.015987291830011095 0 0.083357363809891658 -0.014865646238216994 0 0.082928599970520545 -0.016472099235002861 0 0.083357363809891658 -0.014865646238216994 0 0.082090761445669236 -0.015701328159168033 0 0.086831265162257046 -0.01726448569475774 0 0.087042859389014682 -0.015632808302740959 0 0.085882144910720951 -0.016596747894108674 0 0.086831265162257046 -0.01726448569475774 0 0.085623891230626331 -0.0184715245087992 0 0.085882144910720951 -0.016596747894108674 0 0.08486989868727203 -0.016307913251759724 0 0.085882144910720951 -0.016596747894108674 0 0.085015564154312065 -0.017462563213405755 0 0.085623891230626331 -0.0184715245087992 0 0.085882144910720951 -0.016596747894108674 0 0.085015564154312065 -0.017462563213405755 0 0.08486989868727203 -0.016307913251759724 0 0.085666338189015215 -0.015041445799775151 0 0.084525131259649111 -0.015161062725185286 0 0.08486989868727203 -0.016307913251759724 0 0.085882144910720951 -0.016596747894108674 0 0.085666338189015215 -0.015041445799775151 0 0.087042859389014682 -0.015632808302740959 0 0.085882144910720951 -0.016596747894108674 0 0.085666338189015215 -0.015041445799775151 0 0.087042859389014682 -0.015632808302740959 0 0.085666338189015215 -0.015041445799775151 0 0.086970222559371396 -0.013984931316312595 0 0.085666338189015215 -0.015041445799775151 0 0.085924049870210725 -0.013411794744266479 0 0.086970222559371396 -0.013984931316312595 0 0.085666338189015215 -0.015041445799775151 0 0.085924049870210725 -0.013411794744266479 0 0.084735558351727011 -0.013610624309463644 0 0.085924049870210725 -0.013411794744266479 0 0.084735558351727011 -0.013610624309463644 0 0.085672407231535339 -0.012065058060615329 0 0.085924049870210725 -0.013411794744266479 0 0.086709605880325155 -0.012628544127358888 0 0.086970222559371396 -0.013984931316312595 0 0.085666338189015215 -0.015041445799775151 0 0.084525131259649111 -0.015161062725185286 0 0.084735558351727011 -0.013610624309463644 0 0.083357363809891658 -0.014865646238216994 0 0.084525131259649111 -0.015161062725185286 0 0.084735558351727011 -0.013610624309463644 0 0.084735558351727011 -0.013610624309463644 0 0.084689647087002287 -0.012185883973287464 0 0.083130340364753336 -0.012960705107858907 0 0.083357363809891658 -0.014865646238216994 0 0.084735558351727011 -0.013610624309463644 0 0.083130340364753336 -0.012960705107858907 0 0.084689647087002287 -0.012185883973287464 0 0.084364422185690666 -0.011198084128191284 0 0.083130340364753336 -0.012960705107858907 0 0.084735558351727011 -0.013610624309463644 0 0.084689647087002287 -0.012185883973287464 0 0.085672407231535339 -0.012065058060615329 0 0.084689647087002287 -0.012185883973287464 0 0.084364422185690666 -0.011198084128191284 0 0.084924971196301019 -0.010765914997413754 0 0.087878216809216231 -0.0089632569584834065 0 0.088403363254684231 -0.0086037029375694678 0 0.084689647087002287 -0.012185883973287464 0 0.085672407231535339 -0.012065058060615329 0 0.084924971196301019 -0.010765914997413754 0 0.086709605880325155 -0.012628544127358888 0 0.085672407231535339 -0.012065058060615329 0 0.086949814349256874 -0.011324548065447637 0 0.085924049870210725 -0.013411794744266479 0 0.086709605880325155 -0.012628544127358888 0 0.085672407231535339 -0.012065058060615329 0 0.085672407231535339 -0.012065058060615329 0 0.086189431386362023 -0.011087962396593985 0 0.084924971196301019 -0.010765914997413754 0 0.085672407231535339 -0.012065058060615329 0 0.086189431386362023 -0.011087962396593985 0 0.086949814349256874 -0.011324548065447637 0 0.086949814349256874 -0.011324548065447637 0 0.088120544053580566 -0.012639794080845307 0 0.088249294399832298 -0.010519026435347431 0 0.088120544053580566 -0.012639794080845307 0 0.089785308345781856 -0.011235964362521047 0 0.088249294399832298 -0.010519026435347431 0 0.086709605880325155 -0.012628544127358888 0 0.086949814349256874 -0.011324548065447637 0 0.088120544053580566 -0.012639794080845307 0 0.088120544053580566 -0.012639794080845307 0 0.086970222559371396 -0.013984931316312595 0 0.088148910704833175 -0.014630566427699963 0 0.086709605880325155 -0.012628544127358888 0 0.088120544053580566 -0.012639794080845307 0 0.086970222559371396 -0.013984931316312595 0 0.088120544053580566 -0.012639794080845307 0 0.088148910704833175 -0.014630566427699963 0 0.089994210296005128 -0.014350222905012111 0 0.087042859389014682 -0.015632808302740959 0 0.086970222559371396 -0.013984931316312595 0 0.088148910704833175 -0.014630566427699963 0 0.088371837314179469 -0.016698043893336172 0 0.088148910704833175 -0.014630566427699963 0 0.089994210296005128 -0.014350222905012111 0 0.092863079857616437 -0.013585111759426696 0 0.089994210296005128 -0.014350222905012111 0 0.089785308345781856 -0.011235964362521047 0 0.088120544053580566 -0.012639794080845307 0 0.089994210296005128 -0.014350222905012111 0 0.089785308345781856 -0.011235964362521047 0 0.091253621120779255 -0.0097518531844204108 0 0.089785308345781856 -0.011235964362521047 0 0.089768850425378036 -0.0085282295717274241 0 0.089785308345781856 -0.011235964362521047 0 0.088249294399832298 -0.010519026435347431 0 0.089768850425378036 -0.0085282295717274241 0 0.091147818329178745 -0.0083568950022772839 0 0.091253621120779255 -0.0097518531844204108 0 0.089768850425378036 -0.0085282295717274241 0 0.088249294399832298 -0.010519026435347431 0 0.087693223289685762 -0.0090348430315059982 0 0.08690995655578905 -0.010429096399867582 0 0.086949814349256874 -0.011324548065447637 0 0.088249294399832298 -0.010519026435347431 0 0.08690995655578905 -0.010429096399867582 0 0.088249294399832298 -0.010519026435347431 0 0.087693223289685762 -0.0090348430315059982 0 0.089768850425378036 -0.0085282295717274241 0 0.092232047411923576 -0.00507061527101262 0 0.095128953804571065 -0.0045815470062980585 0 0.093653861173302919 -0.0038577267349931615 0 0.091738185400216013 -0.0067553293698836368 0 0.093976234444913986 -0.0045082642048505286 0 0.090360296209702332 -0.0070222862550435106 0 0.09395261946352329 -0.0048527510428707146 0 0.090521843295659696 -0.0072295797990013788 0 0.092232047411923576 -0.00507061527101262 0 0.095128953804571065 -0.0045815470062980585 0 0.090818035182421972 -0.0079951869784934907 0 0.087693223289685762 -0.0090348430315059982 0 0.089768850425378036 -0.0085282295717274241 0 0.09091857877679789 -0.0070823486496024235 0 0.091738185400216013 -0.0067553293698836368 0 0.093976234444913986 -0.0045082642048505286 0 0.095361581385841651 -0.0048677874023346935 0 0.089996641082349352 -0.0076141598505743233 0 0.09247781352661294 -0.0060708685729082478 0 0.091147818329178745 -0.0083568950022772839 0 0.089768850425378036 -0.0085282295717274241 0 0.091032834770039844 -0.0069494144463155081 0 0.091996602462377411 -0.0065781735657650976 0 0.09247781352661294 -0.0060708685729082478 0 0.095649956665310218 -0.0024889431759560553 0 0.09392469783046721 -0.0028048832660077547 0 0.094668393854084168 -0.0012738695551487047 0 0.095649956665310218 -0.0024889431759560553 0 0.094634406288329365 -0.0034452600711115168 0 0.09392469783046721 -0.0028048832660077547 0 0.095128953804571065 -0.0045815470062980585 0 0.094634406288329365 -0.0034452600711115168 0 0.093653861173302919 -0.0038577267349931615 0 0.095128953804571065 -0.0045815470062980585 0 0.095649956665310218 -0.0024889431759560553 0 0.094634406288329365 -0.0034452600711115168 0 0.093653861173302919 -0.0038577267349931615 0 0.092232864980811055 -0.003409600664533568 0 0.09392469783046721 -0.0028048832660077547 0 0.094634406288329365 -0.0034452600711115168 0 0.093653861173302919 -0.0038577267349931615 0 0.09392469783046721 -0.0028048832660077547 0 0.092232047411923576 -0.00507061527101262 0 0.092232864980811055 -0.003409600664533568 0 0.089867562901955467 -0.0043763984522059334 0 0.092232047411923576 -0.00507061527101262 0 0.093653861173302919 -0.0038577267349931615 0 0.092232864980811055 -0.003409600664533568 0 0.092232864980811055 -0.003409600664533568 0 0.092504362765968448 -0.0018143766531953003 0 0.090540382444195489 -0.002560554014362709 0 0.092232864980811055 -0.003409600664533568 0 0.09392469783046721 -0.0028048832660077547 0 0.092504362765968448 -0.0018143766531953003 0 0.092504362765968448 -0.0018143766531953003 0 0.093177481715579463 -0.0002401632083097203 0 0.094668393854084168 -0.0012738695551487047 0 0.09392469783046721 -0.0028048832660077547 0 0.092504362765968448 -0.0018143766531953003 0 0.094668393854084168 -0.0012738695551487047 0 0.093177481715579463 -0.0002401632083097203 0 0.094668393854084168 -0.0012738695551487047 0 0.094468875163729565 0.00040461133916796371 0 0.096054084731896069 -0.0014640192695135168 0 0.094668393854084168 -0.0012738695551487047 0 0.095957573736218563 -1.2141632500332275e-05 0 0.095649956665310218 -0.0024889431759560553 0 0.096054084731896069 -0.0014640192695135168 0 0.094668393854084168 -0.0012738695551487047 0 0.085772816136092098 -0.0013331306329983283 0 0.090250350462327614 -0.00032823218645374927 0 0.086112538623731333 0.00094397673187519458 0 0.085772816136092098 -0.0013331306329983283 0 0.090250350462327614 -0.00032823218645374927 0 0.087506643654163441 -0.0029454812782875365 0 0.090250350462327614 -0.00032823218645374927 0 0.090540382444195489 -0.002560554014362709 0 0.087506643654163441 -0.0029454812782875365 0 0.092504362765968448 -0.0018143766531953003 0 0.093177481715579463 -0.0002401632083097203 0 0.090250350462327614 -0.00032823218645374927 0 0.092504362765968448 -0.0018143766531953003 0 0.090250350462327614 -0.00032823218645374927 0 0.090540382444195489 -0.002560554014362709 0 0.092232864980811055 -0.003409600664533568 0 0.090540382444195489 -0.002560554014362709 0 0.089867562901955467 -0.0043763984522059334 0 0.090540382444195489 -0.002560554014362709 0 0.089867562901955467 -0.0043763984522059334 0 0.087506643654163441 -0.0029454812782875365 0 0.087506643654163441 -0.0029454812782875365 0 0.084993888765761791 -0.0045467708937597827 0 0.083357866635167838 -0.0028409826338711506 0 0.089867562901955467 -0.0043763984522059334 0 0.087506643654163441 -0.0029454812782875365 0 0.087155442009491643 -0.0049027493205716383 0 0.085772816136092098 -0.0013331306329983283 0 0.087506643654163441 -0.0029454812782875365 0 0.083357866635167838 -0.0028409826338711506 0 0.087506643654163441 -0.0029454812782875365 0 0.084993888765761791 -0.0045467708937597827 0 0.087155442009491643 -0.0049027493205716383 0 0.084993888765761791 -0.0045467708937597827 0 0.087155442009491643 -0.0049027493205716383 0 0.085896032090717223 -0.0067536964056798621 0 0.087155442009491643 -0.0049027493205716383 0 0.085896032090717223 -0.0067536964056798621 0 0.088697527093415704 -0.0058582857758853347 0 0.085896032090717223 -0.0067536964056798621 0 0.088697527093415704 -0.0058582857758853347 0 0.088716910051463704 -0.0071993461493291 0 0.092232047411923576 -0.00507061527101262 0 0.089867562901955467 -0.0043763984522059334 0 0.090247907866811097 -0.006031757660747779 0 0.089867562901955467 -0.0043763984522059334 0 0.088697527093415704 -0.0058582857758853347 0 0.090247907866811097 -0.006031757660747779 0 0.089867562901955467 -0.0043763984522059334 0 0.087155442009491643 -0.0049027493205716383 0 0.088697527093415704 -0.0058582857758853347 0 0.088697527093415704 -0.0058582857758853347 0 0.088716910051463704 -0.0071993461493291 0 0.090247907866811097 -0.006031757660747779 0 0.088716910051463704 -0.0071993461493291 0 0.090247907866811097 -0.006031757660747779 0 0.090818035182421972 -0.0079951869784934907 0 0.092232047411923576 -0.00507061527101262 0 0.090247907866811097 -0.006031757660747779 0 0.090818035182421972 -0.0079951869784934907 0 0.091738185400216013 -0.0067553293698836368 0 0.090360296209702332 -0.0070222862550435106 0 0.088084182359474392 -0.008605103585453586 0 0.086189431386362023 -0.011087962396593985 0 0.08690995655578905 -0.010429096399867582 0 0.084924971196301019 -0.010765914997413754 0 0.090818035182421972 -0.0079951869784934907 0 0.087043529552584389 -0.0084677475165015614 0 0.087085105214731756 -0.010145643893307391 0 0.088716910051463704 -0.0071993461493291 0 0.090818035182421972 -0.0079951869784934907 0 0.087043529552584389 -0.0084677475165015614 0 0.089996641082349352 -0.0076141598505743233 0 0.088403363254684231 -0.0086037029375694678 0 0.087693223289685762 -0.0090348430315059982 0 0.08690995655578905 -0.010429096399867582 0 0.084924971196301019 -0.010765914997413754 0 0.090521843295659696 -0.0072295797990013788 0 0.088403363254684231 -0.0086037029375694678 0 0.086189431386362023 -0.011087962396593985 0 0.086949814349256874 -0.011324548065447637 0 0.08690995655578905 -0.010429096399867582 0 0.085896032090717223 -0.0067536964056798621 0 0.084823743798902645 -0.0090774294461859872 0 0.082822314886874929 -0.0084890388316889824 0 0.085896032090717223 -0.0067536964056798621 0 0.087043529552584389 -0.0084677475165015614 0 0.084823743798902645 -0.0090774294461859872 0 0.085896032090717223 -0.0067536964056798621 0 0.088716910051463704 -0.0071993461493291 0 0.087043529552584389 -0.0084677475165015614 0 0.084364422185690666 -0.011198084128191284 0 0.087043529552584389 -0.0084677475165015614 0 0.087085105214731756 -0.010145643893307391 0 0.084364422185690666 -0.011198084128191284 0 0.084823743798902645 -0.0090774294461859872 0 0.082822314886874929 -0.0084890388316889824 0 0.084364422185690666 -0.011198084128191284 0 0.087043529552584389 -0.0084677475165015614 0 0.084823743798902645 -0.0090774294461859872 0 0.082822314886874929 -0.0084890388316889824 0 0.079866839060565784 -0.0086803841659266866 0 0.082059375108629401 -0.0056075808039471259 0 0.082822314886874929 -0.0084890388316889824 0 0.079866839060565784 -0.0086803841659266866 0 0.081662076036021575 -0.011012609612711359 0 0.079866839060565784 -0.0086803841659266866 0 0.077777866482468636 -0.0056450604294457545 0 0.076044106846048926 -0.0091299701115339551 0 0.079866839060565784 -0.0086803841659266866 0 0.082059375108629401 -0.0056075808039471259 0 0.077777866482468636 -0.0056450604294457545 0 0.082059375108629401 -0.0056075808039471259 0 0.079605966693445551 -0.0027010530891862479 0 0.077777866482468636 -0.0056450604294457545 0 0.085896032090717223 -0.0067536964056798621 0 0.082822314886874929 -0.0084890388316889824 0 0.082059375108629401 -0.0056075808039471259 0 0.084993888765761791 -0.0045467708937597827 0 0.085896032090717223 -0.0067536964056798621 0 0.082059375108629401 -0.0056075808039471259 0 0.082059375108629401 -0.0056075808039471259 0 0.083357866635167838 -0.0028409826338711506 0 0.079605966693445551 -0.0027010530891862479 0 0.084993888765761791 -0.0045467708937597827 0 0.082059375108629401 -0.0056075808039471259 0 0.083357866635167838 -0.0028409826338711506 0 0.083357866635167838 -0.0028409826338711506 0 0.079605966693445551 -0.0027010530891862479 0 0.081678924218650195 0.00019930009440160344 0 0.079605966693445551 -0.0027010530891862479 0 0.081678924218650195 0.00019930009440160344 0 0.07726788253081375 0.00052343926442306211 0 0.085772816136092098 -0.0013331306329983283 0 0.083357866635167838 -0.0028409826338711506 0 0.081678924218650195 0.00019930009440160344 0 0.085772816136092098 -0.0013331306329983283 0 0.081678924218650195 0.00019930009440160344 0 0.086112538623731333 0.00094397673187519458 0 0.074243711283241073 0.00020633642395088964 0 0.07726788253081375 0.00052343926442306211 0 0.075681162399648894 -0.0026378660517632473 0 0.079605966693445551 -0.0027010530891862479 0 0.07726788253081375 0.00052343926442306211 0 0.075681162399648894 -0.0026378660517632473 0 0.079605966693445551 -0.0027010530891862479 0 0.075681162399648894 -0.0026378660517632473 0 0.077777866482468636 -0.0056450604294457545 0 0.075681162399648894 -0.0026378660517632473 0 0.073407423538267014 -0.0059144838631097147 0 0.072196602358784168 -0.0022276283919040393 0 0.074243711283241073 0.00020633642395088964 0 0.075681162399648894 -0.0026378660517632473 0 0.072196602358784168 -0.0022276283919040393 0 0.072563864480806817 -0.0034028410891744337 0 0.071529431633347046 -0.00094757289355049536 0 0.075681162399648894 -0.0026378660517632473 0 0.077777866482468636 -0.0056450604294457545 0 0.073407423538267014 -0.0059144838631097147 0 0.077777866482468636 -0.0056450604294457545 0 0.076044106846048926 -0.0091299701115339551 0 0.073407423538267014 -0.0059144838631097147 0 0.076044106846048926 -0.0091299701115339551 0 0.073407423538267014 -0.0059144838631097147 0 0.070847452423051044 -0.010753308755469076 0 0.076044106846048926 -0.0091299701115339551 0 0.070847452423051044 -0.010753308755469076 0 0.075151213554935883 -0.012586644312327675 0 0.071946608244888424 -0.014183591729027483 0 0.075151213554935883 -0.012586644312327675 0 0.073823461867167484 -0.016176548056132726 0 0.070847452423051044 -0.010753308755469076 0 0.071946608244888424 -0.014183591729027483 0 0.075151213554935883 -0.012586644312327675 0 0.075151213554935883 -0.012586644312327675 0 0.078647974537860835 -0.011462935335118676 0 0.078015073279969802 -0.014094453947962863 0 0.075151213554935883 -0.012586644312327675 0 0.073823461867167484 -0.016176548056132726 0 0.076261398532131 -0.015434231065187863 0 0.075151213554935883 -0.012586644312327675 0 0.078015073279969802 -0.014094453947962863 0 0.076261398532131 -0.015434231065187863 0 0.076044106846048926 -0.0091299701115339551 0 0.075151213554935883 -0.012586644312327675 0 0.078647974537860835 -0.011462935335118676 0 0.079866839060565784 -0.0086803841659266866 0 0.078647974537860835 -0.011462935335118676 0 0.081662076036021575 -0.011012609612711359 0 0.079866839060565784 -0.0086803841659266866 0 0.076044106846048926 -0.0091299701115339551 0 0.078647974537860835 -0.011462935335118676 0 0.078647974537860835 -0.011462935335118676 0 0.081662076036021575 -0.011012609612711359 0 0.080762562366552743 -0.013601173623210026 0 0.081662076036021575 -0.011012609612711359 0 0.083130340364753336 -0.012960705107858907 0 0.080762562366552743 -0.013601173623210026 0 0.084364422185690666 -0.011198084128191284 0 0.082822314886874929 -0.0084890388316889824 0 0.081662076036021575 -0.011012609612711359 0 0.084364422185690666 -0.011198084128191284 0 0.081662076036021575 -0.011012609612711359 0 0.083130340364753336 -0.012960705107858907 0 0.083130340364753336 -0.012960705107858907 0 0.080762562366552743 -0.013601173623210026 0 0.082105861691129031 -0.014473862538328141 0 0.080762562366552743 -0.013601173623210026 0 0.081121116659798473 -0.015181976306108123 0 0.082105861691129031 -0.014473862538328141 0 0.080762562366552743 -0.013601173623210026 0 0.081121116659798473 -0.015181976306108123 0 0.079669125717245437 -0.015639524294461839 0 0.083357363809891658 -0.014865646238216994 0 0.083130340364753336 -0.012960705107858907 0 0.082105861691129031 -0.014473862538328141 0 0.083357363809891658 -0.014865646238216994 0 0.082105861691129031 -0.014473862538328141 0 0.082090761445669236 -0.015701328159168033 0 0.081121116659798473 -0.015181976306108123 0 0.082105861691129031 -0.014473862538328141 0 0.082090761445669236 -0.015701328159168033 0 0.078647974537860835 -0.011462935335118676 0 0.080762562366552743 -0.013601173623210026 0 0.078015073279969802 -0.014094453947962863 0 0.080762562366552743 -0.013601173623210026 0 0.078015073279969802 -0.014094453947962863 0 0.079669125717245437 -0.015639524294461839 0 0.078015073279969802 -0.014094453947962863 0 0.077753522102488468 -0.017048296904430011 0 0.076261398532131 -0.015434231065187863 0 0.078015073279969802 -0.014094453947962863 0 0.079669125717245437 -0.015639524294461839 0 0.077753522102488468 -0.017048296904430011 0 0.079669125717245437 -0.015639524294461839 0 0.079516334941573452 -0.017477793939083098 0 0.080916884564435451 -0.016487698759873198 0 0.079669125717245437 -0.015639524294461839 0 0.079516334941573452 -0.017477793939083098 0 0.077753522102488468 -0.017048296904430011 0 0.079516334941573452 -0.017477793939083098 0 0.077753522102488468 -0.017048296904430011 0 0.078083027953569972 -0.018624783265007262 0 0.082928599970520545 -0.016472099235002861 0 0.082090761445669236 -0.015701328159168033 0 0.082011313653832921 -0.017049795263180029 0 0.082090761445669236 -0.015701328159168033 0 0.080916884564435451 -0.016487698759873198 0 0.082011313653832921 -0.017049795263180029 0 0.081121116659798473 -0.015181976306108123 0 0.079669125717245437 -0.015639524294461839 0 0.080916884564435451 -0.016487698759873198 0 0.081121116659798473 -0.015181976306108123 0 0.082090761445669236 -0.015701328159168033 0 0.080916884564435451 -0.016487698759873198 0 0.079516334941573452 -0.017477793939083098 0 0.080916884564435451 -0.016487698759873198 0 0.081015839147845145 -0.017848564499050121 0 0.080916884564435451 -0.016487698759873198 0 0.082011313653832921 -0.017049795263180029 0 0.081015839147845145 -0.017848564499050121 0 0.082928599970520545 -0.016472099235002861 0 0.082824241732047152 -0.017593415948334169 0 0.082011313653832921 -0.017049795263180029 0 0.082824241732047152 -0.017593415948334169 0 0.082011313653832921 -0.017049795263180029 0 0.082150477988588197 -0.018596962574717983 0 0.082011313653832921 -0.017049795263180029 0 0.082150477988588197 -0.018596962574717983 0 0.081015839147845145 -0.017848564499050121 0 0.082150477988588197 -0.018596962574717983 0 0.08100338426286198 -0.019048730151502647 0 0.081015839147845145 -0.017848564499050121 0 0.08100338426286198 -0.019048730151502647 0 0.081015839147845145 -0.017848564499050121 0 0.079568087350604333 -0.019152423477440866 0 0.080185731501419555 -0.020740237269972601 0 0.08100338426286198 -0.019048730151502647 0 0.079568087350604333 -0.019152423477440866 0 0.080185731501419555 -0.020740237269972601 0 0.08100338426286198 -0.019048730151502647 0 0.08182382537603472 -0.019787043369302485 0 0.082150477988588197 -0.018596962574717983 0 0.08100338426286198 -0.019048730151502647 0 0.08182382537603472 -0.019787043369302485 0 0.082309271832343656 -0.020830847323600781 0 0.083061284317686473 -0.019516461199494906 0 0.08182382537603472 -0.019787043369302485 0 0.083061284317686473 -0.019516461199494906 0 0.082150477988588197 -0.018596962574717983 0 0.08182382537603472 -0.019787043369302485 0 0.077753522102488468 -0.017048296904430011 0 0.078083027953569972 -0.018624783265007262 0 0.076015659039605152 -0.018648622031346221 0 0.078083027953569972 -0.018624783265007262 0 0.077832620070724001 -0.020558523331614013 0 0.076015659039605152 -0.018648622031346221 0 0.079516334941573452 -0.017477793939083098 0 0.078083027953569972 -0.018624783265007262 0 0.079568087350604333 -0.019152423477440866 0 0.079516334941573452 -0.017477793939083098 0 0.081015839147845145 -0.017848564499050121 0 0.079568087350604333 -0.019152423477440866 0 0.080185731501419555 -0.020740237269972601 0 0.079568087350604333 -0.019152423477440866 0 0.077832620070724001 -0.020558523331614013 0 0.078083027953569972 -0.018624783265007262 0 0.079568087350604333 -0.019152423477440866 0 0.077832620070724001 -0.020558523331614013 0 0.075377450568761356 -0.021278331620982992 0 0.076015659039605152 -0.018648622031346221 0 0.072781060299360156 -0.01954204312218245 0 0.075377450568761356 -0.021278331620982992 0 0.077832620070724001 -0.020558523331614013 0 0.076015659039605152 -0.018648622031346221 0 0.076015659039605152 -0.018648622031346221 0 0.072781060299360156 -0.01954204312218245 0 0.073823461867167484 -0.016176548056132726 0 0.072781060299360156 -0.01954204312218245 0 0.071060549973294126 -0.016644618779783977 0 0.068442983581996256 -0.018442113339800916 0 0.072781060299360156 -0.01954204312218245 0 0.071060549973294126 -0.016644618779783977 0 0.073823461867167484 -0.016176548056132726 0 0.071946608244888424 -0.014183591729027483 0 0.071060549973294126 -0.016644618779783977 0 0.073823461867167484 -0.016176548056132726 0 0.077753522102488468 -0.017048296904430011 0 0.076015659039605152 -0.018648622031346221 0 0.076261398532131 -0.015434231065187863 0 0.076015659039605152 -0.018648622031346221 0 0.073823461867167484 -0.016176548056132726 0 0.076261398532131 -0.015434231065187863 0 0.065922925743466351 -0.015481085464555773 0 0.063610324427018472 -0.018018695259115512 0 0.063481915830941441 -0.01326852672279169 0 0.065922925743466351 -0.015481085464555773 0 0.068442983581996256 -0.018442113339800916 0 0.063610324427018472 -0.018018695259115512 0 0.065922925743466351 -0.015481085464555773 0 0.068718730321377569 -0.014732159135404134 0 0.068442983581996256 -0.018442113339800916 0 0.071060549973294126 -0.016644618779783977 0 0.068718730321377569 -0.014732159135404134 0 0.068442983581996256 -0.018442113339800916 0 0.071946608244888424 -0.014183591729027483 0 0.071060549973294126 -0.016644618779783977 0 0.068718730321377569 -0.014732159135404134 0 0.069439522680283305 -0.021616329146911094 0 0.072781060299360156 -0.01954204312218245 0 0.068442983581996256 -0.018442113339800916 0 0.069439522680283305 -0.021616329146911094 0 0.068442983581996256 -0.018442113339800916 0 0.066009394154940143 -0.020870117479294077 0 0.068442983581996256 -0.018442113339800916 0 0.066009394154940143 -0.020870117479294077 0 0.063610324427018472 -0.018018695259115512 0 0.060776513599046733 -0.023392513880087191 0 0.066009394154940143 -0.020870117479294077 0 0.063610324427018472 -0.018018695259115512 0 0.060776513599046733 -0.023392513880087191 0 0.063610324427018472 -0.018018695259115512 0 0.057820375443145743 -0.017219075756231186 0 0.037270388094197228 -0.012888533191131873 0 0.042058269484201535 -0.0093160328391526763 0 0.030584647630468663 -0.0009202092547858199 0 0.031648500662196044 -0.0010443409521783853 0 0.031035896404776178 -0.00020338790723940114 0 0.031648500662196044 -0.0010443409521783853 0 0.031035896404776178 -0.00020338790723940114 0 0.031109093158826977 -0.00011580406615726313 0 0.063610324427018472 -0.018018695259115512 0 0.063481915830941441 -0.01326852672279169 0 0.059776753109167642 -0.013777247531537402 0 0.063610324427018472 -0.018018695259115512 0 0.057820375443145743 -0.017219075756231186 0 0.059776753109167642 -0.013777247531537402 0 0.063481915830941441 -0.01326852672279169 0 0.059053100061652986 -0.0095276711967276374 0 0.063421480328159571 -0.0097067690944400639 0 0.063481915830941441 -0.01326852672279169 0 0.059776753109167642 -0.013777247531537402 0 0.059053100061652986 -0.0095276711967276374 0 0.059776753109167642 -0.013777247531537402 0 0.059053100061652986 -0.0095276711967276374 0 0.054642488776989906 -0.010483896864834769 0 0.042058269484201535 -0.0093160328391526763 0 0.044091472505903839 -0.0045108907222752761 0 0.057820375443145743 -0.017219075756231186 0 0.059776753109167642 -0.013777247531537402 0 0.054642488776989906 -0.010483896864834769 0 0.059053100061652986 -0.0095276711967276374 0 0.055800482018118089 -0.0067446473058460034 0 0.054191890750542454 -0.0097648231449462275 0 0.048971341133861361 -0.0044866053724578817 0 0.044091472505903839 -0.0045108907222752761 0 0.059053100061652986 -0.0095276711967276374 0 0.061698951274287497 -0.0065298891049604107 0 0.057784656892375864 -0.0054646478120567729 0 0.059053100061652986 -0.0095276711967276374 0 0.055800482018118089 -0.0067446473058460034 0 0.057784656892375864 -0.0054646478120567729 0 0.059053100061652986 -0.0095276711967276374 0 0.063421480328159571 -0.0097067690944400639 0 0.061698951274287497 -0.0065298891049604107 0 0.063421480328159571 -0.0097067690944400639 0 0.066569309053924414 -0.011669707185379331 0 0.066143656903680792 -0.0076410795207009479 0 0.063421480328159571 -0.0097067690944400639 0 0.066143656903680792 -0.0076410795207009479 0 0.061698951274287497 -0.0065298891049604107 0 0.065922925743466351 -0.015481085464555773 0 0.068718730321377569 -0.014732159135404134 0 0.066569309053924414 -0.011669707185379331 0 0.065922925743466351 -0.015481085464555773 0 0.063481915830941441 -0.01326852672279169 0 0.066569309053924414 -0.011669707185379331 0 0.063481915830941441 -0.01326852672279169 0 0.063421480328159571 -0.0097067690944400639 0 0.066569309053924414 -0.011669707185379331 0 0.070847452423051044 -0.010753308755469076 0 0.071946608244888424 -0.014183591729027483 0 0.068718730321377569 -0.014732159135404134 0 0.070847452423051044 -0.010753308755469076 0 0.068718730321377569 -0.014732159135404134 0 0.066569309053924414 -0.011669707185379331 0 0.070847452423051044 -0.010753308755469076 0 0.066569309053924414 -0.011669707185379331 0 0.066143656903680792 -0.0076410795207009479 0 0.073407423538267014 -0.0059144838631097147 0 0.066143656903680792 -0.0076410795207009479 0 0.066652158738725945 -0.003121913471287307 0 0.073407423538267014 -0.0059144838631097147 0 0.070847452423051044 -0.010753308755469076 0 0.066143656903680792 -0.0076410795207009479 0 0.066143656903680792 -0.0076410795207009479 0 0.066652158738725945 -0.003121913471287307 0 0.063054874449687201 -0.0036505338892330883 0 0.066143656903680792 -0.0076410795207009479 0 0.063054874449687201 -0.0036505338892330883 0 0.061698951274287497 -0.0065298891049604107 0 0.066652158738725945 -0.003121913471287307 0 0.063136386146164084 -7.7408437000378092e-06 0 0.063054874449687201 -0.0036505338892330883 0 0.073407423538267014 -0.0059144838631097147 0 0.066652158738725945 -0.003121913471287307 0 0.068905690280633078 0.00075695732316941717 0 0.066652158738725945 -0.003121913471287307 0 0.068905690280633078 0.00075695732316941717 0 0.063136386146164084 -7.7408437000378092e-06 0 0.063136386146164084 -7.7408437000378092e-06 0 0.060896129438253482 0.0031686339251994111 0 0.065486725812775884 0.0050639369596615011 0 0.068905690280633078 0.00075695732316941717 0 0.063136386146164084 -7.7408437000378092e-06 0 0.065486725812775884 0.0050639369596615011 0 0.071529431633347046 -0.00094757289355049536 0 0.071704032373791415 0.00061207352751706527 0 0.074243711283241073 0.00020633642395088964 0 0.072196602358784168 -0.0022276283919040393 0 0.069791393908597649 0.0023690749836348135 0 0.060896129438253482 0.0031686339251994111 0 0.059456230409363278 0.0009057009890640177 0 0.058501018897121025 0.0020634449595029543 0 0.063136386146164084 -7.7408437000378092e-06 0 0.060896129438253482 0.0031686339251994111 0 0.059456230409363278 0.0009057009890640177 0 0.063136386146164084 -7.7408437000378092e-06 0 0.059456230409363278 0.0009057009890640177 0 0.058665127673911945 -0.0022622925344391556 0 0.059456230409363278 0.0009057009890640177 0 0.058665127673911945 -0.0022622925344391556 0 0.056824887160540863 0.0001266493253327771 0 0.059456230409363278 0.0009057009890640177 0 0.056824887160540863 0.0001266493253327771 0 0.058501018897121025 0.0020634449595029543 0 0.063136386146164084 -7.7408437000378092e-06 0 0.058665127673911945 -0.0022622925344391556 0 0.063054874449687201 -0.0036505338892330883 0 0.058665127673911945 -0.0022622925344391556 0 0.063054874449687201 -0.0036505338892330883 0 0.061698951274287497 -0.0065298891049604107 0 0.058665127673911945 -0.0022622925344391556 0 0.057784656892375864 -0.0054646478120567729 0 0.054547794814535831 -0.0037345693471495635 0 0.058665127673911945 -0.0022622925344391556 0 0.061698951274287497 -0.0065298891049604107 0 0.057784656892375864 -0.0054646478120567729 0 0.055800482018118089 -0.0067446473058460034 0 0.057784656892375864 -0.0054646478120567729 0 0.054547794814535831 -0.0037345693471495635 0 0.054547794814535831 -0.0037345693471495635 0 0.05140272092247878 -0.0029252797491855324 0 0.052728026654634774 -0.0054930886888497699 0 0.054547794814535831 -0.0037345693471495635 0 0.05140272092247878 -0.0029252797491855324 0 0.054003963654260391 -0.0013539627265477373 0 0.05140272092247878 -0.0029252797491855324 0 0.054003963654260391 -0.0013539627265477373 0 0.048865958206380893 -0.00086825006550684191 0 0.05140272092247878 -0.0029252797491855324 0 0.048865958206380893 -0.00086825006550684191 0 0.047931313187940763 -0.0030700249759338075 0 0.05140272092247878 -0.0029252797491855324 0 0.047931313187940763 -0.0030700249759338075 0 0.052728026654634774 -0.0054930886888497699 0 0.054003963654260391 -0.0013539627265477373 0 0.054443611961868574 0.00070797803745782683 0 0.048865958206380893 -0.00086825006550684191 0 0.058665127673911945 -0.0022622925344391556 0 0.054547794814535831 -0.0037345693471495635 0 0.054003963654260391 -0.0013539627265477373 0 0.058665127673911945 -0.0022622925344391556 0 0.054003963654260391 -0.0013539627265477373 0 0.056824887160540863 0.0001266493253327771 0 0.056824887160540863 0.0001266493253327771 0 0.054443611961868574 0.00070797803745782683 0 0.058501018897121025 0.0020634449595029543 0 0.054003963654260391 -0.0013539627265477373 0 0.056824887160540863 0.0001266493253327771 0 0.054443611961868574 0.00070797803745782683 0 0.054443611961868574 0.00070797803745782683 0 0.05716523745004691 0.0016204178019360897 0 0.055834108331189437 0.001246853034469848 0 0.054443611961868574 0.00070797803745782683 0 0.05716523745004691 0.0016204178019360897 0 0.058501018897121025 0.0020634449595029543 0 0.051784838862574636 1.946187285545513e-06 0 0.050937357469265337 0.00042920159382474544 0 0.055834108331189437 0.001246853034469848 0 0.054443611961868574 0.00070797803745782683 0 0.050937357469265337 0.00042920159382474544 0 0.055834108331189437 0.001246853034469848 0 0.054443611961868574 0.00070797803745782683 0 0.050937357469265337 0.00042920159382474544 0 0.048865958206380893 -0.00086825006550684191 0 0.051784838862574636 1.946187285545513e-06 0 0.050937357469265337 0.00042920159382474544 0 0.04572937930604222 -4.4291013456338146e-07 0 0.048865958206380893 -0.00086825006550684191 0 0.039668692452431202 2.1234235276161684e-06 0 0.047931313187940763 -0.0030700249759338075 0 0.04572937930604222 -4.4291013456338146e-07 0 0.048865958206380893 -0.00086825006550684191 0 0.039668692452431202 2.1234235276161684e-06 0 0.050937357469265337 0.00042920159382474544 0 0.04572937930604222 -4.4291013456338146e-07 0 0.048865958206380893 -0.00086825006550684191 0 0.039668692452431202 2.1234235276161684e-06 0 0.045634041895451713 -0.005401436919702394 0 0.047931313187940763 -0.0030700249759338075 0 0.039668692452431202 2.1234235276161684e-06 0 0.033627883891395823 -1.5720145081111145e-05 0 0.045634041895451713 -0.005401436919702394 0 0.03361896948171806 -4.4867263175456521e-06 0 0.039247828465921675 -0.0022412783681878424 0 0.033600304579406638 8.4178324056245297e-07 0 0.031156422525918267 -0.00046809236607035895 0 0.031259210325585908 0.00024246639370548054 0 0.045634041895451713 -0.005401436919702394 0 0.047931313187940763 -0.0030700249759338075 0 0.052728026654634774 -0.0054930886888497699 0 0.045634041895451713 -0.005401436919702394 0 0.052728026654634774 -0.0054930886888497699 0 0.053470856707826891 -0.0073963599072600725 0 0.055800482018118089 -0.0067446473058460034 0 0.054547794814535831 -0.0037345693471495635 0 0.052728026654634774 -0.0054930886888497699 0 0.044947488445645313 -0.005398372099350803 0 0.044091472505903839 -0.0045108907222752761 0 0.055800482018118089 -0.0067446473058460034 0 0.052728026654634774 -0.0054930886888497699 0 0.054191890750542454 -0.0097648231449462275 0 0.039247828465921675 -0.0022412783681878424 0 0.044091472505903839 -0.0045108907222752761 0 0.031156422525918267 -0.00046809236607035895 0 0.031075301835519535 -0.00029940689285704698 0 0.031106313427548372 -0.00015599671108379362 0 0.031156422525918267 -0.00046809236607035895 0 0.031192126650292657 -3.6918143918797792e-05 0 0.031106313427548372 -0.00015599671108379362 0 0.031192126650292657 -3.6918143918797792e-05 0 0.031106313427548372 -0.00015599671108379362 0 0.031295503998713337 -2.0869705574709169e-05 0 0.031035896404776178 -0.00020338790723940114 0 0.031109093158826977 -0.00011580406615726313 0 0.031106313427548372 -0.00015599671108379362 0 0.031109093158826977 -0.00011580406615726313 0 0.031075301835519535 -0.00029940689285704698 0 0.031106313427548372 -0.00015599671108379362 0 0.031035896404776178 -0.00020338790723940114 0 0.031106313427548372 -0.00015599671108379362 0 0.031295503998713337 -2.0869705574709169e-05 0 0.030658016676478581 -0.00020206111924439603 0 0.03011118657130268 -0.00026844950554917558 0 0.030584647630468663 -0.0009202092547858199 0 0.031035896404776178 -0.00020338790723940114 0 0.029929343585876924 -0.00032953192049610923 0 0.029424548387213138 -0.00076941645737025558 0 0.030584647630468663 -0.0009202092547858199 0 0.029929343585876924 -0.00032953192049610923 0 0.03011118657130268 -0.00026844950554917558 0 0.027845306203364593 -0.00055510214901142497 0 0.029424548387213138 -0.00076941645737025558 0 0.029929343585876924 -0.00032953192049610923 0 0.028769494015626208 -0.00048897555248614288 0 0.031295503998713337 -2.0869705574709169e-05 0 0.030885244499141574 -0.00045708486204939212 0 0.031259210325585908 0.00024246639370548054 0 0.025011822633204676 -0.0023733950648564912 0 0.027845306203364593 -0.00055510214901142497 0 0.025011822633204676 -0.0023733950648564912 0 0.02702967378508114 -4.5262063626244386e-06 0 0.028007953100522918 -0.00019002235588324551 0 0.027415598948094706 9.2857615109938796e-05 0 0.027039978949600477 2.2035303084897577e-07 0 0.027845306203364593 -0.00055510214901142497 0 0.02736425555853679 -2.911460050711576e-06 0 0.027646174979284059 7.4269245810512596e-07 0 0.027368882951884867 -9.1785146654391628e-10 0 0.028525901167262103 1.9398607439669456e-09 0 0.027415598948094706 9.2857615109938796e-05 0 0.027039978949600477 2.2035303084897577e-07 0 0.027356837912670833 -2.2460200543398165e-07 0 0.030885244499141574 -0.00045708486204939212 0 0.028543832374753213 -9.6762229508787707e-07 0 0.031190794135084889 0.00025543664089211488 0 0.027845306203364593 -0.00055510214901142497 0 0.028529587359181593 -2.9088084517660696e-06 0 0.033600304579406638 8.4178324056245297e-07 0 0.028543832374753213 -9.6762229508787707e-07 0 0.031190794135084889 0.00025543664089211488 0 0.033600304579406638 8.4178324056245297e-07 0 0.031190794135084889 0.00025543664089211488 0 0.031259210325585908 0.00024246639370548054 0 0.030885244499141574 -0.00045708486204939212 0 0.031190794135084889 0.00025543664089211488 0 0.031259210325585908 0.00024246639370548054 0 0.031156422525918267 -0.00046809236607035895 0 0.031192126650292657 -3.6918143918797792e-05 0 0.031259210325585908 0.00024246639370548054 0 0.031192126650292657 -3.6918143918797792e-05 0 0.031295503998713337 -2.0869705574709169e-05 0 0.031259210325585908 0.00024246639370548054 0 0.073454535901447668 -0.00085966016471211173 0 0.075789267724970147 -0.00030538491886108213 0 0.076444627810050236 -0.00083794615921213881 0 0.073454535901447668 -0.00085966016471211173 0 0.073105577408954583 -0.00024352136439961792 0 0.075789267724970147 -0.00030538491886108213 0 0.073105577408954583 -0.00024352136439961792 0 0.07601407353225012 4.449791397237318e-07 0 0.075789267724970147 -0.00030538491886108213 0 0.073105577408954583 -0.00024352136439961792 0 0.07601407353225012 4.449791397237318e-07 0 0.069954738319660703 -7.1688613237097804e-07 0 0.07601407353225012 4.449791397237318e-07 0 0.075789267724970147 -0.00030538491886108213 0 0.078384887937781436 0.00023946527134859847 0 0.075789267724970147 -0.00030538491886108213 0 0.078360889145241988 -3.5111011661040951e-05 0 0.078384887937781436 0.00023946527134859847 0 0.075789267724970147 -0.00030538491886108213 0 0.076444627810050236 -0.00083794615921213881 0 0.078360889145241988 -3.5111011661040951e-05 0 0.076444627810050236 -0.00083794615921213881 0 0.080990741067909211 -0.00011544859550780412 0 0.078360889145241988 -3.5111011661040951e-05 0 0.076444627810050236 -0.00083794615921213881 0 0.077169223998742528 -0.0017435886244853238 0 0.080990741067909211 -0.00011544859550780412 0 0.077169223998742528 -0.0017435886244853238 0 0.081508102968725293 -0.00072538110731475819 0 0.080990741067909211 -0.00011544859550780412 0 0.076588260250730261 -0.0014272976760853387 0 0.076581422941310942 -0.0013677478313623805 0 0.077169223998742528 -0.0017435886244853238 0 0.073073498665795822 -0.0014706253664470426 0 0.073837090897308208 -0.0016106499859286927 0 0.076444627810050236 -0.00083794615921213881 0 0.077169223998742528 -0.0017435886244853238 0 0.074457254258881389 -0.0013444823279259751 0 0.077169223998742528 -0.0017435886244853238 0 0.074457254258881389 -0.0013444823279259751 0 0.073073498665795822 -0.0014706253664470426 0 0.073454535901447668 -0.00085966016471211173 0 0.076444627810050236 -0.00083794615921213881 0 0.074457254258881389 -0.0013444823279259751 0 0.073454535901447668 -0.00085966016471211173 0 0.074457254258881389 -0.0013444823279259751 0 0.071736870563686161 -0.0013248867653775857 0 0.071736870563686161 -0.0013248867653775857 0 0.068892850155387347 -0.0017603420543324457 0 0.069337107406292675 -0.00066275395644182806 0 0.073454535901447668 -0.00085966016471211173 0 0.071736870563686161 -0.0013248867653775857 0 0.069337107406292675 -0.00066275395644182806 0 0.073073498665795822 -0.0014706253664470426 0 0.068892850155387347 -0.0017603420543324457 0 0.073807289695200257 -0.0017937085902078674 0 0.073942287616012806 -0.0021586476552685916 0 0.075970540756801194 -0.0013614401251129543 0 0.073073498665795822 -0.0014706253664470426 0 0.073807289695200257 -0.0017937085902078674 0 0.073837090897308208 -0.0016106499859286927 0 0.074457254258881389 -0.0013444823279259751 0 0.071736870563686161 -0.0013248867653775857 0 0.073073498665795822 -0.0014706253664470426 0 0.071736870563686161 -0.0013248867653775857 0 0.073073498665795822 -0.0014706253664470426 0 0.068892850155387347 -0.0017603420543324457 0 0.068892850155387347 -0.0017603420543324457 0 0.063556353169441179 0.00093623746101382003 0 0.065317726681206625 -0.0038989770729125086 0 0.068892850155387347 -0.0017603420543324457 0 0.065951085142462632 0.00017527952405334187 0 0.063556353169441179 0.00093623746101382003 0 0.068892850155387347 -0.0017603420543324457 0 0.069337107406292675 -0.00066275395644182806 0 0.065951085142462632 0.00017527952405334187 0 0.069337107406292675 -0.00066275395644182806 0 0.064436622962676118 0.00057267893412466572 0 0.066208854280359095 4.0700877056743481e-05 0 0.073454535901447668 -0.00085966016471211173 0 0.073105577408954583 -0.00024352136439961792 0 0.069337107406292675 -0.00066275395644182806 0 0.073105577408954583 -0.00024352136439961792 0 0.069337107406292675 -0.00066275395644182806 0 0.069954738319660703 -7.1688613237097804e-07 0 0.069337107406292675 -0.00066275395644182806 0 0.069954738319660703 -7.1688613237097804e-07 0 0.066208854280359095 4.0700877056743481e-05 0 0.069954738319660703 -7.1688613237097804e-07 0 0.063899001476047879 5.709750473864605e-07 0 0.066208854280359095 4.0700877056743481e-05 0 0.063899001476047879 5.709750473864605e-07 0 0.066208854280359095 4.0700877056743481e-05 0 0.062052135897424324 0.00048627034731342782 0 0.064436622962676118 0.00057267893412466572 0 0.066208854280359095 4.0700877056743481e-05 0 0.062052135897424324 0.00048627034731342782 0 0.064436622962676118 0.00057267893412466572 0 0.062052135897424324 0.00048627034731342782 0 0.059839912793479985 0.0012187006136463643 0 0.063899001476047879 5.709750473864605e-07 0 0.062052135897424324 0.00048627034731342782 0 0.057841974189761593 1.4557375737164181e-06 0 0.057841974189761593 1.4557375737164181e-06 0 0.059839912793479985 0.0012187006136463643 0 0.056252332416748596 0.00069283948998696257 0 0.062052135897424324 0.00048627034731342782 0 0.057841974189761593 1.4557375737164181e-06 0 0.059839912793479985 0.0012187006136463643 0 0.059839912793479985 0.0012187006136463643 0 0.055834108331189437 0.001246853034469848 0 0.056252332416748596 0.00069283948998696257 0 0.051784838862574636 1.946187285545513e-06 0 0.055834108331189437 0.001246853034469848 0 0.056252332416748596 0.00069283948998696257 0 0.051784838862574636 1.946187285545513e-06 0 0.057841974189761593 1.4557375737164181e-06 0 0.056252332416748596 0.00069283948998696257 0 0.05716523745004691 0.0016204178019360897 0 0.058501018897121025 0.0020634449595029543 0 0.059873682897462983 0.0022024698491257223 0 0.058501018897121025 0.0020634449595029543 0 0.059873682897462983 0.0022024698491257223 0 0.060589185994302748 0.0027427777245642333 0 0.05716523745004691 0.0016204178019360897 0 0.055834108331189437 0.001246853034469848 0 0.059873682897462983 0.0022024698491257223 0 0.059839912793479985 0.0012187006136463643 0 0.055834108331189437 0.001246853034469848 0 0.059873682897462983 0.0022024698491257223 0 0.059839912793479985 0.0012187006136463643 0 0.059873682897462983 0.0022024698491257223 0 0.062661513280392489 0.0016231088347559638 0 0.059873682897462983 0.0022024698491257223 0 0.062661513280392489 0.0016231088347559638 0 0.061636004765100172 0.0021804693606151896 0 0.062661513280392489 0.0016231088347559638 0 0.063556353169441179 0.00093623746101382003 0 0.061636004765100172 0.0021804693606151896 0 0.064436622962676118 0.00057267893412466572 0 0.059839912793479985 0.0012187006136463643 0 0.062661513280392489 0.0016231088347559638 0 0.069337107406292675 -0.00066275395644182806 0 0.064436622962676118 0.00057267893412466572 0 0.065951085142462632 0.00017527952405334187 0 0.064436622962676118 0.00057267893412466572 0 0.062661513280392489 0.0016231088347559638 0 0.065951085142462632 0.00017527952405334187 0 0.062661513280392489 0.0016231088347559638 0 0.065951085142462632 0.00017527952405334187 0 0.063556353169441179 0.00093623746101382003 0 0.063556353169441179 0.00093623746101382003 0 0.061320140838556476 0.00072473198613155429 0 0.061636004765100172 0.0021804693606151896 0 0.082745437424301724 0.0017863602459451792 0 0.082583196249103388 0.0017527312309273994 0 0.082762312493083204 0.0017229328927390677 0 0.082710141306090695 0.0018567000249693176 0 0.082745437424301724 0.0017863602459451792 0 0.082822142707378088 0.0018104943239588707 0 0.082710141306090695 0.0018567000249693176 0 0.082745437424301724 0.0017863602459451792 0 0.082583196249103388 0.0017527312309273994 0 0.082583196249103388 0.0017527312309273994 0 0.082733429805759762 0.0016714433569645704 0 0.082762312493083204 0.0017229328927390677 0 0.073240143441973035 0.0012950605809512871 0 0.071991682296080869 0.0016968193084618693 0 0.082583196249103388 0.0017527312309273994 0 0.082728841370989625 0.0015702390178540515 0 0.082733429805759762 0.0016714433569645704 0 0.061320140838556476 0.00072473198613155429 0 0.061636004765100172 0.0021804693606151896 0 0.060440160906664819 0.0023703546886352099 0 0.060896129438253482 0.0031686339251994111 0 0.060589185994302748 0.0027427777245642333 0 0.060440160906664819 0.0023703546886352099 0 0.059873682897462983 0.0022024698491257223 0 0.061636004765100172 0.0021804693606151896 0 0.060589185994302748 0.0027427777245642333 0 0.061636004765100172 0.0021804693606151896 0 0.060589185994302748 0.0027427777245642333 0 0.060440160906664819 0.0023703546886352099 0 0.060896129438253482 0.0031686339251994111 0 0.058501018897121025 0.0020634449595029543 0 0.060589185994302748 0.0027427777245642333 0 0.060896129438253482 0.0031686339251994111 0 0.060265491921783265 0.0030216134819646147 0 0.060440160906664819 0.0023703546886352099 0 0.071704032373791415 0.00061207352751706527 0 0.077973132132234751 0.0019064517588458579 0 0.082801723032218832 0.0013573023301222354 0 0.08288231038683927 0.0015130667729971747 0 0.08303108968925571 0.0013930320701907404 0 0.074243711283241073 0.00020633642395088964 0 0.069791393908597649 0.0023690749836348135 0 0.074107863347465205 0.0036277181749160038 0 0.066665451243244633 0.00032579875623913975 0 0.071704032373791415 0.00061207352751706527 0 0.08288231038683927 0.0015130667729971747 0 0.082728841370989625 0.0015702390178540515 0 0.082835228636763306 0.0016180238257530065 0 0.071704032373791415 0.00061207352751706527 0 0.071991682296080869 0.0016968193084618693 0 0.082801723032218832 0.0013573023301222354 0 0.08288231038683927 0.0015130667729971747 0 0.082728841370989625 0.0015702390178540515 0 0.08288231038683927 0.0015130667729971747 0 0.08296332437105651 0.0016010081261858141 0 0.082980407674971196 0.0015121379251145349 0 0.08288231038683927 0.0015130667729971747 0 0.08296332437105651 0.0016010081261858141 0 0.082835228636763306 0.0016180238257530065 0 0.082935721421889819 0.0016738440237343138 0 0.082835228636763306 0.0016180238257530065 0 0.082785019667674584 0.0017085793264027896 0 0.08296332437105651 0.0016010081261858141 0 0.082935721421889819 0.0016738440237343138 0 0.082835228636763306 0.0016180238257530065 0 0.082728841370989625 0.0015702390178540515 0 0.082835228636763306 0.0016180238257530065 0 0.082771636552419148 0.0016539043801675581 0 0.082835228636763306 0.0016180238257530065 0 0.082771636552419148 0.0016539043801675581 0 0.082785019667674584 0.0017085793264027896 0 0.082728841370989625 0.0015702390178540515 0 0.082771636552419148 0.0016539043801675581 0 0.082733429805759762 0.0016714433569645704 0 0.082771636552419148 0.0016539043801675581 0 0.082733429805759762 0.0016714433569645704 0 0.082776403330796514 0.0017077552795974986 0 0.082733429805759762 0.0016714433569645704 0 0.082762312493083204 0.0017229328927390677 0 0.082776403330796514 0.0017077552795974986 0 0.082771636552419148 0.0016539043801675581 0 0.082776403330796514 0.0017077552795974986 0 0.082785019667674584 0.0017085793264027896 0 0.083883702929179585 0.0018454104983737351 0 0.083888536084332138 0.0018457289733555286 0 0.083830836503182932 0.0018569419874080104 0 0.083888536084332138 0.0018457289733555286 0 0.082762312493083204 0.0017229328927390677 0 0.082851375815734263 0.0016989033562818418 0 0.082834997136879598 0.0017455291139331435 0 0.082762312493083204 0.0017229328927390677 0 0.082776403330796514 0.0017077552795974986 0 0.082782432526079044 0.0017057667617847861 0 0.083888536084332138 0.0018457289733555286 0 0.084328766095766367 0.0018074666712368402 0 0.082851375815734263 0.0016989033562818418 0 0.082834997136879598 0.0017455291139331435 0 0.082969685652312095 0.0017065655148273604 0 0.083788350966319494 0.0013296378686682056 0 0.083886975046705864 0.0013344711210023902 0 0.083403608800322326 0.0017879470306264239 0 0.083665291300554528 0.0020274756862658891 0 0.084328766095766367 0.0018074666712368402 0 0.084633241032279344 0.0017994272912807293 0 0.084103293116780942 0.0020041678981779945 0 0.082834997136879598 0.0017455291139331435 0 0.082822142707378088 0.0018104943239588707 0 0.082969685652312095 0.0017065655148273604 0 0.083239442638956232 0.001690200617475737 0 0.083788350966319494 0.0013296378686682056 0 0.083403608800322326 0.0017879470306264239 0 0.082745437424301724 0.0017863602459451792 0 0.082762312493083204 0.0017229328927390677 0 0.082834997136879598 0.0017455291139331435 0 0.082745437424301724 0.0017863602459451792 0 0.082834997136879598 0.0017455291139331435 0 0.082822142707378088 0.0018104943239588707 0 0.084213833525320719 0.0018521829166306255 0 0.083888536084332138 0.0018457289733555286 0 0.084218838481654887 0.00180375511282395 0 0.08412488021999534 0.0018314498857116093 0 0.084173405860343081 0.0018343707777431248 0 0.084633241032279344 0.0017994272912807293 0 0.088123496573800281 0.0018298794691379394 0 0.084212714948035575 0.0010119758261116925 0 0.084204187241415221 0.0015292600792150238 0 0.085035331310143195 0.0010535593515972963 0 0.086230676188166891 0.0018012879621834615 0 0.086068727026200359 0.0019505178258150369 0 0.086388482980456677 0.0019687919754230402 0 0.084213833525320719 0.0018521829166306255 0 0.084633241032279344 0.0017994272912807293 0 0.084196892735884057 0.0019238532845315308 0 0.084694734057602417 0.0015724557045979778 0 0.084569843806449427 0.0015669627939914443 0 0.084213833525320719 0.0018521829166306255 0 0.084328766095766367 0.0018074666712368402 0 0.084328766095766367 0.0018074666712368402 0 0.084633241032279344 0.0017994272912807293 0 0.084212714948035575 0.0010119758261116925 0 0.084204187241415221 0.0015292600792150238 0 0.08353967560110416 0.0016381240090134793 0 0.08693344508060033 0.001878203422465036 0 0.088123496573800281 0.0018298794691379394 0 0.091665260674015522 0.0028468538998060785 0 0.09215474630529813 0.003064375169514346 0 0.092146913354738333 0.0025694642993036578 0 0.08693344508060033 0.001878203422465036 0 0.089203220441981049 0.0028299110371986756 0 0.091665260674015522 0.0028468538998060785 0 0.091974917492518724 0.0037252064510849619 0 0.09215474630529813 0.003064375169514346 0 0.084076448377962229 0.0015737730326985441 0 0.084528697793142371 0.0028149437777746544 0 0.08353467250445093 0.0027089985264658139 0 0.084528697793142371 0.0028149437777746544 0 0.08353467250445093 0.0027089985264658139 0 0.083994398269873122 0.0033284698386754357 0 0.08353467250445093 0.0027089985264658139 0 0.082888859619282718 0.0027656052928121751 0 0.083039719189250433 0.0033618110193609496 0 0.08353467250445093 0.0027089985264658139 0 0.082921333165680455 0.0022398888449855479 0 0.082888859619282718 0.0027656052928121751 0 0.08353467250445093 0.0027089985264658139 0 0.083400937344453627 0.0019756869302245419 0 0.082921333165680455 0.0022398888449855479 0 0.084076448377962229 0.0015737730326985441 0 0.08353467250445093 0.0027089985264658139 0 0.083400937344453627 0.0019756869302245419 0 0.08693344508060033 0.001878203422465036 0 0.085994581269593376 0.0022214140979125562 0 0.084204187241415221 0.0015292600792150238 0 0.08353967560110416 0.0016381240090134793 0 0.083400937344453627 0.0019756869302245419 0 0.084103293116780942 0.0020041678981779945 0 0.083867427212678966 0.0021359144778047858 0 0.083239442638956232 0.001690200617475737 0 0.083403608800322326 0.0017879470306264239 0 0.082921333165680455 0.0022398888449855479 0 0.08353967560110416 0.0016381240090134793 0 0.083400937344453627 0.0019756869302245419 0 0.082921333165680455 0.0022398888449855479 0 0.083239442638956232 0.001690200617475737 0 0.082669331004043944 0.0020730462563485906 0 0.082921333165680455 0.0022398888449855479 0 0.082710141306090695 0.0018567000249693176 0 0.082822142707378088 0.0018104943239588707 0 0.082669331004043944 0.0020730462563485906 0 0.082583196249103388 0.0017527312309273994 0 0.082669331004043944 0.0020730462563485906 0 0.082509556491041108 0.002433190800624721 0 0.083665291300554528 0.0020274756862658891 0 0.083424959786096542 0.0021216835784041844 0 0.082710141306090695 0.0018567000249693176 0 0.082583196249103388 0.0017527312309273994 0 0.082669331004043944 0.0020730462563485906 0 0.082669331004043944 0.0020730462563485906 0 0.082921333165680455 0.0022398888449855479 0 0.082509556491041108 0.002433190800624721 0 0.061320140838556476 0.00072473198613155429 0 0.063119066188867742 -0.0023479948601655897 0 0.062948865376430713 -0.0024504151066438136 0 0.073240143441973035 0.0012950605809512871 0 0.076535348924944235 -0.0010285098711644871 0 0.063556353169441179 0.00093623746101382003 0 0.061320140838556476 0.00072473198613155429 0 0.063119066188867742 -0.0023479948601655897 0 0.082583196249103388 0.0017527312309273994 0 0.082023747918228376 0.0026624481976687247 0 0.082509556491041108 0.002433190800624721 0 0.072663030330668094 -0.0011009332121394262 0 0.075970540756801194 -0.0013614401251129543 0 0.076921862231511748 0.0016088754707613508 0 0.075395020406860871 0.00069830809220606865 0 0.076474313878966665 -0.0014425556143135925 0 0.075970540756801194 -0.0013614401251129543 0 0.076535348924944235 -0.0010285098711644871 0 0.087639388436247856 -0.007536227418401654 0 0.08749127669566352 -0.0072330935008679455 0 0.088942096589666633 -0.0053746116370003627 0 0.076535348924944235 -0.0010285098711644871 0 0.076581422941310942 -0.0013677478313623805 0 0.075970540756801194 -0.0013614401251129543 0 0.076581422941310942 -0.0013677478313623805 0 0.082023747918228376 0.0026624481976687247 0 0.082888859619282718 0.0027656052928121751 0 0.083039719189250433 0.0033618110193609496 0 0.082023747918228376 0.0026624481976687247 0 0.082509556491041108 0.002433190800624721 0 0.082888859619282718 0.0027656052928121751 0 0.076535348924944235 -0.0010285098711644871 0 0.085331799943431388 0.00041490634455600118 0 0.082921333165680455 0.0022398888449855479 0 0.082509556491041108 0.002433190800624721 0 0.082888859619282718 0.0027656052928121751 0 0.087639388436247856 -0.007536227418401654 0 0.091310832203510522 -0.0053841105896128526 0 0.088942096589666633 -0.0053746116370003627 0 0.091310832203510522 -0.0053841105896128526 0 0.090241700253746657 -0.0036164762807563288 0 0.093031455239026131 -0.0030891769396493738 0 0.091310832203510522 -0.0053841105896128526 0 0.088942096589666633 -0.0053746116370003627 0 0.090241700253746657 -0.0036164762807563288 0 0.077169223998742528 -0.0017435886244853238 0 0.078943797710662719 -0.0055146015986173285 0 0.081508102968725293 -0.00072538110731475819 0 0.08749127669566352 -0.0072330935008679455 0 0.088942096589666633 -0.0053746116370003627 0 0.08810943313903366 -0.0030950478223850438 0 0.076581422941310942 -0.0013677478313623805 0 0.081213811424613813 -0.00049812650264806596 0 0.088942096589666633 -0.0053746116370003627 0 0.08810943313903366 -0.0030950478223850438 0 0.090241700253746657 -0.0036164762807563288 0 0.08810943313903366 -0.0030950478223850438 0 0.090241700253746657 -0.0036164762807563288 0 0.090698173360650544 -0.0013361328499300461 0 0.090241700253746657 -0.0036164762807563288 0 0.093031455239026131 -0.0030891769396493738 0 0.090698173360650544 -0.0013361328499300461 0 0.093031455239026131 -0.0030891769396493738 0 0.09406593348047354 -0.00062831179335512551 0 0.090698173360650544 -0.0013361328499300461 0 0.091310832203510522 -0.0053841105896128526 0 0.093031455239026131 -0.0030891769396493738 0 0.095111395792982306 -0.0030308336318242862 0 0.094873247689940599 -0.0027582552027418019 0 0.095901023532254104 -0.00087754545740111728 0 0.09406593348047354 -0.00062831179335512551 0 0.094873247689940599 -0.0027582552027418019 0 0.0970443198599375 -0.0025145310044568316 0 0.095901023532254104 -0.00087754545740111728 0 0.093031455239026131 -0.0030891769396493738 0 0.094873247689940599 -0.0027582552027418019 0 0.09406593348047354 -0.00062831179335512551 0 0.089973941540721705 0.0011777357737749502 0 0.092036864236545959 0.003043022271594446 0 0.090808630253439437 0.00090564149988728933 0 0.089973941540721705 0.0011777357737749502 0 0.084528697793142371 0.0028149437777746544 0 0.083994398269873122 0.0033284698386754357 0 0.085003956187894747 0.0040728785259198704 0 0.084187237329295103 0.004054890507275582 0 0.083994398269873122 0.0033284698386754357 0 0.085003956187894747 0.0040728785259198704 0 0.08353467250445093 0.0027089985264658139 0 0.083039719189250433 0.0033618110193609496 0 0.083994398269873122 0.0033284698386754357 0 0.085331799943431388 0.00041490634455600118 0 0.089973941540721705 0.0011777357737749502 0 0.083039719189250433 0.0033618110193609496 0 0.084187237329295103 0.004054890507275582 0 0.083994398269873122 0.0033284698386754357 0 0.092662367310512542 0.0040357144030741974 0 0.092283005238839283 0.0046426106075392274 0 0.093018131708331786 0.0046824149883285043 0 0.092662367310512542 0.0040357144030741974 0 0.093018131708331786 0.0046824149883285043 0 0.093163819494187242 0.0040694528888487866 0 0.091974917492518724 0.0037252064510849619 0 0.092662367310512542 0.0040357144030741974 0 0.092283005238839283 0.0046426106075392274 0 0.089203220441981049 0.0028299110371986756 0 0.092036864236545959 0.003043022271594446 0 0.092036864236545959 0.003043022271594446 0 0.094336653962822606 0.0038197195611879781 0 0.098387588400681292 0.0050404892148609671 0 0.097373895007890968 0.0050202234326861455 0 0.098065074534496657 0.0040649920098447126 0 0.094336653962822606 0.0038197195611879781 0 0.094896993406891034 0.0041650815704532265 0 0.093018131708331786 0.0046824149883285043 0 0.093833093406405083 0.0047296008563062261 0 0.093163819494187242 0.0040694528888487866 0 0.097373895007890968 0.0050202234326861455 0 0.096297818348357489 0.0049467675481003146 0 0.096553436197621384 0.0042574690899471121 0 0.096297818348357489 0.0049467675481003146 0 0.095047630410371092 0.0046155759773093873 0 0.095856124889313332 0.0041783263319684905 0 0.094896993406891034 0.0041650815704532265 0 0.095001739218402742 0.0042526333032455654 0 0.093833093406405083 0.0047296008563062261 0 0.093727401166867813 0.0038508647600581179 0 0.094404267413557424 0.0041692573149165824 0 0.093833093406405083 0.0047296008563062261 0 0.093163819494187242 0.0040694528888487866 0 0.093727401166867813 0.0038508647600581179 0 0.093163819494187242 0.0040694528888487866 0 0.09309492292063283 0.0034804158523612711 0 0.093727401166867813 0.0038508647600581179 0 0.09309492292063283 0.0034804158523612711 0 0.093727401166867813 0.0038508647600581179 0 0.093681337998120714 0.003166029312909437 0 0.093727401166867813 0.0038508647600581179 0 0.094228177261302878 0.0036855337075933519 0 0.094404267413557424 0.0041692573149165824 0 0.093727401166867813 0.0038508647600581179 0 0.093681337998120714 0.003166029312909437 0 0.094228177261302878 0.0036855337075933519 0 0.093681337998120714 0.003166029312909437 0 0.09318855658503232 0.0029902986046149776 0 0.093466993653795821 0.0027113233583702383 0 0.09309492292063283 0.0034804158523612711 0 0.093681337998120714 0.003166029312909437 0 0.09318855658503232 0.0029902986046149776 0 0.09309492292063283 0.0034804158523612711 0 0.09318855658503232 0.0029902986046149776 0 0.092820059310734213 0.0030297478537601118 0 0.09309492292063283 0.0034804158523612711 0 0.092820059310734213 0.0030297478537601118 0 0.092503632089953977 0.0032946403473543967 0 0.092820059310734213 0.0030297478537601118 0 0.092503632089953977 0.0032946403473543967 0 0.092478137567130095 0.002889526217912994 0 0.092662367310512542 0.0040357144030741974 0 0.093163819494187242 0.0040694528888487866 0 0.09309492292063283 0.0034804158523612711 0 0.092662367310512542 0.0040357144030741974 0 0.09309492292063283 0.0034804158523612711 0 0.092503632089953977 0.0032946403473543967 0 0.091974917492518724 0.0037252064510849619 0 0.092662367310512542 0.0040357144030741974 0 0.092503632089953977 0.0032946403473543967 0 0.091974917492518724 0.0037252064510849619 0 0.092503632089953977 0.0032946403473543967 0 0.09215474630529813 0.003064375169514346 0 0.092503632089953977 0.0032946403473543967 0 0.09215474630529813 0.003064375169514346 0 0.092478137567130095 0.002889526217912994 0 0.088123496573800281 0.0018298794691379394 0 0.091725081053172244 0.0022555533981881339 0 0.09215474630529813 0.003064375169514346 0 0.092478137567130095 0.002889526217912994 0 0.092146913354738333 0.0025694642993036578 0 0.092478137567130095 0.002889526217912994 0 0.092146913354738333 0.0025694642993036578 0 0.092841819953940155 0.0026233630226310516 0 0.09281461061542462 0.0026841549089716248 0 0.093160998092030767 0.0026986425506919532 0 0.093114605919837584 0.0025297922457467753 0 0.09318855658503232 0.0029902986046149776 0 0.092820059310734213 0.0030297478537601118 0 0.092841819953940155 0.0026233630226310516 0 0.092820059310734213 0.0030297478537601118 0 0.092478137567130095 0.002889526217912994 0 0.092841819953940155 0.0026233630226310516 0 0.086783324517873128 0.0017464808577024975 0 0.086715566373459507 0.0016595238863794932 0 0.087178282865886345 0.0015296394232789448 0 0.085386451447229714 0.0019120702619730039 0 0.08722835645880414 0.0018958792068500901 0 0.083201275928191099 0.0017090905688780633 0 0.083393846972987407 0.0015789577675149333 0 0.083499476701560438 0.001639627181159217 0 0.088535340795863587 0.0016120288349560157 0 0.08722835645880414 0.0018958792068500901 0 0.093160998092030767 0.0026986425506919532 0 0.093114605919837584 0.0025297922457467753 0 0.09330721569847987 0.0025776775692971064 0 0.083201275928191099 0.0017090905688780633 0 0.083119958994244514 0.0016805865275015498 0 0.083278531857055749 0.0015608522191412806 0 0.082966961744901091 0.0017737538368994337 0 0.083201275928191099 0.0017090905688780633 0 0.083119958994244514 0.0016805865275015498 0 0.084213833525320719 0.0018521829166306255 0 0.085386451447229714 0.0019120702619730039 0 0.088123496573800281 0.0018298794691379394 0 0.088535340795863587 0.0016120288349560157 0 0.086230676188166891 0.0018012879621834615 0 0.086388482980456677 0.0019687919754230402 0 0.086715566373459507 0.0016595238863794932 0 0.086388482980456677 0.0019687919754230402 0 0.086783324517873128 0.0017464808577024975 0 0.086715566373459507 0.0016595238863794932 0 0.084213833525320719 0.0018521829166306255 0 0.083710372345839182 0.0019437599237923048 0 0.08296332437105651 0.0016010081261858141 0 0.083058513118916183 0.0015931383301505755 0 0.083009564483164544 0.0015627384122941172 0 0.084213833525320719 0.0018521829166306255 0 0.08375492522422906 0.001914291605620521 0 0.08296332437105651 0.0016010081261858141 0 0.082935721421889819 0.0016738440237343138 0 0.083058513118916183 0.0015931383301505755 0 0.082985097907911892 0.0017609116730295646 0 0.083119323424237432 0.0016672798540434334 0 0.083102616518100692 0.0016349139274858527 0 0.08296332437105651 0.0016010081261858141 0 0.083009564483164544 0.0015627384122941172 0 0.082980407674971196 0.0015121379251145349 0 0.083035852793545029 0.0015431589122880639 0 0.082980407674971196 0.0015121379251145349 0 0.083101539720566928 0.0014928183324768021 0 0.08288231038683927 0.0015130667729971747 0 0.082980407674971196 0.0015121379251145349 0 0.08303108968925571 0.0013930320701907404 0 0.083058513118916183 0.0015931383301505755 0 0.083009564483164544 0.0015627384122941172 0 0.083035852793545029 0.0015431589122880639 0 0.083009564483164544 0.0015627384122941172 0 0.083035852793545029 0.0015431589122880639 0 0.082980407674971196 0.0015121379251145349 0 0.082980407674971196 0.0015121379251145349 0 0.083101539720566928 0.0014928183324768021 0 0.08303108968925571 0.0013930320701907404 0 0.083101539720566928 0.0014928183324768021 0 0.083244998731204764 0.001474630943527239 0 0.08303108968925571 0.0013930320701907404 0 0.083058513118916183 0.0015931383301505755 0 0.083101539720566928 0.0014928183324768021 0 0.083244998731204764 0.001474630943527239 0 0.083058513118916183 0.0015931383301505755 0 0.083035852793545029 0.0015431589122880639 0 0.083101539720566928 0.0014928183324768021 0 0.083119323424237432 0.0016672798540434334 0 0.083102616518100692 0.0016349139274858527 0 0.083278531857055749 0.0015608522191412806 0 0.08375492522422906 0.001914291605620521 0 0.083664988499482118 0.0018864795024011315 0 0.083710372345839182 0.0019437599237923048 0 0.083620622388454566 0.0019356463923602375 0 0.083244998731204764 0.001474630943527239 0 0.08303108968925571 0.0013930320701907404 0 0.083375585511763939 0.0014614546834808885 0 0.083102616518100692 0.0016349139274858527 0 0.083278531857055749 0.0015608522191412806 0 0.083244998731204764 0.001474630943527239 0 0.083201275928191099 0.0017090905688780633 0 0.083278531857055749 0.0015608522191412806 0 0.083393846972987407 0.0015789577675149333 0 0.083278531857055749 0.0015608522191412806 0 0.083375585511763939 0.0014614546834808885 0 0.083393846972987407 0.0015789577675149333 0 0.083278531857055749 0.0015608522191412806 0 0.083244998731204764 0.001474630943527239 0 0.083375585511763939 0.0014614546834808885 0 0.077973132132234751 0.0019064517588458579 0 0.081844064199463995 0.0023041930386312214 0 0.07726788253081375 0.00052343926442306211 0 0.074107863347465205 0.0036277181749160038 0 0.078899785741967085 0.0049766222908978596 0 0.074243711283241073 0.00020633642395088964 0 0.07726788253081375 0.00052343926442306211 0 0.074107863347465205 0.0036277181749160038 0 0.081678924218650195 0.00019930009440160344 0 0.083172740718603866 0.0031281782051972339 0 0.086112538623731333 0.00094397673187519458 0 0.083172740718603866 0.0031281782051972339 0 0.086112538623731333 0.00094397673187519458 0 0.08639564258592676 0.0032994565328395794 0 0.081678924218650195 0.00019930009440160344 0 0.083172740718603866 0.0031281782051972339 0 0.078899785741967085 0.0049766222908978596 0 0.081678924218650195 0.00019930009440160344 0 0.07726788253081375 0.00052343926442306211 0 0.078899785741967085 0.0049766222908978596 0 0.083172740718603866 0.0031281782051972339 0 0.078899785741967085 0.0049766222908978596 0 0.084559195564510442 0.0065833041379586175 0 0.081844064199463995 0.0023041930386312214 0 0.086922120029902031 0.0023998814345793616 0 0.083375585511763939 0.0014614546834808885 0 0.083568881804557238 0.0016057673948953195 0 0.083771091785531604 0.0015641593580524415 0 0.083375585511763939 0.0014614546834808885 0 0.083393846972987407 0.0015789577675149333 0 0.083568881804557238 0.0016057673948953195 0 0.083393846972987407 0.0015789577675149333 0 0.083499476701560438 0.001639627181159217 0 0.083568881804557238 0.0016057673948953195 0 0.08722835645880414 0.0018958792068500901 0 0.087121218433111325 0.0019359029696286451 0 0.083501771773183658 0.001644621032929855 0 0.083568881804557238 0.0016057673948953195 0 0.083771091785531604 0.0015641593580524415 0 0.08722835645880414 0.0018958792068500901 0 0.086922120029902031 0.0023998814345793616 0 0.083172740718603866 0.0031281782051972339 0 0.084559195564510442 0.0065833041379586175 0 0.08639564258592676 0.0032994565328395794 0 0.0936102954879236 0.0025762510475312445 0 0.093589953222468839 0.0025443601445350457 0 0.093512661374029346 0.0024638015340979224 0 0.087007347483091274 0.0024173410824679924 0 0.086922120029902031 0.0023998814345793616 0 0.093387360464658953 0.0024413918116526333 0 0.093589953222468839 0.0025443601445350457 0 0.093495995114690991 0.0025096970837031195 0 0.093589953222468839 0.0025443601445350457 0 0.093512661374029346 0.0024638015340979224 0 0.093495995114690991 0.0025096970837031195 0 0.093512661374029346 0.0024638015340979224 0 0.093495995114690991 0.0025096970837031195 0 0.093573902264593251 0.0025369180125101106 0 0.093495995114690991 0.0025096970837031195 0 0.093573902264593251 0.0025369180125101106 0 0.093415117866974262 0.0026876522447674195 0 0.093114605919837584 0.0025297922457467753 0 0.093387360464658953 0.0024413918116526333 0 0.09330721569847987 0.0025776775692971064 0 0.093387360464658953 0.0024413918116526333 0 0.093495995114690991 0.0025096970837031195 0 0.09330721569847987 0.0025776775692971064 0 0.093495995114690991 0.0025096970837031195 0 0.09330721569847987 0.0025776775692971064 0 0.093415117866974262 0.0026876522447674195 0 0.093160998092030767 0.0026986425506919532 0 0.09330721569847987 0.0025776775692971064 0 0.093415117866974262 0.0026876522447674195 0 0.09318855658503232 0.0029902986046149776 0 0.092841819953940155 0.0026233630226310516 0 0.093466993653795821 0.0027113233583702383 0 0.091725081053172244 0.0022555533981881339 0 0.092959049524917042 0.0024396706097645098 0 0.093573902264593251 0.0025369180125101106 0 0.093415117866974262 0.0026876522447674195 0 0.09379717498150969 0.002715973763411505 0 0.093681337998120714 0.003166029312909437 0 0.093466993653795821 0.0027113233583702383 0 0.09379717498150969 0.002715973763411505 0 0.092959049524917042 0.0024396706097645098 0 0.093314121493392119 0.0024940219190634294 0 0.09379717498150969 0.002715973763411505 0 0.093914738466510522 0.0025959576360495592 0 0.094472045036751662 0.0031510749113406698 0 0.09379717498150969 0.002715973763411505 0 0.093914738466510522 0.0025959576360495592 0 0.093509715910748192 0.0024722751574046179 0 0.093914738466510522 0.0025959576360495592 0 0.094647162851144731 0.0025746273283749161 0 0.094472045036751662 0.0031510749113406698 0 0.093914738466510522 0.0025959576360495592 0 0.09319430757084976 0.0024449707169577777 0 0.094647162851144731 0.0025746273283749161 0 0.093914738466510522 0.0025959576360495592 0 0.09319430757084976 0.0024449707169577777 0 0.093509715910748192 0.0024722751574046179 0 0.093573902264593251 0.0025369180125101106 0 0.09379717498150969 0.002715973763411505 0 0.093509715910748192 0.0024722751574046179 0 0.093512661374029346 0.0024638015340979224 0 0.093573902264593251 0.0025369180125101106 0 0.093509715910748192 0.0024722751574046179 0 0.09319430757084976 0.0024449707169577777 0 0.093509715910748192 0.0024722751574046179 0 0.09310037503496553 0.0024368948526991723 0 0.093512661374029346 0.0024638015340979224 0 0.093509715910748192 0.0024722751574046179 0 0.09310037503496553 0.0024368948526991723 0 0.0936102954879236 0.0025762510475312445 0 0.093512661374029346 0.0024638015340979224 0 0.09310037503496553 0.0024368948526991723 0 0.0936102954879236 0.0025762510475312445 0 0.09310037503496553 0.0024368948526991723 0 0.091892794912123113 0.0027497183056474587 0 0.086922120029902031 0.0023998814345793616 0 0.089190407218518009 0.002237208776996266 0 0.084559195564510442 0.0065833041379586175 0 0.091892794912123113 0.0027497183056474587 0 0.08639564258592676 0.0032994565328395794 0 0.0936102954879236 0.0025762510475312445 0 0.093816132823179021 0.0026688442685644342 0 0.091892794912123113 0.0027497183056474587 0 0.09319430757084976 0.0024449707169577777 0 0.091892794912123113 0.0027497183056474587 0 0.093242781577024661 0.0015630621233249978 0 0.09319430757084976 0.0024449707169577777 0 0.09310037503496553 0.0024368948526991723 0 0.091892794912123113 0.0027497183056474587 0 0.090250350462327614 -0.00032823218645374927 0 0.091892794912123113 0.0027497183056474587 0 0.093242781577024661 0.0015630621233249978 0 0.093177481715579463 -0.0002401632083097203 0 0.090250350462327614 -0.00032823218645374927 0 0.093242781577024661 0.0015630621233249978 0 0.091892794912123113 0.0027497183056474587 0 0.086112538623731333 0.00094397673187519458 0 0.08639564258592676 0.0032994565328395794 0 0.090250350462327614 -0.00032823218645374927 0 0.091892794912123113 0.0027497183056474587 0 0.086112538623731333 0.00094397673187519458 0 0.095957573736218563 -1.2141632500332275e-05 0 0.094468875163729565 0.00040461133916796371 0 0.094939865281524788 0.0014968512363061446 0 0.094668393854084168 -0.0012738695551487047 0 0.095957573736218563 -1.2141632500332275e-05 0 0.094468875163729565 0.00040461133916796371 0 0.094468875163729565 0.00040461133916796371 0 0.093242781577024661 0.0015630621233249978 0 0.094939865281524788 0.0014968512363061446 0 0.093177481715579463 -0.0002401632083097203 0 0.094468875163729565 0.00040461133916796371 0 0.093242781577024661 0.0015630621233249978 0 0.09319430757084976 0.0024449707169577777 0 0.093242781577024661 0.0015630621233249978 0 0.094939865281524788 0.0014968512363061446 0 0.095957573736218563 -1.2141632500332275e-05 0 0.094939865281524788 0.0014968512363061446 0 0.096829906685025627 0.0011318743610072627 0 0.094939865281524788 0.0014968512363061446 0 0.096304234107905118 0.0022446900464401418 0 0.096829906685025627 0.0011318743610072627 0 0.094939865281524788 0.0014968512363061446 0 0.094647162851144731 0.0025746273283749161 0 0.096304234107905118 0.0022446900464401418 0 0.09319430757084976 0.0024449707169577777 0 0.094939865281524788 0.0014968512363061446 0 0.094647162851144731 0.0025746273283749161 0 0.094647162851144731 0.0025746273283749161 0 0.096304234107905118 0.0022446900464401418 0 0.095961819513399424 0.0032334464685751319 0 0.096304234107905118 0.0022446900464401418 0 0.095961819513399424 0.0032334464685751319 0 0.097838492822595574 0.0030473226897211091 0 0.097785592563608789 0.0037568381391476289 0 0.097838492822595574 0.0030473226897211091 0 0.098742145475235424 0.0036331400283470153 0 0.095961819513399424 0.0032334464685751319 0 0.097785592563608789 0.0037568381391476289 0 0.097838492822595574 0.0030473226897211091 0 0.095961819513399424 0.0032334464685751319 0 0.094961697998051875 0.0041083573160880472 0 0.095557021571405734 0.0041457243581626679 0 0.096800715350520899 0.0030308436627386431 0 0.097038652708253029 0.0033095213189558281 0 0.094647162851144731 0.0025746273283749161 0 0.095961819513399424 0.0032334464685751319 0 0.094472045036751662 0.0031510749113406698 0 0.093681337998120714 0.003166029312909437 0 0.09379717498150969 0.002715973763411505 0 0.094472045036751662 0.0031510749113406698 0 0.093681337998120714 0.003166029312909437 0 0.094472045036751662 0.0031510749113406698 0 0.094228177261302878 0.0036855337075933519 0 0.094472045036751662 0.0031510749113406698 0 0.094228177261302878 0.0036855337075933519 0 0.094961697998051875 0.0041083573160880472 0 0.095961819513399424 0.0032334464685751319 0 0.094472045036751662 0.0031510749113406698 0 0.094961697998051875 0.0041083573160880472 0 0.094961697998051875 0.0041083573160880472 0 0.094404267413557424 0.0041692573149165824 0 0.095047630410371092 0.0046155759773093873 0 0.094228177261302878 0.0036855337075933519 0 0.094961697998051875 0.0041083573160880472 0 0.094404267413557424 0.0041692573149165824 0 0.093833093406405083 0.0047296008563062261 0 0.094404267413557424 0.0041692573149165824 0 0.095047630410371092 0.0046155759773093873 0 0.095047630410371092 0.0046155759773093873 0 0.095155172862688084 0.0044184533607147213 0 0.095361896287364398 0.0041984208718238245 0 0.094961697998051875 0.0041083573160880472 0 0.095047630410371092 0.0046155759773093873 0 0.095155172862688084 0.0044184533607147213 0 0.095155172862688084 0.0044184533607147213 0 0.095120142643247516 0.0043293746187463514 0 0.095557021571405734 0.0041457243581626679 0 0.097552153331457697 0.0034709253733458678 0 0.097038652708253029 0.0033095213189558281 0 0.099244143498615892 0.0040961603149096571 0 0.097785592563608789 0.0037568381391476289 0 0.098742145475235424 0.0036331400283470153 0 0.094961697998051875 0.0041083573160880472 0 0.095155172862688084 0.0044184533607147213 0 0.095557021571405734 0.0041457243581626679 0 0.095139565044530958 0.0037544820426106034 0 0.094749573721120792 0.0038403652618032463 0 0.095109030708617814 0.0041154974867178961 0 0.095139565044530958 0.0037544820426106034 0 0.095109030708617814 0.0041154974867178961 0 0.095284458157697871 0.0039863842456198699 0 0.097552153331457697 0.0034709253733458678 0 0.098265732691752733 0.0030770305287001593 0 0.095120142643247516 0.0043293746187463514 0 0.094749573721120792 0.0038403652618032463 0 0.095109030708617814 0.0041154974867178961 0 0.099244143498615892 0.0040961603149096571 0 0.10076576586894156 0.0038518392023623557 0 0.10015414711941446 0.0040462416447328347 0 0.095155172862688084 0.0044184533607147213 0 0.095120142643247516 0.0043293746187463514 0 0.095109030708617814 0.0041154974867178961 0 0.095155172862688084 0.0044184533607147213 0 0.095109030708617814 0.0041154974867178961 0 0.095284458157697871 0.0039863842456198699 0 0.095155172862688084 0.0044184533607147213 0 0.095361896287364398 0.0041984208718238245 0 0.095284458157697871 0.0039863842456198699 0 0.095361896287364398 0.0041984208718238245 0 0.095752840411300708 0.0036301781390435362 0 0.095856124889313332 0.0041783263319684905 0 0.095047630410371092 0.0046155759773093873 0 0.095361896287364398 0.0041984208718238245 0 0.095856124889313332 0.0041783263319684905 0 0.095361896287364398 0.0041984208718238245 0 0.095752840411300708 0.0036301781390435362 0 0.095284458157697871 0.0039863842456198699 0 0.095752840411300708 0.0036301781390435362 0 0.095284458157697871 0.0039863842456198699 0 0.095424839517685225 0.0035402877243010237 0 0.095139565044530958 0.0037544820426106034 0 0.095284458157697871 0.0039863842456198699 0 0.095424839517685225 0.0035402877243010237 0 0.095424839517685225 0.0035402877243010237 0 0.095601479819419785 0.0031724259785823384 0 0.095125157772282601 0.0033640614825010515 0 0.096176736475887925 0.0033246854681371397 0 0.095732985012839958 0.0033578684828621959 0 0.095601479819419785 0.0031724259785823384 0 0.095964620228956757 0.0032859841058775828 0 0.096364478064723091 0.0029724868993888562 0 0.095752840411300708 0.0036301781390435362 0 0.095690839427188729 0.0034010942341609106 0 0.095964620228956757 0.0032859841058775828 0 0.095424839517685225 0.0035402877243010237 0 0.095690839427188729 0.0034010942341609106 0 0.095601479819419785 0.0031724259785823384 0 0.095752840411300708 0.0036301781390435362 0 0.095424839517685225 0.0035402877243010237 0 0.095690839427188729 0.0034010942341609106 0 0.095690839427188729 0.0034010942341609106 0 0.095601479819419785 0.0031724259785823384 0 0.095964620228956757 0.0032859841058775828 0 0.096176736475887925 0.0033246854681371397 0 0.097043481092642728 0.0032987488355429632 0 0.09627195826427315 0.0033388579177756122 0 0.096352398704848324 0.0029007772760440199 0 0.097042813378892714 0.0027964042659331745 0 0.10016024259162758 0.0022315065160086606 0 0.10099804141600695 0.0014924491502087789 0 0.096352398704848324 0.0029007772760440199 0 0.096862488458602805 0.0021323496774005237 0 0.097042813378892714 0.0027964042659331745 0 0.09627195826427315 0.0033388579177756122 0 0.095658199602573907 0.0029882728245878469 0 0.095125157772282601 0.0033640614825010515 0 0.096352398704848324 0.0029007772760440199 0 0.095658199602573907 0.0029882728245878469 0 0.095482862087657314 0.0021804420371111044 0 0.09627195826427315 0.0033388579177756122 0 0.096352398704848324 0.0029007772760440199 0 0.095658199602573907 0.0029882728245878469 0 0.095029122469786315 0.0027218067584036114 0 0.095125157772282601 0.0033640614825010515 0 0.094532918429198851 0.003027331130721401 0 0.095658199602573907 0.0029882728245878469 0 0.095029122469786315 0.0027218067584036114 0 0.095482862087657314 0.0021804420371111044 0 0.095658199602573907 0.0029882728245878469 0 0.095029122469786315 0.0027218067584036114 0 0.095125157772282601 0.0033640614825010515 0 0.095139565044530958 0.0037544820426106034 0 0.095424839517685225 0.0035402877243010237 0 0.095125157772282601 0.0033640614825010515 0 0.095139565044530958 0.0037544820426106034 0 0.094749573721120792 0.0038403652618032463 0 0.095125157772282601 0.0033640614825010515 0 0.098265732691752733 0.0030770305287001593 0 0.099275731967283842 0.0022984610305651016 0 0.094749573721120792 0.0038403652618032463 0 0.095125157772282601 0.0033640614825010515 0 0.094532918429198851 0.003027331130721401 0 0.10076576586894156 0.0038518392023623557 0 0.1024311546812304 0.0020988262422474984 0 0.10106162019844032 0.0032073299863155267 0 0.099275731967283842 0.0022984610305651016 0 0.10090336383633801 0.0020627616349031368 0 0.1024311546812304 0.0020988262422474984 0 0.10329486743707436 0.00088747077889767695 0 0.10291286516328921 0.0011929272255424416 0 0.095029122469786315 0.0027218067584036114 0 0.094532918429198851 0.003027331130721401 0 0.094384479802768179 0.0020194382568465706 0 0.1004063491043586 0.0015439271739257051 0 0.10090336383633801 0.0020627616349031368 0 0.095029122469786315 0.0027218067584036114 0 0.095482862087657314 0.0021804420371111044 0 0.094384479802768179 0.0020194382568465706 0 0.10496013288586534 0.00015708622795929011 0 0.10492737749321082 0.00013847466383276803 0 0.10496961036161091 9.8792421227687522e-05 0 0.10496013288586534 0.00015708622795929011 0 0.10491304320997072 0.00015917239734086191 0 0.10492737749321082 0.00013847466383276803 0 0.10491304320997072 0.00015917239734086191 0 0.10492737749321082 0.00013847466383276803 0 0.10487473020820196 0.00015059050812913212 0 0.10090336383633801 0.0020627616349031368 0 0.1018889033511222 0.0009945940576457275 0 0.10492737749321082 0.00013847466383276803 0 0.10495330713446496 9.7925077876389645e-05 0 0.10487473020820196 0.00015059050812913212 0 0.10492737749321082 0.00013847466383276803 0 0.10495330713446496 9.7925077876389645e-05 0 0.10496961036161091 9.8792421227687522e-05 0 0.10495330713446496 9.7925077876389645e-05 0 0.10496961036161091 9.8792421227687522e-05 0 0.10498621236515579 4.6885792492327684e-05 0 0.10498621236515579 4.6885792492327684e-05 0 0.10499999436743064 6.1929489522412783e-08 0 0.10499999180105142 5.0110984371020541e-08 0 0.10495330713446496 9.7925077876389645e-05 0 0.10499999436743064 6.1929489522412783e-08 0 0.10487473020820196 0.00015059050812913212 0 0.10495330713446496 9.7925077876389645e-05 0 0.10498621236515579 4.6885792492327684e-05 0 0.10499999436743064 6.1929489522412783e-08 0 0.10500446862101785 6.0884325551697501e-06 0 0.10499999180105142 5.0110984371020541e-08 0 0.10500002725227071 7.0593815339282039e-09 0 0.10502288923570532 4.9949542673162387e-05 0 0.10500446862101785 6.0884325551697501e-06 0 0.10500039722763164 4.6887943114993626e-05 0 0.10502288923570532 4.9949542673162387e-05 0 0.10500446862101785 6.0884325551697501e-06 0 0.10505623675124301 3.9853148889292489e-05 0 0.10498621236515579 4.6885792492327684e-05 0 0.10499999180105142 5.0110984371020541e-08 0 0.10500039722763164 4.6887943114993626e-05 0 0.10500446862101785 6.0884325551697501e-06 0 0.10499999180105142 5.0110984371020541e-08 0 0.10500039722763164 4.6887943114993626e-05 0 0.10496961036161091 9.8792421227687522e-05 0 0.10498621236515579 4.6885792492327684e-05 0 0.10500039722763164 4.6887943114993626e-05 0 0.10496961036161091 9.8792421227687522e-05 0 0.10500039722763164 4.6887943114993626e-05 0 0.10498897926772981 0.00010514382883338424 0 0.10500039722763164 4.6887943114993626e-05 0 0.10501816832915724 8.8131178227296745e-05 0 0.10498897926772981 0.00010514382883338424 0 0.10502288923570532 4.9949542673162387e-05 0 0.10500039722763164 4.6887943114993626e-05 0 0.10501816832915724 8.8131178227296745e-05 0 0.10502288923570532 4.9949542673162387e-05 0 0.10501816832915724 8.8131178227296745e-05 0 0.10504966810377242 7.6234376263786271e-05 0 0.10501816832915724 8.8131178227296745e-05 0 0.10500760525451745 0.00012594967548613248 0 0.10505712948910209 0.0001163876482731992 0 0.10500760525451745 0.00012594967548613248 0 0.10502072823974 0.0001642816607282377 0 0.10505712948910209 0.0001163876482731992 0 0.10501816832915724 8.8131178227296745e-05 0 0.10500760525451745 0.00012594967548613248 0 0.10498897926772981 0.00010514382883338424 0 0.10496013288586534 0.00015708622795929011 0 0.10500760525451745 0.00012594967548613248 0 0.10498897926772981 0.00010514382883338424 0 0.10496013288586534 0.00015708622795929011 0 0.10496961036161091 9.8792421227687522e-05 0 0.10498897926772981 0.00010514382883338424 0 0.1004063491043586 0.0015439271739257051 0 0.10099804141600695 0.0014924491502087789 0 0.096352398704848324 0.0029007772760440199 0 0.095482862087657314 0.0021804420371111044 0 0.096724097361005068 0.0023620166255470571 0 0.10496013288586534 0.00015708622795929011 0 0.10500760525451745 0.00012594967548613248 0 0.10502072823974 0.0001642816607282377 0 0.10099804141600695 0.0014924491502087789 0 0.10275865347191744 0.00068503076410225661 0 0.10191547629896103 0.0012332234885890434 0 0.10209648901754093 0.0012658592319761263 0 0.10203877468585312 0.0010535793751974807 0 0.10099804141600695 0.0014924491502087789 0 0.10070378538578703 0.001400332136407532 0 0.096862488458602805 0.0021323496774005237 0 0.098008780661642328 0.0023391253725906246 0 0.097042813378892714 0.0027964042659331745 0 0.10209648901754093 0.0012658592319761263 0 0.1021587549782067 0.0011462339134476996 0 0.10227608155280611 0.0012987413490566184 0 0.10209648901754093 0.0012658592319761263 0 0.1021587549782067 0.0011462339134476996 0 0.10203877468585312 0.0010535793751974807 0 0.1021587549782067 0.0011462339134476996 0 0.10217893161126079 0.0010240197702417889 0 0.10227523873240868 0.0011173483142284469 0 0.1021587549782067 0.0011462339134476996 0 0.10217893161126079 0.0010240197702417889 0 0.10203877468585312 0.0010535793751974807 0 0.10504966810377242 7.6234376263786271e-05 0 0.10509308133138778 6.4351782427436691e-05 0 0.10505623675124301 3.9853148889292489e-05 0 0.10505712948910209 0.0001163876482731992 0 0.10504966810377242 7.6234376263786271e-05 0 0.10509308133138778 6.4351782427436691e-05 0 0.10501816832915724 8.8131178227296745e-05 0 0.10505712948910209 0.0001163876482731992 0 0.10504966810377242 7.6234376263786271e-05 0 0.10502288923570532 4.9949542673162387e-05 0 0.10504966810377242 7.6234376263786271e-05 0 0.10505623675124301 3.9853148889292489e-05 0 0.10275865347191744 0.00068503076410225661 0 0.10357716501214996 0.0007742804919983479 0 0.10217893161126079 0.0010240197702417889 0 0.10216182214060575 0.00087417674067268871 0 0.10227492244043285 0.00093435655432076823 0 0.10217893161126079 0.0010240197702417889 0 0.10203877468585312 0.0010535793751974807 0 0.10216182214060575 0.00087417674067268871 0 0.10357716501214996 0.0007742804919983479 0 0.10278157774097151 0.0011070603406264942 0 0.10357716501214996 0.0007742804919983479 0 0.10422765725794794 0.00072067516317635594 0 0.10357716501214996 0.0007742804919983479 0 0.10480142356220445 7.0377757379898795e-05 0 0.10500002725227071 7.0593815339282039e-09 0 0.1049988013984659 2.6662622291476615e-07 0 0.1049997913806467 4.2724967320493127e-08 0 0.10500002725227071 7.0593815339282039e-09 0 0.1049997913806467 4.2724967320493127e-08 0 0.10499998065476505 -2.8081991114390886e-09 0 0.1049976224330449 1.0725523812710157e-06 0 0.1049988013984659 2.6662622291476615e-07 0 0.1049997913806467 4.2724967320493127e-08 0 0.10439222178459884 0.00068518495017902761 0 0.10422765725794794 0.00072067516317635594 0 0.10500446862101785 6.0884325551697501e-06 0 0.10500002725227071 7.0593815339282039e-09 0 0.1049988013984659 2.6662622291476615e-07 0 0.10499999274569254 3.0518517447776267e-09 0 0.10499440826289538 4.1686765906112711e-06 0 0.10499998253365239 4.0520330982701605e-09 0 0.10499999274569254 3.0518517447776267e-09 0 0.10499440826289538 4.1686765906112711e-06 0 0.10499348519182505 5.9310467285686417e-06 0 0.10354810222544437 0.00091831773223081774 0 0.10378820584019741 0.00056543956379541567 0 0.10379320823466825 0.0010474204178750317 0 0.10499440826289538 4.1686765906112711e-06 0 0.10499900932887636 5.9200446996698067e-07 0 0.1049877128151793 8.612484465342087e-06 0 0.10499440826289538 4.1686765906112711e-06 0 0.10499900932887636 5.9200446996698067e-07 0 0.10499998253365239 4.0520330982701605e-09 0 0.10480142356220445 7.0377757379898795e-05 0 0.10278157774097151 0.0011070603406264942 0 0.10480142356220445 7.0377757379898795e-05 0 0.10499360522692129 1.2004224854758677e-06 0 0.10499440826289538 4.1686765906112711e-06 0 0.1049877128151793 8.612484465342087e-06 0 0.10498684274644458 1.1374379373855635e-05 0 0.10278157774097151 0.0011070603406264942 0 0.10163605431281453 0.0016018184823717069 0 0.10498684274644458 1.1374379373855635e-05 0 0.10498504266769858 1.5817069417081236e-05 0 0.10499348519182505 5.9310467285686417e-06 0 0.10499440826289538 4.1686765906112711e-06 0 0.10498684274644458 1.1374379373855635e-05 0 0.10499348519182505 5.9310467285686417e-06 0 0.10163605431281453 0.0016018184823717069 0 0.10007899062680131 0.0022797622697359331 0 0.099979759717015282 0.00097363473261212659 0 0.099900013241995864 0.0015858569181556761 0 0.10077552967173899 0.0013911217314809508 0 0.10217893161126079 0.0010240197702417889 0 0.10227492244043285 0.00093435655432076823 0 0.10227523873240868 0.0011173483142284469 0 0.10278157774097151 0.0011070603406264942 0 0.10186636020709111 0.0012602415623446327 0 0.099188116858379555 0.00055810506947872099 0 0.099979759717015282 0.00097363473261212659 0 0.099195321311883355 0.0015621003835009036 0 0.099979759717015282 0.00097363473261212659 0 0.099900013241995864 0.0015858569181556761 0 0.099195321311883355 0.0015621003835009036 0 0.1021587549782067 0.0011462339134476996 0 0.10227523873240868 0.0011173483142284469 0 0.10227608155280611 0.0012987413490566184 0 0.099195321311883355 0.0015621003835009036 0 0.09952910850125872 0.0021052430840238644 0 0.0991933595207109 0.0025869894110582834 0 0.10186636020709111 0.0012602415623446327 0 0.1013182329659842 0.0013047150675520743 0 0.099900013241995864 0.0015858569181556761 0 0.099195321311883355 0.0015621003835009036 0 0.09952910850125872 0.0021052430840238644 0 0.09952910850125872 0.0021052430840238644 0 0.10004456411094134 0.0021896790578923154 0 0.099308804546387838 0.0026100175907795061 0 0.09952910850125872 0.0021052430840238644 0 0.0991933595207109 0.0025869894110582834 0 0.099308804546387838 0.0026100175907795061 0 0.099900013241995864 0.0015858569181556761 0 0.10004456411094134 0.0021896790578923154 0 0.10077552967173899 0.0013911217314809508 0 0.098602098989772666 0.0032357688236878323 0 0.10007899062680131 0.0022797622697359331 0 0.099900013241995864 0.0015858569181556761 0 0.09952910850125872 0.0021052430840238644 0 0.10004456411094134 0.0021896790578923154 0 0.096781675055448546 0.0044360228010688653 0 0.095966615846033887 0.0040914170274748687 0 0.095620622037617523 0.005113244368659977 0 0.096650745334309243 0.0054442414678852703 0 0.096781675055448546 0.0044360228010688653 0 0.095620622037617523 0.005113244368659977 0 0.096650745334309243 0.0054442414678852703 0 0.096781675055448546 0.0044360228010688653 0 0.097777591140507603 0.0043164902113564402 0 0.096781675055448546 0.0044360228010688653 0 0.097166410532096237 0.003499851737397322 0 0.095966615846033887 0.0040914170274748687 0 0.097166410532096237 0.003499851737397322 0 0.09612131454085919 0.0029782272906284245 0 0.095966615846033887 0.0040914170274748687 0 0.097166410532096237 0.003499851737397322 0 0.09612131454085919 0.0029782272906284245 0 0.096972549108108708 0.0023532658864178465 0 0.097763784056317846 0.0030227330607956885 0 0.097576039531499154 0.0033402555349432762 0 0.097422757423320086 0.003013006576952523 0 0.097166410532096237 0.003499851737397322 0 0.097763784056317846 0.0030227330607956885 0 0.096972549108108708 0.0023532658864178465 0 0.097166410532096237 0.003499851737397322 0 0.097763784056317846 0.0030227330607956885 0 0.097576039531499154 0.0033402555349432762 0 0.097166410532096237 0.003499851737397322 0 0.097576039531499154 0.0033402555349432762 0 0.097640167574287437 0.0039228858462870848 0 0.097744001125527641 0.0034081776945643931 0 0.097306241559057732 0.0035755752958522508 0 0.097576039531499154 0.0033402555349432762 0 0.097640167574287437 0.0039228858462870848 0 0.097422757423320086 0.003013006576952523 0 0.096781675055448546 0.0044360228010688653 0 0.097166410532096237 0.003499851737397322 0 0.097640167574287437 0.0039228858462870848 0 0.097520651792025237 0.0034940561005414278 0 0.097744001125527641 0.0034081776945643931 0 0.10004456411094134 0.0021896790578923154 0 0.099291329398107045 0.0030256503423249405 0 0.099308804546387838 0.0026100175907795061 0 0.098602098989772666 0.0032357688236878323 0 0.097744001125527641 0.0034081776945643931 0 0.10130371544968386 0.001343744678444711 0 0.1013182329659842 0.0013047150675520743 0 0.099291329398107045 0.0030256503423249405 0 0.099185812133349982 0.0028084676205119698 0 0.099308804546387838 0.0026100175907795061 0 0.099185812133349982 0.0028084676205119698 0 0.099188706210781435 0.0025867665131721709 0 0.099308804546387838 0.0026100175907795061 0 0.1013182329659842 0.0013047150675520743 0 0.10130333786016613 0.001305381178698778 0 0.097744001125527641 0.0034081776945643931 0 0.097043481092642728 0.0032987488355429632 0 0.10070378538578703 0.001400332136407532 0 0.1013182329659842 0.0013047150675520743 0 0.098008780661642328 0.0023391253725906246 0 0.099185812133349982 0.0028084676205119698 0 0.099182285179808663 0.0025553619525211305 0 0.099291329398107045 0.0030256503423249405 0 0.099185812133349982 0.0028084676205119698 0 0.097752025824895283 0.0032160810549544368 0 0.098008780661642328 0.0023391253725906246 0 0.099185812133349982 0.0028084676205119698 0 0.097752025824895283 0.0032160810549544368 0 0.098008780661642328 0.0023391253725906246 0 0.097042813378892714 0.0027964042659331745 0 0.097752025824895283 0.0032160810549544368 0 0.09627195826427315 0.0033388579177756122 0 0.097042813378892714 0.0027964042659331745 0 0.097752025824895283 0.0032160810549544368 0 0.095752840411300708 0.0036301781390435362 0 0.095964620228956757 0.0032859841058775828 0 0.096340287762228569 0.0033159389015972817 0 0.095964620228956757 0.0032859841058775828 0 0.096364478064723091 0.0029724868993888562 0 0.096340287762228569 0.0033159389015972817 0 0.097042750019757137 0.0028946061601052685 0 0.096364478064723091 0.0029724868993888562 0 0.096700019903206244 0.0032633837351937443 0 0.096364478064723091 0.0029724868993888562 0 0.096340287762228569 0.0033159389015972817 0 0.096700019903206244 0.0032633837351937443 0 0.096340287762228569 0.0033159389015972817 0 0.096700019903206244 0.0032633837351937443 0 0.096427449803614132 0.0035829520797531463 0 0.097306241559057732 0.0035755752958522508 0 0.097118466854740612 0.0036663502770625388 0 0.097763784056317846 0.0030227330607956885 0 0.097422757423320086 0.003013006576952523 0 0.097242766905788119 0.0038141402586403818 0 0.097422757423320086 0.003013006576952523 0 0.097242766905788119 0.0038141402586403818 0 0.096427449803614132 0.0035829520797531463 0 0.095752840411300708 0.0036301781390435362 0 0.096340287762228569 0.0033159389015972817 0 0.096427449803614132 0.0035829520797531463 0 0.095752840411300708 0.0036301781390435362 0 0.096427449803614132 0.0035829520797531463 0 0.095856124889313332 0.0041783263319684905 0 0.096297818348357489 0.0049467675481003146 0 0.095856124889313332 0.0041783263319684905 0 0.096553436197621384 0.0042574690899471121 0 0.096427449803614132 0.0035829520797531463 0 0.095856124889313332 0.0041783263319684905 0 0.096553436197621384 0.0042574690899471121 0 0.097242766905788119 0.0038141402586403818 0 0.096427449803614132 0.0035829520797531463 0 0.096553436197621384 0.0042574690899471121 0 0.097373895007890968 0.0050202234326861455 0 0.097242766905788119 0.0038141402586403818 0 0.096553436197621384 0.0042574690899471121 0 0.097373895007890968 0.0050202234326861455 0 0.097242766905788119 0.0038141402586403818 0 0.098065074534496657 0.0040649920098447126 0 0.092036864236545959 0.003043022271594446 0 0.094289108244120734 0.0030504397266846242 0 0.097755151642236179 0.00036192313196660713 0 0.095975066840312248 0.0011432411149189781 0 0.095901023532254104 -0.00087754545740111728 0 0.0970443198599375 -0.0025145310044568316 0 0.097755151642236179 0.00036192313196660713 0 0.095901023532254104 -0.00087754545740111728 0 0.09612131454085919 0.0029782272906284245 0 0.095975066840312248 0.0011432411149189781 0 0.096972549108108708 0.0023532658864178465 0 0.097755151642236179 0.00036192313196660713 0 0.095975066840312248 0.0011432411149189781 0 0.096972549108108708 0.0023532658864178465 0 0.097763784056317846 0.0030227330607956885 0 0.097242766905788119 0.0038141402586403818 0 0.098065074534496657 0.0040649920098447126 0 0.094956161956781485 0.0031588401377420985 0 0.094289108244120734 0.0030504397266846242 0 0.097763784056317846 0.0030227330607956885 0 0.097755151642236179 0.00036192313196660713 0 0.096972549108108708 0.0023532658864178465 0 0.092215079260806992 0.00091310807062712723 0 0.094393760106164598 0.0019363436451310531 0 0.092657051626103729 0.0033662294878983789 0 0.09612131454085919 0.0029782272906284245 0 0.095975066840312248 0.0011432411149189781 0 0.094393760106164598 0.0019363436451310531 0 0.095975066840312248 0.0011432411149189781 0 0.094393760106164598 0.0019363436451310531 0 0.09406593348047354 -0.00062831179335512551 0 0.095975066840312248 0.0011432411149189781 0 0.095901023532254104 -0.00087754545740111728 0 0.09406593348047354 -0.00062831179335512551 0 0.092215079260806992 0.00091310807062712723 0 0.094393760106164598 0.0019363436451310531 0 0.09406593348047354 -0.00062831179335512551 0 0.092215079260806992 0.00091310807062712723 0 0.09406593348047354 -0.00062831179335512551 0 0.090698173360650544 -0.0013361328499300461 0 0.092215079260806992 0.00091310807062712723 0 0.090698173360650544 -0.0013361328499300461 0 0.088163420381605684 0.0010968606854998041 0 0.081508102968725293 -0.00072538110731475819 0 0.088163420381605684 0.0010968606854998041 0 0.080990741067909211 -0.00011544859550780412 0 0.08810943313903366 -0.0030950478223850438 0 0.090698173360650544 -0.0013361328499300461 0 0.088163420381605684 0.0010968606854998041 0 0.081213811424613813 -0.00049812650264806596 0 0.083001771414665582 0.00130466124716347 0 0.088163420381605684 0.0010968606854998041 0 0.089977482046902785 0.0031811356042295296 0 0.085731349505292653 0.0017905443862357557 0 0.088163420381605684 0.0010968606854998041 0 0.085731349505292653 0.0017905443862357557 0 0.080990741067909211 -0.00011544859550780412 0 0.088163420381605684 0.0010968606854998041 0 0.092657051626103729 0.0033662294878983789 0 0.089977482046902785 0.0031811356042295296 0 0.092215079260806992 0.00091310807062712723 0 0.088163420381605684 0.0010968606854998041 0 0.092657051626103729 0.0033662294878983789 0 0.092657051626103729 0.0033662294878983789 0 0.089977482046902785 0.0031811356042295296 0 0.092587670574612438 0.004947581421203111 0 0.089977482046902785 0.0031811356042295296 0 0.090034415898625805 0.0042735897370030206 0 0.092587670574612438 0.004947581421203111 0 0.089977482046902785 0.0031811356042295296 0 0.090034415898625805 0.0042735897370030206 0 0.085731349505292653 0.0017905443862357557 0 0.092634365484228348 0.0056614752121577376 0 0.092587670574612438 0.004947581421203111 0 0.094517374923494699 0.0057538693919784922 0 0.090034415898625805 0.0042735897370030206 0 0.092634365484228348 0.0056614752121577376 0 0.092587670574612438 0.004947581421203111 0 0.090034415898625805 0.0042735897370030206 0 0.092634365484228348 0.0056614752121577376 0 0.09051293229726505 0.0052517490122897499 0 0.092657051626103729 0.0033662294878983789 0 0.092587670574612438 0.004947581421203111 0 0.094324944613025374 0.0054555058934378977 0 0.092587670574612438 0.004947581421203111 0 0.094324944613025374 0.0054555058934378977 0 0.094517374923494699 0.0057538693919784922 0 0.094324944613025374 0.0054555058934378977 0 0.094958730810314029 0.004112082870550691 0 0.095620622037617523 0.005113244368659977 0 0.092657051626103729 0.0033662294878983789 0 0.094324944613025374 0.0054555058934378977 0 0.094958730810314029 0.004112082870550691 0 0.094393760106164598 0.0019363436451310531 0 0.092657051626103729 0.0033662294878983789 0 0.094958730810314029 0.004112082870550691 0 0.09612131454085919 0.0029782272906284245 0 0.094393760106164598 0.0019363436451310531 0 0.094958730810314029 0.004112082870550691 0 0.09612131454085919 0.0029782272906284245 0 0.094958730810314029 0.004112082870550691 0 0.095966615846033887 0.0040914170274748687 0 0.094958730810314029 0.004112082870550691 0 0.095966615846033887 0.0040914170274748687 0 0.095620622037617523 0.005113244368659977 0 0.096650745334309243 0.0054442414678852703 0 0.095620622037617523 0.005113244368659977 0 0.09579071863862898 0.0061637496720915088 0 0.095620622037617523 0.005113244368659977 0 0.09509397063125806 0.0056658237402005965 0 0.09579071863862898 0.0061637496720915088 0 0.094324944613025374 0.0054555058934378977 0 0.095620622037617523 0.005113244368659977 0 0.09509397063125806 0.0056658237402005965 0 0.094324944613025374 0.0054555058934378977 0 0.09509397063125806 0.0056658237402005965 0 0.096720222366392272 0.0053002575843227829 0 0.09509397063125806 0.0056658237402005965 0 0.096225707238392605 0.0029124880799020502 0 0.096720222366392272 0.0053002575843227829 0 0.09509397063125806 0.0056658237402005965 0 0.093741394950054749 0.0048220550440100695 0 0.096225707238392605 0.0029124880799020502 0 0.10007899062680131 0.0022797622697359331 0 0.1015808187326986 0.0018374734586304869 0 0.098608463114056383 0.0023520166106128747 0 0.10007899062680131 0.0022797622697359331 0 0.10498504266769858 1.5817069417081236e-05 0 0.10499348519182505 5.9310467285686417e-06 0 0.10499471439617354 6.9684459867351676e-06 0 0.10499471439617354 6.9684459867351676e-06 0 0.10499999210161344 4.8640101159488997e-09 0 0.1050000003505108 -2.6368033570006658e-09 0 0.10499348519182505 5.9310467285686417e-06 0 0.10499471439617354 6.9684459867351676e-06 0 0.10499999210161344 4.8640101159488997e-09 0 0.10499999274569254 3.0518517447776267e-09 0 0.10499348519182505 5.9310467285686417e-06 0 0.10499999210161344 4.8640101159488997e-09 0 0.10330766476883983 0.0011248238359819003 0 0.10498134713103363 -7.6516710607127803e-07 0 0.1011870669523237 0.0024928496683105537 0 0.10330766476883983 0.0011248238359819003 0 0.10498134713103363 -7.6516710607127803e-07 0 0.10500598707211922 1.6431949305511307e-06 0 0.10498134713103363 -7.6516710607127803e-07 0 0.099594258706410532 0.0031050868488981223 0 0.1011870669523237 0.0024928496683105537 0 0.096225707238392605 0.0029124880799020502 0 0.10498134713103363 -7.6516710607127803e-07 0 0.099594258706410532 0.0031050868488981223 0 0.1015808187326986 0.0018374734586304869 0 0.10499517138716065 1.6692558679666483e-06 0 0.096225707238392605 0.0029124880799020502 0 0.099594258706410532 0.0031050868488981223 0 0.096720222366392272 0.0053002575843227829 0 0.099594258706410532 0.0031050868488981223 0 0.099298466711511532 0.0039508570461214056 0 0.1011870669523237 0.0024928496683105537 0 0.10330766476883983 0.0011248238359819003 0 0.1011870669523237 0.0024928496683105537 0 0.10257709857647453 0.0025786295571953882 0 0.099298466711511532 0.0039508570461214056 0 0.1011870669523237 0.0024928496683105537 0 0.10257709857647453 0.0025786295571953882 0 0.099298466711511532 0.0039508570461214056 0 0.096979267696600965 0.0052127410219088592 0 0.096720222366392272 0.0053002575843227829 0 0.099298466711511532 0.0039508570461214056 0 0.096979267696600965 0.0052127410219088592 0 0.10257709857647453 0.0025786295571953882 0 0.099594258706410532 0.0031050868488981223 0 0.099298466711511532 0.0039508570461214056 0 0.096720222366392272 0.0053002575843227829 0 0.094324944613025374 0.0054555058934378977 0 0.096720222366392272 0.0053002575843227829 0 0.094517374923494699 0.0057538693919784922 0 0.096979267696600965 0.0052127410219088592 0 0.096720222366392272 0.0053002575843227829 0 0.094517374923494699 0.0057538693919784922 0 0.096979267696600965 0.0052127410219088592 0 0.094517374923494699 0.0057538693919784922 0 0.094322542799664025 0.006001195343886232 0 0.092634365484228348 0.0056614752121577376 0 0.094517374923494699 0.0057538693919784922 0 0.094322542799664025 0.006001195343886232 0 0.094322542799664025 0.006001195343886232 0 0.092943320704982985 0.0065700194184582584 0 0.094894532887555741 0.0062106803933935995 0 0.092634365484228348 0.0056614752121577376 0 0.094322542799664025 0.006001195343886232 0 0.092943320704982985 0.0065700194184582584 0 0.09009373774527793 0.0077113266428398041 0 0.087517682791308476 0.0053096007120661485 0 0.089704394030239512 0.0061647363661924857 0 0.092943320704982985 0.0065700194184582584 0 0.090587317889791685 0.0069228987120210639 0 0.089704394030239512 0.0061647363661924857 0 0.090587317889791685 0.0069228987120210639 0 0.09009373774527793 0.0077113266428398041 0 0.089704394030239512 0.0061647363661924857 0 0.099264946161217144 0.0042114585780322405 0 0.099489696658804319 0.0040747212545082572 0 0.090587317889791685 0.0069228987120210639 0 0.090347490354938581 0.0076573911210279745 0 0.09009373774527793 0.0077113266428398041 0 0.092943320704982985 0.0065700194184582584 0 0.090587317889791685 0.0069228987120210639 0 0.090347490354938581 0.0076573911210279745 0 0.096979267696600965 0.0052127410219088592 0 0.094322542799664025 0.006001195343886232 0 0.094894532887555741 0.0062106803933935995 0 0.09009373774527793 0.0077113266428398041 0 0.088976970118532284 0.0066494297002029244 0 0.088984078202374736 0.0082577310523549181 0 0.099489696658804319 0.0040747212545082572 0 0.098143306261688754 0.0036419894868439935 0 0.09009373774527793 0.0077113266428398041 0 0.088976970118532284 0.0066494297002029244 0 0.089497441069604389 0.0037285917254113532 0 0.090347490354938581 0.0076573911210279745 0 0.09009373774527793 0.0077113266428398041 0 0.088984078202374736 0.0082577310523549181 0 0.10488595544536171 0.00021144905365355615 0 0.10497209980151034 0.00013774040460101086 0 0.10492360574574615 7.4887376110661078e-05 0 0.099489696658804319 0.0040747212545082572 0 0.10241766370650199 0.0010716721628337552 0 0.10241293143533228 0.0030733720606894084 0 0.10326605461618982 0.0021280885875363067 0 0.096979267696600965 0.0052127410219088592 0 0.094894532887555741 0.0062106803933935995 0 0.10078864396914489 0.0034540307131689912 0 0.10078864396914489 0.0034540307131689912 0 0.10042160198722004 0.0025062657769026504 0 0.10500430148366205 -1.149032826933579e-06 0 0.096979267696600965 0.0052127410219088592 0 0.10078864396914489 0.0034540307131689912 0 0.10042160198722004 0.0025062657769026504 0 0.10492360574574615 7.4887376110661078e-05 0 0.10498389564548324 4.404354847827299e-05 0 0.10499989218898544 -1.0312295227597839e-08 0 0.10497209980151034 0.00013774040460101086 0 0.10492360574574615 7.4887376110661078e-05 0 0.10498389564548324 4.404354847827299e-05 0 0.10498389564548324 4.404354847827299e-05 0 0.1050000054674196 2.7409790385524906e-08 0 0.10499989218898544 -1.0312295227597839e-08 0 0.10326605461618982 0.0021280885875363067 0 0.10499595441481201 2.9610443450710698e-06 0 0.10042160198722004 0.0025062657769026504 0 0.10500430148366205 -1.149032826933579e-06 0 0.10499221252977153 1.5909953825212694e-06 0 0.10241766370650199 0.0010716721628337552 0 0.10499558152983531 9.9883722634287183e-08 0 0.10330766476883983 0.0011248238359819003 0 0.10257709857647453 0.0025786295571953882 0 0.10500598707211922 1.6431949305511307e-06 0 0.10346689852985 -2.9519362483559041e-05 0 0.10499828471158713 1.8692005058920875e-06 0 0.10368908377243123 -0.0012315090913437908 0 0.10346689852985 -2.9519362483559041e-05 0 0.1049967043545629 6.3539960989790124e-07 0 0.10135418960266494 -3.1326093086229201e-06 0 0.10499112273880008 5.9455356910648201e-07 0 0.09915612995649567 0.0015774406906819212 0 0.10346689852985 -2.9519362483559041e-05 0 0.1049967043545629 6.3539960989790124e-07 0 0.10499828471158713 1.8692005058920875e-06 0 0.1050000397590545 -3.0280785884211065e-09 0 0.10500001646472255 2.6981956755970891e-05 0 0.10502279657827994 7.511955775153884e-05 0 0.10498389564548324 4.404354847827299e-05 0 0.1050000054674196 2.7409790385524906e-08 0 0.10500001646472255 2.6981956755970891e-05 0 0.1050000054674196 2.7409790385524906e-08 0 0.1050000397590545 -3.0280785884211065e-09 0 0.10500001646472255 2.6981956755970891e-05 0 0.10497209980151034 0.00013774040460101086 0 0.10498389564548324 4.404354847827299e-05 0 0.10502279657827994 7.511955775153884e-05 0 0.10498389564548324 4.404354847827299e-05 0 0.10500001646472255 2.6981956755970891e-05 0 0.10502279657827994 7.511955775153884e-05 0 0.096444569773922031 -0.0003803106230394658 0 0.10133971915796734 -2.6596246908452312e-06 0 0.096526556997319296 9.2046663022455626e-07 0 0.10346689852985 -2.9519362483559041e-05 0 0.10368908377243123 -0.0012315090913437908 0 0.10135418960266494 -3.1326093086229201e-06 0 0.09915612995649567 0.0015774406906819212 0 0.1013427394384511 1.9980582848457898e-06 0 0.096444569773922031 -0.0003803106230394658 0 0.096526556997319296 9.2046663022455626e-07 0 0.092369023244822268 0.00026458348032706982 0 0.098143306261688754 0.0036419894868439935 0 0.09915612995649567 0.0015774406906819212 0 0.09915612995649567 0.0015774406906819212 0 0.094282895004237838 0.0037414829188608428 0 0.088984078202374736 0.0082577310523549181 0 0.086788618731527448 0.0098742497133955231 0 0.086856276996879381 0.006433639208908791 0 0.088976970118532284 0.0066494297002029244 0 0.086856276996879381 0.006433639208908791 0 0.089497441069604389 0.0037285917254113532 0 0.088976970118532284 0.0066494297002029244 0 0.088984078202374736 0.0082577310523549181 0 0.086856276996879381 0.006433639208908791 0 0.096526556997319296 9.2046663022455626e-07 0 0.092369023244822268 0.00026458348032706982 0 0.091708012311583112 6.4032819608165168e-07 0 0.092369023244822268 0.00026458348032706982 0 0.090131047466817993 0.00041422660740400178 0 0.088095936363793384 0.00083330209208652033 0 0.091708012311583112 6.4032819608165168e-07 0 0.090131047466817993 0.00041422660740400178 0 0.088475082984003986 0.00044880090155328619 0 0.092369023244822268 0.00026458348032706982 0 0.091708012311583112 6.4032819608165168e-07 0 0.090131047466817993 0.00041422660740400178 0 0.091708012311583112 6.4032819608165168e-07 0 0.086887936878735444 1.5650715785542233e-06 0 0.088475082984003986 0.00044880090155328619 0 0.086887936878735444 1.5650715785542233e-06 0 0.088475082984003986 0.00044880090155328619 0 0.087888216820501977 -5.9644805135216595e-05 0 0.090131047466817993 0.00041422660740400178 0 0.088475082984003986 0.00044880090155328619 0 0.088095936363793384 0.00083330209208652033 0 0.088475082984003986 0.00044880090155328619 0 0.087888216820501977 -5.9644805135216595e-05 0 0.088095936363793384 0.00083330209208652033 0 0.081469300600754066 0.0016937101540540195 0 0.079260229879260888 0.001155989932590079 0 0.08297535821823103 0.0050792322216003504 0 0.083982045938655062 0.001782481603682103 0 0.085625398675601969 0.003491017041311805 0 0.087888216820501977 -5.9644805135216595e-05 0 0.088095936363793384 0.00083330209208652033 0 0.089497441069604389 0.0037285917254113532 0 0.081469300600754066 0.0016937101540540195 0 0.079260229879260888 0.001155989932590079 0 0.079990923091024152 0.00084145903003639418 0 0.094282895004237838 0.0037414829188608428 0 0.092795800869732756 0.0032254323515644111 0 0.086856276996879381 0.006433639208908791 0 0.088095936363793384 0.00083330209208652033 0 0.089497441069604389 0.0037285917254113532 0 0.086825217843992955 0.0047473444258251665 0 0.085625398675601969 0.003491017041311805 0 0.09009373774527793 0.0077113266428398041 0 0.087517682791308476 0.0053096007120661485 0 0.08297535821823103 0.0050792322216003504 0 0.087517682791308476 0.0053096007120661485 0 0.08297535821823103 0.0050792322216003504 0 0.084105524657863751 0.0031577192713956657 0 0.092943320704982985 0.0065700194184582584 0 0.09051293229726505 0.0052517490122897499 0 0.089704394030239512 0.0061647363661924857 0 0.092634365484228348 0.0056614752121577376 0 0.092943320704982985 0.0065700194184582584 0 0.09051293229726505 0.0052517490122897499 0 0.087517682791308476 0.0053096007120661485 0 0.09051293229726505 0.0052517490122897499 0 0.089704394030239512 0.0061647363661924857 0 0.087517682791308476 0.0053096007120661485 0 0.09051293229726505 0.0052517490122897499 0 0.086542503870472742 0.0033125378558706382 0 0.090034415898625805 0.0042735897370030206 0 0.09051293229726505 0.0052517490122897499 0 0.086542503870472742 0.0033125378558706382 0 0.086542503870472742 0.0033125378558706382 0 0.082819366336956468 0.0014983806057209494 0 0.085731349505292653 0.0017905443862357557 0 0.090034415898625805 0.0042735897370030206 0 0.086542503870472742 0.0033125378558706382 0 0.085731349505292653 0.0017905443862357557 0 0.081469300600754066 0.0016937101540540195 0 0.08297535821823103 0.0050792322216003504 0 0.084105524657863751 0.0031577192713956657 0 0.087517682791308476 0.0053096007120661485 0 0.086542503870472742 0.0033125378558706382 0 0.084105524657863751 0.0031577192713956657 0 0.086542503870472742 0.0033125378558706382 0 0.084105524657863751 0.0031577192713956657 0 0.082819366336956468 0.0014983806057209494 0 0.081469300600754066 0.0016937101540540195 0 0.084105524657863751 0.0031577192713956657 0 0.082819366336956468 0.0014983806057209494 0 0.081469300600754066 0.0016937101540540195 0 0.082819366336956468 0.0014983806057209494 0 0.07982801283978061 0.00047245040605207783 0 0.082819366336956468 0.0014983806057209494 0 0.081259705983627681 0.0005312997671815732 0 0.07982801283978061 0.00047245040605207783 0 0.082819366336956468 0.0014983806057209494 0 0.085731349505292653 0.0017905443862357557 0 0.081259705983627681 0.0005312997671815732 0 0.085731349505292653 0.0017905443862357557 0 0.080990741067909211 -0.00011544859550780412 0 0.081259705983627681 0.0005312997671815732 0 0.080990741067909211 -0.00011544859550780412 0 0.081259705983627681 0.0005312997671815732 0 0.078360889145241988 -3.5111011661040951e-05 0 0.081259705983627681 0.0005312997671815732 0 0.078360889145241988 -3.5111011661040951e-05 0 0.07982801283978061 0.00047245040605207783 0 0.078360889145241988 -3.5111011661040951e-05 0 0.078384887937781436 0.00023946527134859847 0 0.07982801283978061 0.00047245040605207783 0 0.078384887937781436 0.00023946527134859847 0 0.07982801283978061 0.00047245040605207783 0 0.079622914007010187 0.00041819353947330525 0 0.07601407353225012 4.449791397237318e-07 0 0.078384887937781436 0.00023946527134859847 0 0.082057861740727087 -4.3680993163287704e-07 0 0.078384887937781436 0.00023946527134859847 0 0.082057861740727087 -4.3680993163287704e-07 0 0.079622914007010187 0.00041819353947330525 0 0.083982045938655062 0.001782481603682103 0 0.082072507412142309 2.661078317707584e-06 0 0.079260229879260888 0.001155989932590079 0 0.082057861740727087 -4.3680993163287704e-07 0 0.079622914007010187 0.00041819353947330525 0 0.086887936878735444 1.5650715785542233e-06 0 0.087888216820501977 -5.9644805135216595e-05 0 0.082075158101540216 -2.2815214341246347e-06 0 0.079260229879260888 0.001155989932590079 0 0.079990923091024152 0.00084145903003639418 0 0.079622914007010187 0.00041819353947330525 0 0.081469300600754066 0.0016937101540540195 0 0.079990923091024152 0.00084145903003639418 0 0.07982801283978061 0.00047245040605207783 0 0.079990923091024152 0.00084145903003639418 0 0.07982801283978061 0.00047245040605207783 0 0.079622914007010187 0.00041819353947330525 0 0.1013119023866408 0.002124631334494365 0 0.099744961641402327 0.0021999886599508357 0 0.10120036835759284 0.0029663842268998356 0 0.10120193462566643 0.0030158175984850264 0 0.10102172945363587 0.003346377742797843 0 0.10120193462566643 0.0030158175984850264 0 0.10102172945363587 0.003346377742797843 0 0.10122371901559313 0.003149539875666765 0 0.10380372155614974 0.0020528354635227087 0 0.10328304563857786 0.0022191228144891576 0 0.10356891451184809 0.00264308574836604 0 0.10328304563857786 0.0022191228144891576 0 0.10328925220851881 0.0016774800593120126 0 0.10276761605067265 0.0021139635276490056 0 0.10356891451184809 0.00264308574836604 0 0.10304796811721541 0.0026843664356759477 0 0.1032050273453313 0.002972073508290918 0 0.10328304563857786 0.0022191228144891576 0 0.10298058676011941 0.0023826063962554371 0 0.10304796811721541 0.0026843664356759477 0 0.10328304563857786 0.0022191228144891576 0 0.10356891451184809 0.00264308574836604 0 0.10304796811721541 0.0026843664356759477 0 0.10102172945363587 0.003346377742797843 0 0.10127178121089106 0.0032356133863930686 0 0.10122371901559313 0.003149539875666765 0 0.10102172945363587 0.003346377742797843 0 0.10127178121089106 0.0032356133863930686 0 0.10121722268368324 0.0034682903869331758 0 0.10127178121089106 0.0032356133863930686 0 0.10152715273457787 0.003131680171477249 0 0.10121722268368324 0.0034682903869331758 0 0.10079856846090013 0.0020609456850501076 0 0.099562789744980271 0.0016941738406845101 0 0.10215804882565903 0.0024406830854980127 0 0.10210708508187739 0.0022893898863595693 0 0.10218635860842712 0.0022782703896438218 0 0.10215804882565903 0.0024406830854980127 0 0.10210708508187739 0.0022893898863595693 0 0.10203967922646662 0.0023642792627937737 0 0.10215804882565903 0.0024406830854980127 0 0.10203967922646662 0.0023642792627937737 0 0.10186709874981946 0.0027569608483466552 0 0.10079856846090013 0.0020609456850501076 0 0.10111214658293895 0.002188843209084519 0 0.10152715273457787 0.003131680171477249 0 0.10137074372986639 0.0029524387255629374 0 0.10153228931348619 0.0028095119382185577 0 0.10120193462566643 0.0030158175984850264 0 0.10122371901559313 0.003149539875666765 0 0.10128285176203795 0.0030521110980387569 0 0.10127178121089106 0.0032356133863930686 0 0.1013352664461297 0.0031032712810458501 0 0.10122371901559313 0.003149539875666765 0 0.1013352664461297 0.0031032712810458501 0 0.10122371901559313 0.003149539875666765 0 0.10128285176203795 0.0030521110980387569 0 0.10127178121089106 0.0032356133863930686 0 0.10152715273457787 0.003131680171477249 0 0.1013352664461297 0.0031032712810458501 0 0.10152715273457787 0.003131680171477249 0 0.1013352664461297 0.0031032712810458501 0 0.10137074372986639 0.0029524387255629374 0 0.1013352664461297 0.0031032712810458501 0 0.10137074372986639 0.0029524387255629374 0 0.10128285176203795 0.0030521110980387569 0 0.10120193462566643 0.0030158175984850264 0 0.10137074372986639 0.0029524387255629374 0 0.10128285176203795 0.0030521110980387569 0 0.10137074372986639 0.0029524387255629374 0 0.10153228931348619 0.0028095119382185577 0 0.10136003363332528 0.0026329508695048655 0 0.10120193462566643 0.0030158175984850264 0 0.10137074372986639 0.0029524387255629374 0 0.10136003363332528 0.0026329508695048655 0 0.10120036835759284 0.0029663842268998356 0 0.10120193462566643 0.0030158175984850264 0 0.1013920225105262 0.0025580839751888759 0 0.1017864041966258 0.0026737269958513679 0 0.10216506754169073 0.0020366010054060761 0 0.1013119023866408 0.002124631334494365 0 0.10216506754169073 0.0020366010054060761 0 0.10152715273457787 0.003131680171477249 0 0.10153228931348619 0.0028095119382185577 0 0.10186709874981946 0.0027569608483466552 0 0.10153228931348619 0.0028095119382185577 0 0.101600071792926 0.0026149920041126135 0 0.10186709874981946 0.0027569608483466552 0 0.10153228931348619 0.0028095119382185577 0 0.101600071792926 0.0026149920041126135 0 0.10136003363332528 0.0026329508695048655 0 0.101600071792926 0.0026149920041126135 0 0.10179913024335034 0.0026316992575311469 0 0.1016325885521068 0.0024229060978507699 0 0.101600071792926 0.0026149920041126135 0 0.10136003363332528 0.0026329508695048655 0 0.10140032225998537 0.0024313213898989948 0 0.10216506754169073 0.0020366010054060761 0 0.10302495692453749 0.0012233433242481572 0 0.10402345129074324 0.0014838901465792091 0 0.10378107657912211 0.0012439037824676755 0 0.10414770393148462 0.0011175066257969003 0 0.10378107657912211 0.0012439037824676755 0 0.10369829843202458 0.0016494122947220259 0 0.10328925220851881 0.0016774800593120126 0 0.10402345129074324 0.0014838901465792091 0 0.10378107657912211 0.0012439037824676755 0 0.10369829843202458 0.0016494122947220259 0 0.10396745441035336 0.00054745079710914442 0 0.10388398209599403 0.0007293193853155377 0 0.10380372155614974 0.0020528354635227087 0 0.10369829843202458 0.0016494122947220259 0 0.10328925220851881 0.0016774800593120126 0 0.10380372155614974 0.0020528354635227087 0 0.10402345129074324 0.0014838901465792091 0 0.10369829843202458 0.0016494122947220259 0 0.10380372155614974 0.0020528354635227087 0 0.10328304563857786 0.0022191228144891576 0 0.10328925220851881 0.0016774800593120126 0 0.10467356044951645 -1.5052951871694526e-05 0 0.10475444973017403 -7.079212826035604e-05 0 0.10475207640313165 -5.23827797802361e-06 0 0.10475444973017403 -7.079212826035604e-05 0 0.10480191859076035 -3.6150183789447641e-05 0 0.10475207640313165 -5.23827797802361e-06 0 0.1047815340463253 -5.9227538594353206e-05 0 0.10478611772428763 -6.307517690805006e-05 0 0.10476703145723028 -3.3578907554169114e-05 0 0.10353515913051843 -0.0013796224077765747 0 0.1034977186767387 -0.0012499889320603736 0 0.10366166194269759 -0.0012572200320105518 0 0.1034977186767387 -0.0012499889320603736 0 0.10291013787995452 -0.0011257245408215898 0 0.10407363097775549 -0.0012959450514648872 0 0.10291013787995452 -0.0011257245408215898 0 0.10147233588032339 -0.0015911432843331143 0 0.1016261401725274 -0.0028353820079266637 0 0.10291013787995452 -0.0011257245408215898 0 0.10172704733417447 -0.0029518974638109863 0 0.1016261401725274 -0.0028353820079266637 0 0.10316009615848638 -0.0014433480521846124 0 0.10307045864147231 -0.0017648387349572092 0 0.1034977186767387 -0.0012499889320603736 0 0.10370087295446045 -0.0012446178400655594 0 0.10366166194269759 -0.0012572200320105518 0 0.1034977186767387 -0.0012499889320603736 0 0.10376946590056782 -0.0012525550478654853 0 0.10370087295446045 -0.0012446178400655594 0 0.10353515913051843 -0.0013796224077765747 0 0.1034977186767387 -0.0012499889320603736 0 0.10291013787995452 -0.0011257245408215898 0 0.10291013787995452 -0.0011257245408215898 0 0.10147233588032339 -0.0015911432843331143 0 0.10179092423599928 -6.5071340718072016e-05 0 0.10291013787995452 -0.0011257245408215898 0 0.10293245171839276 -0.00043379899542290567 0 0.10179092423599928 -6.5071340718072016e-05 0 0.10475444973017403 -7.079212826035604e-05 0 0.10479158693626778 -9.6361860832568322e-05 0 0.10480224670643203 -0.00010768834553262655 0 0.10478611772428763 -6.307517690805006e-05 0 0.10479158693626778 -9.6361860832568322e-05 0 0.10480224670643203 -0.00010768834553262655 0 0.10451980292815594 -0.00014176692411425597 0 0.10457012242649964 -0.00010968867847315432 0 0.10388398209599403 0.0007293193853155377 0 0.10361641920289019 0.00095086751297008578 0 0.10475444973017403 -7.079212826035604e-05 0 0.10480191859076035 -3.6150183789447641e-05 0 0.10479158693626778 -9.6361860832568322e-05 0 0.10407231536517453 -0.00029689111186370756 0 0.10361641920289019 0.00095086751297008578 0 0.10353515913051843 -0.0013796224077765747 0 0.10293245171839276 -0.00043379899542290567 0 0.10327585711053079 9.0706685491720023e-06 0 0.10353515913051843 -0.0013796224077765747 0 0.10291013787995452 -0.0011257245408215898 0 0.10293245171839276 -0.00043379899542290567 0 0.1047815340463253 -5.9227538594353206e-05 0 0.10478611772428763 -6.307517690805006e-05 0 0.10479158693626778 -9.6361860832568322e-05 0 0.10128460651825212 -0.0021422260334482868 0 0.10131042105987342 -0.0027130090370122723 0 0.10092712887307055 -0.0025146918803787125 0 0.099625033999763676 -0.0022452134380281318 0 0.10031531678095587 -0.0026430738467555586 0 0.10147233588032339 -0.0015911432843331143 0 0.10006338750384808 -0.0012999467161305355 0 0.1016261401725274 -0.0028353820079266637 0 0.10128460651825212 -0.0021422260334482868 0 0.10131042105987342 -0.0027130090370122723 0 0.1016261401725274 -0.0028353820079266637 0 0.10147233588032339 -0.0015911432843331143 0 0.10006338750384808 -0.0012999467161305355 0 0.10041960500008669 -0.00011513822217113542 0 0.10147233588032339 -0.0015911432843331143 0 0.10041960500008669 -0.00011513822217113542 0 0.10179092423599928 -6.5071340718072016e-05 0 0.10006338750384808 -0.0012999467161305355 0 0.10041960500008669 -0.00011513822217113542 0 0.098526527474712924 0.00035822195318930498 0 0.099625033999763676 -0.0022452134380281318 0 0.097965853409245976 -0.0018272531560568498 0 0.10041960500008669 -0.00011513822217113542 0 0.10073725313173655 0.0011314658470696574 0 0.098526527474712924 0.00035822195318930498 0 0.10041960500008669 -0.00011513822217113542 0 0.10073725313173655 0.0011314658470696574 0 0.10179092423599928 -6.5071340718072016e-05 0 0.10073725313173655 0.0011314658470696574 0 0.10179092423599928 -6.5071340718072016e-05 0 0.10201352359080219 0.00087770524738338418 0 0.10073725313173655 0.0011314658470696574 0 0.10188220422679638 0.0018746051538136657 0 0.1009900607943814 0.0025422538229110132 0 0.10073725313173655 0.0011314658470696574 0 0.099399520854365861 0.0022041577389242226 0 0.1009900607943814 0.0025422538229110132 0 0.10073725313173655 0.0011314658470696574 0 0.10201352359080219 0.00087770524738338418 0 0.10188220422679638 0.0018746051538136657 0 0.10073725313173655 0.0011314658470696574 0 0.099399520854365861 0.0022041577389242226 0 0.098526527474712924 0.00035822195318930498 0 0.10328304563857786 0.0022191228144891576 0 0.10298058676011941 0.0023826063962554371 0 0.10276761605067265 0.0021139635276490056 0 0.103296262979801 3.611529465936781e-05 0 0.10310576438251698 0.00019100198443180696 0 0.10285750502475299 0.0019148183851358191 0 0.10293245171839276 -0.00043379899542290567 0 0.10327585711053079 9.0706685491720023e-06 0 0.10310576438251698 0.00019100198443180696 0 0.10361641920289019 0.00095086751297008578 0 0.10361572386022218 0.00094729614756400163 0 0.10293245171839276 -0.00043379899542290567 0 0.10250975273773769 0.00025880979423723483 0 0.10179092423599928 -6.5071340718072016e-05 0 0.10293245171839276 -0.00043379899542290567 0 0.10310576438251698 0.00019100198443180696 0 0.10250975273773769 0.00025880979423723483 0 0.10250975273773769 0.00025880979423723483 0 0.10179092423599928 -6.5071340718072016e-05 0 0.10201352359080219 0.00087770524738338418 0 0.10310576438251698 0.00019100198443180696 0 0.10250975273773769 0.00025880979423723483 0 0.10255287175905489 0.00066895621091948832 0 0.10310576438251698 0.00019100198443180696 0 0.10255287175905489 0.00066895621091948832 0 0.10253005791985846 0.0012319034489017854 0 0.10250975273773769 0.00025880979423723483 0 0.10255287175905489 0.00066895621091948832 0 0.10201352359080219 0.00087770524738338418 0 0.10310576438251698 0.00019100198443180696 0 0.10253005791985846 0.0012319034489017854 0 0.10285750502475299 0.0019148183851358191 0 0.10255287175905489 0.00066895621091948832 0 0.10253005791985846 0.0012319034489017854 0 0.10201352359080219 0.00087770524738338418 0 0.10253005791985846 0.0012319034489017854 0 0.10201352359080219 0.00087770524738338418 0 0.10188220422679638 0.0018746051538136657 0 0.10253005791985846 0.0012319034489017854 0 0.10188220422679638 0.0018746051538136657 0 0.10285750502475299 0.0019148183851358191 0 0.10361641920289019 0.00095086751297008578 0 0.10316021929718643 0.0021700827277641192 0 0.10298058676011941 0.0023826063962554371 0 0.10276761605067265 0.0021139635276490056 0 0.10261116885863314 0.0027888804579009408 0 0.10298058676011941 0.0023826063962554371 0 0.10261116885863314 0.0027888804579009408 0 0.10304796811721541 0.0026843664356759477 0 0.10261116885863314 0.0027888804579009408 0 0.10304796811721541 0.0026843664356759477 0 0.10294942893801853 0.0032309019322108814 0 0.10304796811721541 0.0026843664356759477 0 0.10294942893801853 0.0032309019322108814 0 0.10341982833585182 0.0031823863182325503 0 0.10261116885863314 0.0027888804579009408 0 0.10294942893801853 0.0032309019322108814 0 0.10241176643445571 0.0037830272372308569 0 0.10294942893801853 0.0032309019322108814 0 0.10298888050772985 0.0037135757411149166 0 0.10330102390718764 0.0035499149213050122 0 0.10285750502475299 0.0019148183851358191 0 0.10193117942647546 0.0028466144387813124 0 0.10241176643445571 0.0037830272372308569 0 0.10316021929718643 0.0021700827277641192 0 0.10297780198252084 0.0028197858130455081 0 0.10193117942647546 0.0028466144387813124 0 0.10152491736021184 0.0040056228715480034 0 0.1009900607943814 0.0025422538229110132 0 0.10188220422679638 0.0018746051538136657 0 0.10285750502475299 0.0019148183851358191 0 0.10193117942647546 0.0028466144387813124 0 0.10188220422679638 0.0018746051538136657 0 0.10193117942647546 0.0028466144387813124 0 0.1009900607943814 0.0025422538229110132 0 0.10152491736021184 0.0040056228715480034 0 0.10053595865865884 0.0043442666856095971 0 0.10212330166618455 0.0046272139929881568 0 0.10193117942647546 0.0028466144387813124 0 0.10241176643445571 0.0037830272372308569 0 0.10152491736021184 0.0040056228715480034 0 0.10152491736021184 0.0040056228715480034 0 0.10226578096142216 0.0041853206044131022 0 0.10212330166618455 0.0046272139929881568 0 0.10241176643445571 0.0037830272372308569 0 0.10152491736021184 0.0040056228715480034 0 0.10226578096142216 0.0041853206044131022 0 0.10226578096142216 0.0041853206044131022 0 0.10283498128165992 0.0042798191267086009 0 0.10212330166618455 0.0046272139929881568 0 0.10241176643445571 0.0037830272372308569 0 0.10226578096142216 0.0041853206044131022 0 0.10283498128165992 0.0042798191267086009 0 0.10241176643445571 0.0037830272372308569 0 0.10283498128165992 0.0042798191267086009 0 0.10298888050772985 0.0037135757411149166 0 0.10283498128165992 0.0042798191267086009 0 0.10322310763322597 0.0040360174619160725 0 0.10298888050772985 0.0037135757411149166 0 0.10283498128165992 0.0042798191267086009 0 0.10322310763322597 0.0040360174619160725 0 0.10315066232482378 0.0044073247245483759 0 0.10322310763322597 0.0040360174619160725 0 0.10298888050772985 0.0037135757411149166 0 0.10330102390718764 0.0035499149213050122 0 0.10294942893801853 0.0032309019322108814 0 0.10241176643445571 0.0037830272372308569 0 0.10298888050772985 0.0037135757411149166 0 0.099399520854365861 0.0022041577389242226 0 0.10007770642053969 0.0032159477450587684 0 0.098524487828407753 0.0035967206814604131 0 0.099399520854365861 0.0022041577389242226 0 0.1009900607943814 0.0025422538229110132 0 0.10007770642053969 0.0032159477450587684 0 0.10152491736021184 0.0040056228715480034 0 0.10007770642053969 0.0032159477450587684 0 0.10053595865865884 0.0043442666856095971 0 0.10152491736021184 0.0040056228715480034 0 0.1009900607943814 0.0025422538229110132 0 0.10007770642053969 0.0032159477450587684 0 0.10007770642053969 0.0032159477450587684 0 0.10053595865865884 0.0043442666856095971 0 0.098524487828407753 0.0035967206814604131 0 0.098191036370526466 0.0037627764536921544 0 0.098524487828407753 0.0035967206814604131 0 0.098227166750715092 0.0037369700177223904 0 0.099028332802545291 0.0034462041605869994 0 0.09893890639491229 0.0034756835256461644 0 0.098524487828407753 0.0035967206814604131 0 0.098227166750715092 0.0037369700177223904 0 0.097935312901956673 0.0038661652852740001 0 0.098227166750715092 0.0037369700177223904 0 0.098056633097110227 0.0038821461393619312 0 0.097935312901956673 0.0038661652852740001 0 0.098227166750715092 0.0037369700177223904 0 0.098157960859168863 0.0038054435824629428 0 0.098056633097110227 0.0038821461393619312 0 0.099028332802545291 0.0034462041605869994 0 0.098445195496864937 0.0030477772085697619 0 0.098191036370526466 0.0037627764536921544 0 0.098227166750715092 0.0037369700177223904 0 0.098157960859168863 0.0038054435824629428 0 0.098191036370526466 0.0037627764536921544 0 0.098157960859168863 0.0038054435824629428 0 0.098215921147109156 0.003781069679455218 0 0.098157960859168863 0.0038054435824629428 0 0.098191882270842801 0.0038375420535484983 0 0.098215921147109156 0.003781069679455218 0 0.098157960859168863 0.0038054435824629428 0 0.098191882270842801 0.0038375420535484983 0 0.098166353743420046 0.0039132565216946462 0 0.098191882270842801 0.0038375420535484983 0 0.098166353743420046 0.0039132565216946462 0 0.098234638003757077 0.0038654445784845606 0 0.09811102368967313 0.0040667988519384893 0 0.098166353743420046 0.0039132565216946462 0 0.098027549655285498 0.003990401357557031 0 0.09811102368967313 0.0040667988519384893 0 0.098166353743420046 0.0039132565216946462 0 0.098249974999265244 0.0039459625370262029 0 0.098157960859168863 0.0038054435824629428 0 0.098166353743420046 0.0039132565216946462 0 0.098027549655285498 0.003990401357557031 0 0.098157960859168863 0.0038054435824629428 0 0.098027549655285498 0.003990401357557031 0 0.098056633097110227 0.0038821461393619312 0 0.098027549655285498 0.003990401357557031 0 0.098056633097110227 0.0038821461393619312 0 0.097864356339586678 0.0040361735144276139 0 0.098056633097110227 0.0038821461393619312 0 0.097864356339586678 0.0040361735144276139 0 0.097935312901956673 0.0038661652852740001 0 0.10283498128165992 0.0042798191267086009 0 0.10314974131410844 0.0048166169241929757 0 0.10212330166618455 0.0046272139929881568 0 0.098158130197018092 0.0037410618099300683 0 0.098148349110445399 0.0037497814215521623 0 0.098207207998629933 0.0037805549524679385 0 0.094759078956517889 0.0014763082301952827 0 0.098445195496864937 0.0030477772085697619 0 0.089164388657116275 0.0041586449638974657 0 0.09524989316302189 0.0055092532251900051 0 0.09385536935495381 -0.0013597683605876517 0 0.094776155278661914 0.0014681800525338977 0 0.092496334484513831 0.00093726182591021196 0 0.092496334484513831 0.00093726182591021196 0 0.093539575023568869 0.0010732342424884958 0 0.09524989316302189 0.0055092532251900051 0 0.09385536935495381 -0.0013597683605876517 0 0.097606694419398385 -0.00021976565159080816 0 0.094759078956517889 0.0014763082301952827 0 0.093539575023568869 0.0010732342424884958 0 0.094776155278661914 0.0014681800525338977 0 0.094759078956517889 0.0014763082301952827 0 0.10314974131410844 0.0048166169241929757 0 0.10315066232482378 0.0044073247245483759 0 0.10339469915274013 0.0044992942950548972 0 0.10283498128165992 0.0042798191267086009 0 0.10314974131410844 0.0048166169241929757 0 0.10315066232482378 0.0044073247245483759 0 0.098191036370526466 0.0037627764536921544 0 0.098207207998629933 0.0037805549524679385 0 0.098215921147109156 0.003781069679455218 0 0.098158130197018092 0.0037410618099300683 0 0.098207207998629933 0.0037805549524679385 0 0.098215921147109156 0.003781069679455218 0 0.098480074645317814 0.0038173267785036671 0 0.098215921147109156 0.003781069679455218 0 0.098335844919116552 0.0038757331081151029 0 0.094776155278661914 0.0014681800525338977 0 0.096921315271270028 0.0022608366178558589 0 0.098191882270842801 0.0038375420535484983 0 0.098215921147109156 0.003781069679455218 0 0.098234638003757077 0.0038654445784845606 0 0.098215921147109156 0.003781069679455218 0 0.098335844919116552 0.0038757331081151029 0 0.098234638003757077 0.0038654445784845606 0 0.098166353743420046 0.0039132565216946462 0 0.098234638003757077 0.0038654445784845606 0 0.098249974999265244 0.0039459625370262029 0 0.098335844919116552 0.0038757331081151029 0 0.098234638003757077 0.0038654445784845606 0 0.098249974999265244 0.0039459625370262029 0 0.098323975496144869 0.0040439458900639212 0 0.09811102368967313 0.0040667988519384893 0 0.098249974999265244 0.0039459625370262029 0 0.098323975496144869 0.0040439458900639212 0 0.098335844919116552 0.0038757331081151029 0 0.098249974999265244 0.0039459625370262029 0 0.098323975496144869 0.0040439458900639212 0 0.098480074645317814 0.0038173267785036671 0 0.098335844919116552 0.0038757331081151029 0 0.096599880884274528 0.0023079532554371148 0 0.094776155278661914 0.0014681800525338977 0 0.098907016464639383 0.002847030706835188 0 0.098393603061379287 0.0027092771040902342 0 0.099099689946578376 0.0018493517913501934 0 0.077307176058238378 -0.0072743705343304519 0 0.075172941128343773 -0.0070018927373703688 0 0.076175017967941502 -0.0093334785620959454 0 0.087381748301418607 -0.0012266961737886176 0 0.092496334484513831 0.00093726182591021196 0 0.098907016464639383 0.002847030706835188 0 0.099099689946578376 0.0018493517913501934 0 0.099273322726689955 0.0018876888876450683 0 0.077307176058238378 -0.0072743705343304519 0 0.076175017967941502 -0.0093334785620959454 0 0.078751008278287418 -0.0087658118084299828 0 0.092496334484513831 0.00093726182591021196 0 0.087351632261144535 -0.0028524968409553457 0 0.092305478660669252 -0.00060711027538172839 0 0.089801736674783819 -0.00090883820218189625 0 0.089686877185220323 -0.0011959707400034177 0 0.07939965915586733 -0.0071180440602970551 0 0.077307176058238378 -0.0072743705343304519 0 0.078751008278287418 -0.0087658118084299828 0 0.080615160390831178 -0.0062555388804260608 0 0.087351632261144535 -0.0028524968409553457 0 0.083232984283506298 -0.0045534141949724518 0 0.08307800313269785 -0.0037972010950005309 0 0.082892525703066502 -0.0041267412232522489 0 0.083232984283506298 -0.0045534141949724518 0 0.083584299750474975 -0.0036821204326972041 0 0.08307800313269785 -0.0037972010950005309 0 0.080615160390831178 -0.0062555388804260608 0 0.085925823733177267 -0.0048425177887803737 0 0.088736948215358463 -0.0019043884780431172 0 0.087351632261144535 -0.0028524968409553457 0 0.087351632261144535 -0.0028524968409553457 0 0.088196726687373453 -0.0033244352821496697 0 0.088736948215358463 -0.0019043884780431172 0 0.089122400388101986 -0.0025784201289030311 0 0.086640514690026899 -0.0030293717757362217 0 0.089976781640534506 -0.0029959642482870357 0 0.090427707509512539 -0.0021940580575939539 0 0.086198000169056488 -0.0041387747970666995 0 0.086640514690026899 -0.0030293717757362217 0 0.089976781640534506 -0.0029959642482870357 0 0.089122400388101986 -0.0025784201289030311 0 0.088196726687373453 -0.0033244352821496697 0 0.088736948215358463 -0.0019043884780431172 0 0.095259785415120674 0.0017868051704971648 0 0.092249053960616362 -0.0023155417741439433 0 0.092131919847425206 -0.00038423360372459846 0 0.093808026690326438 0.0015874401575845119 0 0.10213546048257462 0.0020583990404412014 0 0.10218122006566399 0.0021243743987539232 0 0.10214439819168851 0.0021230794861316865 0 0.089122400388101986 -0.0025784201289030311 0 0.093302780783140041 0.00039019120170379474 0 0.092249053960616362 -0.0023155417741439433 0 0.090798891730544715 -0.0027587704292252753 0 0.092131919847425206 -0.00038423360372459846 0 0.10218122006566399 0.0021243743987539232 0 0.10215571724468063 0.0021637756541222643 0 0.10214439819168851 0.0021230794861316865 0 0.088736948215358463 -0.0019043884780431172 0 0.093539575023568869 0.0010732342424884958 0 0.092305478660669252 -0.00060711027538172839 0 0.089801736674783819 -0.00090883820218189625 0 0.092135175423646506 -0.00019349120607769512 0 0.093285002519112453 0.00087389426747566277 0 0.093114382485291511 0.00082499401508142483 0 0.093139872536223176 0.00076562366368806544 0 0.093285002519112453 0.00087389426747566277 0 0.093139872536223176 0.00076562366368806544 0 0.093215567264769761 0.0006795154272683495 0 0.092627565265037445 0.0037177510570265749 0 0.093893407183327601 0.0041024679280947654 0 0.095386347123794568 0.00047248600366793221 0 0.093539575023568869 0.0010732342424884958 0 0.094713532019032501 0.0015097210285033857 0 0.094759078956517889 0.0014763082301952827 0 0.094713532019032501 0.0015097210285033857 0 0.094713532019032501 0.0015097210285033857 0 0.095259785415120674 0.0017868051704971648 0 0.094713532019032501 0.0015097210285033857 0 0.096165288283930422 0.0023335787667718446 0 0.10322310763322597 0.0040360174619160725 0 0.10315066232482378 0.0044073247245483759 0 0.10339469915274013 0.0044992942950548972 0 0.10322310763322597 0.0040360174619160725 0 0.10339469915274013 0.0044992942950548972 0 0.10366222690347975 0.0037316295778966856 0 0.10322310763322597 0.0040360174619160725 0 0.10366222690347975 0.0037316295778966856 0 0.10330102390718764 0.0035499149213050122 0 0.09660812508942343 0.0023635078193376918 0 0.096165288283930422 0.0023335787667718446 0 0.09581316638728074 0.0017910285156125965 0 0.095802965186219155 0.0018141128037938211 0 0.09584021581256566 0.0018411420118456107 0 0.096165288283930422 0.0023335787667718446 0 0.095259785415120674 0.0017868051704971648 0 0.095802965186219155 0.0018141128037938211 0 0.09584021581256566 0.0018411420118456107 0 0.095821168713849283 0.0018628092052027957 0 0.09660812508942343 0.0023635078193376918 0 0.095815611095621506 0.0017565876380233193 0 0.09536990811349963 0.0021347791614940025 0 0.095706787080553898 0.001325722607962563 0 0.095819499988690424 0.0016102777790709942 0 0.095815611095621506 0.0017565876380233193 0 0.095259785415120674 0.0017868051704971648 0 0.093302780783140041 0.00039019120170379474 0 0.095815611095621506 0.0017565876380233193 0 0.092131919847425206 -0.00038423360372459846 0 0.093466625769602851 0.0019899924521296661 0 0.093808026690326438 0.0015874401575845119 0 0.10218122006566399 0.0021243743987539232 0 0.10221400619387642 0.0021822369454221752 0 0.10218396085400275 0.0021783033314668283 0 0.10218122006566399 0.0021243743987539232 0 0.10218396085400275 0.0021783033314668283 0 0.10215571724468063 0.0021637756541222643 0 0.10218396085400275 0.0021783033314668283 0 0.10215571724468063 0.0021637756541222643 0 0.10215646185885993 0.0021948696388273828 0 0.10218396085400275 0.0021783033314668283 0 0.10218154256963174 0.0022148069275205015 0 0.10215646185885993 0.0021948696388273828 0 0.10221400619387642 0.0021822369454221752 0 0.10218396085400275 0.0021783033314668283 0 0.10218154256963174 0.0022148069275205015 0 0.10084402487616521 0.0037250664313552813 0 0.10089443063415524 0.0038186981814893567 0 0.10121722268368324 0.0034682903869331758 0 0.095815611095621506 0.0017565876380233193 0 0.099562789744980271 0.0016941738406845101 0 0.10221400619387642 0.0021822369454221752 0 0.10218154256963174 0.0022148069275205015 0 0.10218635860842712 0.0022782703896438218 0 0.10102172945363587 0.003346377742797843 0 0.10084402487616521 0.0037250664313552813 0 0.10121722268368324 0.0034682903869331758 0 0.099744961641402327 0.0021999886599508357 0 0.09660812508942343 0.0023635078193376918 0 0.10356891451184809 0.00264308574836604 0 0.10332599194382217 0.003200502539425336 0 0.1032050273453313 0.002972073508290918 0 0.097927195667124378 0.0034715939740606974 0 0.0972117084682389 0.0030288720943556927 0 0.10366222690347975 0.0037316295778966856 0 0.10341982833585182 0.0031823863182325503 0 0.10330102390718764 0.0035499149213050122 0 0.10294942893801853 0.0032309019322108814 0 0.10341982833585182 0.0031823863182325503 0 0.10330102390718764 0.0035499149213050122 0 0.096165288283930422 0.0023335787667718446 0 0.0972117084682389 0.0030288720943556927 0 0.09660812508942343 0.0023635078193376918 0 0.0972117084682389 0.0030288720943556927 0 0.096339001503744998 0.002415229997932076 0 0.096402912497878135 0.0022586749553858225 0 0.096666973995460731 0.002996107989679391 0 0.10210708508187739 0.0022893898863595693 0 0.10212788080551718 0.0022417226795100865 0 0.10207725616716554 0.0021852128550729024 0 0.10210708508187739 0.0022893898863595693 0 0.10203542692582909 0.0022019229523524454 0 0.10203967922646662 0.0023642792627937737 0 0.10210708508187739 0.0022893898863595693 0 0.10207725616716554 0.0021852128550729024 0 0.10203542692582909 0.0022019229523524454 0 0.10210708508187739 0.0022893898863595693 0 0.10218635860842712 0.0022782703896438218 0 0.10212788080551718 0.0022417226795100865 0 0.10218635860842712 0.0022782703896438218 0 0.10215935907969315 0.0022347208784805101 0 0.10212788080551718 0.0022417226795100865 0 0.10218154256963174 0.0022148069275205015 0 0.10215935907969315 0.0022347208784805101 0 0.10215646185885993 0.0021948696388273828 0 0.10218154256963174 0.0022148069275205015 0 0.10218635860842712 0.0022782703896438218 0 0.10215935907969315 0.0022347208784805101 0 0.10215935907969315 0.0022347208784805101 0 0.10212788080551718 0.0022417226795100865 0 0.10212261535715901 0.0021946729672724995 0 0.10212261535715901 0.0021946729672724995 0 0.10215646185885993 0.0021948696388273828 0 0.10213459117221069 0.0021707293909310811 0 0.10215935907969315 0.0022347208784805101 0 0.10212261535715901 0.0021946729672724995 0 0.10215646185885993 0.0021948696388273828 0 0.10215571724468063 0.0021637756541222643 0 0.10215646185885993 0.0021948696388273828 0 0.10213459117221069 0.0021707293909310811 0 0.10215571724468063 0.0021637756541222643 0 0.10213459117221069 0.0021707293909310811 0 0.102128289131482 0.0021448220133230209 0 0.10212261535715901 0.0021946729672724995 0 0.10210926036190904 0.0021548073401512322 0 0.10209375018236848 0.0021670700416057103 0 0.10212261535715901 0.0021946729672724995 0 0.10213459117221069 0.0021707293909310811 0 0.10210926036190904 0.0021548073401512322 0 0.10213459117221069 0.0021707293909310811 0 0.10210926036190904 0.0021548073401512322 0 0.102128289131482 0.0021448220133230209 0 0.10210926036190904 0.0021548073401512322 0 0.10209318552537855 0.0021456140879966652 0 0.10209375018236848 0.0021670700416057103 0 0.096532074880100571 -0.0024369062880854283 0 0.099053099091291175 -0.00089685712540372433 0 0.10209375018236848 0.0021670700416057103 0 0.10207725616716554 0.0021852128550729024 0 0.1020722036795102 0.0021309207045661473 0 0.10379632595792034 4.2036401826447769e-05 0 0.10314865661650419 0.00017816515565380195 0 0.10311317713686052 0.0011663975507802862 0 0.10207725616716554 0.0021852128550729024 0 0.1020722036795102 0.0021309207045661473 0 0.10203542692582909 0.0022019229523524454 0 0.10209318552537855 0.0021456140879966652 0 0.10209375018236848 0.0021670700416057103 0 0.1020722036795102 0.0021309207045661473 0 0.10212788080551718 0.0022417226795100865 0 0.10212261535715901 0.0021946729672724995 0 0.10207725616716554 0.0021852128550729024 0 0.10212261535715901 0.0021946729672724995 0 0.10209375018236848 0.0021670700416057103 0 0.10207725616716554 0.0021852128550729024 0 0.10373827981374353 -6.148808066546761e-05 0 0.1037521435491265 -0.00014743911134899317 0 0.10372290893337058 -0.0002532938253581028 0 0.10379632595792034 4.2036401826447769e-05 0 0.10373827981374353 -6.148808066546761e-05 0 0.10314865661650419 0.00017816515565380195 0 0.10373827981374353 -6.148808066546761e-05 0 0.10322493376772367 -0.00017331517546980677 0 0.10314865661650419 0.00017816515565380195 0 0.10209318552537855 0.0021456140879966652 0 0.1020722036795102 0.0021309207045661473 0 0.10209853275899777 0.0021266116903918427 0 0.10379632595792034 4.2036401826447769e-05 0 0.10373827981374353 -6.148808066546761e-05 0 0.1037521435491265 -0.00014743911134899317 0 0.10373827981374353 -6.148808066546761e-05 0 0.10357110048217656 -0.00033338659494792819 0 0.10379360419203079 -0.00052992639603228998 0 0.10373827981374353 -6.148808066546761e-05 0 0.10357110048217656 -0.00033338659494792819 0 0.10322493376772367 -0.00017331517546980677 0 0.10357110048217656 -0.00033338659494792819 0 0.10360837773375739 -0.00051691924714800455 0 0.10379360419203079 -0.00052992639603228998 0 0.10357110048217656 -0.00033338659494792819 0 0.10331639398984474 -0.00050712358024120735 0 0.10322493376772367 -0.00017331517546980677 0 0.10357110048217656 -0.00033338659494792819 0 0.10360837773375739 -0.00051691924714800455 0 0.10331639398984474 -0.00050712358024120735 0 0.10379632595792034 4.2036401826447769e-05 0 0.1037521435491265 -0.00014743911134899317 0 0.10377513453201655 -0.00026929913164094952 0 0.096532074880100571 -0.0024369062880854283 0 0.088912330942502657 -0.0038363191105709104 0 0.1020722036795102 0.0021309207045661473 0 0.10210164398025696 0.0021022000418247405 0 0.10210113439909352 0.0020447702109154856 0 0.10215571724468063 0.0021637756541222643 0 0.10214439819168851 0.0021230794861316865 0 0.102128289131482 0.0021448220133230209 0 0.10214439819168851 0.0021230794861316865 0 0.102128289131482 0.0021448220133230209 0 0.10211909403023077 0.0021163061362161608 0 0.1020722036795102 0.0021309207045661473 0 0.10209853275899777 0.0021266116903918427 0 0.10210164398025696 0.0021022000418247405 0 0.10211909403023077 0.0021163061362161608 0 0.10209853275899777 0.0021266116903918427 0 0.10210164398025696 0.0021022000418247405 0 0.10210926036190904 0.0021548073401512322 0 0.102128289131482 0.0021448220133230209 0 0.10209853275899777 0.0021266116903918427 0 0.102128289131482 0.0021448220133230209 0 0.10211909403023077 0.0021163061362161608 0 0.10209853275899777 0.0021266116903918427 0 0.10210926036190904 0.0021548073401512322 0 0.10209318552537855 0.0021456140879966652 0 0.10209853275899777 0.0021266116903918427 0 0.10213546048257462 0.0020583990404412014 0 0.10214439819168851 0.0021230794861316865 0 0.10211930227597785 0.0020887691373853118 0 0.10210164398025696 0.0021022000418247405 0 0.10211930227597785 0.0020887691373853118 0 0.10210113439909352 0.0020447702109154856 0 0.10211909403023077 0.0021163061362161608 0 0.10210164398025696 0.0021022000418247405 0 0.10211930227597785 0.0020887691373853118 0 0.10214439819168851 0.0021230794861316865 0 0.10211909403023077 0.0021163061362161608 0 0.10211930227597785 0.0020887691373853118 0 0.10213546048257462 0.0020583990404412014 0 0.10211930227597785 0.0020887691373853118 0 0.10210113439909352 0.0020447702109154856 0 0.087493170509058998 -0.0044762699814087301 0 0.087763199572212347 -0.0039970074836169905 0 0.089468487017831541 -0.0036237368643819755 0 0.089122400388101986 -0.0025784201289030311 0 0.088912330942502657 -0.0038363191105709104 0 0.088196726687373453 -0.0033244352821496697 0 0.088912330942502657 -0.0038363191105709104 0 0.084979830072581003 -0.0029404928272178952 0 0.085186700222134981 -0.0028966389693667453 0 0.085078411151506494 -0.0027650761611891701 0 0.1037521435491265 -0.00014743911134899317 0 0.10377513453201655 -0.00026929913164094952 0 0.10374673451901181 -0.00021930657489141396 0 0.1037521435491265 -0.00014743911134899317 0 0.10374673451901181 -0.00021930657489141396 0 0.10372290893337058 -0.0002532938253581028 0 0.10377513453201655 -0.00026929913164094952 0 0.10374403236562521 -0.00024507506119184779 0 0.10374673451901181 -0.00021930657489141396 0 0.088912330942502657 -0.0038363191105709104 0 0.089622876688211492 -0.0037267878412438546 0 0.10374403236562521 -0.00024507506119184779 0 0.10374673451901181 -0.00021930657489141396 0 0.10372290893337058 -0.0002532938253581028 0 0.088912330942502657 -0.0038363191105709104 0 0.087819706515781082 -0.0056136439356401962 0 0.084511532644926113 -0.0062089804601896514 0 0.085224974052740932 -0.0060517731331763891 0 0.084265527181289393 -0.0059076086024924309 0 0.084785698086793884 -0.0049742665627606529 0 0.085224974052740932 -0.0060517731331763891 0 0.084265527181289393 -0.0059076086024924309 0 0.10376575710376264 -0.00024023524036649851 0 0.10374403236562521 -0.00024507506119184779 0 0.10372290893337058 -0.0002532938253581028 0 0.088912330942502657 -0.0038363191105709104 0 0.085925823733177267 -0.0048425177887803737 0 0.088196726687373453 -0.0033244352821496697 0 0.085925823733177267 -0.0048425177887803737 0 0.10373827981374353 -6.148808066546761e-05 0 0.10404946687445646 -0.00094881107746613597 0 0.10379360419203079 -0.00052992639603228998 0 0.090023674671587561 -0.0051621370754159762 0 0.087819706515781082 -0.0056136439356401962 0 0.10355531171526311 -0.0007017499500785177 0 0.1036561471021314 -0.00085788335813557549 0 0.10327357882334624 -0.0008581515292564049 0 0.10355531171526311 -0.0007017499500785177 0 0.1036561471021314 -0.00085788335813557549 0 0.1037101531026357 -0.00074026993529695793 0 0.10355531171526311 -0.0007017499500785177 0 0.10370098959774084 -0.0006218477384735909 0 0.1037101531026357 -0.00074026993529695793 0 0.10355531171526311 -0.0007017499500785177 0 0.10327357882334624 -0.0008581515292564049 0 0.10331639398984474 -0.00050712358024120735 0 0.10355531171526311 -0.0007017499500785177 0 0.10360837773375739 -0.00051691924714800455 0 0.10331639398984474 -0.00050712358024120735 0 0.10355531171526311 -0.0007017499500785177 0 0.10360837773375739 -0.00051691924714800455 0 0.10370098959774084 -0.0006218477384735909 0 0.10379360419203079 -0.00052992639603228998 0 0.10379095178724704 -0.00068221320524315286 0 0.10391165438034651 -0.0008263619579410653 0 0.10404946687445646 -0.00094881107746613597 0 0.10379360419203079 -0.00052992639603228998 0 0.10391165438034651 -0.0008263619579410653 0 0.10360837773375739 -0.00051691924714800455 0 0.10379360419203079 -0.00052992639603228998 0 0.10370098959774084 -0.0006218477384735909 0 0.10379360419203079 -0.00052992639603228998 0 0.10379095178724704 -0.00068221320524315286 0 0.10370098959774084 -0.0006218477384735909 0 0.10379095178724704 -0.00068221320524315286 0 0.10370098959774084 -0.0006218477384735909 0 0.1037101531026357 -0.00074026993529695793 0 0.10379095178724704 -0.00068221320524315286 0 0.1037101531026357 -0.00074026993529695793 0 0.10379795556556498 -0.000765722584674072 0 0.10379095178724704 -0.00068221320524315286 0 0.10391165438034651 -0.0008263619579410653 0 0.10379795556556498 -0.000765722584674072 0 0.10391165438034651 -0.0008263619579410653 0 0.10379795556556498 -0.000765722584674072 0 0.10378881145725048 -0.00088328489983879876 0 0.1036561471021314 -0.00085788335813557549 0 0.10379795556556498 -0.000765722584674072 0 0.10378881145725048 -0.00088328489983879876 0 0.1036561471021314 -0.00085788335813557549 0 0.1037101531026357 -0.00074026993529695793 0 0.10379795556556498 -0.000765722584674072 0 0.078526906929197129 -0.0082911216021637427 0 0.078730022008515949 -0.0070993288174726644 0 0.07800491154309297 -0.0072603129826435226 0 0.1036561471021314 -0.00085788335813557549 0 0.10378881145725048 -0.00088328489983879876 0 0.10375532721666435 -0.0010106492273193744 0 0.10391165438034651 -0.0008263619579410653 0 0.10378881145725048 -0.00088328489983879876 0 0.10375532721666435 -0.0010106492273193744 0 0.087819706515781082 -0.0056136439356401962 0 0.08893598076637052 -0.0064618290829895272 0 0.10404946687445646 -0.00094881107746613597 0 0.10391165438034651 -0.0008263619579410653 0 0.10375532721666435 -0.0010106492273193744 0 0.08893598076637052 -0.0064618290829895272 0 0.092269364626783507 -0.0055824410077019715 0 0.10304002698598751 -0.0014588923512397708 0 0.10355694130659311 -0.0010397314626695508 0 0.10311842268768524 -0.001126799363904209 0 0.10375532721666435 -0.0010106492273193744 0 0.10311842268768524 -0.001126799363904209 0 0.10327357882334624 -0.0008581515292564049 0 0.1036561471021314 -0.00085788335813557549 0 0.10375532721666435 -0.0010106492273193744 0 0.10327357882334624 -0.0008581515292564049 0 0.10311842268768524 -0.001126799363904209 0 0.10327357882334624 -0.0008581515292564049 0 0.10273131801231677 -0.00045130328087110259 0 0.091737147739143377 -0.0071864471580313826 0 0.094252059014474532 -0.0054420864369520809 0 0.10292419735636954 -0.0028290218409525916 0 0.10397901447939997 -0.0027214271015680372 0 0.10273131801231677 -0.00045130328087110259 0 0.10304002698598751 -0.0014588923512397708 0 0.10311842268768524 -0.001126799363904209 0 0.10273131801231677 -0.00045130328087110259 0 0.10327357882334624 -0.0008581515292564049 0 0.10331639398984474 -0.00050712358024120735 0 0.10273131801231677 -0.00045130328087110259 0 0.10322493376772367 -0.00017331517546980677 0 0.10273131801231677 -0.00045130328087110259 0 0.10314865661650419 0.00017816515565380195 0 0.10331639398984474 -0.00050712358024120735 0 0.10322493376772367 -0.00017331517546980677 0 0.10273131801231677 -0.00045130328087110259 0 0.10273131801231677 -0.00045130328087110259 0 0.10314865661650419 0.00017816515565380195 0 0.10217980301295086 0.00054177565206151273 0 0.10273131801231677 -0.00045130328087110259 0 0.10133081753131583 -0.00063951312360718306 0 0.10217980301295086 0.00054177565206151273 0 0.10273131801231677 -0.00045130328087110259 0 0.10202142586625527 -0.0015946360142202335 0 0.10133081753131583 -0.00063951312360718306 0 0.10292419735636954 -0.0028290218409525916 0 0.10273131801231677 -0.00045130328087110259 0 0.10202142586625527 -0.0015946360142202335 0 0.10121465569594695 -0.0024631483690490215 0 0.10202142586625527 -0.0015946360142202335 0 0.10133081753131583 -0.00063951312360718306 0 0.10121465569594695 -0.0024631483690490215 0 0.10008722240428987 -0.00098937331723293956 0 0.10133081753131583 -0.00063951312360718306 0 0.10008722240428987 -0.00098937331723293956 0 0.10033240861721462 0.00032775694072259776 0 0.10133081753131583 -0.00063951312360718306 0 0.10033240861721462 0.00032775694072259776 0 0.10133081753131583 -0.00063951312360718306 0 0.10109795187861473 0.0010007347484551137 0 0.10133081753131583 -0.00063951312360718306 0 0.10109795187861473 0.0010007347484551137 0 0.10217980301295086 0.00054177565206151273 0 0.10033240861721462 0.00032775694072259776 0 0.10109795187861473 0.0010007347484551137 0 0.10021190847858007 0.0013725359598064204 0 0.10109795187861473 0.0010007347484551137 0 0.10021190847858007 0.0013725359598064204 0 0.10126641889786014 0.0020893912526605525 0 0.10021190847858007 0.0013725359598064204 0 0.10029772631386707 0.0023025559915479019 0 0.10126641889786014 0.0020893912526605525 0 0.10109795187861473 0.0010007347484551137 0 0.10188329905517454 0.0014486777446287903 0 0.10126641889786014 0.0020893912526605525 0 0.10188329905517454 0.0014486777446287903 0 0.10203421311019667 0.0022167582234954293 0 0.10126641889786014 0.0020893912526605525 0 0.10188329905517454 0.0014486777446287903 0 0.10311317713686052 0.0011663975507802862 0 0.10203421311019667 0.0022167582234954293 0 0.099053099091291175 -0.00089685712540372433 0 0.099618661622057542 -0.00026526227446698538 0 0.10203542692582909 0.0022019229523524454 0 0.10203967922646662 0.0023642792627937737 0 0.10203421311019667 0.0022167582234954293 0 0.10314865661650419 0.00017816515565380195 0 0.10311317713686052 0.0011663975507802862 0 0.10217980301295086 0.00054177565206151273 0 0.10188329905517454 0.0014486777446287903 0 0.10311317713686052 0.0011663975507802862 0 0.10217980301295086 0.00054177565206151273 0 0.10109795187861473 0.0010007347484551137 0 0.10188329905517454 0.0014486777446287903 0 0.10217980301295086 0.00054177565206151273 0 0.096829906685025627 0.0011318743610072627 0 0.097250191459056973 -0.00018192682382328759 0 0.098136487881338538 0.00032153949272905376 0 0.095957573736218563 -1.2141632500332275e-05 0 0.096829906685025627 0.0011318743610072627 0 0.097250191459056973 -0.00018192682382328759 0 0.096881400946702459 -0.00093206162043212796 0 0.095957573736218563 -1.2141632500332275e-05 0 0.097250191459056973 -0.00018192682382328759 0 0.097795855154289416 -0.00065438753476396237 0 0.097406530223790685 -0.00078478767610503763 0 0.097250191459056973 -0.00018192682382328759 0 0.097795855154289416 -0.00065438753476396237 0 0.097250191459056973 -0.00018192682382328759 0 0.098136487881338538 0.00032153949272905376 0 0.097795855154289416 -0.00065438753476396237 0 0.098136487881338538 0.00032153949272905376 0 0.098559916593989133 -0.00021371688897378074 0 0.096829906685025627 0.0011318743610072627 0 0.098136487881338538 0.00032153949272905376 0 0.098339027644308408 0.0010703737409086759 0 0.098136487881338538 0.00032153949272905376 0 0.098339027644308408 0.0010703737409086759 0 0.099068570620798588 0.00041379780350592568 0 0.098136487881338538 0.00032153949272905376 0 0.098559916593989133 -0.00021371688897378074 0 0.099068570620798588 0.00041379780350592568 0 0.096035024029132041 -0.0016839365548858424 0 0.098275451600776761 -0.00153709943772706 0 0.099068570620798588 0.00041379780350592568 0 0.096849764799060795 -0.0015222296903640768 0 0.0976948763782019 -0.00063855847305730048 0 0.099311584240467987 -0.0028770590894248793 0 0.10008722240428987 -0.00098937331723293956 0 0.098275451600776761 -0.00153709943772706 0 0.10008722240428987 -0.00098937331723293956 0 0.098275451600776761 -0.00153709943772706 0 0.099068570620798588 0.00041379780350592568 0 0.10008722240428987 -0.00098937331723293956 0 0.10033240861721462 0.00032775694072259776 0 0.099068570620798588 0.00041379780350592568 0 0.10021190847858007 0.0013725359598064204 0 0.099068570620798588 0.00041379780350592568 0 0.099222876908360846 0.0016544669555469561 0 0.10033240861721462 0.00032775694072259776 0 0.10021190847858007 0.0013725359598064204 0 0.099068570620798588 0.00041379780350592568 0 0.10021190847858007 0.0013725359598064204 0 0.099222876908360846 0.0016544669555469561 0 0.10029772631386707 0.0023025559915479019 0 0.099222876908360846 0.0016544669555469561 0 0.099234039861917256 0.0025250529019726913 0 0.10029772631386707 0.0023025559915479019 0 0.098339027644308408 0.0010703737409086759 0 0.099068570620798588 0.00041379780350592568 0 0.099222876908360846 0.0016544669555469561 0 0.098339027644308408 0.0010703737409086759 0 0.099222876908360846 0.0016544669555469561 0 0.097903480142353519 0.0019067270825912925 0 0.096829906685025627 0.0011318743610072627 0 0.098339027644308408 0.0010703737409086759 0 0.097903480142353519 0.0019067270825912925 0 0.099222876908360846 0.0016544669555469561 0 0.097903480142353519 0.0019067270825912925 0 0.099234039861917256 0.0025250529019726913 0 0.096304234107905118 0.0022446900464401418 0 0.097903480142353519 0.0019067270825912925 0 0.097838492822595574 0.0030473226897211091 0 0.096304234107905118 0.0022446900464401418 0 0.096829906685025627 0.0011318743610072627 0 0.097903480142353519 0.0019067270825912925 0 0.097838492822595574 0.0030473226897211091 0 0.099140142973542095 0.0031435643614287061 0 0.098742145475235424 0.0036331400283470153 0 0.097838492822595574 0.0030473226897211091 0 0.099140142973542095 0.0031435643614287061 0 0.099234039861917256 0.0025250529019726913 0 0.097903480142353519 0.0019067270825912925 0 0.097838492822595574 0.0030473226897211091 0 0.099234039861917256 0.0025250529019726913 0 0.099140142973542095 0.0031435643614287061 0 0.099234039861917256 0.0025250529019726913 0 0.10042700580205874 0.0029477208618476111 0 0.099234039861917256 0.0025250529019726913 0 0.10029772631386707 0.0023025559915479019 0 0.10042700580205874 0.0029477208618476111 0 0.10029772631386707 0.0023025559915479019 0 0.10042700580205874 0.0029477208618476111 0 0.1011621182788589 0.0026626962234734589 0 0.10042700580205874 0.0029477208618476111 0 0.1011621182788589 0.0026626962234734589 0 0.10135987657876812 0.0030066429538967779 0 0.10042700580205874 0.0029477208618476111 0 0.10143772575471924 0.0033388790682628462 0 0.10135987657876812 0.0030066429538967779 0 0.10143772575471924 0.0033388790682628462 0 0.099983647860280869 0.0033381414731969792 0 0.099621062959405329 0.0038618803126817388 0 0.10042700580205874 0.0029477208618476111 0 0.10143772575471924 0.0033388790682628462 0 0.099983647860280869 0.0033381414731969792 0 0.099140142973542095 0.0031435643614287061 0 0.10042700580205874 0.0029477208618476111 0 0.099983647860280869 0.0033381414731969792 0 0.099140142973542095 0.0031435643614287061 0 0.099983647860280869 0.0033381414731969792 0 0.098742145475235424 0.0036331400283470153 0 0.099983647860280869 0.0033381414731969792 0 0.099621062959405329 0.0038618803126817388 0 0.098742145475235424 0.0036331400283470153 0 0.099244143498615892 0.0040961603149096571 0 0.099621062959405329 0.0038618803126817388 0 0.098742145475235424 0.0036331400283470153 0 0.10179265896319774 0.0026327076427176163 0 0.10203967922646662 0.0023642792627937737 0 0.10186709874981946 0.0027569608483466552 0 0.10179265896319774 0.0026327076427176163 0 0.10203421311019667 0.0022167582234954293 0 0.10126641889786014 0.0020893912526605525 0 0.10179265896319774 0.0026327076427176163 0 0.10203967922646662 0.0023642792627937737 0 0.10203421311019667 0.0022167582234954293 0 0.10179265896319774 0.0026327076427176163 0 0.10126641889786014 0.0020893912526605525 0 0.1011621182788589 0.0026626962234734589 0 0.10029772631386707 0.0023025559915479019 0 0.10126641889786014 0.0020893912526605525 0 0.1011621182788589 0.0026626962234734589 0 0.10179265896319774 0.0026327076427176163 0 0.1011621182788589 0.0026626962234734589 0 0.10162441047405169 0.0028378629360665624 0 0.10162441047405169 0.0028378629360665624 0 0.10135987657876812 0.0030066429538967779 0 0.10189014762150332 0.0028426055357998986 0 0.1011621182788589 0.0026626962234734589 0 0.10162441047405169 0.0028378629360665624 0 0.10135987657876812 0.0030066429538967779 0 0.10143772575471924 0.0033388790682628462 0 0.10135987657876812 0.0030066429538967779 0 0.10189014762150332 0.0028426055357998986 0 0.10189014762150332 0.0028426055357998986 0 0.1018582013337181 0.0027779212175820136 0 0.10208524090112144 0.0024708810024999276 0 0.10162441047405169 0.0028378629360665624 0 0.10189014762150332 0.0028426055357998986 0 0.1018582013337181 0.0027779212175820136 0 0.1018582013337181 0.0027779212175820136 0 0.10179913024335034 0.0026316992575311469 0 0.10191215141968954 0.0024645550302271847 0 0.10179265896319774 0.0026327076427176163 0 0.1018582013337181 0.0027779212175820136 0 0.10186709874981946 0.0027569608483466552 0 0.10179265896319774 0.0026327076427176163 0 0.10162441047405169 0.0028378629360665624 0 0.1018582013337181 0.0027779212175820136 0 0.101600071792926 0.0026149920041126135 0 0.10186709874981946 0.0027569608483466552 0 0.10179913024335034 0.0026316992575311469 0 0.1018582013337181 0.0027779212175820136 0 0.10186709874981946 0.0027569608483466552 0 0.10179913024335034 0.0026316992575311469 0 0.10177374084269074 0.0021556422658733682 0 0.10191215141968954 0.0024645550302271847 0 0.1016325885521068 0.0024229060978507699 0 0.10179913024335034 0.0026316992575311469 0 0.10191215141968954 0.0024645550302271847 0 0.1016325885521068 0.0024229060978507699 0 0.10177374084269074 0.0021556422658733682 0 0.10177905171775237 0.0015840718407839499 0 0.10141541173399277 0.0021769105047548831 0 0.10177374084269074 0.0021556422658733682 0 0.10230264789099899 0.0019844188772406069 0 0.10177905171775237 0.0015840718407839499 0 0.10177374084269074 0.0021556422658733682 0 0.10230264789099899 0.0019844188772406069 0 0.10191215141968954 0.0024645550302271847 0 0.1018582013337181 0.0027779212175820136 0 0.10191215141968954 0.0024645550302271847 0 0.10208524090112144 0.0024708810024999276 0 0.10230264789099899 0.0019844188772406069 0 0.10191215141968954 0.0024645550302271847 0 0.10208524090112144 0.0024708810024999276 0 0.10189014762150332 0.0028426055357998986 0 0.10208524090112144 0.0024708810024999276 0 0.10257979478258254 0.0019990294249542353 0 0.10189014762150332 0.0028426055357998986 0 0.10257979478258254 0.0019990294249542353 0 0.10241427411766435 0.0023633078302798551 0 0.10230264789099899 0.0019844188772406069 0 0.10257979478258254 0.0019990294249542353 0 0.10290034983553878 0.001410563600818718 0 0.10230264789099899 0.0019844188772406069 0 0.10208524090112144 0.0024708810024999276 0 0.10257979478258254 0.0019990294249542353 0 0.10230264789099899 0.0019844188772406069 0 0.10290034983553878 0.001410563600818718 0 0.10325748897021582 0.00065343401829945531 0 0.10257979478258254 0.0019990294249542353 0 0.10290034983553878 0.001410563600818718 0 0.1033677249280316 0.0010389935236818559 0 0.1033677249280316 0.0010389935236818559 0 0.10325748897021582 0.00065343401829945531 0 0.10385241591465362 0.00060686840988377654 0 0.10290034983553878 0.001410563600818718 0 0.1033677249280316 0.0010389935236818559 0 0.10325748897021582 0.00065343401829945531 0 0.10325748897021582 0.00065343401829945531 0 0.1043994234135272 0.0003165538205029501 0 0.10401210092460636 0.00057162448756190693 0 0.10325748897021582 0.00065343401829945531 0 0.1043994234135272 0.0003165538205029501 0 0.10407609082318216 -0.00028685705933963207 0 0.1043994234135272 0.0003165538205029501 0 0.10407609082318216 -0.00028685705933963207 0 0.10457261957500985 -0.00030473816750994015 0 0.10230264789099899 0.0019844188772406069 0 0.10325748897021582 0.00065343401829945531 0 0.10177905171775237 0.0015840718407839499 0 0.10316542558367238 0.00072087569458162328 0 0.10317791692850183 0.00073625757215812734 0 0.10076576586894156 0.0038518392023623557 0 0.10015414711941446 0.0040462416447328347 0 0.10106162019844032 0.0032073299863155267 0 0.099244143498615892 0.0040961603149096571 0 0.099621062959405329 0.0038618803126817388 0 0.10015414711941446 0.0040462416447328347 0 0.099621062959405329 0.0038618803126817388 0 0.10015414711941446 0.0040462416447328347 0 0.10010426238475253 0.0041947840810460752 0 0.10189048991963401 0.0027354326834006428 0 0.10210640919032728 0.0023095564099984479 0 0.10015414711941446 0.0040462416447328347 0 0.10010426238475253 0.0041947840810460752 0 0.10020741464133565 0.0030734909900718777 0 0.10352296706088326 0.0021043236574305323 0 0.10241427411766435 0.0023633078302798551 0 0.10342271963756812 0.0012936744144843961 0 0.1017936391533706 0.0028940972046490334 0 0.10189048991963401 0.0027354326834006428 0 0.10143772575471924 0.0033388790682628462 0 0.10352296706088326 0.0021043236574305323 0 0.10241427411766435 0.0023633078302798551 0 0.10143772575471924 0.0033388790682628462 0 0.099621062959405329 0.0038618803126817388 0 0.10010426238475253 0.0041947840810460752 0 0.10143772575471924 0.0033388790682628462 0 0.10189014762150332 0.0028426055357998986 0 0.10241427411766435 0.0023633078302798551 0 0.10257979478258254 0.0019990294249542353 0 0.10241427411766435 0.0023633078302798551 0 0.10342271963756812 0.0012936744144843961 0 0.10257979478258254 0.0019990294249542353 0 0.1033677249280316 0.0010389935236818559 0 0.10342271963756812 0.0012936744144843961 0 0.1033677249280316 0.0010389935236818559 0 0.10385598449574866 0.00086718609916232921 0 0.10380002370442362 0.00076201220490074379 0 0.1033677249280316 0.0010389935236818559 0 0.10342271963756812 0.0012936744144843961 0 0.10385598449574866 0.00086718609916232921 0 0.10342271963756812 0.0012936744144843961 0 0.10391486679259793 0.00096729266520949211 0 0.10385598449574866 0.00086718609916232921 0 0.10352296706088326 0.0021043236574305323 0 0.10342271963756812 0.0012936744144843961 0 0.10391658581299285 0.0010659655905844655 0 0.10342271963756812 0.0012936744144843961 0 0.10391658581299285 0.0010659655905844655 0 0.10391486679259793 0.00096729266520949211 0 0.1024311546812304 0.0020988262422474984 0 0.10020741464133565 0.0030734909900718777 0 0.10291286516328921 0.0011929272255424416 0 0.10210640919032728 0.0023095564099984479 0 0.10231438344467948 0.0019862952214910121 0 0.10391658581299285 0.0010659655905844655 0 0.10291286516328921 0.0011929272255424416 0 0.10391486679259793 0.00096729266520949211 0 0.10015414711941446 0.0040462416447328347 0 0.10020741464133565 0.0030734909900718777 0 0.10106162019844032 0.0032073299863155267 0 0.1024311546812304 0.0020988262422474984 0 0.10020741464133565 0.0030734909900718777 0 0.10106162019844032 0.0032073299863155267 0 0.10461114435780103 0.0010917622508855151 0 0.1040211686067561 0.00096938555766351868 0 0.10487473020820196 0.00015059050812913212 0 0.10090336383633801 0.0020627616349031368 0 0.1016854323435054 0.002077451553514755 0 0.10291286516328921 0.0011929272255424416 0 0.1036681698708722 0.0010808458006426303 0 0.10391486679259793 0.00096729266520949211 0 0.10329486743707436 0.00088747077889767695 0 0.10291286516328921 0.0011929272255424416 0 0.1036681698708722 0.0010808458006426303 0 0.10329486743707436 0.00088747077889767695 0 0.1040211686067561 0.00096938555766351868 0 0.1036681698708722 0.0010808458006426303 0 0.1040211686067561 0.00096938555766351868 0 0.1036681698708722 0.0010808458006426303 0 0.10411885876900828 0.00079930508779690911 0 0.1036681698708722 0.0010808458006426303 0 0.10391486679259793 0.00096729266520949211 0 0.10411885876900828 0.00079930508779690911 0 0.1040211686067561 0.00096938555766351868 0 0.10411885876900828 0.00079930508779690911 0 0.10446930422394288 0.00044207036794128657 0 0.10411885876900828 0.00079930508779690911 0 0.10414324163259057 0.00056739616959478208 0 0.10454083171366696 0.0003312915554488545 0 0.10411885876900828 0.00079930508779690911 0 0.10385598449574866 0.00086718609916232921 0 0.10414324163259057 0.00056739616959478208 0 0.10391486679259793 0.00096729266520949211 0 0.10411885876900828 0.00079930508779690911 0 0.10385598449574866 0.00086718609916232921 0 0.10385598449574866 0.00086718609916232921 0 0.10414324163259057 0.00056739616959478208 0 0.10380002370442362 0.00076201220490074379 0 0.10414324163259057 0.00056739616959478208 0 0.10456456530081445 0.00025690843429469409 0 0.10454083171366696 0.0003312915554488545 0 0.10456456530081445 0.00025690843429469409 0 0.10499941421758899 2.4800677596763203e-07 0 0.10454083171366696 0.0003312915554488545 0 0.10499941421758899 2.4800677596763203e-07 0 0.10454083171366696 0.0003312915554488545 0 0.10499937870805919 1.2246110330897899e-07 0 0.10454083171366696 0.0003312915554488545 0 0.10446930422394288 0.00044207036794128657 0 0.10499937870805919 1.2246110330897899e-07 0 0.10411885876900828 0.00079930508779690911 0 0.10454083171366696 0.0003312915554488545 0 0.10446930422394288 0.00044207036794128657 0 0.10499999436743064 6.1929489522412783e-08 0 0.10499937870805919 1.2246110330897899e-07 0 0.10487473020820196 0.00015059050812913212 0 0.10446930422394288 0.00044207036794128657 0 0.10499937870805919 1.2246110330897899e-07 0 0.10487473020820196 0.00015059050812913212 0 0.1040211686067561 0.00096938555766351868 0 0.10446930422394288 0.00044207036794128657 0 0.10487473020820196 0.00015059050812913212 0 0.10426231062209543 0.0004755183580000985 0 0.10401210092460636 0.00057162448756190693 0 0.10385241591465362 0.00060686840988377654 0 0.10426231062209543 0.0004755183580000985 0 0.10438687930505709 0.00043527094501253738 0 0.10462419410455853 0.00026906481748704812 0 0.10426231062209543 0.0004755183580000985 0 0.10438687930505709 0.00043527094501253738 0 0.10401210092460636 0.00057162448756190693 0 0.10438687930505709 0.00043527094501253738 0 0.10470171909329191 0.00027327157085427916 0 0.10450301483008291 0.00042277305734636538 0 0.10438687930505709 0.00043527094501253738 0 0.10401210092460636 0.00057162448756190693 0 0.10450301483008291 0.00042277305734636538 0 0.1043994234135272 0.0003165538205029501 0 0.10401210092460636 0.00057162448756190693 0 0.10450301483008291 0.00042277305734636538 0 0.10325748897021582 0.00065343401829945531 0 0.10401210092460636 0.00057162448756190693 0 0.10385241591465362 0.00060686840988377654 0 0.1033677249280316 0.0010389935236818559 0 0.10385241591465362 0.00060686840988377654 0 0.10380002370442362 0.00076201220490074379 0 0.10414324163259057 0.00056739616959478208 0 0.10385241591465362 0.00060686840988377654 0 0.10380002370442362 0.00076201220490074379 0 0.10414324163259057 0.00056739616959478208 0 0.10385241591465362 0.00060686840988377654 0 0.10431487252288733 0.00033869671822383992 0 0.10426231062209543 0.0004755183580000985 0 0.10385241591465362 0.00060686840988377654 0 0.1046057064792737 0.00032962912683382752 0 0.10458068380117763 0.00036392107814968617 0 0.10471937352261045 0.00026323918604215631 0 0.10426231062209543 0.0004755183580000985 0 0.1046057064792737 0.00032962912683382752 0 0.10462419410455853 0.00026906481748704812 0 0.10414324163259057 0.00056739616959478208 0 0.10456456530081445 0.00025690843429469409 0 0.10431487252288733 0.00033869671822383992 0 0.10456456530081445 0.00025690843429469409 0 0.10431487252288733 0.00033869671822383992 0 0.10499889620031068 1.167688038958552e-07 0 0.10456456530081445 0.00025690843429469409 0 0.10499941421758899 2.4800677596763203e-07 0 0.10499889620031068 1.167688038958552e-07 0 0.10471937352261045 0.00026323918604215631 0 0.10499938734865245 3.6717800571589171e-07 0 0.1046057064792737 0.00032962912683382752 0 0.10499989738467531 1.0828194266455773e-07 0 0.10462419410455853 0.00026906481748704812 0 0.10499989738467531 1.0828194266455773e-07 0 0.10499947556924286 2.0123410504934613e-07 0 0.10462419410455853 0.00026906481748704812 0 0.10438687930505709 0.00043527094501253738 0 0.10462419410455853 0.00026906481748704812 0 0.10470171909329191 0.00027327157085427916 0 0.10499947556924286 2.0123410504934613e-07 0 0.10470171909329191 0.00027327157085427916 0 0.10499973148718685 1.5097446571861116e-07 0 0.10499947556924286 2.0123410504934613e-07 0 0.10462419410455853 0.00026906481748704812 0 0.10470171909329191 0.00027327157085427916 0 0.10470171909329191 0.00027327157085427916 0 0.10499973148718685 1.5097446571861116e-07 0 0.10485635176071258 0.00016968036154840749 0 0.10485635176071258 0.00016968036154840749 0 0.10499987852821356 1.3156400586115345e-07 0 0.10485469026400818 0.00018669934673688459 0 0.10499973148718685 1.5097446571861116e-07 0 0.10485635176071258 0.00016968036154840749 0 0.10499987852821356 1.3156400586115345e-07 0 0.10485635176071258 0.00016968036154840749 0 0.10485469026400818 0.00018669934673688459 0 0.10471437864399598 0.00030413767895279899 0 0.10470171909329191 0.00027327157085427916 0 0.10485635176071258 0.00016968036154840749 0 0.10471437864399598 0.00030413767895279899 0 0.1049996400464253 -2.679280655281884e-08 0 0.10480414094224243 -1.010941120562654e-05 0 0.10499987852821356 1.3156400586115345e-07 0 0.10499958490672753 9.7943119052533857e-08 0 0.10485469026400818 0.00018669934673688459 0 0.10499958490672753 9.7943119052533857e-08 0 0.10485469026400818 0.00018669934673688459 0 0.10479256446505875 0.0002133835347768057 0 0.10480414094224243 -1.010941120562654e-05 0 0.10463521516277667 -8.5816636087003524e-05 0 0.10479256446505875 0.0002133835347768057 0 0.1047424671550804 0.00029175804933178945 0 0.10477247527837751 0.00026866991097842158 0 0.10485469026400818 0.00018669934673688459 0 0.10479256446505875 0.0002133835347768057 0 0.1047424671550804 0.00029175804933178945 0 0.1047424671550804 0.00029175804933178945 0 0.10477247527837751 0.00026866991097842158 0 0.10473568185896907 0.00022381634204341879 0 0.10450301483008291 0.00042277305734636538 0 0.10471437864399598 0.00030413767895279899 0 0.10462230178248377 0.00033323948809725433 0 0.10470171909329191 0.00027327157085427916 0 0.10450301483008291 0.00042277305734636538 0 0.10471437864399598 0.00030413767895279899 0 0.1047424671550804 0.00029175804933178945 0 0.10471437864399598 0.00030413767895279899 0 0.10462230178248377 0.00033323948809725433 0 0.10485469026400818 0.00018669934673688459 0 0.1047424671550804 0.00029175804933178945 0 0.10471437864399598 0.00030413767895279899 0 0.1047424671550804 0.00029175804933178945 0 0.10462230178248377 0.00033323948809725433 0 0.1046474203113157 0.00025072640824367861 0 0.1043994234135272 0.0003165538205029501 0 0.10450301483008291 0.00042277305734636538 0 0.10462230178248377 0.00033323948809725433 0 0.1043994234135272 0.0003165538205029501 0 0.10462230178248377 0.00033323948809725433 0 0.1046474203113157 0.00025072640824367861 0 0.1043994234135272 0.0003165538205029501 0 0.1045907903469426 0.00017140684749832909 0 0.1046474203113157 0.00025072640824367861 0 0.1043994234135272 0.0003165538205029501 0 0.10450397229592619 0.00013505106618564154 0 0.1045907903469426 0.00017140684749832909 0 0.10405521823845167 0.00011014843979418655 0 0.10397943557772187 0.00011713891172300176 0 0.10450397229592619 0.00013505106618564154 0 0.1045907903469426 0.00017140684749832909 0 0.10456871582197345 0.00011315022834199609 0 0.10407609082318216 -0.00028685705933963207 0 0.1045285589584983 -0.00038525072886890714 0 0.10457261957500985 -0.00030473816750994015 0 0.1045907903469426 0.00017140684749832909 0 0.1046474203113157 0.00025072640824367861 0 0.10467416080687979 0.00014345275436694477 0 0.1045907903469426 0.00017140684749832909 0 0.10467416080687979 0.00014345275436694477 0 0.10461148153253987 0.00010685681032135243 0 0.1045907903469426 0.00017140684749832909 0 0.10456871582197345 0.00011315022834199609 0 0.10461148153253987 0.00010685681032135243 0 0.1047424671550804 0.00029175804933178945 0 0.1046474203113157 0.00025072640824367861 0 0.10473568185896907 0.00022381634204341879 0 0.1046474203113157 0.00025072640824367861 0 0.10473568185896907 0.00022381634204341879 0 0.10467416080687979 0.00014345275436694477 0 0.10477247527837751 0.00026866991097842158 0 0.10473568185896907 0.00022381634204341879 0 0.10480125146488928 0.00018202652048590308 0 0.10463521516277667 -8.5816636087003524e-05 0 0.10449124416683184 -0.00021492245141467188 0 0.10473568185896907 0.00022381634204341879 0 0.10474967532026924 0.00013428476933010185 0 0.10480125146488928 0.00018202652048590308 0 0.10473568185896907 0.00022381634204341879 0 0.10474967532026924 0.00013428476933010185 0 0.10467416080687979 0.00014345275436694477 0 0.10467416080687979 0.00014345275436694477 0 0.10472472554151167 6.4077107262422445e-05 0 0.10465597209629826 5.4506517667787654e-05 0 0.10474967532026924 0.00013428476933010185 0 0.10467416080687979 0.00014345275436694477 0 0.10472472554151167 6.4077107262422445e-05 0 0.10474967532026924 0.00013428476933010185 0 0.10481195418508542 5.4991123293778665e-05 0 0.10480125146488928 0.00018202652048590308 0 0.10474967532026924 0.00013428476933010185 0 0.10472472554151167 6.4077107262422445e-05 0 0.10481195418508542 5.4991123293778665e-05 0 0.10472472554151167 6.4077107262422445e-05 0 0.10475207640313165 -5.23827797802361e-06 0 0.10481195418508542 5.4991123293778665e-05 0 0.10467356044951645 -1.5052951871694526e-05 0 0.10472472554151167 6.4077107262422445e-05 0 0.10465597209629826 5.4506517667787654e-05 0 0.10467356044951645 -1.5052951871694526e-05 0 0.10472472554151167 6.4077107262422445e-05 0 0.10475207640313165 -5.23827797802361e-06 0 0.10467356044951645 -1.5052951871694526e-05 0 0.10457388847137429 4.844964942566326e-05 0 0.10465597209629826 5.4506517667787654e-05 0 0.10396745441035336 0.00054745079710914442 0 0.10355501626486413 0.00061777443611570461 0 0.10378107657912211 0.0012439037824676755 0 0.10414770393148462 0.0011175066257969003 0 0.10425272982394893 0.00081762312504477983 0 0.10302495692453749 0.0012233433242481572 0 0.10355501626486413 0.00061777443611570461 0 0.10140032225998537 0.0024313213898989948 0 0.1016325885521068 0.0024229060978507699 0 0.10141541173399277 0.0021769105047548831 0 0.101600071792926 0.0026149920041126135 0 0.10140032225998537 0.0024313213898989948 0 0.1016325885521068 0.0024229060978507699 0 0.10177374084269074 0.0021556422658733682 0 0.1016325885521068 0.0024229060978507699 0 0.10141541173399277 0.0021769105047548831 0 0.10302495692453749 0.0012233433242481572 0 0.10344894975009487 0.00066820937275391824 0 0.10314388113561017 0.0011728111361051011 0 0.10333305064495027 0.00063912318954072948 0 0.10343228606474134 0.00054973842840428798 0 0.10450397229592619 0.00013505106618564154 0 0.10457388847137429 4.844964942566326e-05 0 0.10456871582197345 0.00011315022834199609 0 0.10457261957500985 -0.00030473816750994015 0 0.1047386770480926 -0.00083458777895785202 0 0.10467698540154241 -0.00077632043421853661 0 0.10397943557772187 0.00011713891172300176 0 0.10355501626486413 0.00061777443611570461 0 0.10407609082318216 -0.00028685705933963207 0 0.1045285589584983 -0.00038525072886890714 0 0.1047182488959521 -0.0008310423590449273 0 0.10317791692850183 0.00073625757215812734 0 0.10344894975009487 0.00066820937275391824 0 0.1045285589584983 -0.00038525072886890714 0 0.10457261957500985 -0.00030473816750994015 0 0.10467698540154241 -0.00077632043421853661 0 0.10355501626486413 0.00061777443611570461 0 0.10344894975009487 0.00066820937275391824 0 0.10367723047672926 0.00025421180202606027 0 0.10344894975009487 0.00066820937275391824 0 0.10457388847137429 4.844964942566326e-05 0 0.10461148153253987 0.00010685681032135243 0 0.10465597209629826 5.4506517667787654e-05 0 0.10457388847137429 4.844964942566326e-05 0 0.10456871582197345 0.00011315022834199609 0 0.10461148153253987 0.00010685681032135243 0 0.10467416080687979 0.00014345275436694477 0 0.10461148153253987 0.00010685681032135243 0 0.10465597209629826 5.4506517667787654e-05 0 0.10463450649271404 -0.00077398510504117469 0 0.10421809410367651 -0.00096618546906433061 0 0.10407363097775549 -0.0012959450514648872 0 0.10463450649271404 -0.00077398510504117469 0 0.10421809410367651 -0.00096618546906433061 0 0.10431149610617371 -0.00072227726675142283 0 0.10309501668075387 -0.0019371257663193578 0 0.10307045864147231 -0.0017648387349572092 0 0.10134407931378954 -0.00342862535330827 0 0.10111310726356963 -0.003169839214063616 0 0.101377587769683 -0.0030734643739326072 0 0.10134407931378954 -0.00342862535330827 0 0.10111310726356963 -0.003169839214063616 0 0.1009628432669484 -0.0033296145076020375 0 0.10111310726356963 -0.003169839214063616 0 0.10102777050351576 -0.0028631037797794269 0 0.101377587769683 -0.0030734643739326072 0 0.10102777050351576 -0.0028631037797794269 0 0.10131042105987342 -0.0027130090370122723 0 0.10092712887307055 -0.0025146918803787125 0 0.10102777050351576 -0.0028631037797794269 0 0.10131042105987342 -0.0027130090370122723 0 0.101377587769683 -0.0030734643739326072 0 0.10149843216703844 -0.0028863060161071047 0 0.101377587769683 -0.0030734643739326072 0 0.10172704733417447 -0.0029518974638109863 0 0.10134407931378954 -0.00342862535330827 0 0.101377587769683 -0.0030734643739326072 0 0.10172704733417447 -0.0029518974638109863 0 0.10131042105987342 -0.0027130090370122723 0 0.10149843216703844 -0.0028863060161071047 0 0.1016261401725274 -0.0028353820079266637 0 0.10131042105987342 -0.0027130090370122723 0 0.10149843216703844 -0.0028863060161071047 0 0.101377587769683 -0.0030734643739326072 0 0.10421809410367651 -0.00096618546906433061 0 0.10407363097775549 -0.0012959450514648872 0 0.10400842029592003 -0.0011613971464319063 0 0.10149843216703844 -0.0028863060161071047 0 0.10172704733417447 -0.0029518974638109863 0 0.1016261401725274 -0.0028353820079266637 0 0.1034977186767387 -0.0012499889320603736 0 0.10407363097775549 -0.0012959450514648872 0 0.10376946590056782 -0.0012525550478654853 0 0.10407363097775549 -0.0012959450514648872 0 0.10391129056911355 -0.00123822698996723 0 0.10376946590056782 -0.0012525550478654853 0 0.10407363097775549 -0.0012959450514648872 0 0.10391129056911355 -0.00123822698996723 0 0.10400842029592003 -0.0011613971464319063 0 0.10391129056911355 -0.00123822698996723 0 0.10384595416061818 -0.0012071575557094179 0 0.10400842029592003 -0.0011613971464319063 0 0.10391129056911355 -0.00123822698996723 0 0.10384595416061818 -0.0012071575557094179 0 0.10376946590056782 -0.0012525550478654853 0 0.10384595416061818 -0.0012071575557094179 0 0.10376946590056782 -0.0012525550478654853 0 0.10370087295446045 -0.0012446178400655594 0 0.10370087295446045 -0.0012446178400655594 0 0.10378759710723016 -0.0011688894533053204 0 0.10366166194269759 -0.0012572200320105518 0 0.10384595416061818 -0.0012071575557094179 0 0.10370087295446045 -0.0012446178400655594 0 0.10378759710723016 -0.0011688894533053204 0 0.10384595416061818 -0.0012071575557094179 0 0.10378759710723016 -0.0011688894533053204 0 0.10398993826956637 -0.0010776953483875929 0 0.10378759710723016 -0.0011688894533053204 0 0.10398993826956637 -0.0010776953483875929 0 0.10391675225952526 -0.0010319363449188918 0 0.10421809410367651 -0.00096618546906433061 0 0.10398993826956637 -0.0010776953483875929 0 0.10400842029592003 -0.0011613971464319063 0 0.10384595416061818 -0.0012071575557094179 0 0.10398993826956637 -0.0010776953483875929 0 0.10400842029592003 -0.0011613971464319063 0 0.10451980292815594 -0.00014176692411425597 0 0.10435182494756301 -0.00039544580607124357 0 0.10353515913051843 -0.0013796224077765747 0 0.10366166194269759 -0.0012572200320105518 0 0.10370700341597416 -0.001057327555142745 0 0.10480191859076035 -3.6150183789447641e-05 0 0.10475207640313165 -5.23827797802361e-06 0 0.10481195418508542 5.4991123293778665e-05 0 0.10407231536517453 -0.00029689111186370756 0 0.10435182494756301 -0.00039544580607124357 0 0.10378759710723016 -0.0011688894533053204 0 0.10366166194269759 -0.0012572200320105518 0 0.10370700341597416 -0.001057327555142745 0 0.10378759710723016 -0.0011688894533053204 0 0.10370700341597416 -0.001057327555142745 0 0.10391675225952526 -0.0010319363449188918 0 0.10370700341597416 -0.001057327555142745 0 0.10395012443649844 -0.00088374436195051231 0 0.10391629372573219 -0.00070632032063211014 0 0.10435182494756301 -0.00039544580607124357 0 0.10428010090219998 -0.00056436603026928443 0 0.10407533069065004 -0.00072651266141028875 0 0.10414247178864143 -0.00049112324023013352 0 0.10412799428971875 -0.00057514053024139867 0 0.10435182494756301 -0.00039544580607124357 0 0.10449124416683184 -0.00021492245141467188 0 0.10370700341597416 -0.001057327555142745 0 0.10395012443649844 -0.00088374436195051231 0 0.10391675225952526 -0.0010319363449188918 0 0.10395012443649844 -0.00088374436195051231 0 0.10412618548741909 -0.00071326404556292411 0 0.10391629372573219 -0.00070632032063211014 0 0.10421809410367651 -0.00096618546906433061 0 0.10398993826956637 -0.0010776953483875929 0 0.10408439041265437 -0.00090205815051815302 0 0.10395012443649844 -0.00088374436195051231 0 0.10408439041265437 -0.00090205815051815302 0 0.10391675225952526 -0.0010319363449188918 0 0.10398993826956637 -0.0010776953483875929 0 0.10408439041265437 -0.00090205815051815302 0 0.10391675225952526 -0.0010319363449188918 0 0.10395012443649844 -0.00088374436195051231 0 0.10408439041265437 -0.00090205815051815302 0 0.10412618548741909 -0.00071326404556292411 0 0.10421809410367651 -0.00096618546906433061 0 0.10408439041265437 -0.00090205815051815302 0 0.10431149610617371 -0.00072227726675142283 0 0.10408439041265437 -0.00090205815051815302 0 0.10431149610617371 -0.00072227726675142283 0 0.10412618548741909 -0.00071326404556292411 0 0.10431149610617371 -0.00072227726675142283 0 0.10412618548741909 -0.00071326404556292411 0 0.10432011089373779 -0.00052028162750251223 0 0.10412618548741909 -0.00071326404556292411 0 0.10432011089373779 -0.00052028162750251223 0 0.10416355766669116 -0.00055416761301891834 0 0.10431149610617371 -0.00072227726675142283 0 0.10432011089373779 -0.00052028162750251223 0 0.10451625957671933 -0.0005269986206937942 0 0.10391629372573219 -0.00070632032063211014 0 0.10416355766669116 -0.00055416761301891834 0 0.10421556689106103 -0.00042180739675122292 0 0.10428010090219998 -0.00056436603026928443 0 0.10426567625706752 -0.00056552655574500406 0 0.10414247178864143 -0.00049112324023013352 0 0.10412799428971875 -0.00057514053024139867 0 0.10421556689106103 -0.00042180739675122292 0 0.10412618548741909 -0.00071326404556292411 0 0.10391629372573219 -0.00070632032063211014 0 0.10416355766669116 -0.00055416761301891834 0 0.10432011089373779 -0.00052028162750251223 0 0.10416355766669116 -0.00055416761301891834 0 0.10428339807042784 -0.00042836178179902942 0 0.10440727250762483 -0.00024147380792262802 0 0.10421556689106103 -0.00042180739675122292 0 0.10437331339300768 -0.00032859761219631645 0 0.10440727250762483 -0.00024147380792262802 0 0.10414247178864143 -0.00049112324023013352 0 0.10421556689106103 -0.00042180739675122292 0 0.10421556689106103 -0.00042180739675122292 0 0.10428339807042784 -0.00042836178179902942 0 0.10437331339300768 -0.00032859761219631645 0 0.10416355766669116 -0.00055416761301891834 0 0.10421556689106103 -0.00042180739675122292 0 0.10428339807042784 -0.00042836178179902942 0 0.10428339807042784 -0.00042836178179902942 0 0.10437331339300768 -0.00032859761219631645 0 0.10443192760133092 -0.00034316461896546766 0 0.10432011089373779 -0.00052028162750251223 0 0.10450487443321566 -0.00038795192657251662 0 0.10451625957671933 -0.0005269986206937942 0 0.10432011089373779 -0.00052028162750251223 0 0.10443192760133092 -0.00034316461896546766 0 0.10450487443321566 -0.00038795192657251662 0 0.10432011089373779 -0.00052028162750251223 0 0.10428339807042784 -0.00042836178179902942 0 0.10443192760133092 -0.00034316461896546766 0 0.10443192760133092 -0.00034316461896546766 0 0.10450487443321566 -0.00038795192657251662 0 0.10462875962329038 -0.00023168926538509954 0 0.10450487443321566 -0.00038795192657251662 0 0.10466355908351396 -0.00035996386993197892 0 0.10462875962329038 -0.00023168926538509954 0 0.10466355908351396 -0.00035996386993197892 0 0.10469159532033953 -0.00048006412812392617 0 0.10476762165232473 -0.00036182471204781466 0 0.10466355908351396 -0.00035996386993197892 0 0.10469159532033953 -0.00048006412812392617 0 0.10451625957671933 -0.0005269986206937942 0 0.10450487443321566 -0.00038795192657251662 0 0.10466355908351396 -0.00035996386993197892 0 0.10451625957671933 -0.0005269986206937942 0 0.10463450649271404 -0.00077398510504117469 0 0.10469159532033953 -0.00048006412812392617 0 0.10451625957671933 -0.0005269986206937942 0 0.10463450649271404 -0.00077398510504117469 0 0.10431149610617371 -0.00072227726675142283 0 0.10451625957671933 -0.0005269986206937942 0 0.10134407931378954 -0.00342862535330827 0 0.1011312418915935 -0.0034678878016643796 0 0.1009628432669484 -0.0033296145076020375 0 0.10309501668075387 -0.0019371257663193578 0 0.10334633646431632 -0.0017089094174312979 0 0.10134407931378954 -0.00342862535330827 0 0.1013935215627902 -0.0034461845404198735 0 0.1011312418915935 -0.0034678878016643796 0 0.10463450649271404 -0.00077398510504117469 0 0.10469159532033953 -0.00048006412812392617 0 0.10488228889769095 -0.00039959709936830776 0 0.10134407931378954 -0.00342862535330827 0 0.1013935215627902 -0.0034461845404198735 0 0.10143992990239496 -0.003360336230208811 0 0.10488228889769095 -0.00039959709936830776 0 0.10476762165232473 -0.00036182471204781466 0 0.10482723770052151 -0.00020726260051956761 0 0.10469159532033953 -0.00048006412812392617 0 0.10488228889769095 -0.00039959709936830776 0 0.10476762165232473 -0.00036182471204781466 0 0.10466355908351396 -0.00035996386993197892 0 0.10476762165232473 -0.00036182471204781466 0 0.10482723770052151 -0.00020726260051956761 0 0.10488228889769095 -0.00039959709936830776 0 0.10482723770052151 -0.00020726260051956761 0 0.10498837970862954 -0.00016982027507151613 0 0.10466355908351396 -0.00035996386993197892 0 0.10482723770052151 -0.00020726260051956761 0 0.10462875962329038 -0.00023168926538509954 0 0.10482723770052151 -0.00020726260051956761 0 0.10462875962329038 -0.00023168926538509954 0 0.10482494636371691 -7.6114170034885894e-05 0 0.10482723770052151 -0.00020726260051956761 0 0.10494432485919832 -5.1712847262457481e-05 0 0.10482494636371691 -7.6114170034885894e-05 0 0.10482723770052151 -0.00020726260051956761 0 0.10494432485919832 -5.1712847262457481e-05 0 0.10498837970862954 -0.00016982027507151613 0 0.10440727250762483 -0.00024147380792262802 0 0.10451852128834528 -0.00023789839496945136 0 0.10466545941799126 -0.00012368087316930092 0 0.10440727250762483 -0.00024147380792262802 0 0.10437331339300768 -0.00032859761219631645 0 0.10451852128834528 -0.00023789839496945136 0 0.10437331339300768 -0.00032859761219631645 0 0.10443192760133092 -0.00034316461896546766 0 0.10451852128834528 -0.00023789839496945136 0 0.10451852128834528 -0.00023789839496945136 0 0.10462875962329038 -0.00023168926538509954 0 0.10466545941799126 -0.00012368087316930092 0 0.10443192760133092 -0.00034316461896546766 0 0.10451852128834528 -0.00023789839496945136 0 0.10462875962329038 -0.00023168926538509954 0 0.10462875962329038 -0.00023168926538509954 0 0.10466545941799126 -0.00012368087316930092 0 0.10482494636371691 -7.6114170034885894e-05 0 0.10472130154978714 -6.6746345233598817e-05 0 0.10440727250762483 -0.00024147380792262802 0 0.10466545941799126 -0.00012368087316930092 0 0.10472130154978714 -6.6746345233598817e-05 0 0.10466545941799126 -0.00012368087316930092 0 0.1048452977178098 -3.6093299877093069e-05 0 0.10466545941799126 -0.00012368087316930092 0 0.1048452977178098 -3.6093299877093069e-05 0 0.10482494636371691 -7.6114170034885894e-05 0 0.1048452977178098 -3.6093299877093069e-05 0 0.10499978451222659 -4.7595432578683899e-08 0 0.10499988192074336 2.6301956585208411e-08 0 0.10499970930560233 1.639555970802931e-08 0 0.10472130154978714 -6.6746345233598817e-05 0 0.1048452977178098 -3.6093299877093069e-05 0 0.10499970930560233 1.639555970802931e-08 0 0.1048452977178098 -3.6093299877093069e-05 0 0.10499978451222659 -4.7595432578683899e-08 0 0.1048452977178098 -3.6093299877093069e-05 0 0.10482494636371691 -7.6114170034885894e-05 0 0.10499988192074336 2.6301956585208411e-08 0 0.10494432485919832 -5.1712847262457481e-05 0 0.10482494636371691 -7.6114170034885894e-05 0 0.10499988192074336 2.6301956585208411e-08 0 0.10494432485919832 -5.1712847262457481e-05 0 0.10499988192074336 2.6301956585208411e-08 0 0.10499998491485903 -1.3925609425323198e-08 0 0.10494432485919832 -5.1712847262457481e-05 0 0.10499998491485903 -1.3925609425323198e-08 0 0.10501947166188225 -4.3333234470708345e-05 0 0.10440596465362614 -0.00052534063344795892 0 0.10499914192082709 -4.8059325626673777e-07 0 0.10499998491485903 -1.3925609425323198e-08 0 0.10501947166188225 -4.3333234470708345e-05 0 0.10500005543563501 -1.1974430638426719e-08 0 0.10377202105641596 -0.00054880374449220448 0 0.10499859430322332 2.0075013671268133e-07 0 0.10475849533855344 -0.00034738057657467976 0 0.10499859430322332 2.0075013671268133e-07 0 0.10500004269919208 -2.1976596551536715e-07 0 0.10475849533855344 -0.00034738057657467976 0 0.10500004269919208 -2.1976596551536715e-07 0 0.1050969469382729 -0.00036079095211320045 0 0.1050008391234258 3.8819063992523087e-08 0 0.10500004269919208 -2.1976596551536715e-07 0 0.1050969469382729 -0.00036079095211320045 0 0.10475849533855344 -0.00034738057657467976 0 0.1050969469382729 -0.00036079095211320045 0 0.10487416469025677 -0.00083853738519993031 0 0.10475849533855344 -0.00034738057657467976 0 0.1050969469382729 -0.00036079095211320045 0 0.10487416469025677 -0.00083853738519993031 0 0.10534067077273687 -0.00117545539652563 0 0.10377202105641596 -0.00054880374449220448 0 0.10475849533855344 -0.00034738057657467976 0 0.10419715186336388 -0.0012099325138276152 0 0.10487416469025677 -0.00083853738519993031 0 0.10475849533855344 -0.00034738057657467976 0 0.10419715186336388 -0.0012099325138276152 0 0.10419715186336388 -0.0012099325138276152 0 0.10482657945592026 -0.0014463793938383727 0 0.10442657720989067 -0.0020136934572592869 0 0.10487416469025677 -0.00083853738519993031 0 0.10419715186336388 -0.0012099325138276152 0 0.10482657945592026 -0.0014463793938383727 0 0.10482657945592026 -0.0014463793938383727 0 0.10525374103224616 -0.001936978195093374 0 0.10534067077273687 -0.00117545539652563 0 0.10487416469025677 -0.00083853738519993031 0 0.10482657945592026 -0.0014463793938383727 0 0.10534067077273687 -0.00117545539652563 0 0.10482657945592026 -0.0014463793938383727 0 0.10525374103224616 -0.001936978195093374 0 0.10442657720989067 -0.0020136934572592869 0 0.10525374103224616 -0.001936978195093374 0 0.10442657720989067 -0.0020136934572592869 0 0.10491754838798931 -0.0027372104434853764 0 0.10419715186336388 -0.0012099325138276152 0 0.10442657720989067 -0.0020136934572592869 0 0.10361841547318552 -0.0021785824820039746 0 0.10442657720989067 -0.0020136934572592869 0 0.10361841547318552 -0.0021785824820039746 0 0.1039667004805277 -0.0026056666824974565 0 0.10419715186336388 -0.0012099325138276152 0 0.10361841547318552 -0.0021785824820039746 0 0.10269649227717755 -0.0016036152071479443 0 0.10334633646431632 -0.0017089094174312979 0 0.1038573909963709 -0.0010865044740673323 0 0.10361841547318552 -0.0021785824820039746 0 0.10269649227717755 -0.0016036152071479443 0 0.10274220490825697 -0.0026989682975856371 0 0.10143992990239496 -0.003360336230208811 0 0.10269649227717755 -0.0016036152071479443 0 0.10274220490825697 -0.0026989682975856371 0 0.10494432485919832 -5.1712847262457481e-05 0 0.10501947166188225 -4.3333234470708345e-05 0 0.10498837970862954 -0.00016982027507151613 0 0.10440596465362614 -0.00052534063344795892 0 0.1038573909963709 -0.0010865044740673323 0 0.10377202105641596 -0.00054880374449220448 0 0.10419715186336388 -0.0012099325138276152 0 0.10269649227717755 -0.0016036152071479443 0 0.10494157014623409 -5.5644122675132373e-05 0 0.10496819661291969 -0.00011561993446723782 0 0.10500339506362498 -6.6516937824448685e-05 0 0.10500006317144336 1.2830885416368055e-08 0 0.10494157014623409 -5.5644122675132373e-05 0 0.10500339506362498 -6.6516937824448685e-05 0 0.10499690329931537 -1.3849707358055797e-06 0 0.10286818739866201 -0.00064715836566146465 0 0.1049980090756687 -1.2436552301148831e-07 0 0.1039705852445556 -0.00017210520984859562 0 0.10500006995700913 -1.12447998662686e-08 0 0.10502206639399699 -4.729718836225203e-05 0 0.10499253559392488 -1.80201853890862e-05 0 0.10500006317144336 1.2830885416368055e-08 0 0.10499987171737844 -3.2552861713846445e-08 0 0.10494157014623409 -5.5644122675132373e-05 0 0.10502206639399699 -4.729718836225203e-05 0 0.10499253559392488 -1.80201853890862e-05 0 0.10495864528753882 -4.8656817340261014e-05 0 0.10502206639399699 -4.729718836225203e-05 0 0.10495864528753882 -4.8656817340261014e-05 0 0.10498738249431902 -9.9082842925443988e-05 0 0.10500006995700913 -1.12447998662686e-08 0 0.10499253559392488 -1.80201853890862e-05 0 0.10499990145400588 -9.1634919696275628e-09 0 0.10499881282902283 -9.8228343707339186e-07 0 0.10435603318417634 -0.00073531145659421718 0 0.10499253559392488 -1.80201853890862e-05 0 0.10499990145400588 -9.1634919696275628e-09 0 0.10495864528753882 -4.8656817340261014e-05 0 0.1050969469382729 -0.00036079095211320045 0 0.1050008391234258 3.8819063992523087e-08 0 0.10569441794918812 -0.00066711988985562352 0 0.1050969469382729 -0.00036079095211320045 0 0.10569441794918812 -0.00066711988985562352 0 0.10534067077273687 -0.00117545539652563 0 0.10569441794918812 -0.00066711988985562352 0 0.10534067077273687 -0.00117545539652563 0 0.10607011852713139 -0.001711110768648271 0 0.10525374103224616 -0.001936978195093374 0 0.10534067077273687 -0.00117545539652563 0 0.10607011852713139 -0.001711110768648271 0 0.10525374103224616 -0.001936978195093374 0 0.10607011852713139 -0.001711110768648271 0 0.10584238516186902 -0.0024697265961693537 0 0.10494527034968146 -0.00017289431258333757 0 0.10502784221674756 -0.00016173803225969985 0 0.10501233756622275 -0.00032521461272144242 0 0.10313369632683965 -0.0015787995297490466 0 0.10048905797055738 -0.0026561784943329135 0 0.10435603318417634 -0.00073531145659421718 0 0.10313369632683965 -0.0015787995297490466 0 0.10495864528753882 -4.8656817340261014e-05 0 0.10494527034968146 -0.00017289431258333757 0 0.10498738249431902 -9.9082842925443988e-05 0 0.10494527034968146 -0.00017289431258333757 0 0.10498738249431902 -9.9082842925443988e-05 0 0.10502784221674756 -0.00016173803225969985 0 0.10494157014623409 -5.5644122675132373e-05 0 0.10490320537362097 -0.0001370614426348515 0 0.10496819661291969 -0.00011561993446723782 0 0.1039705852445556 -0.00017210520984859562 0 0.10243941060387164 -0.00066000788443082317 0 0.10502206639399699 -4.729718836225203e-05 0 0.10498738249431902 -9.9082842925443988e-05 0 0.10502784221674756 -0.00016173803225969985 0 0.10243941060387164 -0.00066000788443082317 0 0.09963315219110791 -0.0026050065159798014 0 0.10490320537362097 -0.0001370614426348515 0 0.1049646400539018 -0.00018466932296056637 0 0.10488200471329572 -0.0002324110730606577 0 0.10490320537362097 -0.0001370614426348515 0 0.1049646400539018 -0.00018466932296056637 0 0.10496819661291969 -0.00011561993446723782 0 0.086177905112287484 -0.0023695634419058339 0 0.08616106852897891 -0.002342206190335159 0 0.086129376797174459 -0.0023544366029923476 0 0.086177905112287484 -0.0023695634419058339 0 0.086217397389894548 -0.0023448048239428352 0 0.08616106852897891 -0.002342206190335159 0 0.086189118367529613 -0.0024011449892413802 0 0.086177905112287484 -0.0023695634419058339 0 0.086149828947447313 -0.0023860884885298591 0 0.086189118367529613 -0.0024011449892413802 0 0.086177905112287484 -0.0023695634419058339 0 0.086234577934051718 -0.0023849710008013929 0 0.097322440399359805 -0.0019226825708279097 0 0.09963315219110791 -0.0026050065159798014 0 0.09963315219110791 -0.0026050065159798014 0 0.10048905797055738 -0.0026561784943329135 0 0.098420895027021199 -0.0020554156674501534 0 0.098391776704232103 -0.0028489715536174917 0 0.098195715195836808 -0.0021624932834804888 0 0.086177905112287484 -0.0023695634419058339 0 0.086234577934051718 -0.0023849710008013929 0 0.086217397389894548 -0.0023448048239428352 0 0.09963315219110791 -0.0026050065159798014 0 0.09720402565316659 -0.0024923537769836065 0 0.09720402565316659 -0.0024923537769836065 0 0.10048905797055738 -0.0026561784943329135 0 0.10635690684513287 -0.0032410043981925441 0 0.10610200069678037 -0.0028776292348919345 0 0.10623909612519652 -0.0026486339786834338 0 0.10635690684513287 -0.0032410043981925441 0 0.10595678721833586 -0.0031310600073817256 0 0.10610200069678037 -0.0028776292348919345 0 0.10595678721833586 -0.0031310600073817256 0 0.10585539637398268 -0.0028177605321231631 0 0.10567214966464819 -0.0031077856810762645 0 0.10595678721833586 -0.0031310600073817256 0 0.10567214966464819 -0.0031077856810762645 0 0.10580496595043995 -0.0032750978252743387 0 0.10595678721833586 -0.0031310600073817256 0 0.10585539637398268 -0.0028177605321231631 0 0.10610200069678037 -0.0028776292348919345 0 0.10585539637398268 -0.0028177605321231631 0 0.10610200069678037 -0.0028776292348919345 0 0.10601211293466942 -0.0027430802074771212 0 0.10610200069678037 -0.0028776292348919345 0 0.10617635731102966 -0.0026818662279487477 0 0.10601211293466942 -0.0027430802074771212 0 0.1062578516220628 -0.002647531963032323 0 0.10617635731102966 -0.0026818662279487477 0 0.10584238516186902 -0.0024697265961693537 0 0.10607011852713139 -0.001711110768648271 0 0.1062578516220628 -0.002647531963032323 0 0.10584238516186902 -0.0024697265961693537 0 0.10494527034968146 -0.00017289431258333757 0 0.10501233756622275 -0.00032521461272144242 0 0.10496967727334283 -0.00034627831250611945 0 0.10048905797055738 -0.0026561784943329135 0 0.10053657581885071 -0.0026401689344819688 0 0.10610200069678037 -0.0028776292348919345 0 0.10623909612519652 -0.0026486339786834338 0 0.10617635731102966 -0.0026818662279487477 0 0.10585539637398268 -0.0028177605321231631 0 0.10584238516186902 -0.0024697265961693537 0 0.10601211293466942 -0.0027430802074771212 0 0.10617635731102966 -0.0026818662279487477 0 0.10584238516186902 -0.0024697265961693537 0 0.10601211293466942 -0.0027430802074771212 0 0.10584238516186902 -0.0024697265961693537 0 0.10537736649149079 -0.0027887857346025318 0 0.10563959960145179 -0.0028477068673241875 0 0.10584238516186902 -0.0024697265961693537 0 0.10537736649149079 -0.0027887857346025318 0 0.10495895569028413 -0.0025590502051351695 0 0.10525374103224616 -0.001936978195093374 0 0.10584238516186902 -0.0024697265961693537 0 0.10491754838798931 -0.0027372104434853764 0 0.10514288319290832 -0.0026996460008609467 0 0.10449272280448628 -0.0028126867722932428 0 0.10585539637398268 -0.0028177605321231631 0 0.10584238516186902 -0.0024697265961693537 0 0.10563959960145179 -0.0028477068673241875 0 0.10537736649149079 -0.0027887857346025318 0 0.10563959960145179 -0.0028477068673241875 0 0.10549484895153109 -0.0030587019137795443 0 0.10563959960145179 -0.0028477068673241875 0 0.10567214966464819 -0.0031077856810762645 0 0.10549484895153109 -0.0030587019137795443 0 0.10585539637398268 -0.0028177605321231631 0 0.10563959960145179 -0.0028477068673241875 0 0.10567214966464819 -0.0031077856810762645 0 0.10567214966464819 -0.0031077856810762645 0 0.10549484895153109 -0.0030587019137795443 0 0.10551375133234982 -0.0032879473023044994 0 0.10537736649149079 -0.0027887857346025318 0 0.10549484895153109 -0.0030587019137795443 0 0.10526935020609285 -0.0032571708160929786 0 0.10549484895153109 -0.0030587019137795443 0 0.10551375133234982 -0.0032879473023044994 0 0.10526935020609285 -0.0032571708160929786 0 0.10551375133234982 -0.0032879473023044994 0 0.10557115228914647 -0.0037255201732034793 0 0.10526935020609285 -0.0032571708160929786 0 0.10567214966464819 -0.0031077856810762645 0 0.10566559978449987 -0.0034185767410643505 0 0.10580496595043995 -0.0032750978252743387 0 0.10551375133234982 -0.0032879473023044994 0 0.10566559978449987 -0.0034185767410643505 0 0.10557115228914647 -0.0037255201732034793 0 0.10567214966464819 -0.0031077856810762645 0 0.10551375133234982 -0.0032879473023044994 0 0.10566559978449987 -0.0034185767410643505 0 0.10566559978449987 -0.0034185767410643505 0 0.10557115228914647 -0.0037255201732034793 0 0.10575044269625879 -0.0035634682632255188 0 0.10557115228914647 -0.0037255201732034793 0 0.10575044269625879 -0.0035634682632255188 0 0.10584384400922638 -0.0036678326870499245 0 0.098974310786998115 -0.0031090282851476535 0 0.098904307708046049 -0.002879762306331606 0 0.099237463427773551 -0.0028628487173570109 0 0.098904307708046049 -0.002879762306331606 0 0.098901072349422942 -0.0026932145090530091 0 0.099237463427773551 -0.0028628487173570109 0 0.098901072349422942 -0.0026932145090530091 0 0.098498797974112748 -0.0028546691400275952 0 0.098655704036474598 -0.0025558492017625431 0 0.098904307708046049 -0.002879762306331606 0 0.098901072349422942 -0.0026932145090530091 0 0.098498797974112748 -0.0028546691400275952 0 0.097546073812221565 -0.0033954305069408717 0 0.097138989093104658 -0.0032607392172960218 0 0.098974310786998115 -0.0031090282851476535 0 0.098904307708046049 -0.002879762306331606 0 0.098498797974112748 -0.0028546691400275952 0 0.098816095780315735 -0.0030887946447113405 0 0.098974310786998115 -0.0031090282851476535 0 0.098510678906795948 -0.0028274885388703051 0 0.10596728644385113 -0.0038593232786118328 0 0.10609360036574407 -0.0036563532302772983 0 0.10584384400922638 -0.0036678326870499245 0 0.10557115228914647 -0.0037255201732034793 0 0.10596728644385113 -0.0038593232786118328 0 0.10584384400922638 -0.0036678326870499245 0 0.10065775497377788 -0.0039599452609154441 0 0.095857905023569084 -0.0028412908339397508 0 0.10557115228914647 -0.0037255201732034793 0 0.10596728644385113 -0.0038593232786118328 0 0.10620920702857753 -0.0041964484962646242 0 0.098816095780315735 -0.0030887946447113405 0 0.098510678906795948 -0.0028274885388703051 0 0.098044813593201594 -0.002538486375433057 0 0.097138989093104658 -0.0032607392172960218 0 0.095857905023569084 -0.0028412908339397508 0 0.10596728644385113 -0.0038593232786118328 0 0.10616646614894661 -0.0039596408394938915 0 0.10620920702857753 -0.0041964484962646242 0 0.10616646614894661 -0.0039596408394938915 0 0.10609360036574407 -0.0036563532302772983 0 0.10630653459879071 -0.0037525886967034209 0 0.10596728644385113 -0.0038593232786118328 0 0.10616646614894661 -0.0039596408394938915 0 0.10609360036574407 -0.0036563532302772983 0 0.10609360036574407 -0.0036563532302772983 0 0.10584384400922638 -0.0036678326870499245 0 0.10592393067382311 -0.003440011552031645 0 0.10575044269625879 -0.0035634682632255188 0 0.10584384400922638 -0.0036678326870499245 0 0.10592393067382311 -0.003440011552031645 0 0.10566559978449987 -0.0034185767410643505 0 0.10580496595043995 -0.0032750978252743387 0 0.10592393067382311 -0.003440011552031645 0 0.10566559978449987 -0.0034185767410643505 0 0.10575044269625879 -0.0035634682632255188 0 0.10592393067382311 -0.003440011552031645 0 0.10595678721833586 -0.0031310600073817256 0 0.10580496595043995 -0.0032750978252743387 0 0.10592393067382311 -0.003440011552031645 0 0.10635690684513287 -0.0032410043981925441 0 0.10609360036574407 -0.0036563532302772983 0 0.10592393067382311 -0.003440011552031645 0 0.10635690684513287 -0.0032410043981925441 0 0.10595678721833586 -0.0031310600073817256 0 0.10592393067382311 -0.003440011552031645 0 0.09426400894407172 -0.0027139819889838773 0 0.094082544460020276 -0.002159646537346808 0 0.094262925795057614 -0.0022746244396411527 0 0.09720402565316659 -0.0024923537769836065 0 0.093030887769246437 -0.0015067433065161756 0 0.10635690684513287 -0.0032410043981925441 0 0.10609360036574407 -0.0036563532302772983 0 0.10630653459879071 -0.0037525886967034209 0 0.09720402565316659 -0.0024923537769836065 0 0.096364030038658802 -0.0025975925497285046 0 0.086217397389894548 -0.0023448048239428352 0 0.086178087189664049 -0.0023012459624887388 0 0.086153909446068405 -0.0023192369283933324 0 0.096364030038658802 -0.0025975925497285046 0 0.094554990388068916 -0.0023530137448491608 0 0.094082544460020276 -0.002159646537346808 0 0.094262925795057614 -0.0022746244396411527 0 0.09426743698620059 -0.0018276819383743279 0 0.10616646614894661 -0.0039596408394938915 0 0.10630653459879071 -0.0037525886967034209 0 0.10626903181770085 -0.0042450892268621121 0 0.10616646614894661 -0.0039596408394938915 0 0.10620920702857753 -0.0041964484962646242 0 0.10626903181770085 -0.0042450892268621121 0 0.086110082394342743 -0.0022880740405186333 0 0.086153909446068405 -0.0023192369283933324 0 0.086107065445497163 -0.0023139628120633815 0 0.086178087189664049 -0.0023012459624887388 0 0.086110082394342743 -0.0022880740405186333 0 0.086132447143129787 -0.0022365179726630794 0 0.086178087189664049 -0.0023012459624887388 0 0.086110082394342743 -0.0022880740405186333 0 0.086153909446068405 -0.0023192369283933324 0 0.086217397389894548 -0.0023448048239428352 0 0.086153909446068405 -0.0023192369283933324 0 0.08616106852897891 -0.002342206190335159 0 0.086153909446068405 -0.0023192369283933324 0 0.08616106852897891 -0.002342206190335159 0 0.086107065445497163 -0.0023139628120633815 0 0.10056506321959631 -0.0037028416953279143 0 0.10085854378757886 -0.0038228419734207923 0 0.10033128518361682 -0.0039577976080675641 0 0.10056506321959631 -0.0037028416953279143 0 0.10021230573624193 -0.0036114802656048947 0 0.10033128518361682 -0.0039577976080675641 0 0.10021230573624193 -0.0036114802656048947 0 0.1005362978463317 -0.0034763028599672889 0 0.10009280557844805 -0.0032918104799692497 0 0.10056506321959631 -0.0037028416953279143 0 0.10021230573624193 -0.0036114802656048947 0 0.1005362978463317 -0.0034763028599672889 0 0.10056506321959631 -0.0037028416953279143 0 0.1005362978463317 -0.0034763028599672889 0 0.10079816984161015 -0.0035724544081907946 0 0.1005362978463317 -0.0034763028599672889 0 0.10079816984161015 -0.0035724544081907946 0 0.1009628432669484 -0.0033296145076020375 0 0.1013935215627902 -0.0034461845404198735 0 0.1011312418915935 -0.0034678878016643796 0 0.10085854378757886 -0.0038228419734207923 0 0.1011312418915935 -0.0034678878016643796 0 0.10079816984161015 -0.0035724544081907946 0 0.1009628432669484 -0.0033296145076020375 0 0.1011312418915935 -0.0034678878016643796 0 0.10079816984161015 -0.0035724544081907946 0 0.10085854378757886 -0.0038228419734207923 0 0.10056506321959631 -0.0037028416953279143 0 0.10079816984161015 -0.0035724544081907946 0 0.10085854378757886 -0.0038228419734207923 0 0.10251046918703312 -0.0035896018122926789 0 0.10274220490825697 -0.0026989682975856371 0 0.10343544003718566 -0.0031084707006622174 0 0.10182972121225781 -0.003323714372305614 0 0.10200340563814111 -0.0032858617251565149 0 0.1013935215627902 -0.0034461845404198735 0 0.10143992990239496 -0.003360336230208811 0 0.10251046918703312 -0.0035896018122926789 0 0.10143992990239496 -0.003360336230208811 0 0.10251046918703312 -0.0035896018122926789 0 0.10274220490825697 -0.0026989682975856371 0 0.10200340563814111 -0.0032858617251565149 0 0.10253357454260878 -0.0031373395477564789 0 0.10251046918703312 -0.0035896018122926789 0 0.10343544003718566 -0.0031084707006622174 0 0.10375614922506848 -0.0033374366641032165 0 0.10361841547318552 -0.0021785824820039746 0 0.10274220490825697 -0.0026989682975856371 0 0.10343544003718566 -0.0031084707006622174 0 0.10343544003718566 -0.0031084707006622174 0 0.10367308529392051 -0.0031958796580262849 0 0.1039667004805277 -0.0026056666824974565 0 0.10256023022792693 -0.0031500631465075334 0 0.10253357454260878 -0.0031373395477564789 0 0.10361841547318552 -0.0021785824820039746 0 0.10343544003718566 -0.0031084707006622174 0 0.1039667004805277 -0.0026056666824974565 0 0.10367308529392051 -0.0031958796580262849 0 0.1039667004805277 -0.0026056666824974565 0 0.10491754838798931 -0.0027372104434853764 0 0.10253357454260878 -0.0031373395477564789 0 0.10449272280448628 -0.0028126867722932428 0 0.10442657720989067 -0.0020136934572592869 0 0.1039667004805277 -0.0026056666824974565 0 0.10491754838798931 -0.0027372104434853764 0 0.10537736649149079 -0.0027887857346025318 0 0.10495895569028413 -0.0025590502051351695 0 0.10483952801489742 -0.0032157118045277218 0 0.10537736649149079 -0.0027887857346025318 0 0.10483952801489742 -0.0032157118045277218 0 0.10526935020609285 -0.0032571708160929786 0 0.10408301458740021 -0.0026604945049227289 0 0.10495895569028413 -0.0025590502051351695 0 0.10483952801489742 -0.0032157118045277218 0 0.10253357454260878 -0.0031373395477564789 0 0.10187107334152436 -0.003589481355757923 0 0.10021230573624193 -0.0036114802656048947 0 0.10033128518361682 -0.0039577976080675641 0 0.099591785023437837 -0.0035448548352372401 0 0.10021230573624193 -0.0036114802656048947 0 0.099591785023437837 -0.0035448548352372401 0 0.10009280557844805 -0.0032918104799692497 0 0.099591785023437837 -0.0035448548352372401 0 0.10009280557844805 -0.0032918104799692497 0 0.09960843929993439 -0.003065899729144143 0 0.10009280557844805 -0.0032918104799692497 0 0.09960843929993439 -0.003065899729144143 0 0.10008552963736041 -0.0028932418077660701 0 0.10557115228914647 -0.0037255201732034793 0 0.10483952801489742 -0.0032157118045277218 0 0.10526935020609285 -0.0032571708160929786 0 0.098816095780315735 -0.0030887946447113405 0 0.098974310786998115 -0.0031090282851476535 0 0.099591785023437837 -0.0035448548352372401 0 0.098974310786998115 -0.0031090282851476535 0 0.099591785023437837 -0.0035448548352372401 0 0.09960843929993439 -0.003065899729144143 0 0.10065775497377788 -0.0039599452609154441 0 0.10187107334152436 -0.003589481355757923 0 0.09960843929993439 -0.003065899729144143 0 0.099237463427773551 -0.0028628487173570109 0 0.099629712589912336 -0.0025973762619289284 0 0.098974310786998115 -0.0031090282851476535 0 0.09960843929993439 -0.003065899729144143 0 0.099237463427773551 -0.0028628487173570109 0 0.099237463427773551 -0.0028628487173570109 0 0.099629712589912336 -0.0025973762619289284 0 0.099190249731561236 -0.0025023399903639594 0 0.098901072349422942 -0.0026932145090530091 0 0.099237463427773551 -0.0028628487173570109 0 0.099190249731561236 -0.0025023399903639594 0 0.09960843929993439 -0.003065899729144143 0 0.10008552963736041 -0.0028932418077660701 0 0.099629712589912336 -0.0025973762619289284 0 0.10008552963736041 -0.0028932418077660701 0 0.099629712589912336 -0.0025973762619289284 0 0.10011731228058826 -0.002422805058147061 0 0.10008552963736041 -0.0028932418077660701 0 0.10057092188374456 -0.0027440292285823291 0 0.10011731228058826 -0.002422805058147061 0 0.10008552963736041 -0.0028932418077660701 0 0.10057092188374456 -0.0027440292285823291 0 0.10049690771154386 -0.0031523023285981479 0 0.10009280557844805 -0.0032918104799692497 0 0.10008552963736041 -0.0028932418077660701 0 0.10049690771154386 -0.0031523023285981479 0 0.1005362978463317 -0.0034763028599672889 0 0.10009280557844805 -0.0032918104799692497 0 0.10049690771154386 -0.0031523023285981479 0 0.1005362978463317 -0.0034763028599672889 0 0.10049690771154386 -0.0031523023285981479 0 0.1009628432669484 -0.0033296145076020375 0 0.10049690771154386 -0.0031523023285981479 0 0.1009628432669484 -0.0033296145076020375 0 0.10084619601153812 -0.0030796982918697554 0 0.10111310726356963 -0.003169839214063616 0 0.1009628432669484 -0.0033296145076020375 0 0.10084619601153812 -0.0030796982918697554 0 0.10102777050351576 -0.0028631037797794269 0 0.10057092188374456 -0.0027440292285823291 0 0.10084619601153812 -0.0030796982918697554 0 0.10102777050351576 -0.0028631037797794269 0 0.10057092188374456 -0.0027440292285823291 0 0.10092712887307055 -0.0025146918803787125 0 0.10057092188374456 -0.0027440292285823291 0 0.10049690771154386 -0.0031523023285981479 0 0.10084619601153812 -0.0030796982918697554 0 0.10111310726356963 -0.003169839214063616 0 0.10102777050351576 -0.0028631037797794269 0 0.10084619601153812 -0.0030796982918697554 0 0.10128460651825212 -0.0021422260334482868 0 0.10092712887307055 -0.0025146918803787125 0 0.10061004480524187 -0.0021110311437405522 0 0.10057092188374456 -0.0027440292285823291 0 0.10092712887307055 -0.0025146918803787125 0 0.10061004480524187 -0.0021110311437405522 0 0.10011731228058826 -0.002422805058147061 0 0.10061004480524187 -0.0021110311437405522 0 0.10003691468898072 -0.0019266269429037536 0 0.10057092188374456 -0.0027440292285823291 0 0.10011731228058826 -0.002422805058147061 0 0.10061004480524187 -0.0021110311437405522 0 0.10061004480524187 -0.0021110311437405522 0 0.10031102138767363 -0.0015111519927219355 0 0.10003691468898072 -0.0019266269429037536 0 0.10061004480524187 -0.0021110311437405522 0 0.10079856121528839 -0.0014326849428369193 0 0.10031102138767363 -0.0015111519927219355 0 0.10128460651825212 -0.0021422260334482868 0 0.10061004480524187 -0.0021110311437405522 0 0.10079856121528839 -0.0014326849428369193 0 0.10079856121528839 -0.0014326849428369193 0 0.10031102138767363 -0.0015111519927219355 0 0.10024997006798564 -0.00073017182531246849 0 0.10031102138767363 -0.0015111519927219355 0 0.10024997006798564 -0.00073017182531246849 0 0.09986212042935716 -0.0013307307716663816 0 0.10031102138767363 -0.0015111519927219355 0 0.09986212042935716 -0.0013307307716663816 0 0.10003691468898072 -0.0019266269429037536 0 0.099399520854365861 0.0022041577389242226 0 0.098526527474712924 0.00035822195318930498 0 0.098313025463058187 0.0018723603428859215 0 0.098526527474712924 0.00035822195318930498 0 0.097350007000022942 0.0019819374231544421 0 0.098313025463058187 0.0018723603428859215 0 0.097965853409245976 -0.0018272531560568498 0 0.095062433012755701 -0.0020799882197442567 0 0.099301342758382996 -0.00092416434601911136 0 0.098639382755648264 -0.00091366914116289223 0 0.099200547881334616 -0.00043134028402241084 0 0.099301342758382996 -0.00092416434601911136 0 0.099681913395545926 -0.00062953688106716658 0 0.099200547881334616 -0.00043134028402241084 0 0.10024997006798564 -0.00073017182531246849 0 0.09986212042935716 -0.0013307307716663816 0 0.099681913395545926 -0.00062953688106716658 0 0.099301342758382996 -0.00092416434601911136 0 0.09986212042935716 -0.0013307307716663816 0 0.099681913395545926 -0.00062953688106716658 0 0.09986212042935716 -0.0013307307716663816 0 0.09939301377666164 -0.0014105525634885289 0 0.099490869223159584 -0.001875753537191255 0 0.099301342758382996 -0.00092416434601911136 0 0.09986212042935716 -0.0013307307716663816 0 0.09939301377666164 -0.0014105525634885289 0 0.099301342758382996 -0.00092416434601911136 0 0.09939301377666164 -0.0014105525634885289 0 0.098933958829096391 -0.0013261600588834216 0 0.09939301377666164 -0.0014105525634885289 0 0.098986645439893786 -0.0017670714192793294 0 0.098933958829096391 -0.0013261600588834216 0 0.09939301377666164 -0.0014105525634885289 0 0.099490869223159584 -0.001875753537191255 0 0.098986645439893786 -0.0017670714192793294 0 0.099490869223159584 -0.001875753537191255 0 0.099124160088140054 -0.0021137677402648385 0 0.099420747538376333 -0.0022623874133039356 0 0.099490869223159584 -0.001875753537191255 0 0.099734041941467302 -0.0022228537748263319 0 0.099420747538376333 -0.0022623874133039356 0 0.099490869223159584 -0.001875753537191255 0 0.099124160088140054 -0.0021137677402648385 0 0.098986645439893786 -0.0017670714192793294 0 0.099490869223159584 -0.001875753537191255 0 0.10003691468898072 -0.0019266269429037536 0 0.099734041941467302 -0.0022228537748263319 0 0.09986212042935716 -0.0013307307716663816 0 0.099490869223159584 -0.001875753537191255 0 0.10003691468898072 -0.0019266269429037536 0 0.099629712589912336 -0.0025973762619289284 0 0.10011731228058826 -0.002422805058147061 0 0.099734041941467302 -0.0022228537748263319 0 0.10011731228058826 -0.002422805058147061 0 0.10003691468898072 -0.0019266269429037536 0 0.099734041941467302 -0.0022228537748263319 0 0.099629712589912336 -0.0025973762619289284 0 0.099734041941467302 -0.0022228537748263319 0 0.099420747538376333 -0.0022623874133039356 0 0.099124160088140054 -0.0021137677402648385 0 0.099420747538376333 -0.0022623874133039356 0 0.099190249731561236 -0.0025023399903639594 0 0.099629712589912336 -0.0025973762619289284 0 0.099420747538376333 -0.0022623874133039356 0 0.099190249731561236 -0.0025023399903639594 0 0.098901072349422942 -0.0026932145090530091 0 0.099190249731561236 -0.0025023399903639594 0 0.098832813410190068 -0.002386023261381499 0 0.099124160088140054 -0.0021137677402648385 0 0.099190249731561236 -0.0025023399903639594 0 0.098832813410190068 -0.002386023261381499 0 0.099124160088140054 -0.0021137677402648385 0 0.098832813410190068 -0.002386023261381499 0 0.098744022095254555 -0.0020877327300337571 0 0.098832813410190068 -0.002386023261381499 0 0.098388387560076465 -0.0022924344321123748 0 0.098744022095254555 -0.0020877327300337571 0 0.098832813410190068 -0.002386023261381499 0 0.098655704036474598 -0.0025558492017625431 0 0.098388387560076465 -0.0022924344321123748 0 0.098901072349422942 -0.0026932145090530091 0 0.098832813410190068 -0.002386023261381499 0 0.098655704036474598 -0.0025558492017625431 0 0.098498797974112748 -0.0028546691400275952 0 0.098655704036474598 -0.0025558492017625431 0 0.098388387560076465 -0.0022924344321123748 0 0.098388387560076465 -0.0022924344321123748 0 0.097973742760603277 -0.0025253011570118087 0 0.097960841492372761 -0.0015912855962772149 0 0.098498797974112748 -0.0028546691400275952 0 0.098388387560076465 -0.0022924344321123748 0 0.098046759340872508 -0.0025787213881779685 0 0.098388387560076465 -0.0022924344321123748 0 0.098046759340872508 -0.0025787213881779685 0 0.097973742760603277 -0.0025253011570118087 0 0.098388387560076465 -0.0022924344321123748 0 0.098558807876309995 -0.0016697144305694183 0 0.097960841492372761 -0.0015912855962772149 0 0.098388387560076465 -0.0022924344321123748 0 0.098558807876309995 -0.0016697144305694183 0 0.098744022095254555 -0.0020877327300337571 0 0.098558807876309995 -0.0016697144305694183 0 0.098986645439893786 -0.0017670714192793294 0 0.098744022095254555 -0.0020877327300337571 0 0.099124160088140054 -0.0021137677402648385 0 0.098986645439893786 -0.0017670714192793294 0 0.098744022095254555 -0.0020877327300337571 0 0.086132447143129787 -0.0022365179726630794 0 0.086005906730390824 -0.0022677088427406379 0 0.086059700211613896 -0.0022699483343854424 0 0.086110082394342743 -0.0022880740405186333 0 0.086132447143129787 -0.0022365179726630794 0 0.086059700211613896 -0.0022699483343854424 0 0.08288477921448531 -0.00074518576080009988 0 0.08169853800239571 2.0005243976169883e-05 0 0.081668162103498282 -0.002713284429722955 0 0.094082544460020276 -0.002159646537346808 0 0.093904597986808502 -0.0016010737473947361 0 0.09426743698620059 -0.0018276819383743279 0 0.093030887769246437 -0.0015067433065161756 0 0.090156820824395384 -0.00040828922058282002 0 0.090156820824395384 -0.00040828922058282002 0 0.094554990388068916 -0.0023530137448491608 0 0.095857905023569084 -0.0028412908339397508 0 0.094554990388068916 -0.0023530137448491608 0 0.08288477921448531 -0.00074518576080009988 0 0.082045163712808372 -0.0026288421552253887 0 0.081668162103498282 -0.002713284429722955 0 0.08288477921448531 -0.00074518576080009988 0 0.083179022472082739 -0.0020279891898672352 0 0.082045163712808372 -0.0026288421552253887 0 0.094554990388068916 -0.0023530137448491608 0 0.089526101731342039 -0.0017364922878214918 0 0.083179022472082739 -0.0020279891898672352 0 0.083811877088910122 -0.0031854482233660483 0 0.082045163712808372 -0.0026288421552253887 0 0.082665776021493581 -0.00033638160662849686 0 0.084198303556705545 -0.0016131103292575169 0 0.085923971278472538 -0.0023120786555473186 0 0.086132447143129787 -0.0022365179726630794 0 0.086005906730390824 -0.0022677088427406379 0 0.085923971278472538 -0.0023120786555473186 0 0.090156820824395384 -0.00040828922058282002 0 0.087752327810243558 -0.000123388669283903 0 0.08288477921448531 -0.00074518576080009988 0 0.083179022472082739 -0.0020279891898672352 0 0.084198303556705545 -0.0016131103292575169 0 0.090156820824395384 -0.00040828922058282002 0 0.088929510330988171 0.00010137221164751634 0 0.083179022472082739 -0.0020279891898672352 0 0.084198303556705545 -0.0016131103292575169 0 0.083811877088910122 -0.0031854482233660483 0 0.084198303556705545 -0.0016131103292575169 0 0.083811877088910122 -0.0031854482233660483 0 0.085179048427545048 -0.0027882526841921298 0 0.081195113418754961 -0.0023784863968839779 0 0.081110270035584464 -0.0019408651448052676 0 0.080647472201242174 -0.0026001913614948141 0 0.08121076718557288 -0.0027143852162054222 0 0.081594098869680221 -0.0024564940533431702 0 0.082045163712808372 -0.0026288421552253887 0 0.081195113418754961 -0.0023784863968839779 0 0.08121076718557288 -0.0027143852162054222 0 0.080647472201242174 -0.0026001913614948141 0 0.081089987715963222 -0.0025939005554294851 0 0.08144067059828046 -0.002655092766977946 0 0.081195113418754961 -0.0023784863968839779 0 0.081594098869680221 -0.0024564940533431702 0 0.081462949181756089 -0.0021854722620413365 0 0.081195113418754961 -0.0023784863968839779 0 0.08121076718557288 -0.0027143852162054222 0 0.081594098869680221 -0.0024564940533431702 0 0.081594098869680221 -0.0024564940533431702 0 0.081790858841814015 -0.0022932419781367822 0 0.081462949181756089 -0.0021854722620413365 0 0.081594098869680221 -0.0024564940533431702 0 0.081809611191497156 -0.0025521017601554613 0 0.081790858841814015 -0.0022932419781367822 0 0.081594098869680221 -0.0024564940533431702 0 0.082045163712808372 -0.0026288421552253887 0 0.081809611191497156 -0.0025521017601554613 0 0.082045163712808372 -0.0026288421552253887 0 0.081809611191497156 -0.0025521017601554613 0 0.081668162103498282 -0.002713284429722955 0 0.081809611191497156 -0.0025521017601554613 0 0.081668162103498282 -0.002713284429722955 0 0.081790858841814015 -0.0022932419781367822 0 0.089526101731342039 -0.0017364922878214918 0 0.084234224590814019 -0.00089322676697679425 0 0.081668162103498282 -0.002713284429722955 0 0.081790858841814015 -0.0022932419781367822 0 0.08213375165540919 -0.0018278927982328102 0 0.081790858841814015 -0.0022932419781367822 0 0.081595700938859178 -0.0019387868263259509 0 0.08213375165540919 -0.0018278927982328102 0 0.081790858841814015 -0.0022932419781367822 0 0.081595700938859178 -0.0019387868263259509 0 0.081462949181756089 -0.0021854722620413365 0 0.081195113418754961 -0.0023784863968839779 0 0.081462949181756089 -0.0021854722620413365 0 0.081110270035584464 -0.0019408651448052676 0 0.081595700938859178 -0.0019387868263259509 0 0.081462949181756089 -0.0021854722620413365 0 0.081110270035584464 -0.0019408651448052676 0 0.081595700938859178 -0.0019387868263259509 0 0.081110270035584464 -0.0019408651448052676 0 0.081424177036237638 -0.0014288003784616557 0 0.098558807876309995 -0.0016697144305694183 0 0.098933958829096391 -0.0013261600588834216 0 0.098639382755648264 -0.00091366914116289223 0 0.098558807876309995 -0.0016697144305694183 0 0.098986645439893786 -0.0017670714192793294 0 0.098933958829096391 -0.0013261600588834216 0 0.098558807876309995 -0.0016697144305694183 0 0.097960841492372761 -0.0015912855962772149 0 0.098639382755648264 -0.00091366914116289223 0 0.097960841492372761 -0.0015912855962772149 0 0.098639382755648264 -0.00091366914116289223 0 0.097919298451386819 -0.00064033675147307444 0 0.099301342758382996 -0.00092416434601911136 0 0.098933958829096391 -0.0013261600588834216 0 0.098639382755648264 -0.00091366914116289223 0 0.098639382755648264 -0.00091366914116289223 0 0.098788534929835345 0.00015463536431352615 0 0.097919298451386819 -0.00064033675147307444 0 0.098639382755648264 -0.00091366914116289223 0 0.098788534929835345 0.00015463536431352615 0 0.099200547881334616 -0.00043134028402241084 0 0.097886192396917149 0.00034637745078752908 0 0.098788534929835345 0.00015463536431352615 0 0.097919298451386819 -0.00064033675147307444 0 0.074236948927634841 0.00014509272208980189 0 0.084111977428169504 -0.0020738836442470267 0 0.065832265452090657 -0.0034975926797516385 0 0.071996273488525719 -0.0048826449461599197 0 0.069963088251365102 -0.0026528129341384997 0 0.081424177036237638 -0.0014288003784616557 0 0.080428268266940134 -0.00054708977343998356 0 0.079278417426331446 -0.0013601988372288674 0 0.081110270035584464 -0.0019408651448052676 0 0.081424177036237638 -0.0014288003784616557 0 0.08045281868495878 -0.0013841562724073669 0 0.077631537809538451 -0.0014932912418273417 0 0.07016299893437547 -0.0010500107833895532 0 0.081424177036237638 -0.0014288003784616557 0 0.08213375165540919 -0.0018278927982328102 0 0.081434389187878514 -0.00051573468056372983 0 0.074236948927634841 0.00014509272208980189 0 0.084234224590814019 -0.00089322676697679425 0 0.081595700938859178 -0.0019387868263259509 0 0.081424177036237638 -0.0014288003784616557 0 0.08213375165540919 -0.0018278927982328102 0 0.082266284888588712 5.9130991308559827e-05 0 0.08213375165540919 -0.0018278927982328102 0 0.081434389187878514 -0.00051573468056372983 0 0.082266284888588712 5.9130991308559827e-05 0 0.081434389187878514 -0.00051573468056372983 0 0.080834390725896765 0.00044922185618929722 0 0.081424177036237638 -0.0014288003784616557 0 0.081434389187878514 -0.00051573468056372983 0 0.080428268266940134 -0.00054708977343998356 0 0.081434389187878514 -0.00051573468056372983 0 0.080428268266940134 -0.00054708977343998356 0 0.080834390725896765 0.00044922185618929722 0 0.052198212324452667 0.0018951168987592199 0 0.052012585424368346 0.0027361067398154965 0 0.051233759767031352 0.0021058692939906398 0 0.080428268266940134 -0.00054708977343998356 0 0.080834390725896765 0.00044922185618929722 0 0.079261086994075178 0.00081590795039585841 0 0.053175904295134815 0.0016832559454144412 0 0.052198212324452667 0.0018951168987592199 0 0.053164543284979708 0.0028461440822673502 0 0.074236948927634841 0.00014509272208980189 0 0.065450269895785007 0.0017897720304493076 0 0.052012585424368346 0.0027361067398154965 0 0.053164543284979708 0.0028461440822673502 0 0.052117368468801405 0.0036570578962827737 0 0.052198212324452667 0.0018951168987592199 0 0.052012585424368346 0.0027361067398154965 0 0.053164543284979708 0.0028461440822673502 0 0.071996273488525719 -0.0048826449461599197 0 0.0711363769170167 -0.0017641565385933373 0 0.075221541553050608 -0.0023986871136860992 0 0.071185844185493591 -0.00028584175751119662 0 0.0711363769170167 -0.0017641565385933373 0 0.075221541553050608 -0.0023986871136860992 0 0.071185844185493591 -0.00028584175751119662 0 0.072083059207168815 0.0014328558121196422 0 0.075221541553050608 -0.0023986871136860992 0 0.069657331178957699 -0.00078573217599592663 0 0.071086448864227603 -0.00039895690753483841 0 0.069129230168733027 0.0013154707422512136 0 0.069657331178957699 -0.00078573217599592663 0 0.071086448864227603 -0.00039895690753483841 0 0.069963088251365102 -0.0026528129341384997 0 0.065629119006563971 0.00063438316254915662 0 0.065709361822564177 0.00053140072901597163 0 0.071996273488525719 -0.0048826449461599197 0 0.069963088251365102 -0.0026528129341384997 0 0.0711363769170167 -0.0017641565385933373 0 0.065629119006563971 0.00063438316254915662 0 0.065850855952653775 0.0005077138952259573 0 0.071178985074393533 -0.00028463780710835803 0 0.069963088251365102 -0.0026528129341384997 0 0.0711363769170167 -0.0017641565385933373 0 0.074236948927634841 0.00014509272208980189 0 0.062334150803691847 0.002118390238127656 0 0.065832265452090657 -0.0034975926797516385 0 0.068193630071047104 -0.00074754724247921129 0 0.066031864307965454 0.0024070753370955249 0 0.065832265452090657 -0.0034975926797516385 0 0.069963088251365102 -0.0026528129341384997 0 0.068193630071047104 -0.00074754724247921129 0 0.069657331178957699 -0.00078573217599592663 0 0.068193630071047104 -0.00074754724247921129 0 0.069129230168733027 0.0013154707422512136 0 0.069657331178957699 -0.00078573217599592663 0 0.069963088251365102 -0.0026528129341384997 0 0.068193630071047104 -0.00074754724247921129 0 0.069129230168733027 0.0013154707422512136 0 0.066031864307965454 0.0024070753370955249 0 0.068657056089604901 0.0052139808932586979 0 0.068193630071047104 -0.00074754724247921129 0 0.069129230168733027 0.0013154707422512136 0 0.066031864307965454 0.0024070753370955249 0 0.061010133570206897 0.0037631419068923947 0 0.061244967771247563 0.003469608899505594 0 0.060240847343656631 0.0023134582399352028 0 0.069129230168733027 0.0013154707422512136 0 0.071151499257006479 0.0021780823168215066 0 0.068657056089604901 0.0052139808932586979 0 0.063399651618958941 0.0014021357648477256 0 0.058066197715406984 0.0020424170181987996 0 0.071086448864227603 -0.00039895690753483841 0 0.069129230168733027 0.0013154707422512136 0 0.071151499257006479 0.0021780823168215066 0 0.063709512949114616 0.0027645258710521205 0 0.0621342485330557 -0.00023641741531817039 0 0.0635399233235074 -0.001973982048753637 0 0.065629119006563971 0.00063438316254915662 0 0.063399651618958941 0.0014021357648477256 0 0.065629119006563971 0.00063438316254915662 0 0.067007150490215994 0.00091564342978953648 0 0.067007150490215994 0.00091564342978953648 0 0.063399651618958941 0.0014021357648477256 0 0.096499531408072381 0.0038958595206574184 0 0.096868773511821896 0.0039307628674224914 0 0.09675778956346219 0.0042450396960932463 0 0.067007150490215994 0.00091564342978953648 0 0.07197392211448464 0.0042521056264958976 0 0.096499531408072381 0.0038958595206574184 0 0.096868773511821896 0.0039307628674224914 0 0.096729257301021429 0.0035880656469760093 0 0.067007150490215994 0.00091564342978953648 0 0.079970941920085858 -0.0017911680901998978 0 0.096868773511821896 0.0039307628674224914 0 0.096729257301021429 0.0035880656469760093 0 0.097182812944311012 0.0037699206481926367 0 0.096729257301021429 0.0035880656469760093 0 0.097182812944311012 0.0037699206481926367 0 0.097142831750961806 0.0034424816079120443 0 0.096868773511821896 0.0039307628674224914 0 0.097182812944311012 0.0037699206481926367 0 0.097172980515167387 0.0041095821158999664 0 0.096868773511821896 0.0039307628674224914 0 0.097172980515167387 0.0041095821158999664 0 0.09675778956346219 0.0042450396960932463 0 0.097172980515167387 0.0041095821158999664 0 0.097513673464969669 0.0039241827414172956 0 0.0975755005474475 0.0041609570475992829 0 0.097182812944311012 0.0037699206481926367 0 0.097172980515167387 0.0041095821158999664 0 0.097513673464969669 0.0039241827414172956 0 0.097864356339586678 0.0040361735144276139 0 0.097935312901956673 0.0038661652852740001 0 0.0975755005474475 0.0041609570475992829 0 0.097513673464969669 0.0039241827414172956 0 0.097935312901956673 0.0038661652852740001 0 0.0975755005474475 0.0041609570475992829 0 0.097513673464969669 0.0039241827414172956 0 0.097935312901956673 0.0038661652852740001 0 0.097646050704170359 0.0035927661399475517 0 0.098524487828407753 0.0035967206814604131 0 0.097935312901956673 0.0038661652852740001 0 0.097646050704170359 0.0035927661399475517 0 0.097182812944311012 0.0037699206481926367 0 0.097513673464969669 0.0039241827414172956 0 0.097646050704170359 0.0035927661399475517 0 0.097182812944311012 0.0037699206481926367 0 0.097646050704170359 0.0035927661399475517 0 0.097142831750961806 0.0034424816079120443 0 0.097646050704170359 0.0035927661399475517 0 0.097130953808424694 0.0030692906792377447 0 0.097142831750961806 0.0034424816079120443 0 0.097646050704170359 0.0035927661399475517 0 0.097130953808424694 0.0030692906792377447 0 0.097974595346785917 0.0028324122357515249 0 0.098524487828407753 0.0035967206814604131 0 0.097646050704170359 0.0035927661399475517 0 0.097974595346785917 0.0028324122357515249 0 0.099399520854365861 0.0022041577389242226 0 0.098524487828407753 0.0035967206814604131 0 0.097974595346785917 0.0028324122357515249 0 0.099399520854365861 0.0022041577389242226 0 0.098313025463058187 0.0018723603428859215 0 0.097974595346785917 0.0028324122357515249 0 0.097350007000022942 0.0019819374231544421 0 0.098313025463058187 0.0018723603428859215 0 0.097974595346785917 0.0028324122357515249 0 0.097350007000022942 0.0019819374231544421 0 0.097130953808424694 0.0030692906792377447 0 0.097974595346785917 0.0028324122357515249 0 0.10024997006798564 -0.00073017182531246849 0 0.099681913395545926 -0.00062953688106716658 0 0.099673623218478724 -3.4577850418135412e-05 0 0.097350007000022942 0.0019819374231544421 0 0.097130953808424694 0.0030692906792377447 0 0.096633154938995158 0.0031970572883897558 0 0.095062433012755701 -0.0020799882197442567 0 0.08903594252591901 -0.0032177995459845561 0 0.099681913395545926 -0.00062953688106716658 0 0.099200547881334616 -0.00043134028402241084 0 0.099673623218478724 -3.4577850418135412e-05 0 0.071996273488525719 -0.0048826449461599197 0 0.075221541553050608 -0.0023986871136860992 0 0.078397017636524152 -0.0062788561557953213 0 0.084111977428169504 -0.0020738836442470267 0 0.08903594252591901 -0.0032177995459845561 0 0.079970941920085858 -0.0017911680901998978 0 0.08903594252591901 -0.0032177995459845561 0 0.098788534929835345 0.00015463536431352615 0 0.099200547881334616 -0.00043134028402241084 0 0.099673623218478724 -3.4577850418135412e-05 0 0.096729257301021429 0.0035880656469760093 0 0.097142831750961806 0.0034424816079120443 0 0.096950940550491166 0.0031891496435814152 0 0.097130953808424694 0.0030692906792377447 0 0.097142831750961806 0.0034424816079120443 0 0.096950940550491166 0.0031891496435814152 0 0.09003616498032585 -0.0031143701449089581 0 0.08903594252591901 -0.0032177995459845561 0 0.065238829213674007 0.0019978558770078893 0 0.064259309630167932 0.0029109698281854749 0 0.064251130215501107 0.0010092599793431218 0 0.065238829213674007 0.0019978558770078893 0 0.065956653975190571 0.0017292852102223923 0 0.064251130215501107 0.0010092599793431218 0 0.065238829213674007 0.0019978558770078893 0 0.064259309630167932 0.0029109698281854749 0 0.066243202048167388 0.002328608654958745 0 0.062795899848168898 0.0021416111344883444 0 0.064259309630167932 0.0029109698281854749 0 0.061649380488747685 0.003328865085586892 0 0.062795899848168898 0.0021416111344883444 0 0.064251130215501107 0.0010092599793431218 0 0.060872059879884192 0.0012899303569882305 0 0.062795899848168898 0.0021416111344883444 0 0.064259309630167932 0.0029109698281854749 0 0.064251130215501107 0.0010092599793431218 0 0.069618597665965523 0.0014515041428007818 0 0.068273729378531878 0.0026751583731137759 0 0.071066542417118073 0.0024849023272958282 0 0.066273614651963797 0.0021312294603287323 0 0.066402547715584306 0.0017844389103056093 0 0.069618597665965523 0.0014515041428007818 0 0.067955759998236831 0.0015351779542050535 0 0.068273729378531878 0.0026751583731137759 0 0.066273614651963797 0.0021312294603287323 0 0.066261953646670257 0.0021966480265404411 0 0.066943396044908399 0.0020507812017291562 0 0.06648595705836427 0.0019427408585082843 0 0.067223574751087714 0.001561635584388793 0 0.068273729378531878 0.0026751583731137759 0 0.066943396044908399 0.0020507812017291562 0 0.066243202048167388 0.002328608654958745 0 0.067955759998236831 0.0015351779542050535 0 0.068273729378531878 0.0026751583731137759 0 0.066943396044908399 0.0020507812017291562 0 0.067955759998236831 0.0015351779542050535 0 0.066943396044908399 0.0020507812017291562 0 0.067761257507254036 0.00031484057272180394 0 0.076967563480375478 0.0010541089700937438 0 0.079205217381721219 -0.00098329823400807102 0 0.06648595705836427 0.0019427408585082843 0 0.066652107478443162 0.0022574502975999649 0 0.066243202048167388 0.002328608654958745 0 0.066943396044908399 0.0020507812017291562 0 0.06648595705836427 0.0019427408585082843 0 0.066243202048167388 0.002328608654958745 0 0.08194772949128569 0.00016482726856390355 0 0.083044302477845972 0.0012422911706435145 0 0.066652107478443162 0.0022574502975999649 0 0.066650176890661314 0.0018431723484362765 0 0.066243202048167388 0.002328608654958745 0 0.066650176890661314 0.0018431723484362765 0 0.066243202048167388 0.002328608654958745 0 0.065956653975190571 0.0017292852102223923 0 0.066650176890661314 0.0018431723484362765 0 0.065956653975190571 0.0017292852102223923 0 0.066288573513007765 0.0012047020419824321 0 0.065238829213674007 0.0019978558770078893 0 0.066243202048167388 0.002328608654958745 0 0.065956653975190571 0.0017292852102223923 0 0.065956653975190571 0.0017292852102223923 0 0.066288573513007765 0.0012047020419824321 0 0.064251130215501107 0.0010092599793431218 0 0.023067245117988414 0.008838594071688027 0 0.024174249624419934 0.0074519730228069852 0 0.025723888743993367 0.0084203105754375677 0 0.066650176890661314 0.0018431723484362765 0 0.066288573513007765 0.0012047020419824321 0 0.067156849545694369 0.001218958101917499 0 0.045444598143602639 0.005722201965038632 0 0.052089761351020725 0.0066099927042234793 0 0.023067245117988414 0.008838594071688027 0 0.024174249624419934 0.0074519730228069852 0 0.022840004960625496 0.0065845176841254757 0 0.023067245117988414 0.008838594071688027 0 0.021129806994864619 0.0073831706081423209 0 0.022840004960625496 0.0065845176841254757 0 0.045444598143602639 0.005722201965038632 0 0.04248485711276416 0.0048283704718462073 0 0.023067245117988414 0.008838594071688027 0 0.021129806994864619 0.0073831706081423209 0 0.020370419183703602 0.0091100833888677225 0 0.020370419183703602 0.0091100833888677225 0 0.019561151822370018 0.0076522529594648366 0 0.0188700817853052 0.0086258491562050225 0 0.021129806994864619 0.0073831706081423209 0 0.020370419183703602 0.0091100833888677225 0 0.019561151822370018 0.0076522529594648366 0 0.04248485711276416 0.0048283704718462073 0 0.040698409697145596 0.0035807662638581337 0 0.021129806994864619 0.0073831706081423209 0 0.019561151822370018 0.0076522529594648366 0 0.019866002921820568 0.0062941756057157275 0 0.019561151822370018 0.0076522529594648366 0 0.018694351423310232 0.0066224961892442594 0 0.019866002921820568 0.0062941756057157275 0 0.018717142073285342 0.0074587624243454363 0 0.017971821350895579 0.0070264082934249064 0 0.0188700817853052 0.0086258491562050225 0 0.019561151822370018 0.0076522529594648366 0 0.018694351423310232 0.0066224961892442594 0 0.018717142073285342 0.0074587624243454363 0 0.018694351423310232 0.0066224961892442594 0 0.018717142073285342 0.0074587624243454363 0 0.017971821350895579 0.0070264082934249064 0 0.017971821350895579 0.0070264082934249064 0 0.016583180340096801 0.0068448861976449678 0 0.0188700817853052 0.0086258491562050225 0 0.019561151822370018 0.0076522529594648366 0 0.018717142073285342 0.0074587624243454363 0 0.0188700817853052 0.0086258491562050225 0 0.018748944815698398 0.0087717614236193023 0 0.018737535330507055 0.0087443276977609685 0 0.018763013406360305 0.0087504996860201713 0 0.018748944815698398 0.0087717614236193023 0 0.018763013406360305 0.0087504996860201713 0 0.018788483320439531 0.0087588052577614404 0 0.021809875387646525 0.0048996691987304875 0 0.020823962448775501 0.005854828457295176 0 0.018737535330507055 0.0087443276977609685 0 0.018778059812792409 0.008749165939002523 0 0.018654173971599585 0.0089166012318899375 0 0.018748944815698398 0.0087717614236193023 0 0.018737535330507055 0.0087443276977609685 0 0.0188700817853052 0.0086258491562050225 0 0.018737535330507055 0.0087443276977609685 0 0.018763013406360305 0.0087504996860201713 0 0.018778059812792409 0.008749165939002523 0 0.018737535330507055 0.0087443276977609685 0 0.0188700817853052 0.0086258491562050225 0 0.018654173971599585 0.0089166012318899375 0 0.020370419183703602 0.0091100833888677225 0 0.0188700817853052 0.0086258491562050225 0 0.018654173971599585 0.0089166012318899375 0 0.052012585424368346 0.0027361067398154965 0 0.051217079388300606 0.0030850990664246908 0 0.051233759767031352 0.0021058692939906398 0 0.04379144768579487 0.004455114423137385 0 0.054454968598332786 0.0040676199927627511 0 0.040453408583078207 0.0057533036626586506 0 0.041636830837687017 0.0058921787275880259 0 0.040508125245150364 0.0098512260307624909 0 0.01881818774992948 0.0087592243653275004 0 0.01886414894160186 0.0087811546319372397 0 0.018826038105852073 0.0087533910105012901 0 0.035817313115477006 0.0059077232416818379 0 0.043940547191083756 0.0058408744340580831 0 0.018748944815698398 0.0087717614236193023 0 0.01886414894160186 0.0087811546319372397 0 0.018788483320439531 0.0087588052577614404 0 0.01881818774992948 0.0087592243653275004 0 0.01886414894160186 0.0087811546319372397 0 0.018788483320439531 0.0087588052577614404 0 0.018778059812792409 0.008749165939002523 0 0.018826038105852073 0.0087533910105012901 0 0.018839748781264685 0.008671281998386831 0 0.041636830837687017 0.0058921787275880259 0 0.042190256212442857 0.009488042046135587 0 0.040508125245150364 0.0098512260307624909 0 0.043940547191083756 0.0058408744340580831 0 0.043548625104031478 0.00047547337414809474 0 0.056592209807925661 -0.0006652359187976955 0 0.055294377441365068 -0.00038428364941604196 0 0.056215981810388511 0.0019247140543098183 0 0.018763013406360305 0.0087504996860201713 0 0.018791133475539824 0.008752874527277528 0 0.018778059812792409 0.008749165939002523 0 0.01881818774992948 0.0087592243653275004 0 0.018791133475539824 0.008752874527277528 0 0.018826038105852073 0.0087533910105012901 0 0.018763013406360305 0.0087504996860201713 0 0.018788483320439531 0.0087588052577614404 0 0.018791133475539824 0.008752874527277528 0 0.01881818774992948 0.0087592243653275004 0 0.018788483320439531 0.0087588052577614404 0 0.018791133475539824 0.008752874527277528 0 0.018791133475539824 0.008752874527277528 0 0.018778059812792409 0.008749165939002523 0 0.018826038105852073 0.0087533910105012901 0 0.065450269895785007 0.0017897720304493076 0 0.054454968598332786 0.0040676199927627511 0 0.043940547191083756 0.0058408744340580831 0 0.054454968598332786 0.0040676199927627511 0 0.054454968598332786 0.0040676199927627511 0 0.07016299893437547 -0.0010500107833895532 0 0.080428268266940134 -0.00054708977343998356 0 0.079261086994075178 0.00081590795039585841 0 0.079278417426331446 -0.0013601988372288674 0 0.055294377441365068 -0.00038428364941604196 0 0.056215981810388511 0.0019247140543098183 0 0.055367566209779971 0.0038737981793811002 0 0.056592209807925661 -0.0006652359187976955 0 0.056215981810388511 0.0019247140543098183 0 0.056964323882958426 0.0017893933747315659 0 0.043548625104031478 0.00047547337414809474 0 0.044351715952996619 0.0012027884635283698 0 0.056215981810388511 0.0019247140543098183 0 0.056972201455833836 0.0017887656698167907 0 0.057229559482720349 0.0034512321320094206 0 0.044105421395251462 0.0004186025425592656 0 0.043548625104031478 0.00047547337414809474 0 0.057014481907703835 0.0018607174054605946 0 0.057229559482720349 0.0034512321320094206 0 0.058772608089188633 0.0025864037782294433 0 0.07016299893437547 -0.0010500107833895532 0 0.067030014241080044 0.00090335974423603387 0 0.057229559482720349 0.0034512321320094206 0 0.055367566209779971 0.0038737981793811002 0 0.058607955843247461 0.0036404000063720234 0 0.076124033227364121 0.0020134493264392364 0 0.073627291528094579 0.0022247888451787014 0 0.074831428403661887 0.00099239791493872841 0 0.057229559482720349 0.0034512321320094206 0 0.058772608089188633 0.0025864037782294433 0 0.058607955843247461 0.0036404000063720234 0 0.073627291528094579 0.0022247888451787014 0 0.073592758161134961 0.00065994360941339677 0 0.074831428403661887 0.00099239791493872841 0 0.056215981810388511 0.0019247140543098183 0 0.057229559482720349 0.0034512321320094206 0 0.055367566209779971 0.0038737981793811002 0 0.076124033227364121 0.0020134493264392364 0 0.07612170184539685 0.0001780332253449208 0 0.074831428403661887 0.00099239791493872841 0 0.07016299893437547 -0.0010500107833895532 0 0.074744123622324479 -0.0013657506348011743 0 0.062795899848168898 0.0021416111344883444 0 0.060872059879884192 0.0012899303569882305 0 0.061649380488747685 0.003328865085586892 0 0.060872059879884192 0.0012899303569882305 0 0.060080769917310463 0.0027477162770281763 0 0.061649380488747685 0.003328865085586892 0 0.018778059812792409 0.008749165939002523 0 0.018839748781264685 0.008671281998386831 0 0.018654173971599585 0.0089166012318899375 0 0.043548625104031478 0.00047547337414809474 0 0.040698409697145596 0.0035807662638581337 0 0.057014481907703835 0.0018607174054605946 0 0.060872059879884192 0.0012899303569882305 0 0.058772608089188633 0.0025864037782294433 0 0.058772608089188633 0.0025864037782294433 0 0.060080769917310463 0.0027477162770281763 0 0.058607955843247461 0.0036404000063720234 0 0.060872059879884192 0.0012899303569882305 0 0.058772608089188633 0.0025864037782294433 0 0.060080769917310463 0.0027477162770281763 0 0.067030014241080044 0.00090335974423603387 0 0.066402547715584306 0.0017844389103056093 0 0.073627291528094579 0.0022247888451787014 0 0.07260111395827995 0.0014980127774510473 0 0.071066542417118073 0.0024849023272958282 0 0.060080769917310463 0.0027477162770281763 0 0.058607955843247461 0.0036404000063720234 0 0.061649380488747685 0.003328865085586892 0 0.073627291528094579 0.0022247888451787014 0 0.07260111395827995 0.0014980127774510473 0 0.073592758161134961 0.00065994360941339677 0 0.071066542417118073 0.0024849023272958282 0 0.070700398215546703 0.00072314033906028326 0 0.072094532496076863 0.00064230766801198845 0 0.07260111395827995 0.0014980127774510473 0 0.071066542417118073 0.0024849023272958282 0 0.072094532496076863 0.00064230766801198845 0 0.069618597665965523 0.0014515041428007818 0 0.071066542417118073 0.0024849023272958282 0 0.070700398215546703 0.00072314033906028326 0 0.070811866831558309 -0.00067584410813942525 0 0.072094532496076863 0.00064230766801198845 0 0.073465136417182178 -0.0011531167114593112 0 0.070700398215546703 0.00072314033906028326 0 0.070811866831558309 -0.00067584410813942525 0 0.072094532496076863 0.00064230766801198845 0 0.072094532496076863 0.00064230766801198845 0 0.073592758161134961 0.00065994360941339677 0 0.073465136417182178 -0.0011531167114593112 0 0.07260111395827995 0.0014980127774510473 0 0.072094532496076863 0.00064230766801198845 0 0.073592758161134961 0.00065994360941339677 0 0.070811866831558309 -0.00067584410813942525 0 0.071836964187672214 -0.0029711053161459943 0 0.069185829904719762 -0.0024337167223231573 0 0.070811866831558309 -0.00067584410813942525 0 0.073919963993381285 -0.0012417045200969756 0 0.071836964187672214 -0.0029711053161459943 0 0.07289972145598618 -0.0010719501736046609 0 0.074512157859336875 -0.0013868925116327757 0 0.081110270035584464 -0.0019408651448052676 0 0.08045281868495878 -0.0013841562724073669 0 0.080450450871479007 -0.0019955804851281675 0 0.07612170184539685 0.0001780332253449208 0 0.074826838089172662 -0.00019711259712850655 0 0.076117636135646843 -0.0016611251104294267 0 0.081110270035584464 -0.0019408651448052676 0 0.080450450871479007 -0.0019955804851281675 0 0.080537162180283534 -0.0026391577906169608 0 0.079917043591874043 -0.0019178491684309618 0 0.079340271246640254 -0.0022509176889631017 0 0.073592758161134961 0.00065994360941339677 0 0.073465136417182178 -0.0011531167114593112 0 0.074826838089172662 -0.00019711259712850655 0 0.07612170184539685 0.0001780332253449208 0 0.074826838089172662 -0.00019711259712850655 0 0.074831428403661887 0.00099239791493872841 0 0.073592758161134961 0.00065994360941339677 0 0.074826838089172662 -0.00019711259712850655 0 0.074831428403661887 0.00099239791493872841 0 0.073919963993381285 -0.0012417045200969756 0 0.076963191724546104 -0.002279979552795543 0 0.076965607854347237 -0.0018314278258865239 0 0.073465136417182178 -0.0011531167114593112 0 0.074826838089172662 -0.00019711259712850655 0 0.076117636135646843 -0.0016611251104294267 0 0.074512157859336875 -0.0013868925116327757 0 0.078495217625745989 -0.0021766321259181196 0 0.074744123622324479 -0.0013657506348011743 0 0.078495217625745989 -0.0021766321259181196 0 0.080450450871479007 -0.0019955804851281675 0 0.080444202139343515 -0.0026208824420219305 0 0.080537162180283534 -0.0026391577906169608 0 0.083811877088910122 -0.0031854482233660483 0 0.085810901228889111 -0.0036050759983989435 0 0.085179048427545048 -0.0027882526841921298 0 0.081089987715963222 -0.0025939005554294851 0 0.079340271246640254 -0.0022509176889631017 0 0.079943789226201489 -0.00090054288784470362 0 0.079920415683345139 -0.0052080886824028613 0 0.076918808994161064 -0.0046229839311741723 0 0.079147048476699816 -0.0024608474707180287 0 0.079340271246640254 -0.0022509176889631017 0 0.079147048476699816 -0.0024608474707180287 0 0.078495217625745989 -0.0021766321259181196 0 0.078495217625745989 -0.0021766321259181196 0 0.079340271246640254 -0.0022509176889631017 0 0.086135780034186329 -0.0031939083306267925 0 0.085810901228889111 -0.0036050759983989435 0 0.085179048427545048 -0.0027882526841921298 0 0.073919963993381285 -0.0012417045200969756 0 0.076963191724546104 -0.002279979552795543 0 0.074582788106353673 -0.0052043007682198309 0 0.084198303556705545 -0.0016131103292575169 0 0.085179048427545048 -0.0027882526841921298 0 0.085923971278472538 -0.0023120786555473186 0 0.079147048476699816 -0.0024608474707180287 0 0.079346103690595207 -0.0024620924931899072 0 0.086005906730390824 -0.0022677088427406379 0 0.085923971278472538 -0.0023120786555473186 0 0.086028696377647373 -0.0022571614821601804 0 0.086135780034186329 -0.0031939083306267925 0 0.085923971278472538 -0.0023120786555473186 0 0.086028696377647373 -0.0022571614821601804 0 0.086135780034186329 -0.0031939083306267925 0 0.085179048427545048 -0.0027882526841921298 0 0.085923971278472538 -0.0023120786555473186 0 0.086005906730390824 -0.0022677088427406379 0 0.086028696377647373 -0.0022571614821601804 0 0.086043050739846097 -0.0022676241451159269 0 0.086028696377647373 -0.0022571614821601804 0 0.08604208519922453 -0.0022700803982244624 0 0.086043050739846097 -0.0022676241451159269 0 0.079147048476699816 -0.0024608474707180287 0 0.081715039963728003 -0.003846739323041113 0 0.086021674948252053 -0.0022551806160244353 0 0.086028696377647373 -0.0022571614821601804 0 0.08604208519922453 -0.0022700803982244624 0 0.08604208519922453 -0.0022700803982244624 0 0.086043050739846097 -0.0022676241451159269 0 0.086065765212811118 -0.002283360298786672 0 0.086110082394342743 -0.0022880740405186333 0 0.086059700211613896 -0.0022699483343854424 0 0.086065765212811118 -0.002283360298786672 0 0.086043050739846097 -0.0022676241451159269 0 0.086059700211613896 -0.0022699483343854424 0 0.086065765212811118 -0.002283360298786672 0 0.086005906730390824 -0.0022677088427406379 0 0.086043050739846097 -0.0022676241451159269 0 0.086059700211613896 -0.0022699483343854424 0 0.073919963993381285 -0.0012417045200969756 0 0.074582788106353673 -0.0052043007682198309 0 0.071836964187672214 -0.0029711053161459943 0 0.071836964187672214 -0.0029711053161459943 0 0.070714434195485537 -0.0052785420030261807 0 0.069185829904719762 -0.0024337167223231573 0 0.074582788106353673 -0.0052043007682198309 0 0.071836964187672214 -0.0029711053161459943 0 0.070714434195485537 -0.0052785420030261807 0 0.074582788106353673 -0.0052043007682198309 0 0.070714434195485537 -0.0052785420030261807 0 0.072244919307480115 -0.008098554349253979 0 0.10250941113127689 -0.0015150364203427567 0 0.10232014903620736 -0.0017333850929544649 0 0.10241882956749696 -0.0017112244450074817 0 0.10250941113127689 -0.0015150364203427567 0 0.10232014903620736 -0.0017333850929544649 0 0.10209619188519163 -0.0011991970677566342 0 0.10232014903620736 -0.0017333850929544649 0 0.10148918734374923 -0.0010500902343398286 0 0.10209619188519163 -0.0011991970677566342 0 0.10224647474783913 -0.0014973636753428052 0 0.10216147163799641 -0.0013809941185667146 0 0.10254408763821005 -0.0017879043765140141 0 0.10273399148037504 -0.0019541787733068231 0 0.10272796191287235 -0.00184957014815637 0 0.10232014903620736 -0.0017333850929544649 0 0.10254408763821005 -0.0017879043765140141 0 0.10273399148037504 -0.0019541787733068231 0 0.10180193585586049 -0.00092366805030391901 0 0.10223083778294131 -0.00065284359428873656 0 0.1014843058995016 -0.00070827327925979393 0 0.10148918734374923 -0.0010500902343398286 0 0.10180193585586049 -0.00092366805030391901 0 0.10209619188519163 -0.0011991970677566342 0 0.10148918734374923 -0.0010500902343398286 0 0.10180193585586049 -0.00092366805030391901 0 0.1014843058995016 -0.00070827327925979393 0 0.10250941113127689 -0.0015150364203427567 0 0.10209619188519163 -0.0011991970677566342 0 0.10223083778294131 -0.00065284359428873656 0 0.086104757722402128 -0.0029827753542858901 0 0.083507805656706194 -0.0022037318357230841 0 0.10180193585586049 -0.00092366805030391901 0 0.10209619188519163 -0.0011991970677566342 0 0.10223083778294131 -0.00065284359428873656 0 0.070811866831558309 -0.00067584410813942525 0 0.069185829904719762 -0.0024337167223231573 0 0.069075214306616797 -0.00017927226210002808 0 0.083507805656706194 -0.0022037318357230841 0 0.079205217381721219 -0.00098329823400807102 0 0.10223083778294131 -0.00065284359428873656 0 0.1014843058995016 -0.00070827327925979393 0 0.10165303536708882 0.00074905495819622124 0 0.1014843058995016 -0.00070827327925979393 0 0.10165303536708882 0.00074905495819622124 0 0.10015164559394336 0.00046592587297029155 0 0.079205217381721219 -0.00098329823400807102 0 0.077281346669690956 -0.00043522624771016947 0 0.067955759998236831 0.0015351779542050535 0 0.067761257507254036 0.00031484057272180394 0 0.069075214306616797 -0.00017927226210002808 0 0.069618597665965523 0.0014515041428007818 0 0.067955759998236831 0.0015351779542050535 0 0.069075214306616797 -0.00017927226210002808 0 0.069185829904719762 -0.0024337167223231573 0 0.067763630443234746 0.00031009686783762321 0 0.069075214306616797 -0.00017927226210002808 0 0.069618597665965523 0.0014515041428007818 0 0.070700398215546703 0.00072314033906028326 0 0.069075214306616797 -0.00017927226210002808 0 0.070700398215546703 0.00072314033906028326 0 0.070811866831558309 -0.00067584410813942525 0 0.069075214306616797 -0.00017927226210002808 0 0.083044302477845972 0.0012422911706435145 0 0.093698243906906842 -0.0027283925410494405 0 0.10171194233300629 -0.0007452255491008418 0 0.10151428298749046 -0.00073791976401269715 0 0.10181917926859455 -0.00075814684003330096 0 0.10027688850837753 0.0013544505312177854 0 0.098692632295768773 0.0019253041102833489 0 0.10015164559394336 0.00046592587297029155 0 0.08194772949128569 0.00016482726856390355 0 0.079205217381721219 -0.00098329823400807102 0 0.10027688850837753 0.0013544505312177854 0 0.10165303536708882 0.00074905495819622124 0 0.10015164559394336 0.00046592587297029155 0 0.096149040169637406 -0.0032221167885558549 0 0.093698243906906842 -0.0027283925410494405 0 0.1014843058995016 -0.00070827327925979393 0 0.10151428298749046 -0.00073791976401269715 0 0.10150205972820439 -0.00066553751512763641 0 0.10203555845206334 -0.0011705461527784602 0 0.10193496946610357 -0.0010398554825878589 0 0.10151428298749046 -0.00073791976401269715 0 0.10150205972820439 -0.00066553751512763641 0 0.10181917926859455 -0.00075814684003330096 0 0.1027109375369317 -0.0014789612448589133 0 0.10241320495317771 -0.001746116825289596 0 0.10204625128730496 -0.0012633447055564199 0 0.1027109375369317 -0.0014789612448589133 0 0.10181917926859455 -0.00075814684003330096 0 0.10204625128730496 -0.0012633447055564199 0 0.1027109375369317 -0.0014789612448589133 0 0.10241320495317771 -0.001746116825289596 0 0.1027129808762729 -0.0018895897634794794 0 0.10241320495317771 -0.001746116825289596 0 0.1027129808762729 -0.0018895897634794794 0 0.10259692202710899 -0.0021270563349738325 0 0.10241320495317771 -0.001746116825289596 0 0.10259692202710899 -0.0021270563349738325 0 0.10223170639039698 -0.0020964868137161299 0 0.10216147163799641 -0.0013809941185667146 0 0.10203555845206334 -0.0011705461527784602 0 0.10273399148037504 -0.0019541787733068231 0 0.1027109375369317 -0.0014789612448589133 0 0.1027129808762729 -0.0018895897634794794 0 0.10148918734374923 -0.0010500902343398286 0 0.1014843058995016 -0.00070827327925979393 0 0.10150205972820439 -0.00066553751512763641 0 0.1027129808762729 -0.0018895897634794794 0 0.10272796191287235 -0.00184957014815637 0 0.10259692202710899 -0.0021270563349738325 0 0.10273399148037504 -0.0019541787733068231 0 0.1027129808762729 -0.0018895897634794794 0 0.10272796191287235 -0.00184957014815637 0 0.1016326683830993 -0.0029137906824203944 0 0.1019408392196131 -0.0028213456870380036 0 0.10289111351260932 -0.0026446991130255962 0 0.10259692202710899 -0.0021270563349738325 0 0.10273885254788935 -0.0027507347589364331 0 0.10259692202710899 -0.0021270563349738325 0 0.10273885254788935 -0.0027507347589364331 0 0.10246773678022499 -0.0026444602698939283 0 0.10273885254788935 -0.0027507347589364331 0 0.10266225847846586 -0.0029494948755489506 0 0.10246773678022499 -0.0026444602698939283 0 0.10266225847846586 -0.0029494948755489506 0 0.10272260239411153 -0.0027358990155044774 0 0.10290373274585052 -0.0024977330731768706 0 0.10266225847846586 -0.0029494948755489506 0 0.10290373274585052 -0.0024977330731768706 0 0.1026713838390332 -0.0029218975735625079 0 0.10273885254788935 -0.0027507347589364331 0 0.10266225847846586 -0.0029494948755489506 0 0.10272260239411153 -0.0027358990155044774 0 0.10272260239411153 -0.0027358990155044774 0 0.10275165447398832 -0.0027124278097884398 0 0.10275597699500119 -0.0027438512637620255 0 0.10272260239411153 -0.0027358990155044774 0 0.10278540158565352 -0.0027086266685824797 0 0.10275165447398832 -0.0027124278097884398 0 0.10273885254788935 -0.0027507347589364331 0 0.10272260239411153 -0.0027358990155044774 0 0.10278540158565352 -0.0027086266685824797 0 0.10289111351260932 -0.0026446991130255962 0 0.10273885254788935 -0.0027507347589364331 0 0.10278540158565352 -0.0027086266685824797 0 0.1016326683830993 -0.0029137906824203944 0 0.099853819521845147 -0.0028581324761669806 0 0.10254408763821005 -0.0017879043765140141 0 0.10272796191287235 -0.00184957014815637 0 0.10239848448484157 -0.0016709958997272525 0 0.10289111351260932 -0.0026446991130255962 0 0.10274107242913672 -0.0026744535098287923 0 0.10256896310430721 -0.0027537861070767592 0 0.10289111351260932 -0.0026446991130255962 0 0.10278540158565352 -0.0027086266685824797 0 0.10274107242913672 -0.0026744535098287923 0 0.10274107242913672 -0.0026744535098287923 0 0.10256896310430721 -0.0027537861070767592 0 0.10255358082170817 -0.0024165048748698618 0 0.10239848448484157 -0.0016709958997272525 0 0.10240586186873615 -0.0017321016874722402 0 0.10242305206772208 -0.0018063118526717749 0 0.099853819521845147 -0.0028581324761669806 0 0.093149900911358302 -0.0012319040875848101 0 0.10237506835553252 -0.0017092200454526362 0 0.10240586186873615 -0.0017321016874722402 0 0.10241882956749696 -0.0017112244450074817 0 0.10237506835553252 -0.0017092200454526362 0 0.10239848448484157 -0.0016709958997272525 0 0.10240586186873615 -0.0017321016874722402 0 0.10232014903620736 -0.0017333850929544649 0 0.10237506835553252 -0.0017092200454526362 0 0.10241882956749696 -0.0017112244450074817 0 0.10232014903620736 -0.0017333850929544649 0 0.10254408763821005 -0.0017879043765140141 0 0.10239848448484157 -0.0016709958997272525 0 0.10232014903620736 -0.0017333850929544649 0 0.10237506835553252 -0.0017092200454526362 0 0.10239848448484157 -0.0016709958997272525 0 0.10256896310430721 -0.0027537861070767592 0 0.10191622187422401 -0.0022410570266185878 0 0.10151387047045766 -0.0023420484914925457 0 0.10191622187422401 -0.0022410570266185878 0 0.10230469913756803 -0.0022400017535651709 0 0.1020725011344298 -0.0020571040877923733 0 0.10256896310430721 -0.0027537861070767592 0 0.10191622187422401 -0.0022410570266185878 0 0.10230469913756803 -0.0022400017535651709 0 0.10256896310430721 -0.0027537861070767592 0 0.10230469913756803 -0.0022400017535651709 0 0.10255358082170817 -0.0024165048748698618 0 0.10230469913756803 -0.0022400017535651709 0 0.10244956221444514 -0.002079919637698646 0 0.10255358082170817 -0.0024165048748698618 0 0.10230469913756803 -0.0022400017535651709 0 0.10222788691734661 -0.0018343425229422666 0 0.10244956221444514 -0.002079919637698646 0 0.10222788691734661 -0.0018343425229422666 0 0.10244956221444514 -0.002079919637698646 0 0.1027044878927468 -0.0018180986552585304 0 0.10230469913756803 -0.0022400017535651709 0 0.10222788691734661 -0.0018343425229422666 0 0.1020725011344298 -0.0020571040877923733 0 0.10222788691734661 -0.0018343425229422666 0 0.1020725011344298 -0.0020571040877923733 0 0.10183891220748599 -0.0019116044436588945 0 0.10191622187422401 -0.0022410570266185878 0 0.1020725011344298 -0.0020571040877923733 0 0.10183891220748599 -0.0019116044436588945 0 0.10296333369603881 -0.0022195099068265914 0 0.10297389006136826 -0.0020058630844480493 0 0.10274107242913672 -0.0026744535098287923 0 0.10275165447398832 -0.0027124278097884398 0 0.10277375655771059 -0.0027284310421515794 0 0.10274107242913672 -0.0026744535098287923 0 0.10255358082170817 -0.0024165048748698618 0 0.1027044878927468 -0.0018180986552585304 0 0.10278540158565352 -0.0027086266685824797 0 0.10274107242913672 -0.0026744535098287923 0 0.10275165447398832 -0.0027124278097884398 0 0.10244956221444514 -0.002079919637698646 0 0.10255358082170817 -0.0024165048748698618 0 0.1027044878927468 -0.0018180986552585304 0 0.10275597699500119 -0.0027438512637620255 0 0.10277375655771059 -0.0027284310421515794 0 0.10277959035812025 -0.0027634269496267555 0 0.10297389006136826 -0.0020058630844480493 0 0.10302588233937335 -0.0014545094216903269 0 0.10275165447398832 -0.0027124278097884398 0 0.10275597699500119 -0.0027438512637620255 0 0.10277375655771059 -0.0027284310421515794 0 0.10306619743986045 -0.0019231004918192922 0 0.10302588233937335 -0.0014545094216903269 0 0.1027044878927468 -0.0018180986552585304 0 0.10223083893089334 -0.0013442359609457622 0 0.10254582750656725 -0.00085954082129189376 0 0.10222788691734661 -0.0018343425229422666 0 0.10223083893089334 -0.0013442359609457622 0 0.10177770621865852 -0.001427109605024208 0 0.10222788691734661 -0.0018343425229422666 0 0.10183891220748599 -0.0019116044436588945 0 0.10177770621865852 -0.001427109605024208 0 0.10222788691734661 -0.0018343425229422666 0 0.1027044878927468 -0.0018180986552585304 0 0.10223083893089334 -0.0013442359609457622 0 0.10223083893089334 -0.0013442359609457622 0 0.10187126357554889 -0.00089372575245393201 0 0.10177770621865852 -0.001427109605024208 0 0.10302588233937335 -0.0014545094216903269 0 0.1026338386205513 -0.00052170694251741257 0 0.10187126357554889 -0.00089372575245393201 0 0.10254582750656725 -0.00085954082129189376 0 0.10172431982346895 -1.660702708580299e-05 0 0.10223083893089334 -0.0013442359609457622 0 0.10187126357554889 -0.00089372575245393201 0 0.10254582750656725 -0.00085954082129189376 0 0.1023565358226325 -0.0023378960205087495 0 0.10260632727796859 -0.0022550953288721829 0 0.10229929497275865 -0.0019946208366732831 0 0.10252752696455714 -0.0025212423272560295 0 0.1023565358226325 -0.0023378960205087495 0 0.10260632727796859 -0.0022550953288721829 0 0.10358144427458824 -0.0015110272982837999 0 0.10334514812273699 -0.0018162658203166231 0 0.10290373274585052 -0.0024977330731768706 0 0.10349127950799571 -0.0016363659012074328 0 0.10350264697516562 -0.0019221784262073976 0 0.10334514812273699 -0.0018162658203166231 0 0.10290373274585052 -0.0024977330731768706 0 0.10309638219871083 -0.0021801808918070508 0 0.10334514812273699 -0.0018162658203166231 0 0.10354984232509556 -0.0015627274636868685 0 0.10309638219871083 -0.0021801808918070508 0 0.10260632727796859 -0.0022550953288721829 0 0.10290373274585052 -0.0024977330731768706 0 0.1026903226066259 -0.0024962458330360492 0 0.10252752696455714 -0.0025212423272560295 0 0.10260632727796859 -0.0022550953288721829 0 0.1026903226066259 -0.0024962458330360492 0 0.10272260239411153 -0.0027358990155044774 0 0.10290373274585052 -0.0024977330731768706 0 0.1026903226066259 -0.0024962458330360492 0 0.10307700324811993 -0.0020662301968108437 0 0.10306619743986045 -0.0019231004918192922 0 0.10272260239411153 -0.0027358990155044774 0 0.10252752696455714 -0.0025212423272560295 0 0.1026903226066259 -0.0024962458330360492 0 0.086107065445497163 -0.0023139628120633815 0 0.08609633686174481 -0.0023275578307142613 0 0.086129376797174459 -0.0023544366029923476 0 0.08616106852897891 -0.002342206190335159 0 0.086107065445497163 -0.0023139628120633815 0 0.086129376797174459 -0.0023544366029923476 0 0.086107065445497163 -0.0023139628120633815 0 0.086065765212811118 -0.002283360298786672 0 0.086068033556247897 -0.0022997174442370787 0 0.086110082394342743 -0.0022880740405186333 0 0.086107065445497163 -0.0023139628120633815 0 0.086065765212811118 -0.002283360298786672 0 0.08604208519922453 -0.0022700803982244624 0 0.086065765212811118 -0.002283360298786672 0 0.086068033556247897 -0.0022997174442370787 0 0.086107065445497163 -0.0023139628120633815 0 0.086068033556247897 -0.0022997174442370787 0 0.08609633686174481 -0.0023275578307142613 0 0.086068033556247897 -0.0022997174442370787 0 0.08609633686174481 -0.0023275578307142613 0 0.086071435291551354 -0.0023200350445511161 0 0.08609633686174481 -0.0023275578307142613 0 0.086071435291551354 -0.0023200350445511161 0 0.086088243581066634 -0.0023445704561135664 0 0.086058908758888178 -0.0023322522150445667 0 0.086071435291551354 -0.0023200350445511161 0 0.086038932470255264 -0.0023017214788622676 0 0.091095314266081015 -0.0020681743942082735 0 0.087813544454603001 -0.0023955379246482699 0 0.086058908758888178 -0.0023322522150445667 0 0.086071435291551354 -0.0023200350445511161 0 0.086088243581066634 -0.0023445704561135664 0 0.091095314266081015 -0.0020681743942082735 0 0.090457937486383366 -0.0018568124940889789 0 0.086068033556247897 -0.0022997174442370787 0 0.086071435291551354 -0.0023200350445511161 0 0.086038932470255264 -0.0023017214788622676 0 0.081715039963728003 -0.003846739323041113 0 0.087813544454603001 -0.0023955379246482699 0 0.08604208519922453 -0.0022700803982244624 0 0.086068033556247897 -0.0022997174442370787 0 0.086038932470255264 -0.0023017214788622676 0 0.10250941113127689 -0.0015150364203427567 0 0.10248025372435914 -0.0017797697832231186 0 0.10241882956749696 -0.0017112244450074817 0 0.086104757722402128 -0.0029827753542858901 0 0.087813544454603001 -0.0023955379246482699 0 0.10248025372435914 -0.0017797697832231186 0 0.10243436533866226 -0.0017665012258052957 0 0.10242305206772208 -0.0018063118526717749 0 0.10240586186873615 -0.0017321016874722402 0 0.10243436533866226 -0.0017665012258052957 0 0.10242305206772208 -0.0018063118526717749 0 0.10248025372435914 -0.0017797697832231186 0 0.10241882956749696 -0.0017112244450074817 0 0.10243436533866226 -0.0017665012258052957 0 0.10240586186873615 -0.0017321016874722402 0 0.10241882956749696 -0.0017112244450074817 0 0.10243436533866226 -0.0017665012258052957 0 0.090495756154906723 -0.0034776118051585859 0 0.088647624625662988 2.4249332305205137e-05 0 0.087196063425469109 -0.0017643308994436393 0 0.10191622187422401 -0.0022410570266185878 0 0.10170402598227572 -0.0022621404307138189 0 0.10151387047045766 -0.0023420484914925457 0 0.10191622187422401 -0.0022410570266185878 0 0.10170402598227572 -0.0022621404307138189 0 0.101669020781988 -0.0020961130740374846 0 0.10170402598227572 -0.0022621404307138189 0 0.10151387047045766 -0.0023420484914925457 0 0.101669020781988 -0.0020961130740374846 0 0.087813544454603001 -0.0023955379246482699 0 0.093149900911358302 -0.0012319040875848101 0 0.10077912018208783 -0.0019735624361141668 0 0.10151387047045766 -0.0023420484914925457 0 0.10135693859081917 -0.001849911317481786 0 0.091095314266081015 -0.0020681743942082735 0 0.093149900911358302 -0.0012319040875848101 0 0.10135693859081917 -0.001849911317481786 0 0.10183891220748599 -0.0019116044436588945 0 0.101669020781988 -0.0020961130740374846 0 0.10151387047045766 -0.0023420484914925457 0 0.10135693859081917 -0.001849911317481786 0 0.101669020781988 -0.0020961130740374846 0 0.10191622187422401 -0.0022410570266185878 0 0.10183891220748599 -0.0019116044436588945 0 0.101669020781988 -0.0020961130740374846 0 0.10187126357554889 -0.00089372575245393201 0 0.10177770621865852 -0.001427109605024208 0 0.1010211449496826 -0.0010545997192557934 0 0.10135693859081917 -0.001849911317481786 0 0.10177770621865852 -0.001427109605024208 0 0.1010211449496826 -0.0010545997192557934 0 0.10135693859081917 -0.001849911317481786 0 0.10183891220748599 -0.0019116044436588945 0 0.10177770621865852 -0.001427109605024208 0 0.1010211449496826 -0.0010545997192557934 0 0.1007561201727869 -0.00015979761818969994 0 0.10172431982346895 -1.660702708580299e-05 0 0.10187126357554889 -0.00089372575245393201 0 0.1010211449496826 -0.0010545997192557934 0 0.10172431982346895 -1.660702708580299e-05 0 0.1010211449496826 -0.0010545997192557934 0 0.10020019403553906 -0.0008793180176384323 0 0.1007561201727869 -0.00015979761818969994 0 0.086077171865231131 -0.0023364875808950169 0 0.086088243581066634 -0.0023445704561135664 0 0.086108276952699556 -0.0023754682151050804 0 0.091095314266081015 -0.0020681743942082735 0 0.094312053271398757 -0.0011698831437605497 0 0.10077912018208783 -0.0019735624361141668 0 0.1010211449496826 -0.0010545997192557934 0 0.10020019403553906 -0.0008793180176384323 0 0.10077912018208783 -0.0019735624361141668 0 0.10135693859081917 -0.001849911317481786 0 0.1010211449496826 -0.0010545997192557934 0 0.086105268231494406 -0.0023506364326127665 0 0.086108276952699556 -0.0023754682151050804 0 0.086129376797174459 -0.0023544366029923476 0 0.086088243581066634 -0.0023445704561135664 0 0.086105268231494406 -0.0023506364326127665 0 0.086108276952699556 -0.0023754682151050804 0 0.08609633686174481 -0.0023275578307142613 0 0.086088243581066634 -0.0023445704561135664 0 0.086105268231494406 -0.0023506364326127665 0 0.08609633686174481 -0.0023275578307142613 0 0.086105268231494406 -0.0023506364326127665 0 0.086129376797174459 -0.0023544366029923476 0 0.086108276952699556 -0.0023754682151050804 0 0.086149828947447313 -0.0023860884885298591 0 0.086158172500669553 -0.0024185661500412056 0 0.086108276952699556 -0.0023754682151050804 0 0.086149828947447313 -0.0023860884885298591 0 0.086129376797174459 -0.0023544366029923476 0 0.086177905112287484 -0.0023695634419058339 0 0.086149828947447313 -0.0023860884885298591 0 0.086129376797174459 -0.0023544366029923476 0 0.10496819661291969 -0.00011561993446723782 0 0.10502497916576846 -0.00014425213451802008 0 0.10500339506362498 -6.6516937824448685e-05 0 0.098411206588990427 -0.00034648790087312494 0 0.10286818739866201 -0.00064715836566146465 0 0.10493426912372911 0.00018625698732891037 0 0.10493977245234158 9.1541618865207354e-05 0 0.10499464009393114 6.5836492155828838e-05 0 0.086189118367529613 -0.0024011449892413802 0 0.086149828947447313 -0.0023860884885298591 0 0.086158172500669553 -0.0024185661500412056 0 0.1049646400539018 -0.00018466932296056637 0 0.10496819661291969 -0.00011561993446723782 0 0.10502497916576846 -0.00014425213451802008 0 0.097322440399359805 -0.0019226825708279097 0 0.098411206588990427 -0.00034648790087312494 0 0.10020019403553906 -0.0008793180176384323 0 0.099623585710011245 0.00021415260865022709 0 0.1007561201727869 -0.00015979761818969994 0 0.094312053271398757 -0.0011698831437605497 0 0.098411206588990427 -0.00034648790087312494 0 0.098411206588990427 -0.00034648790087312494 0 0.10273751669207212 -6.2563520299822571e-05 0 0.10493426912372911 0.00018625698732891037 0 0.10481553105548068 0.00013317372625076682 0 0.10493977245234158 9.1541618865207354e-05 0 0.099623585710011245 0.00021415260865022709 0 0.10090700672146448 0.00082221300757120931 0 0.1007561201727869 -0.00015979761818969994 0 0.10090700672146448 0.00082221300757120931 0 0.1007561201727869 -0.00015979761818969994 0 0.10172431982346895 -1.660702708580299e-05 0 0.10273751669207212 -6.2563520299822571e-05 0 0.1026338386205513 -0.00052170694251741257 0 0.10493672528016576 0.00013151607494232441 0 0.10483606154475401 8.3334194074875188e-05 0 0.10464419805703357 0.00037276572618310833 0 0.10314254673878799 -0.00075360027708088536 0 0.10309658024326858 -0.00061068177572790364 0 0.10322611166512936 -0.00071795867613392488 0 0.10303356995470928 -0.00064033785348755086 0 0.10314254673878799 -0.00075360027708088536 0 0.10309658024326858 -0.00061068177572790364 0 0.10273751669207212 -6.2563520299822571e-05 0 0.10356879009212561 -1.9895893350080321e-05 0 0.10356879009212561 -1.9895893350080321e-05 0 0.10367381909492797 1.7860177713529695e-05 0 0.10491543853064098 9.3094098532888513e-05 0 0.10494494097829681 -2.5169630950680411e-05 0 0.10485883976295063 -1.7228796078355385e-05 0 0.10491543853064098 9.3094098532888513e-05 0 0.10483606154475401 8.3334194074875188e-05 0 0.10485883976295063 -1.7228796078355385e-05 0 0.10494494097829681 -2.5169630950680411e-05 0 0.10485883976295063 -1.7228796078355385e-05 0 0.10491780314734497 -6.8967498494701889e-05 0 0.10491780314734497 -6.8967498494701889e-05 0 0.10500003462708045 -4.8159494843133009e-08 0 0.10499942704429112 -2.0030991847694902e-07 0 0.10494494097829681 -2.5169630950680411e-05 0 0.10491780314734497 -6.8967498494701889e-05 0 0.10500003462708045 -4.8159494843133009e-08 0 0.10485883976295063 -1.7228796078355385e-05 0 0.10491780314734497 -6.8967498494701889e-05 0 0.10471134667758063 -0.00014596470953921888 0 0.10494494097829681 -2.5169630950680411e-05 0 0.10500003462708045 -4.8159494843133009e-08 0 0.10500297389085017 -1.213319148960254e-05 0 0.10491543853064098 9.3094098532888513e-05 0 0.10494494097829681 -2.5169630950680411e-05 0 0.10500297389085017 -1.213319148960254e-05 0 0.10479076789329216 0.00017176341221056089 0 0.10472098100479765 0.0001396121080420928 0 0.1048707878191095 2.966709113266448e-05 0 0.10479076789329216 0.00017176341221056089 0 0.1048707878191095 2.966709113266448e-05 0 0.10489296009655194 6.6754331923246299e-05 0 0.10356879009212561 -1.9895893350080321e-05 0 0.10457467208401684 -0.00011870278202488712 0 0.10273751669207212 -6.2563520299822571e-05 0 0.10337955263010723 -0.00035292349463683512 0 0.10481553105548068 0.00013317372625076682 0 0.10493977245234158 9.1541618865207354e-05 0 0.10489296009655194 6.6754331923246299e-05 0 0.1048707878191095 2.966709113266448e-05 0 0.10489296009655194 6.6754331923246299e-05 0 0.10496933945519751 3.5906758595547149e-05 0 0.10493977245234158 9.1541618865207354e-05 0 0.10489296009655194 6.6754331923246299e-05 0 0.10496933945519751 3.5906758595547149e-05 0 0.1048707878191095 2.966709113266448e-05 0 0.10499978961237383 4.7226919865435356e-09 0 0.10496933945519751 3.5906758595547149e-05 0 0.10500003462708045 -4.8159494843133009e-08 0 0.10500297389085017 -1.213319148960254e-05 0 0.10499997497220324 1.9862168757132821e-08 0 0.10457467208401684 -0.00011870278202488712 0 0.10499945407751581 -3.7134314311189491e-07 0 0.10500015594877077 -9.2733804596904375e-12 0 0.10499978961237383 4.7226919865435356e-09 0 0.10496933945519751 3.5906758595547149e-05 0 0.10500015594877077 -9.2733804596904375e-12 0 0.10496933945519751 3.5906758595547149e-05 0 0.10499464009393114 6.5836492155828838e-05 0 0.10493977245234158 9.1541618865207354e-05 0 0.10496933945519751 3.5906758595547149e-05 0 0.10499464009393114 6.5836492155828838e-05 0 0.10420940307972164 -0.00080907701213588394 0 0.1038282714529922 -0.0012420299118680485 0 0.10419462189099357 -0.00078659002936388479 0 0.10420940307972164 -0.00080907701213588394 0 0.1040016976804596 -0.0010424790441589827 0 0.1038282714529922 -0.0012420299118680485 0 0.1040016976804596 -0.0010424790441589827 0 0.10354984232509556 -0.0015627274636868685 0 0.1038282714529922 -0.0012420299118680485 0 0.10334514812273699 -0.0018162658203166231 0 0.10354984232509556 -0.0015627274636868685 0 0.1038282714529922 -0.0012420299118680485 0 0.1040016976804596 -0.0010424790441589827 0 0.10354984232509556 -0.0015627274636868685 0 0.10372385719345319 -0.0013521160880494291 0 0.10358144427458824 -0.0015110272982837999 0 0.10334514812273699 -0.0018162658203166231 0 0.1038282714529922 -0.0012420299118680485 0 0.10358144427458824 -0.0015110272982837999 0 0.1038282714529922 -0.0012420299118680485 0 0.10394063086659044 -0.0010393272666611283 0 0.10349127950799571 -0.0016363659012074328 0 0.10351271866378156 -0.00094304426483810011 0 0.10325271490663598 -0.00086873561567617306 0 0.10314254673878799 -0.00075360027708088536 0 0.10322611166512936 -0.00071795867613392488 0 0.10302588233937335 -0.0014545094216903269 0 0.10351271866378156 -0.00094304426483810011 0 0.10356879009212561 -1.9895893350080321e-05 0 0.10351271866378156 -0.00094304426483810011 0 0.10351271866378156 -0.00094304426483810011 0 0.10378045343850056 -0.00068213639679331908 0 0.10483606154475401 8.3334194074875188e-05 0 0.10464419805703357 0.00037276572618310833 0 0.10469162602766621 0.00012233130486629789 0 0.10394063086659044 -0.0010393272666611283 0 0.10416046814771794 -0.00067439891078546874 0 0.10419462189099357 -0.00078659002936388479 0 0.1038282714529922 -0.0012420299118680485 0 0.10394063086659044 -0.0010393272666611283 0 0.10419462189099357 -0.00078659002936388479 0 0.10420940307972164 -0.00080907701213588394 0 0.10419462189099357 -0.00078659002936388479 0 0.1045280554416214 -0.00043311176903410112 0 0.10419462189099357 -0.00078659002936388479 0 0.10447524671660012 -0.00041768424392139668 0 0.1045280554416214 -0.00043311176903410112 0 0.10447524671660012 -0.00041768424392139668 0 0.1045280554416214 -0.00043311176903410112 0 0.1047221683735485 -0.00019761347478736222 0 0.10416046814771794 -0.00067439891078546874 0 0.10447524671660012 -0.00041768424392139668 0 0.10471134667758063 -0.00014596470953921888 0 0.10485883976295063 -1.7228796078355385e-05 0 0.10469162602766621 0.00012233130486629789 0 0.10471134667758063 -0.00014596470953921888 0 0.10378045343850056 -0.00068213639679331908 0 0.10388038190087485 -0.0006209540328853797 0 0.10483606154475401 8.3334194074875188e-05 0 0.10485883976295063 -1.7228796078355385e-05 0 0.10469162602766621 0.00012233130486629789 0 0.10416046814771794 -0.00067439891078546874 0 0.10419462189099357 -0.00078659002936388479 0 0.10447524671660012 -0.00041768424392139668 0 0.10447524671660012 -0.00041768424392139668 0 0.10471134667758063 -0.00014596470953921888 0 0.1047221683735485 -0.00019761347478736222 0 0.10491780314734497 -6.8967498494701889e-05 0 0.10471134667758063 -0.00014596470953921888 0 0.10499942704429112 -2.0030991847694902e-07 0 0.10471134667758063 -0.00014596470953921888 0 0.10499942704429112 -2.0030991847694902e-07 0 0.1047221683735485 -0.00019761347478736222 0 0.10499942704429112 -2.0030991847694902e-07 0 0.1047221683735485 -0.00019761347478736222 0 0.10499923216944082 -3.5233851428926768e-07 0 0.1045280554416214 -0.00043311176903410112 0 0.1047221683735485 -0.00019761347478736222 0 0.10499923216944082 -3.5233851428926768e-07 0 0.10499923216944082 -3.5233851428926768e-07 0 0.10450336113187438 -0.00049801853885942044 0 0.10499946697145854 -1.2962541865063066e-07 0 0.1045280554416214 -0.00043311176903410112 0 0.10499923216944082 -3.5233851428926768e-07 0 0.10450336113187438 -0.00049801853885942044 0 0.10420940307972164 -0.00080907701213588394 0 0.1040016976804596 -0.0010424790441589827 0 0.10450336113187438 -0.00049801853885942044 0 0.10420940307972164 -0.00080907701213588394 0 0.1045280554416214 -0.00043311176903410112 0 0.10450336113187438 -0.00049801853885942044 0 0.1040016976804596 -0.0010424790441589827 0 0.10450336113187438 -0.00049801853885942044 0 0.10433266529270402 -0.00069934390809251595 0 0.10450336113187438 -0.00049801853885942044 0 0.10499946697145854 -1.2962541865063066e-07 0 0.10433266529270402 -0.00069934390809251595 0 0.10499946697145854 -1.2962541865063066e-07 0 0.10499862378123817 -1.2927859660587655e-06 0 0.10433266529270402 -0.00069934390809251595 0 0.10499862378123817 -1.2927859660587655e-06 0 0.10436260849217975 -0.00069554518957992879 0 0.10433266529270402 -0.00069934390809251595 0 0.10436260849217975 -0.00069554518957992879 0 0.10433266529270402 -0.00069934390809251595 0 0.10394624763859078 -0.0011179169281398389 0 0.1040016976804596 -0.0010424790441589827 0 0.10433266529270402 -0.00069934390809251595 0 0.10372385719345319 -0.0013521160880494291 0 0.10433266529270402 -0.00069934390809251595 0 0.10394624763859078 -0.0011179169281398389 0 0.10372385719345319 -0.0013521160880494291 0 0.10394624763859078 -0.0011179169281398389 0 0.10349229564927007 -0.001649052940956963 0 0.10372385719345319 -0.0013521160880494291 0 0.10354984232509556 -0.0015627274636868685 0 0.10372385719345319 -0.0013521160880494291 0 0.10309638219871083 -0.0021801808918070508 0 0.10349229564927007 -0.001649052940956963 0 0.10372385719345319 -0.0013521160880494291 0 0.10309638219871083 -0.0021801808918070508 0 0.10373639611881183 -0.0014223986021817839 0 0.10423863406372028 -0.0011897784597975939 0 0.10371503818981556 -0.0017392109356519441 0 0.10423863406372028 -0.0011897784597975939 0 0.10418587446442602 -0.0016410324368443506 0 0.10371503818981556 -0.0017392109356519441 0 0.10394624763859078 -0.0011179169281398389 0 0.10349229564927007 -0.001649052940956963 0 0.10373639611881183 -0.0014223986021817839 0 0.10349229564927007 -0.001649052940956963 0 0.10373639611881183 -0.0014223986021817839 0 0.10294505548785376 -0.002363988773831861 0 0.10436260849217975 -0.00069554518957992879 0 0.10394624763859078 -0.0011179169281398389 0 0.10414160035166016 -0.00093093482304448826 0 0.10394624763859078 -0.0011179169281398389 0 0.10373639611881183 -0.0014223986021817839 0 0.10414160035166016 -0.00093093482304448826 0 0.10373639611881183 -0.0014223986021817839 0 0.10414160035166016 -0.00093093482304448826 0 0.10423863406372028 -0.0011897784597975939 0 0.10414160035166016 -0.00093093482304448826 0 0.10432446538665277 -0.00084205739467475881 0 0.10423863406372028 -0.0011897784597975939 0 0.104776076010207 -0.00018903241906327939 0 0.10479607913890408 -0.00044102341310874916 0 0.10500016704591056 6.2643223055230124e-08 0 0.10495744301655544 -5.592566798945269e-05 0 0.10499947243787788 -1.981860720289352e-07 0 0.10414160035166016 -0.00093093482304448826 0 0.10438439308818319 -0.0006347129025411545 0 0.10432446538665277 -0.00084205739467475881 0 0.10436260849217975 -0.00069554518957992879 0 0.10414160035166016 -0.00093093482304448826 0 0.10438439308818319 -0.0006347129025411545 0 0.10499862378123817 -1.2927859660587655e-06 0 0.10436260849217975 -0.00069554518957992879 0 0.10438439308818319 -0.0006347129025411545 0 0.10499943907716582 -3.3550687529042601e-07 0 0.104776076010207 -0.00018903241906327939 0 0.10495744301655544 -5.592566798945269e-05 0 0.10499947243787788 -1.981860720289352e-07 0 0.10480104979613535 -0.00024902822687725026 0 0.10499947243787788 -1.981860720289352e-07 0 0.10483035838487274 -0.00031483324788499019 0 0.10500042149320991 -1.2512866147836071e-07 0 0.10499947243787788 -1.981860720289352e-07 0 0.10483035838487274 -0.00031483324788499019 0 0.10480104979613535 -0.00024902822687725026 0 0.10483035838487274 -0.00031483324788499019 0 0.10500042149320991 -1.2512866147836071e-07 0 0.10495510855627503 -0.00033944764652151855 0 0.10500042149320991 -1.2512866147836071e-07 0 0.10495510855627503 -0.00033944764652151855 0 0.10474099498774878 -0.00024880638987771948 0 0.10416760705582175 -0.0015124833402915996 0 0.10400849501596496 -0.0011614386506360386 0 0.10362603710230986 -0.001263429653136597 0 0.10416760705582175 -0.0015124833402915996 0 0.10445777035981928 -0.0012175640749820897 0 0.10469962993845512 -0.0009379345001359669 0 0.10483035838487274 -0.00031483324788499019 0 0.10495510855627503 -0.00033944764652151855 0 0.10469962993845512 -0.0009379345001359669 0 0.10431553213233853 -0.00082402492656601231 0 0.10436734173284186 -0.0008544787746404684 0 0.10445777035981928 -0.0012175640749820897 0 0.10400849501596496 -0.0011614386506360386 0 0.1044220520662275 -0.0012621721319863867 0 0.10453625957520812 -0.0012442578653345077 0 0.10445777035981928 -0.0012175640749820897 0 0.10459909677170827 -0.0011329451165659032 0 0.10445777035981928 -0.0012175640749820897 0 0.10469962993845512 -0.0009379345001359669 0 0.10459909677170827 -0.0011329451165659032 0 0.10453625957520812 -0.0012442578653345077 0 0.10445777035981928 -0.0012175640749820897 0 0.1044220520662275 -0.0012621721319863867 0 0.10453625957520812 -0.0012442578653345077 0 0.10455157133078546 -0.0013827230264692734 0 0.1044220520662275 -0.0012621721319863867 0 0.10416760705582175 -0.0015124833402915996 0 0.10445777035981928 -0.0012175640749820897 0 0.10400849501596496 -0.0011614386506360386 0 0.10432446538665277 -0.00084205739467475881 0 0.1044304051192871 -0.0010070809922245536 0 0.10423863406372028 -0.0011897784597975939 0 0.10432446538665277 -0.00084205739467475881 0 0.1044304051192871 -0.0010070809922245536 0 0.10466539898863453 -0.00088532220928054463 0 0.10479607913890408 -0.00044102341310874916 0 0.10486993011871099 -0.00058540778708995997 0 0.1044304051192871 -0.0010070809922245536 0 0.10454214737749012 -0.0010530464411966922 0 0.10441912130563358 -0.0012482993634384753 0 0.10483035838487274 -0.00031483324788499019 0 0.10469962993845512 -0.0009379345001359669 0 0.10466539898863453 -0.00088532220928054463 0 0.10483035838487274 -0.00031483324788499019 0 0.10480104979613535 -0.00024902822687725026 0 0.10466539898863453 -0.00088532220928054463 0 0.10469962993845512 -0.0009379345001359669 0 0.10463167581716147 -0.0010217012089717122 0 0.10459909677170827 -0.0011329451165659032 0 0.10469962993845512 -0.0009379345001359669 0 0.10466539898863453 -0.00088532220928054463 0 0.10463167581716147 -0.0010217012089717122 0 0.1044304051192871 -0.0010070809922245536 0 0.10466539898863453 -0.00088532220928054463 0 0.10454214737749012 -0.0010530464411966922 0 0.10463167581716147 -0.0010217012089717122 0 0.10454214737749012 -0.0010530464411966922 0 0.10459252405024141 -0.0011091071756421679 0 0.10466539898863453 -0.00088532220928054463 0 0.10463167581716147 -0.0010217012089717122 0 0.10454214737749012 -0.0010530464411966922 0 0.10454214737749012 -0.0010530464411966922 0 0.10453792399293257 -0.0012272425647928834 0 0.10441912130563358 -0.0012482993634384753 0 0.10454214737749012 -0.0010530464411966922 0 0.10453792399293257 -0.0012272425647928834 0 0.10459252405024141 -0.0011091071756421679 0 0.10463167581716147 -0.0010217012089717122 0 0.10459909677170827 -0.0011329451165659032 0 0.10459252405024141 -0.0011091071756421679 0 0.10459909677170827 -0.0011329451165659032 0 0.10459252405024141 -0.0011091071756421679 0 0.10457314062521056 -0.0012189346969332015 0 0.10453792399293257 -0.0012272425647928834 0 0.10459252405024141 -0.0011091071756421679 0 0.10457314062521056 -0.0012189346969332015 0 0.10453625957520812 -0.0012442578653345077 0 0.10459909677170827 -0.0011329451165659032 0 0.10457314062521056 -0.0012189346969332015 0 0.10453625957520812 -0.0012442578653345077 0 0.10457314062521056 -0.0012189346969332015 0 0.10455157133078546 -0.0013827230264692734 0 0.10453792399293257 -0.0012272425647928834 0 0.10457314062521056 -0.0012189346969332015 0 0.10455157133078546 -0.0013827230264692734 0 0.10453792399293257 -0.0012272425647928834 0 0.10455157133078546 -0.0013827230264692734 0 0.10448385325187162 -0.0014754598158387981 0 0.10453792399293257 -0.0012272425647928834 0 0.10448385325187162 -0.0014754598158387981 0 0.10441912130563358 -0.0012482993634384753 0 0.10448385325187162 -0.0014754598158387981 0 0.10441912130563358 -0.0012482993634384753 0 0.10418587446442602 -0.0016410324368443506 0 0.1044304051192871 -0.0010070809922245536 0 0.10441912130563358 -0.0012482993634384753 0 0.10423863406372028 -0.0011897784597975939 0 0.10441912130563358 -0.0012482993634384753 0 0.10423863406372028 -0.0011897784597975939 0 0.10418587446442602 -0.0016410324368443506 0 0.10448385325187162 -0.0014754598158387981 0 0.10455812168906756 -0.0016548270130422934 0 0.10442662326562738 -0.0024358731604073353 0 0.10448385325187162 -0.0014754598158387981 0 0.10418587446442602 -0.0016410324368443506 0 0.10442662326562738 -0.0024358731604073353 0 0.10455157133078546 -0.0013827230264692734 0 0.10448385325187162 -0.0014754598158387981 0 0.10455812168906756 -0.0016548270130422934 0 0.10455157133078546 -0.0013827230264692734 0 0.10455812168906756 -0.0016548270130422934 0 0.1044220520662275 -0.0012621721319863867 0 0.10705208061381295 -0.0031423835223007902 0 0.10442662326562738 -0.0024358731604073353 0 0.10650860330292292 -0.0049165666802879803 0 0.1045901113320365 -0.0024557285972418076 0 0.1045939295141749 -0.0024349786202814772 0 0.10455812168906756 -0.0016548270130422934 0 0.10452641465539524 -0.0015306832609499306 0 0.10442662326562738 -0.0024358731604073353 0 0.10455812168906756 -0.0016548270130422934 0 0.10452641465539524 -0.0015306832609499306 0 0.10440746064641529 -0.0013421262641304091 0 0.1044220520662275 -0.0012621721319863867 0 0.10440746064641529 -0.0013421262641304091 0 0.10405787628143741 -0.0010854965939585074 0 0.10400849501596496 -0.0011614386506360386 0 0.1044220520662275 -0.0012621721319863867 0 0.10405787628143741 -0.0010854965939585074 0 0.10455812168906756 -0.0016548270130422934 0 0.1044220520662275 -0.0012621721319863867 0 0.10440746064641529 -0.0013421262641304091 0 0.10452641465539524 -0.0015306832609499306 0 0.10440746064641529 -0.0013421262641304091 0 0.10432329993656966 -0.0012025834857547308 0 0.1045901113320365 -0.0024557285972418076 0 0.1025615020370321 -0.0021395326104968406 0 0.10225412312414653 -0.0011648797583031654 0 0.10233532931477345 -0.0010747414566997559 0 0.10233546103276135 -0.0011911776854651702 0 0.1025615020370321 -0.0021395326104968406 0 0.10296406785732562 -0.0014410719324983666 0 0.10440746064641529 -0.0013421262641304091 0 0.10432329993656966 -0.0012025834857547308 0 0.10405787628143741 -0.0010854965939585074 0 0.10075347605896749 -0.00086759016241075521 0 0.10086753610488049 -0.0013622166355718732 0 0.1015904970826452 -0.0010714134866804997 0 0.1025615020370321 -0.0021395326104968406 0 0.10209855223869986 -0.0017080256748681353 0 0.10086753610488049 -0.0013622166355718732 0 0.10097994380531135 -0.0018659878477894668 0 0.1015904970826452 -0.0010714134866804997 0 0.10965346581088907 -0.0037862146134027661 0 0.10774783557485416 -0.0062428831874369369 0 0.10650860330292292 -0.0049165666802879803 0 0.10075347605896749 -0.00086759016241075521 0 0.10086753610488049 -0.0013622166355718732 0 0.10014315187227152 -0.0016457422545715303 0 0.1025615020370321 -0.0021395326104968406 0 0.098585987099055819 -0.0034660563663907584 0 0.10705208061381295 -0.0031423835223007902 0 0.10965346581088907 -0.0037862146134027661 0 0.10650860330292292 -0.0049165666802879803 0 0.098585987099055819 -0.0034660563663907584 0 0.092868102975187675 -0.0022783901750074911 0 0.087232993407785661 -0.0060865330157414922 0 0.089649152843565422 -0.0076036564131410928 0 0.089578437626746735 -0.003951349733081715 0 0.10086753610488049 -0.0013622166355718732 0 0.10014315187227152 -0.0016457422545715303 0 0.10097994380531135 -0.0018659878477894668 0 0.089067977277606666 -0.0083920851716302106 0 0.087232993407785661 -0.0060865330157414922 0 0.082676977615877154 -0.0077736832568584659 0 0.098585987099055819 -0.0034660563663907584 0 0.098495176164173123 -0.0035564606997982853 0 0.089067977277606666 -0.0083920851716302106 0 0.087232993407785661 -0.0060865330157414922 0 0.089649152843565422 -0.0076036564131410928 0 0.10442662326562738 -0.0024358731604073353 0 0.10472862523767476 -0.0054436843500055123 0 0.10650860330292292 -0.0049165666802879803 0 0.10774783557485416 -0.0062428831874369369 0 0.10472862523767476 -0.0054436843500055123 0 0.10650860330292292 -0.0049165666802879803 0 0.098585987099055819 -0.0034660563663907584 0 0.09954717141376207 -0.0046435958697720187 0 0.089649152843565422 -0.0076036564131410928 0 0.093710369493372775 -0.0053597795728879769 0 0.089578437626746735 -0.003951349733081715 0 0.089205704945593434 -0.008208024943965159 0 0.095809740339806604 -0.0074294235045795284 0 0.089649152843565422 -0.0076036564131410928 0 0.095809740339806604 -0.0074294235045795284 0 0.089649152843565422 -0.0076036564131410928 0 0.093710369493372775 -0.0053597795728879769 0 0.095809740339806604 -0.0074294235045795284 0 0.093710369493372775 -0.0053597795728879769 0 0.0984298105679767 -0.0043080046205744137 0 0.10442662326562738 -0.0024358731604073353 0 0.10472862523767476 -0.0054436843500055123 0 0.10164657001435659 -0.0047511537463034463 0 0.095809740339806604 -0.0074294235045795284 0 0.0984298105679767 -0.0043080046205744137 0 0.10164657001435659 -0.0047511537463034463 0 0.09954717141376207 -0.0046435958697720187 0 0.099965248497341494 -0.0048085269172494479 0 0.10164657001435659 -0.0047511537463034463 0 0.10126966031986553 -0.0038747157592353859 0 0.10219461885975752 -0.0035361520774775932 0 0.10126966031986553 -0.0038747157592353859 0 0.10205059680095568 -0.0029930239333526561 0 0.10081362456683589 -0.0027103095812932463 0 0.0984298105679767 -0.0043080046205744137 0 0.10164657001435659 -0.0047511537463034463 0 0.10126966031986553 -0.0038747157592353859 0 0.0984298105679767 -0.0043080046205744137 0 0.10126966031986553 -0.0038747157592353859 0 0.10081362456683589 -0.0027103095812932463 0 0.10126966031986553 -0.0038747157592353859 0 0.10205059680095568 -0.0029930239333526561 0 0.10219461885975752 -0.0035361520774775932 0 0.10266225847846586 -0.0029494948755489506 0 0.10205059680095568 -0.0029930239333526561 0 0.10219461885975752 -0.0035361520774775932 0 0.10266225847846586 -0.0029494948755489506 0 0.10205059680095568 -0.0029930239333526561 0 0.10246773678022499 -0.0026444602698939283 0 0.10266225847846586 -0.0029494948755489506 0 0.10219461885975752 -0.0035361520774775932 0 0.1026713838390332 -0.0029218975735625079 0 0.10164657001435659 -0.0047511537463034463 0 0.10219461885975752 -0.0035361520774775932 0 0.10252485645509762 -0.0030761961432662745 0 0.10219461885975752 -0.0035361520774775932 0 0.10252485645509762 -0.0030761961432662745 0 0.1026713838390332 -0.0029218975735625079 0 0.10290373274585052 -0.0024977330731768706 0 0.1026713838390332 -0.0029218975735625079 0 0.10309638219871083 -0.0021801808918070508 0 0.10252485645509762 -0.0030761961432662745 0 0.1026713838390332 -0.0029218975735625079 0 0.10309638219871083 -0.0021801808918070508 0 0.10252485645509762 -0.0030761961432662745 0 0.10309638219871083 -0.0021801808918070508 0 0.10294505548785376 -0.002363988773831861 0 0.10349229564927007 -0.001649052940956963 0 0.10309638219871083 -0.0021801808918070508 0 0.10294505548785376 -0.002363988773831861 0 0.10373639611881183 -0.0014223986021817839 0 0.10294505548785376 -0.002363988773831861 0 0.10371503818981556 -0.0017392109356519441 0 0.10418587446442602 -0.0016410324368443506 0 0.10442662326562738 -0.0024358731604073353 0 0.10330027633866483 -0.0024962429467245656 0 0.10294505548785376 -0.002363988773831861 0 0.10371503818981556 -0.0017392109356519441 0 0.10330027633866483 -0.0024962429467245656 0 0.10418587446442602 -0.0016410324368443506 0 0.10371503818981556 -0.0017392109356519441 0 0.10330027633866483 -0.0024962429467245656 0 0.10442662326562738 -0.0024358731604073353 0 0.10164657001435659 -0.0047511537463034463 0 0.10330027633866483 -0.0024962429467245656 0 0.10164657001435659 -0.0047511537463034463 0 0.10252485645509762 -0.0030761961432662745 0 0.10294505548785376 -0.002363988773831861 0 0.10164657001435659 -0.0047511537463034463 0 0.10294505548785376 -0.002363988773831861 0 0.10330027633866483 -0.0024962429467245656 0 0.10499153146620639 5.9777016524196005e-07 0 0.10399086332347952 -0.00017748401230245603 0 0.10499754177610555 -1.1130842847961156e-06 0 0.10499153146620639 5.9777016524196005e-07 0 0.10059698384186744 0.00019406722289040941 0 0.084028877580322278 6.5506897965802591e-07 0 0.089368714952885633 -0.00028855180342233008 0 0.10059698384186744 0.00019406722289040941 0 0.084028877580322278 6.5506897965802591e-07 0 0.089368714952885633 -0.00028855180342233008 0 0.092562981100441255 0.00050408880231495414 0 0.10059698384186744 0.00019406722289040941 0 0.10499153146620639 5.9777016524196005e-07 0 0.10059698384186744 0.00019406722289040941 0 0.10399086332347952 -0.00017748401230245603 0 0.10317130403037739 0.00045995619379169452 0 0.10059698384186744 0.00019406722289040941 0 0.10399086332347952 -0.00017748401230245603 0 0.098191920616462355 -0.00047316712540485933 0 0.098473625334530232 -0.00033049922038967563 0 0.10399086332347952 -0.00017748401230245603 0 0.10374259358166876 -0.00049285748373559452 0 0.10360461501854996 -0.00021410526341053337 0 0.098191920616462355 -0.00047316712540485933 0 0.098574848202622842 -0.00061300902150610839 0 0.10317130403037739 0.00045995619379169452 0 0.10399086332347952 -0.00017748401230245603 0 0.10374259358166876 -0.00049285748373559452 0 0.089368714952885633 -0.00028855180342233008 0 0.092562981100441255 0.00050408880231495414 0 0.091303658020581269 -0.0021453357187644038 0 0.089368714952885633 -0.00028855180342233008 0 0.091303658020581269 -0.0021453357187644038 0 0.090823643957967604 0.00049573832841287005 0 0.091303658020581269 -0.0021453357187644038 0 0.09566599844222079 0.00035611942822781666 0 0.090823643957967604 0.00049573832841287005 0 0.098574848202622842 -0.00061300902150610839 0 0.099334859694043848 -0.0004768830295548888 0 0.091303658020581269 -0.0021453357187644038 0 0.099964502091808266 -0.0014996535602635754 0 0.09566599844222079 0.00035611942822781666 0 0.10374259358166876 -0.00049285748373559452 0 0.099964502091808266 -0.0014996535602635754 0 0.1022579146008791 -0.00082502945341071047 0 0.099964502091808266 -0.0014996535602635754 0 0.10229512267688998 -0.0012229995987703311 0 0.1022579146008791 -0.00082502945341071047 0 0.099964502091808266 -0.0014996535602635754 0 0.10229512267688998 -0.0012229995987703311 0 0.10243720916153413 -0.0010170334166676024 0 0.099964502091808266 -0.0014996535602635754 0 0.10243720916153413 -0.0010170334166676024 0 0.099981237949560861 0.00091238391891453876 0 0.10229512267688998 -0.0012229995987703311 0 0.1022579146008791 -0.00082502945341071047 0 0.10289192285513735 -0.0011148014154242875 0 0.1022579146008791 -0.00082502945341071047 0 0.1035886263519625 -0.00028876952894917832 0 0.10289192285513735 -0.0011148014154242875 0 0.1022579146008791 -0.00082502945341071047 0 0.10360461501854996 -0.00021410526341053337 0 0.1035886263519625 -0.00028876952894917832 0 0.10374259358166876 -0.00049285748373559452 0 0.1022579146008791 -0.00082502945341071047 0 0.10360461501854996 -0.00021410526341053337 0 0.10499754177610555 -1.1130842847961156e-06 0 0.1035886263519625 -0.00028876952894917832 0 0.10474099498774878 -0.00024880638987771948 0 0.10399086332347952 -0.00017748401230245603 0 0.10360461501854996 -0.00021410526341053337 0 0.10499754177610555 -1.1130842847961156e-06 0 0.10360461501854996 -0.00021410526341053337 0 0.10499754177610555 -1.1130842847961156e-06 0 0.1035886263519625 -0.00028876952894917832 0 0.10500042149320991 -1.2512866147836071e-07 0 0.10499754177610555 -1.1130842847961156e-06 0 0.10474099498774878 -0.00024880638987771948 0 0.10398672001993194 -0.00069601578767241104 0 0.10410340536486692 -0.00075771221107228672 0 0.10416760705582175 -0.0015124833402915996 0 0.10362603710230986 -0.001263429653136597 0 0.10303996985692161 -0.0013865274318134826 0 0.10362603710230986 -0.001263429653136597 0 0.10303996985692161 -0.0013865274318134826 0 0.10343195725652765 -0.0010648956177478884 0 0.10431553213233853 -0.00082402492656601231 0 0.10410340536486692 -0.00075771221107228672 0 0.1035886263519625 -0.00028876952894917832 0 0.10303996985692161 -0.0013865274318134826 0 0.10289192285513735 -0.0011148014154242875 0 0.10303996985692161 -0.0013865274318134826 0 0.10289192285513735 -0.0011148014154242875 0 0.10343195725652765 -0.0010648956177478884 0 0.10290675087157419 -0.0013184147480656372 0 0.10294617182536976 -0.001319056872866623 0 0.10229512267688998 -0.0012229995987703311 0 0.10243720916153413 -0.0010170334166676024 0 0.10249129447467177 -0.0010410888846537874 0 0.10229512267688998 -0.0012229995987703311 0 0.10289192285513735 -0.0011148014154242875 0 0.10249129447467177 -0.0010410888846537874 0 0.10400849501596496 -0.0011614386506360386 0 0.10343195725652765 -0.0010648956177478884 0 0.10405787628143741 -0.0010854965939585074 0 0.10400849501596496 -0.0011614386506360386 0 0.10362603710230986 -0.001263429653136597 0 0.10343195725652765 -0.0010648956177478884 0 0.10249129447467177 -0.0010410888846537874 0 0.10233532931477345 -0.0010747414566997559 0 0.10242245404492212 -0.0010594260004950075 0 0.10294617182536976 -0.001319056872866623 0 0.10296406785732562 -0.0014410719324983666 0 0.10243720916153413 -0.0010170334166676024 0 0.10249129447467177 -0.0010410888846537874 0 0.10242245404492212 -0.0010594260004950075 0 0.10243720916153413 -0.0010170334166676024 0 0.10242245404492212 -0.0010594260004950075 0 0.10246044067314394 -0.0010847826514908197 0 0.1023819689136105 -0.001131000543021317 0 0.10239519661544343 -0.0013217158821505974 0 0.10246044067314394 -0.0010847826514908197 0 0.10242245404492212 -0.0010594260004950075 0 0.1023819689136105 -0.001131000543021317 0 0.10246044067314394 -0.0010847826514908197 0 0.10233532931477345 -0.0010747414566997559 0 0.1023819689136105 -0.001131000543021317 0 0.10233546103276135 -0.0011911776854651702 0 0.10233532931477345 -0.0010747414566997559 0 0.10242245404492212 -0.0010594260004950075 0 0.1023819689136105 -0.001131000543021317 0 0.082676977615877154 -0.0077736832568584659 0 0.076641691624071126 -0.0064455668262184216 0 0.077154984458991674 -0.0061742912615051077 0 0.10097994380531135 -0.0018659878477894668 0 0.10190621834731201 -0.0015501340557458154 0 0.10180289951541606 -0.0020576333521612413 0 0.092868102975187675 -0.0022783901750074911 0 0.088607731738679738 -0.00026740156880417451 0 0.10097994380531135 -0.0018659878477894668 0 0.1015904970826452 -0.0010714134866804997 0 0.10190621834731201 -0.0015501340557458154 0 0.088309392582279225 0.001441574567301428 0 0.088607731738679738 -0.00026740156880417451 0 0.10190621834731201 -0.0015501340557458154 0 0.10239519661544343 -0.0013217158821505974 0 0.10255311336650016 -0.0015527496999759361 0 0.086223837582593166 -0.00057904937247402709 0 0.086204805162905671 -0.00046339794027623735 0 0.086371303920750458 -0.00051329818305842598 0 0.10190621834731201 -0.0015501340557458154 0 0.10255311336650016 -0.0015527496999759361 0 0.10180289951541606 -0.0020576333521612413 0 0.1015904970826452 -0.0010714134866804997 0 0.10190621834731201 -0.0015501340557458154 0 0.10239519661544343 -0.0013217158821505974 0 0.1023819689136105 -0.001131000543021317 0 0.10233546103276135 -0.0011911776854651702 0 0.10239519661544343 -0.0013217158821505974 0 0.10209855223869986 -0.0017080256748681353 0 0.10214869577777332 -0.0016328024452004516 0 0.088309392582279225 0.001441574567301428 0 0.095195927136657879 0.0012495092732581646 0 0.10239519661544343 -0.0013217158821505974 0 0.10255311336650016 -0.0015527496999759361 0 0.10246044067314394 -0.0010847826514908197 0 0.098887313506829916 0.0087184007433999591 0 0.10141771613233858 0.013416040100197436 0 0.102193128713804 0.0049249870245830591 0 0.088309392582279225 0.001441574567301428 0 0.081591360634233098 0.0018679419018399724 0 0.073137176646462909 0.0031983317725439624 0 0.074625014326037173 0.0024379791971378584 0 0.073654389197522596 0.0019340381211839298 0 0.073137176646462909 0.0031983317725439624 0 0.074625014326037173 0.0024379791971378584 0 0.075430648368675135 0.0047416152378278618 0 0.074625014326037173 0.0024379791971378584 0 0.075430648368675135 0.0047416152378278618 0 0.07648231060203256 0.0028613584875774186 0 0.088309392582279225 0.001441574567301428 0 0.086490541493209158 0.003531701604936485 0 0.098887313506829916 0.0087184007433999591 0 0.10141771613233858 0.013416040100197436 0 0.094418080943963395 0.010326329007266479 0 0.098887313506829916 0.0087184007433999591 0 0.094418080943963395 0.010326329007266479 0 0.096523898297137464 0.0060178659269311983 0 0.094418080943963395 0.010326329007266479 0 0.096523898297137464 0.0060178659269311983 0 0.091965402824427694 0.0039716844811590567 0 0.096523898297137464 0.0060178659269311983 0 0.096861360948516453 0.0027218488165110309 0 0.091965402824427694 0.0039716844811590567 0 0.098887313506829916 0.0087184007433999591 0 0.096523898297137464 0.0060178659269311983 0 0.102193128713804 0.0049249870245830591 0 0.096523898297137464 0.0060178659269311983 0 0.102193128713804 0.0049249870245830591 0 0.096861360948516453 0.0027218488165110309 0 0.10243720916153413 -0.0010170334166676024 0 0.102193128713804 0.0049249870245830591 0 0.099981237949560861 0.00091238391891453876 0 0.097160076490609676 9.1606436086066702e-05 0 0.095195927136657879 0.0012495092732581646 0 0.102193128713804 0.0049249870245830591 0 0.099981237949560861 0.00091238391891453876 0 0.096861360948516453 0.0027218488165110309 0 0.09566599844222079 0.00035611942822781666 0 0.096861360948516453 0.0027218488165110309 0 0.090823643957967604 0.00049573832841287005 0 0.099964502091808266 -0.0014996535602635754 0 0.099981237949560861 0.00091238391891453876 0 0.09566599844222079 0.00035611942822781666 0 0.099981237949560861 0.00091238391891453876 0 0.09566599844222079 0.00035611942822781666 0 0.096861360948516453 0.0027218488165110309 0 0.096861360948516453 0.0027218488165110309 0 0.090823643957967604 0.00049573832841287005 0 0.091965402824427694 0.0039716844811590567 0 0.089368714952885633 -0.00028855180342233008 0 0.088415061072977877 0.00092842646525587537 0 0.085747801670374796 0.0016230596139495776 0 0.089368714952885633 -0.00028855180342233008 0 0.090823643957967604 0.00049573832841287005 0 0.088415061072977877 0.00092842646525587537 0 0.090823643957967604 0.00049573832841287005 0 0.088415061072977877 0.00092842646525587537 0 0.087962709833001598 0.0018997932791819791 0 0.087962709833001598 0.0018997932791819791 0 0.085747801670374796 0.0016230596139495776 0 0.084541308732516307 0.0045620990213994517 0 0.088415061072977877 0.00092842646525587537 0 0.087962709833001598 0.0018997932791819791 0 0.085747801670374796 0.0016230596139495776 0 0.085747801670374796 0.0016230596139495776 0 0.084541308732516307 0.0045620990213994517 0 0.081208648266245034 0.0044067485764395483 0 0.090823643957967604 0.00049573832841287005 0 0.087962709833001598 0.0018997932791819791 0 0.091965402824427694 0.0039716844811590567 0 0.087962709833001598 0.0018997932791819791 0 0.084541308732516307 0.0045620990213994517 0 0.091965402824427694 0.0039716844811590567 0 0.094418080943963395 0.010326329007266479 0 0.084541308732516307 0.0045620990213994517 0 0.091965402824427694 0.0039716844811590567 0 0.075430648368675135 0.0047416152378278618 0 0.079462213383006325 0.0037315458766160104 0 0.07648231060203256 0.0028613584875774186 0 0.075430648368675135 0.0047416152378278618 0 0.084541308732516307 0.0045620990213994517 0 0.079462213383006325 0.0037315458766160104 0 0.086490541493209158 0.003531701604936485 0 0.085379166711699497 0.0036162223127593506 0 0.079462213383006325 0.0037315458766160104 0 0.07648231060203256 0.0028613584875774186 0 0.07740507356701945 0.0027678569634448044 0 0.07648231060203256 0.0028613584875774186 0 0.07740507356701945 0.0027678569634448044 0 0.075228415984974567 0.0022181339461451381 0 0.074625014326037173 0.0024379791971378584 0 0.07648231060203256 0.0028613584875774186 0 0.075228415984974567 0.0022181339461451381 0 0.07740507356701945 0.0027678569634448044 0 0.081208648266245034 0.0044067485764395483 0 0.07683980772920361 0.0018830965320433082 0 0.079462213383006325 0.0037315458766160104 0 0.07740507356701945 0.0027678569634448044 0 0.081208648266245034 0.0044067485764395483 0 0.07919364707250269 0.0017758393363346608 0 0.077242577515267641 0.0010044975895531368 0 0.084541308732516307 0.0045620990213994517 0 0.079462213383006325 0.0037315458766160104 0 0.081208648266245034 0.0044067485764395483 0 0.080131119526843334 0.0018794790993886636 0 0.07919364707250269 0.0017758393363346608 0 0.085747801670374796 0.0016230596139495776 0 0.081711296717626544 0.00028662528975844818 0 0.084028877580322278 6.5506897965802591e-07 0 0.081711296717626544 0.00028662528975844818 0 0.084028877580322278 6.5506897965802591e-07 0 0.077562492445700598 -0.0001278487080292856 0 0.089368714952885633 -0.00028855180342233008 0 0.085747801670374796 0.0016230596139495776 0 0.084028877580322278 6.5506897965802591e-07 0 0.084028877580322278 6.5506897965802591e-07 0 0.068347763847056014 1.0300356439490461e-07 0 0.072766802638770556 -0.00016584119227585175 0 0.068347763847056014 1.0300356439490461e-07 0 0.072766802638770556 -0.00016584119227585175 0 0.065253276680707947 -0.00012547811684358518 0 0.072766802638770556 -0.00016584119227585175 0 0.0689557552822333 -0.0002485246713017275 0 0.065253276680707947 -0.00012547811684358518 0 0.072766802638770556 -0.00016584119227585175 0 0.07322814805177813 -0.00016417279873047293 0 0.0689557552822333 -0.0002485246713017275 0 0.084028877580322278 6.5506897965802591e-07 0 0.072766802638770556 -0.00016584119227585175 0 0.077562492445700598 -0.0001278487080292856 0 0.072766802638770556 -0.00016584119227585175 0 0.07322814805177813 -0.00016417279873047293 0 0.077562492445700598 -0.0001278487080292856 0 0.072753537951716366 0.00031408632793999524 0 0.07683980772920361 0.0018830965320433082 0 0.072284321140671542 0.00056302849731412513 0 0.072753537951716366 0.00031408632793999524 0 0.072284321140671542 0.00056302849731412513 0 0.070651639072184039 -2.714544530403268e-05 0 0.07740507356701945 0.0027678569634448044 0 0.07683980772920361 0.0018830965320433082 0 0.072284321140671542 0.00056302849731412513 0 0.075306235329363036 0.00026973501436166123 0 0.077242577515267641 0.0010044975895531368 0 0.073827346133002597 0.0018019079755167834 0 0.075228415984974567 0.0022181339461451381 0 0.073719170490380459 0.0013185666579024157 0 0.07326412187247236 0.001794275700332508 0 0.072209600229408824 0.0010720636418338333 0 0.074625014326037173 0.0024379791971378584 0 0.073827346133002597 0.0018019079755167834 0 0.075228415984974567 0.0022181339461451381 0 0.07740507356701945 0.0027678569634448044 0 0.075228415984974567 0.0022181339461451381 0 0.073719170490380459 0.0013185666579024157 0 0.073827346133002597 0.0018019079755167834 0 0.073719170490380459 0.0013185666579024157 0 0.071876792163379499 0.00096842877403474517 0 0.070463925786211939 0.00076770111714704323 0 0.07051520763179403 0.00091218737567087707 0 0.071876792163379499 0.00096842877403474517 0 0.072284321140671542 0.00056302849731412513 0 0.070651639072184039 -2.714544530403268e-05 0 0.06852533473086439 -0.0004351684495338588 0 0.073719170490380459 0.0013185666579024157 0 0.070463925786211939 0.00076770111714704323 0 0.071876792163379499 0.00096842877403474517 0 0.072209600229408824 0.0010720636418338333 0 0.07049349693816899 0.00067046402484869955 0 0.075306235329363036 0.00026973501436166123 0 0.07439144875376838 -6.5528178181787784e-06 0 0.072753537951716366 0.00031408632793999524 0 0.070651639072184039 -2.714544530403268e-05 0 0.0689557552822333 -0.0002485246713017275 0 0.070651639072184039 -2.714544530403268e-05 0 0.0689557552822333 -0.0002485246713017275 0 0.06852533473086439 -0.0004351684495338588 0 0.0689557552822333 -0.0002485246713017275 0 0.066448980329954874 4.8874906328940866e-05 0 0.065253276680707947 -0.00012547811684358518 0 0.0689557552822333 -0.0002485246713017275 0 0.06852533473086439 -0.0004351684495338588 0 0.066448980329954874 4.8874906328940866e-05 0 0.070463925786211939 0.00076770111714704323 0 0.069619590500164794 0.0010021673611842338 0 0.06826449526456875 0.0011458342776946215 0 0.070463925786211939 0.00076770111714704323 0 0.07051520763179403 0.00091218737567087707 0 0.069619590500164794 0.0010021673611842338 0 0.07051520763179403 0.00091218737567087707 0 0.070970190491587051 0.0015918696500663155 0 0.069745915190731991 0.0014129444710831163 0 0.07051520763179403 0.00091218737567087707 0 0.069619590500164794 0.0010021673611842338 0 0.069745915190731991 0.0014129444710831163 0 0.069619590500164794 0.0010021673611842338 0 0.069745915190731991 0.0014129444710831163 0 0.06826449526456875 0.0011458342776946215 0 0.070970190491587051 0.0015918696500663155 0 0.070987383054890191 0.0022219983834695918 0 0.069745915190731991 0.0014129444710831163 0 0.070970190491587051 0.0015918696500663155 0 0.072105855030283175 0.0027528260840815693 0 0.070987383054890191 0.0022219983834695918 0 0.072105855030283175 0.0027528260840815693 0 0.072135506238120373 0.0030518113377549345 0 0.070987383054890191 0.0022219983834695918 0 0.070970190491587051 0.0015918696500663155 0 0.072246367641190898 0.0012465430811640758 0 0.072105855030283175 0.0027528260840815693 0 0.07051520763179403 0.00091218737567087707 0 0.070970190491587051 0.0015918696500663155 0 0.071101521021882247 0.00066829919905543914 0 0.070970190491587051 0.0015918696500663155 0 0.072246367641190898 0.0012465430811640758 0 0.071101521021882247 0.00066829919905543914 0 0.072246367641190898 0.0012465430811640758 0 0.071101521021882247 0.00066829919905543914 0 0.073170979129799057 -0.00057952372360864932 0 0.07051520763179403 0.00091218737567087707 0 0.071101521021882247 0.00066829919905543914 0 0.071876792163379499 0.00096842877403474517 0 0.071101521021882247 0.00066829919905543914 0 0.071876792163379499 0.00096842877403474517 0 0.071928522632044342 0.0013826163090179082 0 0.073827346133002597 0.0018019079755167834 0 0.071876792163379499 0.00096842877403474517 0 0.071928522632044342 0.0013826163090179082 0 0.074625014326037173 0.0024379791971378584 0 0.073827346133002597 0.0018019079755167834 0 0.073654389197522596 0.0019340381211839298 0 0.073827346133002597 0.0018019079755167834 0 0.071928522632044342 0.0013826163090179082 0 0.070879284589200203 0.0026590879503333412 0 0.076716322537468337 0.0027428058877716132 0 0.081591360634233098 0.0018679419018399724 0 0.071101521021882247 0.00066829919905543914 0 0.071928522632044342 0.0013826163090179082 0 0.070879284589200203 0.0026590879503333412 0 0.071101521021882247 0.00066829919905543914 0 0.071425376397275572 -0.0045371642462492699 0 0.073170979129799057 -0.00057952372360864932 0 0.078615933349161879 0.0011008550018359957 0 0.081591360634233098 0.0018679419018399724 0 0.071425376397275572 -0.0045371642462492699 0 0.073170979129799057 -0.00057952372360864932 0 0.074749396390202644 -0.0023041587669290998 0 0.073170979129799057 -0.00057952372360864932 0 0.074864782546651132 -0.0005831037852096155 0 0.074749396390202644 -0.0023041587669290998 0 0.074864782546651132 -0.0005831037852096155 0 0.077087331166372758 -0.00059695309720947159 0 0.074571547382985826 0.0010234134702438798 0 0.074864782546651132 -0.0005831037852096155 0 0.074749396390202644 -0.0023041587669290998 0 0.077087331166372758 -0.00059695309720947159 0 0.071425376397275572 -0.0045371642462492699 0 0.074749396390202644 -0.0023041587669290998 0 0.076102770716964419 -0.0046501825047571633 0 0.081591360634233098 0.0018679419018399724 0 0.088607731738679738 -0.00026740156880417451 0 0.071425376397275572 -0.0045371642462492699 0 0.076102770716964419 -0.0046501825047571633 0 0.076686629437834344 -0.0063478127822163572 0 0.074749396390202644 -0.0023041587669290998 0 0.076102770716964419 -0.0046501825047571633 0 0.077589842861267175 -0.0028928202784732466 0 0.082676977615877154 -0.0077736832568584659 0 0.08039786049289889 -0.0048154675371826876 0 0.077154984458991674 -0.0061742912615051077 0 0.08039786049289889 -0.0048154675371826876 0 0.077154984458991674 -0.0061742912615051077 0 0.078075570679996362 -0.0043465775655965452 0 0.076102770716964419 -0.0046501825047571633 0 0.077154984458991674 -0.0061742912615051077 0 0.078075570679996362 -0.0043465775655965452 0 0.076102770716964419 -0.0046501825047571633 0 0.076686629437834344 -0.0063478127822163572 0 0.077154984458991674 -0.0061742912615051077 0 0.088607731738679738 -0.00026740156880417451 0 0.088527023100719054 -0.0003077389838056248 0 0.076102770716964419 -0.0046501825047571633 0 0.078075570679996362 -0.0043465775655965452 0 0.077589842861267175 -0.0028928202784732466 0 0.078075570679996362 -0.0043465775655965452 0 0.079133085769447151 -0.0034200189319799502 0 0.077589842861267175 -0.0028928202784732466 0 0.08039786049289889 -0.0048154675371826876 0 0.078075570679996362 -0.0043465775655965452 0 0.079133085769447151 -0.0034200189319799502 0 0.08039786049289889 -0.0048154675371826876 0 0.079133085769447151 -0.0034200189319799502 0 0.08029116775850631 -0.0018579733711706881 0 0.079133085769447151 -0.0034200189319799502 0 0.077589842861267175 -0.0028928202784732466 0 0.08029116775850631 -0.0018579733711706881 0 0.077589842861267175 -0.0028928202784732466 0 0.077087331166372758 -0.00059695309720947159 0 0.08029116775850631 -0.0018579733711706881 0 0.074749396390202644 -0.0023041587669290998 0 0.077589842861267175 -0.0028928202784732466 0 0.077087331166372758 -0.00059695309720947159 0 0.077087331166372758 -0.00059695309720947159 0 0.080403232956921769 0.00035536598694050123 0 0.08029116775850631 -0.0018579733711706881 0 0.077087331166372758 -0.00059695309720947159 0 0.079021938473167394 0.0027948883172669689 0 0.080403232956921769 0.00035536598694050123 0 0.077087331166372758 -0.00059695309720947159 0 0.079021938473167394 0.0027948883172669689 0 0.074571547382985826 0.0010234134702438798 0 0.079021938473167394 0.0027948883172669689 0 0.074571547382985826 0.0010234134702438798 0 0.072105855030283175 0.0027528260840815693 0 0.072246367641190898 0.0012465430811640758 0 0.074571547382985826 0.0010234134702438798 0 0.072105855030283175 0.0027528260840815693 0 0.072246367641190898 0.0012465430811640758 0 0.073170979129799057 -0.00057952372360864932 0 0.074571547382985826 0.0010234134702438798 0 0.073170979129799057 -0.00057952372360864932 0 0.074864782546651132 -0.0005831037852096155 0 0.074571547382985826 0.0010234134702438798 0 0.077726988602942887 0.0013625915649659623 0 0.072105855030283175 0.0027528260840815693 0 0.073240540248901795 0.0039062233185042992 0 0.072105855030283175 0.0027528260840815693 0 0.073240540248901795 0.0039062233185042992 0 0.072135506238120373 0.0030518113377549345 0 0.079570998709259488 0.001850933560400263 0 0.076381262193778998 0.002934451790415018 0 0.073240540248901795 0.0039062233185042992 0 0.07131634471929664 0.0035872349116211361 0 0.069772559604371759 0.005582734631536284 0 0.077726988602942887 0.0013625915649659623 0 0.073240540248901795 0.0039062233185042992 0 0.081144053922753562 0.0053384344369993269 0 0.074994201658137485 0.0045769585315396082 0 0.075974371827503662 0.0044924051446127676 0 0.07131634471929664 0.0035872349116211361 0 0.072333997127720442 0.0029703194680130696 0 0.072063007590543487 0.0026281568768088915 0 0.073240540248901795 0.0039062233185042992 0 0.07131634471929664 0.0035872349116211361 0 0.072333997127720442 0.0029703194680130696 0 0.073240540248901795 0.0039062233185042992 0 0.072135506238120373 0.0030518113377549345 0 0.072333997127720442 0.0029703194680130696 0 0.072135506238120373 0.0030518113377549345 0 0.072333997127720442 0.0029703194680130696 0 0.071289858801086015 0.0027627151042044959 0 0.064929776083114024 0.0051574057074442571 0 0.064657369437653267 0.0058640512357938388 0 0.072333997127720442 0.0029703194680130696 0 0.071390013479940367 0.0045720729562907002 0 0.071289858801086015 0.0027627151042044959 0 0.072333997127720442 0.0029703194680130696 0 0.072063007590543487 0.0026281568768088915 0 0.071390013479940367 0.0045720729562907002 0 0.058499496128374066 0.0069871735640571033 0 0.058503599651849404 0.0079029705932870745 0 0.058073089013698551 0.0079912479567483645 0 0.058499496128374066 0.0069871735640571033 0 0.058503599651849404 0.0079029705932870745 0 0.059895066157273733 0.007379488200538532 0 0.058503599651849404 0.0079029705932870745 0 0.059625938746316082 0.0090186546321894875 0 0.057225101147295863 0.0081628447698855484 0 0.058503599651849404 0.0079029705932870745 0 0.058073089013698551 0.0079912479567483645 0 0.057225101147295863 0.0081628447698855484 0 0.058499496128374066 0.0069871735640571033 0 0.058073089013698551 0.0079912479567483645 0 0.058615561572841167 0.0084547845979972506 0 0.058073089013698551 0.0079912479567483645 0 0.060123551011284693 0.006853291336337719 0 0.058903538968946935 0.0060425758759006494 0 0.058073089013698551 0.0079912479567483645 0 0.058615561572841167 0.0084547845979972506 0 0.060123551011284693 0.006853291336337719 0 0.060123551011284693 0.006853291336337719 0 0.063264904152462498 0.0071296771838637229 0 0.061316245409017131 0.0066818462363421281 0 0.071390013479940367 0.0045720729562907002 0 0.063264904152462498 0.0071296771838637229 0 0.067147618175165527 0.0041389980541121779 0 0.064657369437653267 0.0058640512357938388 0 0.064125684927924545 0.0062813637733015659 0 0.058615561572841167 0.0084547845979972506 0 0.060123551011284693 0.006853291336337719 0 0.063264904152462498 0.0071296771838637229 0 0.063264904152462498 0.0071296771838637229 0 0.067147618175165527 0.0041389980541121779 0 0.064493567850379671 0.0048108002270303759 0 0.067147618175165527 0.0041389980541121779 0 0.066922717903447559 0.0026992738205610278 0 0.064493567850379671 0.0048108002270303759 0 0.066922717903447559 0.0026992738205610278 0 0.064910392380676696 0.0019834530649591479 0 0.064493567850379671 0.0048108002270303759 0 0.066922717903447559 0.0026992738205610278 0 0.066805431081927422 0.0017378623671134861 0 0.068369260317240138 0.00188265783381881 0 0.066922717903447559 0.0026992738205610278 0 0.066805431081927422 0.0017378623671134861 0 0.064910392380676696 0.0019834530649591479 0 0.066922717903447559 0.0026992738205610278 0 0.069166347091763988 0.0028119122176122079 0 0.068369260317240138 0.00188265783381881 0 0.067147618175165527 0.0041389980541121779 0 0.066922717903447559 0.0026992738205610278 0 0.069166347091763988 0.0028119122176122079 0 0.071390013479940367 0.0045720729562907002 0 0.067147618175165527 0.0041389980541121779 0 0.069166347091763988 0.0028119122176122079 0 0.071390013479940367 0.0045720729562907002 0 0.069166347091763988 0.0028119122176122079 0 0.071289858801086015 0.0027627151042044959 0 0.069166347091763988 0.0028119122176122079 0 0.069881809512943094 0.0020116171000280699 0 0.071289858801086015 0.0027627151042044959 0 0.069881809512943094 0.0020116171000280699 0 0.071289858801086015 0.0027627151042044959 0 0.070987383054890191 0.0022219983834695918 0 0.072135506238120373 0.0030518113377549345 0 0.071289858801086015 0.0027627151042044959 0 0.070987383054890191 0.0022219983834695918 0 0.069881809512943094 0.0020116171000280699 0 0.070987383054890191 0.0022219983834695918 0 0.069745915190731991 0.0014129444710831163 0 0.069881809512943094 0.0020116171000280699 0 0.069745915190731991 0.0014129444710831163 0 0.068369260317240138 0.00188265783381881 0 0.069745915190731991 0.0014129444710831163 0 0.06826449526456875 0.0011458342776946215 0 0.068369260317240138 0.00188265783381881 0 0.066805431081927422 0.0017378623671134861 0 0.06826449526456875 0.0011458342776946215 0 0.068369260317240138 0.00188265783381881 0 0.069166347091763988 0.0028119122176122079 0 0.069881809512943094 0.0020116171000280699 0 0.068369260317240138 0.00188265783381881 0 0.06852533473086439 -0.0004351684495338588 0 0.066448980329954874 4.8874906328940866e-05 0 0.06586175093900376 0.0012294510331602602 0 0.07049349693816899 0.00067046402484869955 0 0.069589260446523554 0.00093210478573721629 0 0.070463925786211939 0.00076770111714704323 0 0.06826449526456875 0.0011458342776946215 0 0.06586175093900376 0.0012294510331602602 0 0.066448980329954874 4.8874906328940866e-05 0 0.06527074774184638 0.0006270852471954297 0 0.06586175093900376 0.0012294510331602602 0 0.066805431081927422 0.0017378623671134861 0 0.06826449526456875 0.0011458342776946215 0 0.06586175093900376 0.0012294510331602602 0 0.066448980329954874 4.8874906328940866e-05 0 0.064438505556047423 0.00029917245448516446 0 0.065253276680707947 -0.00012547811684358518 0 0.066448980329954874 4.8874906328940866e-05 0 0.064438505556047423 0.00029917245448516446 0 0.06527074774184638 0.0006270852471954297 0 0.064116036336827609 0.0010081019208586063 0 0.062380872380425056 0.00071706164099755697 0 0.061644313417344686 0.00019953819878738542 0 0.064438505556047423 0.00029917245448516446 0 0.064116036336827609 0.0010081019208586063 0 0.061644313417344686 0.00019953819878738542 0 0.064438505556047423 0.00029917245448516446 0 0.06527074774184638 0.0006270852471954297 0 0.064116036336827609 0.0010081019208586063 0 0.064116036336827609 0.0010081019208586063 0 0.064910392380676696 0.0019834530649591479 0 0.062380872380425056 0.00071706164099755697 0 0.06527074774184638 0.0006270852471954297 0 0.064116036336827609 0.0010081019208586063 0 0.06586175093900376 0.0012294510331602602 0 0.064116036336827609 0.0010081019208586063 0 0.06586175093900376 0.0012294510331602602 0 0.064910392380676696 0.0019834530649591479 0 0.066805431081927422 0.0017378623671134861 0 0.06586175093900376 0.0012294510331602602 0 0.064910392380676696 0.0019834530649591479 0 0.061871981913346849 0.0019406432370561253 0 0.060990827897550837 0.0026705890472386753 0 0.063264904152462498 0.0071296771838637229 0 0.064493567850379671 0.0048108002270303759 0 0.061788828346700929 0.0074936847418916727 0 0.064910392380676696 0.0019834530649591479 0 0.060432358008217564 0.00013368432062056663 0 0.062380872380425056 0.00071706164099755697 0 0.064910392380676696 0.0019834530649591479 0 0.064493567850379671 0.0048108002270303759 0 0.061788828346700929 0.0074936847418916727 0 0.063264904152462498 0.0071296771838637229 0 0.061788828346700929 0.0074936847418916727 0 0.061316245409017131 0.0066818462363421281 0 0.060432358008217564 0.00013368432062056663 0 0.05982597801598908 4.852873011588929e-05 0 0.0575406841901994 -0.00018183595815537244 0 0.060432358008217564 0.00013368432062056663 0 0.05982597801598908 4.852873011588929e-05 0 0.062380872380425056 0.00071706164099755697 0 0.05982597801598908 4.852873011588929e-05 0 0.062380872380425056 0.00071706164099755697 0 0.061644313417344686 0.00019953819878738542 0 0.061644313417344686 0.00019953819878738542 0 0.05718578571902682 -0.00011531270822727893 0 0.056710684032075444 -5.3583370677835257e-06 0 0.05982597801598908 4.852873011588929e-05 0 0.061644313417344686 0.00019953819878738542 0 0.05718578571902682 -0.00011531270822727893 0 0.068347763847056014 1.0300356439490461e-07 0 0.056710684032075444 -5.3583370677835257e-06 0 0.065253276680707947 -0.00012547811684358518 0 0.061644313417344686 0.00019953819878738542 0 0.056710684032075444 -5.3583370677835257e-06 0 0.065253276680707947 -0.00012547811684358518 0 0.064438505556047423 0.00029917245448516446 0 0.061644313417344686 0.00019953819878738542 0 0.065253276680707947 -0.00012547811684358518 0 0.10119092023677205 -0.0010993100354624813 0 0.1013389545519601 -0.0011428860016188596 0 0.10127044520196117 -0.0012634977166546195 0 0.08446158778447839 -0.001605313376431461 0 0.085553570105032742 -0.0017685423861627811 0 0.08446158778447839 -0.001605313376431461 0 0.080359274142211626 0.0020478167392203074 0 0.10159860165994777 0.0020442593131208852 0 0.096311861913329661 0.003243531990732415 0 0.098682404794226103 0.0010058150790920918 0 0.064718767092790647 0.0049367150303459093 0 0.064039494959060597 0.0053288199820776625 0 0.064450881426727821 0.0052694680877600677 0 0.064039494959060597 0.0053288199820776625 0 0.064450881426727821 0.0052694680877600677 0 0.064331185640558883 0.0053348812817747447 0 0.064572238723416664 0.0053824820455061441 0 0.064450881426727821 0.0052694680877600677 0 0.064331185640558883 0.0053348812817747447 0 0.064572238723416664 0.0053824820455061441 0 0.064450881426727821 0.0052694680877600677 0 0.064819744343093219 0.0053670685264373677 0 0.064718767092790647 0.0049367150303459093 0 0.064450881426727821 0.0052694680877600677 0 0.064819744343093219 0.0053670685264373677 0 0.08446158778447839 -0.001605313376431461 0 0.080782696222737829 0.0025767348150364587 0 0.10121649463533972 -0.0011199888936134555 0 0.10129000474079791 -0.00071237418290630284 0 0.10137755176786355 -0.00095240295367674888 0 0.10129000474079791 -0.00071237418290630284 0 0.10152181271707005 -0.00066148285857675388 0 0.10146667345865523 -0.00079812107086821662 0 0.10152181271707005 -0.00066148285857675388 0 0.10162165453200536 -0.00077072008938715427 0 0.10167471431738082 -0.0006834618409528795 0 0.10152181271707005 -0.00066148285857675388 0 0.10162165453200536 -0.00077072008938715427 0 0.10146667345865523 -0.00079812107086821662 0 0.10162165453200536 -0.00077072008938715427 0 0.10151121645708702 -0.00090512720167581367 0 0.10146667345865523 -0.00079812107086821662 0 0.10162165453200536 -0.00077072008938715427 0 0.10151121645708702 -0.00090512720167581367 0 0.10169490647706299 -0.00094687943604421904 0 0.10151121645708702 -0.00090512720167581367 0 0.10146667345865523 -0.00079812107086821662 0 0.10137755176786355 -0.00095240295367674888 0 0.10129000474079791 -0.00071237418290630284 0 0.10146667345865523 -0.00079812107086821662 0 0.10137755176786355 -0.00095240295367674888 0 0.10171194233300629 -0.0007452255491008418 0 0.10181917926859455 -0.00075814684003330096 0 0.10167471431738082 -0.0006834618409528795 0 0.10162165453200536 -0.00077072008938715427 0 0.10181917926859455 -0.00075814684003330096 0 0.10167471431738082 -0.0006834618409528795 0 0.10162165453200536 -0.00077072008938715427 0 0.10181917926859455 -0.00075814684003330096 0 0.10169490647706299 -0.00094687943604421904 0 0.10181917926859455 -0.00075814684003330096 0 0.10169490647706299 -0.00094687943604421904 0 0.10204625128730496 -0.0012633447055564199 0 0.10169490647706299 -0.00094687943604421904 0 0.10204625128730496 -0.0012633447055564199 0 0.10171504005808718 -0.0011809382976737458 0 0.10204625128730496 -0.0012633447055564199 0 0.10171504005808718 -0.0011809382976737458 0 0.10194374188648517 -0.0014986198856974313 0 0.10137755176786355 -0.00095240295367674888 0 0.10150511740066882 -0.0010607180953641612 0 0.1013389545519601 -0.0011428860016188596 0 0.10121649463533972 -0.0011199888936134555 0 0.10137755176786355 -0.00095240295367674888 0 0.1013389545519601 -0.0011428860016188596 0 0.10151121645708702 -0.00090512720167581367 0 0.10137755176786355 -0.00095240295367674888 0 0.10150511740066882 -0.0010607180953641612 0 0.10151121645708702 -0.00090512720167581367 0 0.10169490647706299 -0.00094687943604421904 0 0.10150511740066882 -0.0010607180953641612 0 0.10169490647706299 -0.00094687943604421904 0 0.10150511740066882 -0.0010607180953641612 0 0.10171504005808718 -0.0011809382976737458 0 0.10156376654776737 -0.0012893532339080921 0 0.10171504005808718 -0.0011809382976737458 0 0.10194374188648517 -0.0014986198856974313 0 0.10150511740066882 -0.0010607180953641612 0 0.10156376654776737 -0.0012893532339080921 0 0.10171504005808718 -0.0011809382976737458 0 0.10150511740066882 -0.0010607180953641612 0 0.10156376654776737 -0.0012893532339080921 0 0.1013389545519601 -0.0011428860016188596 0 0.10156376654776737 -0.0012893532339080921 0 0.1013389545519601 -0.0011428860016188596 0 0.10127044520196117 -0.0012634977166546195 0 0.10156376654776737 -0.0012893532339080921 0 0.10127044520196117 -0.0012634977166546195 0 0.10166993045451743 -0.0017998093908917876 0 0.10156376654776737 -0.0012893532339080921 0 0.10166993045451743 -0.0017998093908917876 0 0.10194374188648517 -0.0014986198856974313 0 0.10127044520196117 -0.0012634977166546195 0 0.10166993045451743 -0.0017998093908917876 0 0.10088503578908932 -0.0012167654745944504 0 0.10241320495317771 -0.001746116825289596 0 0.10204625128730496 -0.0012633447055564199 0 0.10194374188648517 -0.0014986198856974313 0 0.10166993045451743 -0.0017998093908917876 0 0.10194374188648517 -0.0014986198856974313 0 0.10223170639039698 -0.0020964868137161299 0 0.10241320495317771 -0.001746116825289596 0 0.10194374188648517 -0.0014986198856974313 0 0.10223170639039698 -0.0020964868137161299 0 0.10205059680095568 -0.0029930239333526561 0 0.10246773678022499 -0.0026444602698939283 0 0.10223170639039698 -0.0020964868137161299 0 0.10259692202710899 -0.0021270563349738325 0 0.10246773678022499 -0.0026444602698939283 0 0.10223170639039698 -0.0020964868137161299 0 0.10205059680095568 -0.0029930239333526561 0 0.10166993045451743 -0.0017998093908917876 0 0.10223170639039698 -0.0020964868137161299 0 0.10205059680095568 -0.0029930239333526561 0 0.10166993045451743 -0.0017998093908917876 0 0.10081362456683589 -0.0027103095812932463 0 0.10081362456683589 -0.0027103095812932463 0 0.10088503578908932 -0.0012167654745944504 0 0.098706083548810247 -0.0020139488054138764 0 0.10166993045451743 -0.0017998093908917876 0 0.10081362456683589 -0.0027103095812932463 0 0.10088503578908932 -0.0012167654745944504 0 0.08446158778447839 -0.001605313376431461 0 0.086271788073030403 -0.00065839787512786321 0 0.10119092023677205 -0.0010993100354624813 0 0.10127044520196117 -0.0012634977166546195 0 0.10088503578908932 -0.0012167654745944504 0 0.10159860165994777 0.0020442593131208852 0 0.098682404794226103 0.0010058150790920918 0 0.10088503578908932 -0.0012167654745944504 0 0.098682404794226103 0.0010058150790920918 0 0.098706083548810247 -0.0020139488054138764 0 0.093737784174163563 -0.0022593423832723124 0 0.098682404794226103 0.0010058150790920918 0 0.10088503578908932 -0.0012167654745944504 0 0.098706083548810247 -0.0020139488054138764 0 0.0984298105679767 -0.0043080046205744137 0 0.10081362456683589 -0.0027103095812932463 0 0.098706083548810247 -0.0020139488054138764 0 0.0984298105679767 -0.0043080046205744137 0 0.098706083548810247 -0.0020139488054138764 0 0.093737784174163563 -0.0022593423832723124 0 0.093710369493372775 -0.0053597795728879769 0 0.0984298105679767 -0.0043080046205744137 0 0.093737784174163563 -0.0022593423832723124 0 0.093710369493372775 -0.0053597795728879769 0 0.093737784174163563 -0.0022593423832723124 0 0.089578437626746735 -0.003951349733081715 0 0.089044382786169718 -0.0016600499076603161 0 0.085457026609627354 -0.00027214156482848855 0 0.093737784174163563 -0.0022593423832723124 0 0.086238901636062182 -0.0010658732165580594 0 0.091213165252252731 0.00083901421689572936 0 0.093737784174163563 -0.0022593423832723124 0 0.089578437626746735 -0.003951349733081715 0 0.086650227701103325 0.00084689550741412598 0 0.096311861913329661 0.003243531990732415 0 0.098682404794226103 0.0010058150790920918 0 0.093737784174163563 -0.0022593423832723124 0 0.096311861913329661 0.003243531990732415 0 0.093737784174163563 -0.0022593423832723124 0 0.091213165252252731 0.00083901421689572936 0 0.087232993407785661 -0.0060865330157414922 0 0.082676977615877154 -0.0077736832568584659 0 0.084471722945066288 -0.0039043337006361314 0 0.08039786049289889 -0.0048154675371826876 0 0.084471722945066288 -0.0039043337006361314 0 0.08029116775850631 -0.0018579733711706881 0 0.082676977615877154 -0.0077736832568584659 0 0.08039786049289889 -0.0048154675371826876 0 0.084471722945066288 -0.0039043337006361314 0 0.089578437626746735 -0.003951349733081715 0 0.084471722945066288 -0.0039043337006361314 0 0.086650227701103325 0.00084689550741412598 0 0.087232993407785661 -0.0060865330157414922 0 0.089578437626746735 -0.003951349733081715 0 0.084471722945066288 -0.0039043337006361314 0 0.084471722945066288 -0.0039043337006361314 0 0.086650227701103325 0.00084689550741412598 0 0.08029116775850631 -0.0018579733711706881 0 0.086650227701103325 0.00084689550741412598 0 0.080403232956921769 0.00035536598694050123 0 0.08029116775850631 -0.0018579733711706881 0 0.077726988602942887 0.0013625915649659623 0 0.085167460412607296 0.0026927942711494281 0 0.081144053922753562 0.0053384344369993269 0 0.079570998709259488 0.001850933560400263 0 0.085457026609627354 -0.00027214156482848855 0 0.079021938473167394 0.0027948883172669689 0 0.086650227701103325 0.00084689550741412598 0 0.080403232956921769 0.00035536598694050123 0 0.077726988602942887 0.0013625915649659623 0 0.086238901636062182 -0.0010658732165580594 0 0.085167460412607296 0.0026927942711494281 0 0.086238901636062182 -0.0010658732165580594 0 0.085167460412607296 0.0026927942711494281 0 0.091213165252252731 0.00083901421689572936 0 0.085167460412607296 0.0026927942711494281 0 0.081144053922753562 0.0053384344369993269 0 0.089756569608545111 0.0047623479313983353 0 0.075974371827503662 0.0044924051446127676 0 0.077849579969979085 0.0038133469490702625 0 0.067354924185448431 0.0048787832367136819 0 0.069772559604371759 0.005582734631536284 0 0.065373076332368718 0.0061251923299446452 0 0.080359274142211626 0.0020478167392203074 0 0.077849579969979085 0.0038133469490702625 0 0.096311861913329661 0.003243531990732415 0 0.091213165252252731 0.00083901421689572936 0 0.089756569608545111 0.0047623479313983353 0 0.085167460412607296 0.0026927942711494281 0 0.091213165252252731 0.00083901421689572936 0 0.089756569608545111 0.0047623479313983353 0 0.067354924185448431 0.0048787832367136819 0 0.065373076332368718 0.0061251923299446452 0 0.063972797953971955 0.0047844904048488989 0 0.064039494959060597 0.0053288199820776625 0 0.065373076332368718 0.0061251923299446452 0 0.063972797953971955 0.0047844904048488989 0 0.064039494959060597 0.0053288199820776625 0 0.063972797953971955 0.0047844904048488989 0 0.064331185640558883 0.0053348812817747447 0 0.063972797953971955 0.0047844904048488989 0 0.064132559224228697 0.0057124604506328131 0 0.064331185640558883 0.0053348812817747447 0 0.063972797953971955 0.0047844904048488989 0 0.063094738215019902 0.0060760343816905447 0 0.064132559224228697 0.0057124604506328131 0 0.063972797953971955 0.0047844904048488989 0 0.063094738215019902 0.0060760343816905447 0 0.060762596255130016 0.0054363662530914382 0 0.064310348104663004 0.0047824603543947589 0 0.064600663406244263 0.0047839061320338388 0 0.063094738215019902 0.0060760343816905447 0 0.061481926732122077 0.0068362617845740582 0 0.062456436521827668 0.0075362073836118312 0 0.063094738215019902 0.0060760343816905447 0 0.064132559224228697 0.0057124604506328131 0 0.064064815335115544 0.0066740792625061456 0 0.063094738215019902 0.0060760343816905447 0 0.064064815335115544 0.0066740792625061456 0 0.062456436521827668 0.0075362073836118312 0 0.07131634471929664 0.0035872349116211361 0 0.072063007590543487 0.0026281568768088915 0 0.0682432737533471 0.0026818284412821998 0 0.07131634471929664 0.0035872349116211361 0 0.069772559604371759 0.005582734631536284 0 0.0682432737533471 0.0026818284412821998 0 0.067354924185448431 0.0048787832367136819 0 0.069772559604371759 0.005582734631536284 0 0.0682432737533471 0.0026818284412821998 0 0.067354924185448431 0.0048787832367136819 0 0.063972797953971955 0.0047844904048488989 0 0.0682432737533471 0.0026818284412821998 0 0.060762596255130016 0.0054363662530914382 0 0.061481926732122077 0.0068362617845740582 0 0.059895066157273733 0.007379488200538532 0 0.063094738215019902 0.0060760343816905447 0 0.060762596255130016 0.0054363662530914382 0 0.061481926732122077 0.0068362617845740582 0 0.058499496128374066 0.0069871735640571033 0 0.060762596255130016 0.0054363662530914382 0 0.059895066157273733 0.007379488200538532 0 0.064929776083114024 0.0051574057074442571 0 0.064600663406244263 0.0047839061320338388 0 0.061481926732122077 0.0068362617845740582 0 0.059895066157273733 0.007379488200538532 0 0.061072941029568367 0.0079755942545552024 0 0.061481926732122077 0.0068362617845740582 0 0.061072941029568367 0.0079755942545552024 0 0.062456436521827668 0.0075362073836118312 0 0.061072941029568367 0.0079755942545552024 0 0.062056666113058802 0.0089906636119867819 0 0.059625938746316082 0.0090186546321894875 0 0.052990536508151997 0.0099596934125301146 0 0.054800450934214158 0.0096295755678208594 0 0.058503599651849404 0.0079029705932870745 0 0.059895066157273733 0.007379488200538532 0 0.059625938746316082 0.0090186546321894875 0 0.059895066157273733 0.007379488200538532 0 0.061072941029568367 0.0079755942545552024 0 0.059625938746316082 0.0090186546321894875 0 0.065309598307809524 0.0079775466689012281 0 0.064328351088390745 0.008106901028239414 0 0.06381428271885374 0.0070927522287194426 0 0.062456436521827668 0.0075362073836118312 0 0.064069053628383277 0.0085666973450548422 0 0.061072941029568367 0.0079755942545552024 0 0.062456436521827668 0.0075362073836118312 0 0.062056666113058802 0.0089906636119867819 0 0.062456436521827668 0.0075362073836118312 0 0.062056666113058802 0.0089906636119867819 0 0.064069053628383277 0.0085666973450548422 0 0.043992518071849777 0.012284161493606333 0 0.038212906002050392 0.013158314835335283 0 0.041097995337202813 0.0093210525524242728 0 0.052990536508151997 0.0099596934125301146 0 0.051205572851295351 0.0098985596817324217 0 0.064069053628383277 0.0085666973450548422 0 0.065868976812620203 0.0082203059022461188 0 0.065140259641033801 0.0075286175133188636 0 0.038212906002050392 0.013158314835335283 0 0.032848691355298713 0.013967942453361857 0 0.034607933641862453 0.010847235008623623 0 0.051205572851295351 0.0098985596817324217 0 0.050009753848160948 0.0091305427805657945 0 0.032848691355298713 0.013967942453361857 0 0.030959036236227602 0.010744292767098559 0 0.034607933641862453 0.010847235008623623 0 0.065868976812620203 0.0082203059022461188 0 0.066060395411782297 0.0076023574299374569 0 0.066718292780961613 0.0076221571267431178 0 0.065868976812620203 0.0082203059022461188 0 0.066060395411782297 0.0076023574299374569 0 0.065140259641033801 0.0075286175133188636 0 0.06584791622950098 0.0070573929712350481 0 0.065140259641033801 0.0075286175133188636 0 0.065153068786613269 0.0066306231882503073 0 0.066060395411782297 0.0076023574299374569 0 0.06584791622950098 0.0070573929712350481 0 0.065140259641033801 0.0075286175133188636 0 0.066060395411782297 0.0076023574299374569 0 0.06584791622950098 0.0070573929712350481 0 0.066277910180035163 0.0071092494185980614 0 0.06381428271885374 0.0070927522287194426 0 0.064069053628383277 0.0085666973450548422 0 0.065140259641033801 0.0075286175133188636 0 0.06381428271885374 0.0070927522287194426 0 0.065140259641033801 0.0075286175133188636 0 0.065153068786613269 0.0066306231882503073 0 0.065309598307809524 0.0079775466689012281 0 0.068274810637955902 0.0076943257759301362 0 0.064132559224228697 0.0057124604506328131 0 0.064064815335115544 0.0066740792625061456 0 0.064661492035714321 0.0060431874032773423 0 0.064661492035714321 0.0060431874032773423 0 0.064709719315957537 0.0055971102085525725 0 0.064995955290246585 0.0057939051716975843 0 0.06584791622950098 0.0070573929712350481 0 0.065153068786613269 0.0066306231882503073 0 0.066484269915722871 0.0061563668763090816 0 0.068274810637955902 0.0076943257759301362 0 0.076102330993687045 0.0065442859965583258 0 0.06584791622950098 0.0070573929712350481 0 0.066484269915722871 0.0061563668763090816 0 0.066277910180035163 0.0071092494185980614 0 0.064819744343093219 0.0053670685264373677 0 0.064709719315957537 0.0055971102085525725 0 0.064995955290246585 0.0057939051716975843 0 0.064572238723416664 0.0053824820455061441 0 0.064819744343093219 0.0053670685264373677 0 0.064709719315957537 0.0055971102085525725 0 0.064572238723416664 0.0053824820455061441 0 0.064709719315957537 0.0055971102085525725 0 0.064331185640558883 0.0053348812817747447 0 0.064661492035714321 0.0060431874032773423 0 0.064709719315957537 0.0055971102085525725 0 0.064331185640558883 0.0053348812817747447 0 0.064132559224228697 0.0057124604506328131 0 0.064661492035714321 0.0060431874032773423 0 0.064331185640558883 0.0053348812817747447 0 0.10171194233300629 -0.0007452255491008418 0 0.10167471431738082 -0.0006834618409528795 0 0.1015940685869124 -0.00057692695382443606 0 0.083044302477845972 0.0012422911706435145 0 0.07702441987400438 0.00452720840180085 0 0.10152181271707005 -0.00066148285857675388 0 0.1015624902784007 -0.00026992637973622719 0 0.10130268119501644 -0.00017577545673229606 0 0.079336043751331464 0.0043072068683778306 0 0.07702441987400438 0.00452720840180085 0 0.10152181271707005 -0.00066148285857675388 0 0.10167471431738082 -0.0006834618409528795 0 0.1015940685869124 -0.00057692695382443606 0 0.080782696222737829 0.0025767348150364587 0 0.076102330993687045 0.0065442859965583258 0 0.10129000474079791 -0.00071237418290630284 0 0.10152181271707005 -0.00066148285857675388 0 0.10130268119501644 -0.00017577545673229606 0 0.07702441987400438 0.00452720840180085 0 0.069773520709842413 0.0058964935785364193 0 0.07702441987400438 0.00452720840180085 0 0.076102330993687045 0.0065442859965583258 0 0.066484269915722871 0.0061563668763090816 0 0.066277910180035163 0.0071092494185980614 0 0.066718292780961613 0.0076221571267431178 0 0.066500041897722489 0.0061156378614474916 0 0.067407717168842904 0.0066699264839886118 0 0.066777398255543796 0.0073323040850814813 0 0.067207289479797996 0.0058573725506029014 0 0.066500041897722489 0.0061156378614474916 0 0.067407717168842904 0.0066699264839886118 0 0.076102330993687045 0.0065442859965583258 0 0.07444035401921531 0.0063004287600859545 0 0.069773520709842413 0.0058964935785364193 0 0.069298502523200606 0.0063003800700505005 0 0.083044302477845972 0.0012422911706435145 0 0.069773520709842413 0.0058964935785364193 0 0.077634827984072063 0.0010947077895649771 0 0.073630065220296845 0.0025629289466816657 0 0.074211098706480932 0.0048181077155962405 0 0.066652107478443162 0.0022574502975999649 0 0.066650176890661314 0.0018431723484362765 0 0.067270908848357028 0.0017823496927639047 0 0.069773520709842413 0.0058964935785364193 0 0.052089761351020725 0.0066099927042234793 0 0.066650176890661314 0.0018431723484362765 0 0.067270908848357028 0.0017823496927639047 0 0.067156849545694369 0.001218958101917499 0 0.065868976812620203 0.0082203059022461188 0 0.067654285051441623 0.0078815531884151059 0 0.066718292780961613 0.0076221571267431178 0 0.067357474608627441 0.0066979733490551896 0 0.067654285051441623 0.0078815531884151059 0 0.066777398255543796 0.0073323040850814813 0 0.050009753848160948 0.0091305427805657945 0 0.052089761351020725 0.0066099927042234793 0 0.066500041897722489 0.0061156378614474916 0 0.066777398255543796 0.0073323040850814813 0 0.066718292780961613 0.0076221571267431178 0 0.066060395411782297 0.0076023574299374569 0 0.066277910180035163 0.0071092494185980614 0 0.066718292780961613 0.0076221571267431178 0 0.067654285051441623 0.0078815531884151059 0 0.066777398255543796 0.0073323040850814813 0 0.066718292780961613 0.0076221571267431178 0 0.032848691355298713 0.013967942453361857 0 0.027603037337534091 0.014863864420496916 0 0.030959036236227602 0.010744292767098559 0 0.052089761351020725 0.0066099927042234793 0 0.038404869009394271 0.0049256368001154528 0 0.027603037337534091 0.014863864420496916 0 0.026122746923353354 0.0093452955234422444 0 0.030959036236227602 0.010744292767098559 0 0.024174249624419934 0.0074519730228069852 0 0.025723888743993367 0.0084203105754375677 0 0.025058016516014178 0.005955262139003499 0 0.026122746923353354 0.0093452955234422444 0 0.030959036236227602 0.010744292767098559 0 0.030811407372266075 0.007415868830281348 0 0.030811407372266075 0.007415868830281348 0 0.028904076776842036 0.004526090290830051 0 0.032830556225996808 0.0045144934650945016 0 0.026122746923353354 0.0093452955234422444 0 0.030811407372266075 0.007415868830281348 0 0.028904076776842036 0.004526090290830051 0 0.026122746923353354 0.0093452955234422444 0 0.028904076776842036 0.004526090290830051 0 0.024677960457717873 0.0036376178487330111 0 0.028904076776842036 0.004526090290830051 0 0.027916699907349934 0.00072034868121311998 0 0.024677960457717873 0.0036376178487330111 0 0.028904076776842036 0.004526090290830051 0 0.031045747991052246 0.0020674565881520024 0 0.027916699907349934 0.00072034868121311998 0 0.028904076776842036 0.004526090290830051 0 0.031045747991052246 0.0020674565881520024 0 0.032830556225996808 0.0045144934650945016 0 0.031045747991052246 0.0020674565881520024 0 0.027916699907349934 0.00072034868121311998 0 0.032322820644781668 -0.0010954496950160535 0 0.027916699907349934 0.00072034868121311998 0 0.024677960457717873 0.0036376178487330111 0 0.024487403835473667 0.001061277607158462 0 0.027916699907349934 0.00072034868121311998 0 0.024487403835473667 0.001061277607158462 0 0.024971656417691362 -0.0019184305344938149 0 0.036331290022794255 -0.0003602767494125274 0 0.033775180660365681 0.0017131200615587709 0 0.036339386997070164 0.0042024664138306019 0 0.031045747991052246 0.0020674565881520024 0 0.033775180660365681 0.0017131200615587709 0 0.032322820644781668 -0.0010954496950160535 0 0.036331290022794255 -0.0003602767494125274 0 0.033775180660365681 0.0017131200615587709 0 0.032322820644781668 -0.0010954496950160535 0 0.033775180660365681 0.0017131200615587709 0 0.032830556225996808 0.0045144934650945016 0 0.036339386997070164 0.0042024664138306019 0 0.031045747991052246 0.0020674565881520024 0 0.033775180660365681 0.0017131200615587709 0 0.032830556225996808 0.0045144934650945016 0 0.036331290022794255 -0.0003602767494125274 0 0.036339386997070164 0.0042024664138306019 0 0.040029926948354368 0.0018761909796033897 0 0.036339386997070164 0.0042024664138306019 0 0.033718693633184339 0.0078155115849105564 0 0.037403034185767042 0.0085449973124908686 0 0.036339386997070164 0.0042024664138306019 0 0.037403034185767042 0.0085449973124908686 0 0.040403794000801838 0.0056057285944988676 0 0.032830556225996808 0.0045144934650945016 0 0.036339386997070164 0.0042024664138306019 0 0.033718693633184339 0.0078155115849105564 0 0.030811407372266075 0.007415868830281348 0 0.032830556225996808 0.0045144934650945016 0 0.033718693633184339 0.0078155115849105564 0 0.030959036236227602 0.010744292767098559 0 0.033718693633184339 0.0078155115849105564 0 0.034607933641862453 0.010847235008623623 0 0.030959036236227602 0.010744292767098559 0 0.030811407372266075 0.007415868830281348 0 0.033718693633184339 0.0078155115849105564 0 0.033718693633184339 0.0078155115849105564 0 0.034607933641862453 0.010847235008623623 0 0.037403034185767042 0.0085449973124908686 0 0.038212906002050392 0.013158314835335283 0 0.034607933641862453 0.010847235008623623 0 0.037403034185767042 0.0085449973124908686 0 0.038212906002050392 0.013158314835335283 0 0.037403034185767042 0.0085449973124908686 0 0.041097995337202813 0.0093210525524242728 0 0.043992518071849777 0.012284161493606333 0 0.041097995337202813 0.0093210525524242728 0 0.045788912555430446 0.0069573200153650759 0 0.041097995337202813 0.0093210525524242728 0 0.040403794000801838 0.0056057285944988676 0 0.045788912555430446 0.0069573200153650759 0 0.040403794000801838 0.0056057285944988676 0 0.045788912555430446 0.0069573200153650759 0 0.043439223620300144 0.0034307375944877139 0 0.037403034185767042 0.0085449973124908686 0 0.041097995337202813 0.0093210525524242728 0 0.040403794000801838 0.0056057285944988676 0 0.050352917320799329 0.010949085313136075 0 0.045788912555430446 0.0069573200153650759 0 0.051535312267003926 0.0061541176414310703 0 0.043992518071849777 0.012284161493606333 0 0.050352917320799329 0.010949085313136075 0 0.045788912555430446 0.0069573200153650759 0 0.051535312267003926 0.0061541176414310703 0 0.050110217153096472 0.0016854626362555855 0 0.056013982074307682 0.004234353648026626 0 0.045788912555430446 0.0069573200153650759 0 0.051535312267003926 0.0061541176414310703 0 0.050110217153096472 0.0016854626362555855 0 0.045788912555430446 0.0069573200153650759 0 0.050110217153096472 0.0016854626362555855 0 0.043439223620300144 0.0034307375944877139 0 0.050110217153096472 0.0016854626362555855 0 0.043439223620300144 0.0034307375944877139 0 0.044232613026370285 6.3451418722480882e-05 0 0.050195756755858432 0.003686994447305538 0 0.044232613026370285 6.3451418722480882e-05 0 0.048861732928171309 -0.0026993510074723587 0 0.050660467959759259 0.0026926827869754207 0 0.048121481549776884 0.0014501799788310345 0 0.050195756755858432 0.003686994447305538 0 0.052025681278744018 0.00056985118861781897 0 0.048861732928171309 -0.0026993510074723587 0 0.040403794000801838 0.0056057285944988676 0 0.040029926948354368 0.0018761909796033897 0 0.043439223620300144 0.0034307375944877139 0 0.036339386997070164 0.0042024664138306019 0 0.040403794000801838 0.0056057285944988676 0 0.040029926948354368 0.0018761909796033897 0 0.040029926948354368 0.0018761909796033897 0 0.043439223620300144 0.0034307375944877139 0 0.044232613026370285 6.3451418722480882e-05 0 0.040029926948354368 0.0018761909796033897 0 0.044232613026370285 6.3451418722480882e-05 0 0.039728699049055113 -0.0020010206177149023 0 0.036331290022794255 -0.0003602767494125274 0 0.040029926948354368 0.0018761909796033897 0 0.039728699049055113 -0.0020010206177149023 0 0.039728699049055113 -0.0020010206177149023 0 0.042474261091759481 -0.0035696885928068372 0 0.040821087767266638 -0.0065559401424174647 0 0.044232613026370285 6.3451418722480882e-05 0 0.039728699049055113 -0.0020010206177149023 0 0.042474261091759481 -0.0035696885928068372 0 0.037792320617619647 -0.0067806088700024794 0 0.039429100225097893 -0.0059420848894400358 0 0.042474261091759481 -0.0035696885928068372 0 0.040821087767266638 -0.0065559401424174647 0 0.043634378675713056 -0.0046339428737670954 0 0.039728699049055113 -0.0020010206177149023 0 0.040821087767266638 -0.0065559401424174647 0 0.035879156223400328 -0.0038861056680573954 0 0.043560268055770963 -0.0043911961945798158 0 0.042461400138987332 -0.0046765639282492222 0 0.042905793471601783 -0.0042533300192014543 0 0.043560268055770963 -0.0043911961945798158 0 0.043634378675713056 -0.0046339428737670954 0 0.042905793471601783 -0.0042533300192014543 0 0.045755957467965708 -0.0029213720937026808 0 0.047496286636769927 -0.0023319076240568984 0 0.052025681278744018 0.00056985118861781897 0 0.048861732928171309 -0.0026993510074723587 0 0.054443670558294133 -0.00088727033982704965 0 0.042474261091759481 -0.0035696885928068372 0 0.043560268055770963 -0.0043911961945798158 0 0.043634378675713056 -0.0046339428737670954 0 0.0443810027651464 -0.0031802962078619048 0 0.045755957467965708 -0.0029213720937026808 0 0.044232613026370285 6.3451418722480882e-05 0 0.042474261091759481 -0.0035696885928068372 0 0.048861732928171309 -0.0026993510074723587 0 0.035890162468853952 -0.0067662452396591724 0 0.037590007087969467 -0.0070968166742716643 0 0.036660466075786949 -0.0081242902811063267 0 0.039429100225097893 -0.0059420848894400358 0 0.040593509654092752 -0.0053070070908499837 0 0.035890162468853952 -0.0067662452396591724 0 0.037590007087969467 -0.0070968166742716643 0 0.038597380622907275 -0.0054329352822267765 0 0.037590007087969467 -0.0070968166742716643 0 0.038150218756913955 -0.0084513410367673403 0 0.036660466075786949 -0.0081242902811063267 0 0.035890162468853952 -0.0067662452396591724 0 0.036660466075786949 -0.0081242902811063267 0 0.035217613141849187 -0.0084767574677996511 0 0.036660466075786949 -0.0081242902811063267 0 0.035217613141849187 -0.0084767574677996511 0 0.037106214918444708 -0.010942473392422467 0 0.035685352518969725 -0.0086496071780189122 0 0.035768865097827833 -0.0085719533118103833 0 0.035217613141849187 -0.0084767574677996511 0 0.034860689909924511 -0.0086778373652746411 0 0.034589504164557645 -0.0087725826550528602 0 0.038888685026326843 -0.0099441349433391883 0 0.038849766553512112 -0.011213272935262711 0 0.037106214918444708 -0.010942473392422467 0 0.038150218756913955 -0.0084513410367673403 0 0.036660466075786949 -0.0081242902811063267 0 0.037106214918444708 -0.010942473392422467 0 0.038150218756913955 -0.0084513410367673403 0 0.038888685026326843 -0.0099441349433391883 0 0.037106214918444708 -0.010942473392422467 0 0.034694766085906832 -0.0080220983672282219 0 0.034811029671393399 -0.0084682630206420334 0 0.035068266799048536 -0.0080060774092837184 0 0.037792320617619647 -0.0067806088700024794 0 0.036701767238384461 -0.0072434549188100088 0 0.034694766085906832 -0.0080220983672282219 0 0.035217613141849187 -0.0084767574677996511 0 0.034811029671393399 -0.0084682630206420334 0 0.034694766085906832 -0.0080220983672282219 0 0.035890162468853952 -0.0067662452396591724 0 0.035217613141849187 -0.0084767574677996511 0 0.034811029671393399 -0.0084682630206420334 0 0.034678362460724164 -0.0087884976862225798 0 0.034589504164557645 -0.0087725826550528602 0 0.035217613141849187 -0.0084767574677996511 0 0.034811029671393399 -0.0084682630206420334 0 0.034589504164557645 -0.0087725826550528602 0 0.034811029671393399 -0.0084682630206420334 0 0.035068266799048536 -0.0080060774092837184 0 0.034678362460724164 -0.0087884976862225798 0 0.035068266799048536 -0.0080060774092837184 0 0.03345442317537415 -0.0087456031501247766 0 0.034360332054343676 -0.0091731953846641134 0 0.035068266799048536 -0.0080060774092837184 0 0.034360332054343676 -0.0091731953846641134 0 0.034678362460724164 -0.0087884976862225798 0 0.035068266799048536 -0.0080060774092837184 0 0.031934350178588214 -0.0073581772652705395 0 0.032093509892625813 -0.0047705629208572558 0 0.035068266799048536 -0.0080060774092837184 0 0.03345442317537415 -0.0087456031501247766 0 0.031934350178588214 -0.0073581772652705395 0 0.032282529391510682 -0.0088000568566755748 0 0.03345442317537415 -0.0087456031501247766 0 0.031934350178588214 -0.0073581772652705395 0 0.032282529391510682 -0.0088000568566755748 0 0.03345442317537415 -0.0087456031501247766 0 0.033510736214222347 -0.0096173650124343601 0 0.026432060508205266 -0.0086312304242940358 0 0.026674115085106746 -0.0084091776572616603 0 0.028486995786429069 -0.0120681340102263 0 0.032282529391510682 -0.0088000568566755748 0 0.030314193421578334 -0.0088233722510855095 0 0.033510736214222347 -0.0096173650124343601 0 0.028398110456194173 -0.0081266995106456207 0 0.030192756327240246 -0.010442953435772138 0 0.024294009970288608 -0.010575265179040857 0 0.02270572987769726 -0.011985012156038373 0 0.026432060508205266 -0.0086312304242940358 0 0.024544798420831689 -0.011217931307557806 0 0.024459524440424246 -0.0082113489889794455 0 0.026432060508205266 -0.0086312304242940358 0 0.026214112350292369 -0.0054190996513987233 0 0.024459524440424246 -0.0082113489889794455 0 0.026432060508205266 -0.0086312304242940358 0 0.026674115085106746 -0.0084091776572616603 0 0.026214112350292369 -0.0054190996513987233 0 0.028398110456194173 -0.0081266995106456207 0 0.027296234071232526 -0.0066797206870170059 0 0.030314193421578334 -0.0088233722510855095 0 0.031934350178588214 -0.0073581772652705395 0 0.026214112350292369 -0.0054190996513987233 0 0.032282529391510682 -0.0088000568566755748 0 0.030314193421578334 -0.0088233722510855095 0 0.031934350178588214 -0.0073581772652705395 0 0.031934350178588214 -0.0073581772652705395 0 0.026214112350292369 -0.0054190996513987233 0 0.032093509892625813 -0.0047705629208572558 0 0.026214112350292369 -0.0054190996513987233 0 0.028672820721129772 -0.002466353712812014 0 0.032093509892625813 -0.0047705629208572558 0 0.026214112350292369 -0.0054190996513987233 0 0.028672820721129772 -0.002466353712812014 0 0.024971656417691362 -0.0019184305344938149 0 0.027916699907349934 0.00072034868121311998 0 0.028672820721129772 -0.002466353712812014 0 0.024971656417691362 -0.0019184305344938149 0 0.027916699907349934 0.00072034868121311998 0 0.028672820721129772 -0.002466353712812014 0 0.032322820644781668 -0.0010954496950160535 0 0.028672820721129772 -0.002466353712812014 0 0.032322820644781668 -0.0010954496950160535 0 0.032093509892625813 -0.0047705629208572558 0 0.032322820644781668 -0.0010954496950160535 0 0.035879156223400328 -0.0038861056680573954 0 0.032093509892625813 -0.0047705629208572558 0 0.036331290022794255 -0.0003602767494125274 0 0.039728699049055113 -0.0020010206177149023 0 0.035879156223400328 -0.0038861056680573954 0 0.036331290022794255 -0.0003602767494125274 0 0.032322820644781668 -0.0010954496950160535 0 0.035879156223400328 -0.0038861056680573954 0 0.035068266799048536 -0.0080060774092837184 0 0.035879156223400328 -0.0038861056680573954 0 0.032093509892625813 -0.0047705629208572558 0 0.040821087767266638 -0.0065559401424174647 0 0.035068266799048536 -0.0080060774092837184 0 0.035879156223400328 -0.0038861056680573954 0 0.056710684032075444 -5.3583370677835257e-06 0 0.04168535821629292 1.4580850917525099e-05 0 0.052786864333441944 -0.00018807368136865941 0 0.041666912366196185 1.3869205737688876e-06 0 0.043623353260708923 0.00056592896052265744 0 0.041658312187647303 4.2272098246558449e-06 0 0.036418690388786118 0.0012091669537666351 0 0.038135570834421595 -0.0002486988023952595 0 0.051280955806603613 0.004544600167527872 0 0.052786864333441944 -0.00018807368136865941 0 0.056834509452610954 0.0033457988305878464 0 0.04168535821629292 1.4580850917525099e-05 0 0.051280955806603613 0.004544600167527872 0 0.052786864333441944 -0.00018807368136865941 0 0.05718578571902682 -0.00011531270822727893 0 0.056710684032075444 -5.3583370677835257e-06 0 0.052786864333441944 -0.00018807368136865941 0 0.05718578571902682 -0.00011531270822727893 0 0.052786864333441944 -0.00018807368136865941 0 0.0575406841901994 -0.00018183595815537244 0 0.052786864333441944 -0.00018807368136865941 0 0.0575406841901994 -0.00018183595815537244 0 0.056834509452610954 0.0033457988305878464 0 0.059731351440466304 0.0032094877096216479 0 0.058988233973146113 0.003897998158744709 0 0.05982597801598908 4.852873011588929e-05 0 0.05718578571902682 -0.00011531270822727893 0 0.0575406841901994 -0.00018183595815537244 0 0.061788828346700929 0.0074936847418916727 0 0.061316245409017131 0.0066818462363421281 0 0.060797802184121744 0.0048240099096176275 0 0.060990827897550837 0.0026705890472386753 0 0.059731351440466304 0.0032094877096216479 0 0.061316245409017131 0.0066818462363421281 0 0.060797802184121744 0.0048240099096176275 0 0.060289609341623189 0.0059576242297162824 0 0.060797802184121744 0.0048240099096176275 0 0.059372111999456294 0.003831077922323478 0 0.059849356234781707 0.0048344614483001331 0 0.060797802184121744 0.0048240099096176275 0 0.059849356234781707 0.0048344614483001331 0 0.060289609341623189 0.0059576242297162824 0 0.059431020782548735 0.0038786456400584333 0 0.059372111999456294 0.003831077922323478 0 0.05957976030246389 0.0040660319663639033 0 0.059431020782548735 0.0038786456400584333 0 0.05904877201826126 0.0039598185865094976 0 0.05955102622081053 0.0037796123468013961 0 0.059431020782548735 0.0038786456400584333 0 0.059372111999456294 0.003831077922323478 0 0.05904877201826126 0.0039598185865094976 0 0.059372111999456294 0.003831077922323478 0 0.05904877201826126 0.0039598185865094976 0 0.058301015202038731 0.0040287811901113203 0 0.059372111999456294 0.003831077922323478 0 0.056834509452610954 0.0033457988305878464 0 0.058301015202038731 0.0040287811901113203 0 0.060797802184121744 0.0048240099096176275 0 0.059372111999456294 0.003831077922323478 0 0.056834509452610954 0.0033457988305878464 0 0.051280955806603613 0.004544600167527872 0 0.056834509452610954 0.0033457988305878464 0 0.057656813300933467 0.0055830712765207232 0 0.043623353260708923 0.00056592896052265744 0 0.04451887075603974 0.00023416397024318659 0 0.036418690388786118 0.0012091669537666351 0 0.03335243454439768 0.00030538694602964562 0 0.032691259379412946 0.00058729512125419488 0 0.056834509452610954 0.0033457988305878464 0 0.057656813300933467 0.0055830712765207232 0 0.058301015202038731 0.0040287811901113203 0 0.03335243454439768 0.00030538694602964562 0 0.032691259379412946 0.00058729512125419488 0 0.032821229191835853 0.00020649607999960617 0 0.032691259379412946 0.00058729512125419488 0 0.032821229191835853 0.00020649607999960617 0 0.032541195412589 0.00026998299959424043 0 0.057656813300933467 0.0055830712765207232 0 0.058923200439512179 0.004368799201059914 0 0.059876652610217143 0.0039429308558662814 0 0.04451887075603974 0.00023416397024318659 0 0.044029493261014033 -0.0013263189329856212 0 0.032691259379412946 0.00058729512125419488 0 0.032541195412589 0.00026998299959424043 0 0.032250962051982086 0.00015887560384363514 0 0.059495513053526877 0.0039413917925032824 0 0.058923200439512179 0.004368799201059914 0 0.059755553527702725 0.0038840776856578622 0 0.058923200439512179 0.004368799201059914 0 0.059755553527702725 0.0038840776856578622 0 0.059876652610217143 0.0039429308558662814 0 0.059495513053526877 0.0039413917925032824 0 0.059318419466455476 0.0040027370620263026 0 0.058923200439512179 0.004368799201059914 0 0.059318419466455476 0.0040027370620263026 0 0.05904877201826126 0.0039598185865094976 0 0.058923200439512179 0.004368799201059914 0 0.059318419466455476 0.0040027370620263026 0 0.05904877201826126 0.0039598185865094976 0 0.05955102622081053 0.0037796123468013961 0 0.059495513053526877 0.0039413917925032824 0 0.059318419466455476 0.0040027370620263026 0 0.059609289184982747 0.0037661814816668804 0 0.05904877201826126 0.0039598185865094976 0 0.058301015202038731 0.0040287811901113203 0 0.058923200439512179 0.004368799201059914 0 0.057656813300933467 0.0055830712765207232 0 0.058301015202038731 0.0040287811901113203 0 0.058923200439512179 0.004368799201059914 0 0.059776731267537062 0.0034935117143529448 0 0.059096731654583519 0.0028600644443027962 0 0.058205908004582196 0.0012634209673798838 0 0.044029493261014033 -0.0013263189329856212 0 0.047984588666632425 -0.0016306320389097527 0 0.059330669445308327 0.0033303553544265937 0 0.059096731654583519 0.0028600644443027962 0 0.058955736764191517 0.00308342862333258 0 0.059330669445308327 0.0033303553544265937 0 0.058955736764191517 0.00308342862333258 0 0.059397494636014077 0.0036248588743424863 0 0.059330669445308327 0.0033303553544265937 0 0.059519889212119613 0.0035990059032658477 0 0.059397494636014077 0.0036248588743424863 0 0.05955102622081053 0.0037796123468013961 0 0.059519889212119613 0.0035990059032658477 0 0.059397494636014077 0.0036248588743424863 0 0.059318419466455476 0.0040027370620263026 0 0.05955102622081053 0.0037796123468013961 0 0.059609289184982747 0.0037661814816668804 0 0.05955102622081053 0.0037796123468013961 0 0.059609289184982747 0.0037661814816668804 0 0.059519889212119613 0.0035990059032658477 0 0.059609289184982747 0.0037661814816668804 0 0.059519889212119613 0.0035990059032658477 0 0.059589896896391568 0.0034846402794074497 0 0.059330669445308327 0.0033303553544265937 0 0.059519889212119613 0.0035990059032658477 0 0.059589896896391568 0.0034846402794074497 0 0.059589896896391568 0.0034846402794074497 0 0.059776731267537062 0.0034935117143529448 0 0.059096731654583519 0.0028600644443027962 0 0.059495513053526877 0.0039413917925032824 0 0.059609289184982747 0.0037661814816668804 0 0.059675327280920593 0.0037482635987022023 0 0.059495513053526877 0.0039413917925032824 0 0.059675327280920593 0.0037482635987022023 0 0.059755553527702725 0.0038840776856578622 0 0.059609289184982747 0.0037661814816668804 0 0.059589896896391568 0.0034846402794074497 0 0.059675327280920593 0.0037482635987022023 0 0.059589896896391568 0.0034846402794074497 0 0.059708546369577731 0.0036726419129844237 0 0.059776731267537062 0.0034935117143529448 0 0.059675327280920593 0.0037482635987022023 0 0.059708546369577731 0.0036726419129844237 0 0.059755553527702725 0.0038840776856578622 0 0.059589896896391568 0.0034846402794074497 0 0.059675327280920593 0.0037482635987022023 0 0.059708546369577731 0.0036726419129844237 0 0.044090388800992864 -0.0012629974800827891 0 0.044029493261014033 -0.0013263189329856212 0 0.059708546369577731 0.0036726419129844237 0 0.059755553527702725 0.0038840776856578622 0 0.059776731267537062 0.0034935117143529448 0 0.059330669445308327 0.0033303553544265937 0 0.059589896896391568 0.0034846402794074497 0 0.059096731654583519 0.0028600644443027962 0 0.059096731654583519 0.0028600644443027962 0 0.058612693702650112 0.002442742800062821 0 0.058205908004582196 0.0012634209673798838 0 0.059096731654583519 0.0028600644443027962 0 0.058612693702650112 0.002442742800062821 0 0.058955736764191517 0.00308342862333258 0 0.058197404935633773 0.002530346720619735 0 0.057428871039872341 0.0019406311056241617 0 0.058205908004582196 0.0012634209673798838 0 0.058612693702650112 0.002442742800062821 0 0.058197404935633773 0.002530346720619735 0 0.058205908004582196 0.0012634209673798838 0 0.058197404935633773 0.002530346720619735 0 0.058603529717759499 0.0034480304070775118 0 0.057044819006109498 0.0032587555727351526 0 0.058955736764191517 0.00308342862333258 0 0.058603529717759499 0.0034480304070775118 0 0.059397494636014077 0.0036248588743424863 0 0.058612693702650112 0.002442742800062821 0 0.058197404935633773 0.002530346720619735 0 0.058955736764191517 0.00308342862333258 0 0.058197404935633773 0.002530346720619735 0 0.058955736764191517 0.00308342862333258 0 0.058603529717759499 0.0034480304070775118 0 0.058603529717759499 0.0034480304070775118 0 0.058892481683405398 0.0044464076104559613 0 0.059397494636014077 0.0036248588743424863 0 0.058603529717759499 0.0034480304070775118 0 0.058892481683405398 0.0044464076104559613 0 0.057044819006109498 0.0032587555727351526 0 0.058892481683405398 0.0044464076104559613 0 0.059397494636014077 0.0036248588743424863 0 0.05957976030246389 0.0040660319663639033 0 0.058892481683405398 0.0044464076104559613 0 0.05957976030246389 0.0040660319663639033 0 0.059849356234781707 0.0048344614483001331 0 0.059431020782548735 0.0038786456400584333 0 0.05955102622081053 0.0037796123468013961 0 0.05957976030246389 0.0040660319663639033 0 0.05955102622081053 0.0037796123468013961 0 0.059397494636014077 0.0036248588743424863 0 0.05957976030246389 0.0040660319663639033 0 0.059372111999456294 0.003831077922323478 0 0.05957976030246389 0.0040660319663639033 0 0.059849356234781707 0.0048344614483001331 0 0.059849356234781707 0.0048344614483001331 0 0.060289609341623189 0.0059576242297162824 0 0.058903538968946935 0.0060425758759006494 0 0.060123551011284693 0.006853291336337719 0 0.061316245409017131 0.0066818462363421281 0 0.060289609341623189 0.0059576242297162824 0 0.060123551011284693 0.006853291336337719 0 0.060289609341623189 0.0059576242297162824 0 0.058903538968946935 0.0060425758759006494 0 0.058892481683405398 0.0044464076104559613 0 0.059849356234781707 0.0048344614483001331 0 0.058903538968946935 0.0060425758759006494 0 0.058903538968946935 0.0060425758759006494 0 0.057225101147295863 0.0081628447698855484 0 0.056013982074307682 0.004234353648026626 0 0.058892481683405398 0.0044464076104559613 0 0.058903538968946935 0.0060425758759006494 0 0.055279583168580296 0.0054802896531894671 0 0.056331795588968628 0.0053608289439582646 0 0.054480739044448029 0.0044983765913300918 0 0.058073089013698551 0.0079912479567483645 0 0.058903538968946935 0.0060425758759006494 0 0.057225101147295863 0.0081628447698855484 0 0.054800450934214158 0.0096295755678208594 0 0.055886536985331865 0.0093018075597202585 0 0.050352917320799329 0.010949085313136075 0 0.051535312267003926 0.0061541176414310703 0 0.057225101147295863 0.0081628447698855484 0 0.051535312267003926 0.0061541176414310703 0 0.057225101147295863 0.0081628447698855484 0 0.056013982074307682 0.004234353648026626 0 0.050195756755858432 0.003686994447305538 0 0.055279583168580296 0.0054802896531894671 0 0.054335604538254298 0.0021690393058917353 0 0.050660467959759259 0.0026926827869754207 0 0.054480739044448029 0.0044983765913300918 0 0.058892481683405398 0.0044464076104559613 0 0.055279583168580296 0.0054802896531894671 0 0.057044819006109498 0.0032587555727351526 0 0.055279583168580296 0.0054802896531894671 0 0.057044819006109498 0.0032587555727351526 0 0.054335604538254298 0.0021690393058917353 0 0.057044819006109498 0.0032587555727351526 0 0.056277335159550627 0.0011913796136088482 0 0.054335604538254298 0.0021690393058917353 0 0.058197404935633773 0.002530346720619735 0 0.057044819006109498 0.0032587555727351526 0 0.057428871039872341 0.0019406311056241617 0 0.057044819006109498 0.0032587555727351526 0 0.057428871039872341 0.0019406311056241617 0 0.056277335159550627 0.0011913796136088482 0 0.057428871039872341 0.0019406311056241617 0 0.056277335159550627 0.0011913796136088482 0 0.058205908004582196 0.0012634209673798838 0 0.050195756755858432 0.003686994447305538 0 0.052025681278744018 0.00056985118861781897 0 0.054335604538254298 0.0021690393058917353 0 0.052025681278744018 0.00056985118861781897 0 0.054335604538254298 0.0021690393058917353 0 0.054443670558294133 -0.00088727033982704965 0 0.056277335159550627 0.0011913796136088482 0 0.054335604538254298 0.0021690393058917353 0 0.054443670558294133 -0.00088727033982704965 0 0.040593509654092752 -0.0053070070908499837 0 0.041138239526786455 -0.0050578198923216565 0 0.042461400138987332 -0.0046765639282492222 0 0.042905793471601783 -0.0042533300192014543 0 0.041858031867493359 -0.0046901071779327135 0 0.038597380622907275 -0.0054329352822267765 0 0.041858031867493359 -0.0046901071779327135 0 0.040418199637269656 -0.0059859482993298513 0 0.056277335159550627 0.0011913796136088482 0 0.054443670558294133 -0.00088727033982704965 0 0.058205908004582196 0.0012634209673798838 0 0.047496286636769927 -0.0023319076240568984 0 0.047984588666632425 -0.0016306320389097527 0 0.042461400138987332 -0.0046765639282492222 0 0.041858031867493359 -0.0046901071779327135 0 0.041760321806465162 -0.004759623551282996 0 0.041858031867493359 -0.0046901071779327135 0 0.040418199637269656 -0.0059859482993298513 0 0.041644824130295154 -0.0058059893594398426 0 0.041858031867493359 -0.0046901071779327135 0 0.041644824130295154 -0.0058059893594398426 0 0.041863597687007627 -0.0049116106012719067 0 0.040418199637269656 -0.0059859482993298513 0 0.041644824130295154 -0.0058059893594398426 0 0.040665195440982543 -0.0070135478581432546 0 0.041644824130295154 -0.0058059893594398426 0 0.040665195440982543 -0.0070135478581432546 0 0.041964251846115061 -0.0084042013849229893 0 0.040418199637269656 -0.0059859482993298513 0 0.040665195440982543 -0.0070135478581432546 0 0.039246079034551316 -0.0071122571220826351 0 0.038597380622907275 -0.0054329352822267765 0 0.040418199637269656 -0.0059859482993298513 0 0.039246079034551316 -0.0071122571220826351 0 0.037590007087969467 -0.0070968166742716643 0 0.038597380622907275 -0.0054329352822267765 0 0.039246079034551316 -0.0071122571220826351 0 0.037590007087969467 -0.0070968166742716643 0 0.038150218756913955 -0.0084513410367673403 0 0.039246079034551316 -0.0071122571220826351 0 0.038150218756913955 -0.0084513410367673403 0 0.039246079034551316 -0.0071122571220826351 0 0.03998386990290629 -0.0085206367129153256 0 0.038150218756913955 -0.0084513410367673403 0 0.03998386990290629 -0.0085206367129153256 0 0.038888685026326843 -0.0099441349433391883 0 0.040665195440982543 -0.0070135478581432546 0 0.039246079034551316 -0.0071122571220826351 0 0.03998386990290629 -0.0085206367129153256 0 0.03998386990290629 -0.0085206367129153256 0 0.038888685026326843 -0.0099441349433391883 0 0.040474353031709563 -0.010859379281156781 0 0.038888685026326843 -0.0099441349433391883 0 0.040474353031709563 -0.010859379281156781 0 0.038849766553512112 -0.011213272935262711 0 0.03998386990290629 -0.0085206367129153256 0 0.041964251846115061 -0.0084042013849229893 0 0.040474353031709563 -0.010859379281156781 0 0.031769763749618346 0.00030097170037628646 0 0.031766365086654369 9.4352065119096836e-05 0 0.031654914997911072 0.00012793569227620552 0 0.036709682637466441 -0.0039673620363573515 0 0.035224791810779497 -0.0047186246098882027 0 0.040665195440982543 -0.0070135478581432546 0 0.03998386990290629 -0.0085206367129153256 0 0.041964251846115061 -0.0084042013849229893 0 0.031769763749618346 0.00030097170037628646 0 0.031876232826286544 0.00019490256169639523 0 0.031766365086654369 9.4352065119096836e-05 0 0.031876232826286544 0.00019490256169639523 0 0.031949729654500283 0.00034280586980051981 0 0.032026213933158312 0.00025768834713743192 0 0.031769763749618346 0.00030097170037628646 0 0.031876232826286544 0.00019490256169639523 0 0.031949729654500283 0.00034280586980051981 0 0.031769763749618346 0.00030097170037628646 0 0.031949729654500283 0.00034280586980051981 0 0.031875085315865199 0.00044064484354965457 0 0.034482444375607969 -0.00025328203897302182 0 0.038170689276637498 -0.0030647776550241676 0 0.032400838523420697 -0.00019038698758968409 0 0.032228589809181966 -0.00013292075734040493 0 0.032373216920883047 -0.00015566567216268733 0 0.032228589809181966 -0.00013292075734040493 0 0.032321039158211246 -2.5287976231060651e-05 0 0.032373216920883047 -0.00015566567216268733 0 0.041644824130295154 -0.0058059893594398426 0 0.041964251846115061 -0.0084042013849229893 0 0.042318403180591817 -0.0059631636774639118 0 0.036709682637466441 -0.0039673620363573515 0 0.038170689276637498 -0.0030647776550241676 0 0.041964251846115061 -0.0084042013849229893 0 0.043205742200843743 -0.0060546873370106334 0 0.042318403180591817 -0.0059631636774639118 0 0.038170689276637498 -0.0030647776550241676 0 0.039015144752352758 -0.0039011747424348452 0 0.043299949843853353 -0.0045029304665036027 0 0.042103321235593683 -0.0050856528056643967 0 0.041760321806465162 -0.004759623551282996 0 0.043205742200843743 -0.0060546873370106334 0 0.042318403180591817 -0.0059631636774639118 0 0.042103321235593683 -0.0050856528056643967 0 0.041644824130295154 -0.0058059893594398426 0 0.042318403180591817 -0.0059631636774639118 0 0.042103321235593683 -0.0050856528056643967 0 0.041644824130295154 -0.0058059893594398426 0 0.042103321235593683 -0.0050856528056643967 0 0.041863597687007627 -0.0049116106012719067 0 0.041858031867493359 -0.0046901071779327135 0 0.041863597687007627 -0.0049116106012719067 0 0.041760321806465162 -0.004759623551282996 0 0.042103321235593683 -0.0050856528056643967 0 0.041863597687007627 -0.0049116106012719067 0 0.041760321806465162 -0.004759623551282996 0 0.044029493261014033 -0.0013263189329856212 0 0.038170689276637498 -0.0030647776550241676 0 0.043299949843853353 -0.0045029304665036027 0 0.04257918024712435 -0.0056833298429115608 0 0.042103321235593683 -0.0050856528056643967 0 0.032250962051982086 0.00015887560384363514 0 0.032228589809181966 -0.00013292075734040493 0 0.032321039158211246 -2.5287976231060651e-05 0 0.032250962051982086 0.00015887560384363514 0 0.032321039158211246 -2.5287976231060651e-05 0 0.032353832230364359 6.0752699259696198e-05 0 0.032541608233664594 -2.3587760308771263e-05 0 0.032413966108846545 -4.7667223746525223e-05 0 0.032446788791183123 0.00012231892233532609 0 0.032541608233664594 -2.3587760308771263e-05 0 0.032635117233916933 -6.3036703974496831e-05 0 0.032494162197854705 -0.00013153575075796139 0 0.032541608233664594 -2.3587760308771263e-05 0 0.032413966108846545 -4.7667223746525223e-05 0 0.032494162197854705 -0.00013153575075796139 0 0.032321039158211246 -2.5287976231060651e-05 0 0.032413966108846545 -4.7667223746525223e-05 0 0.032373216920883047 -0.00015566567216268733 0 0.032321039158211246 -2.5287976231060651e-05 0 0.032413966108846545 -4.7667223746525223e-05 0 0.032353832230364359 6.0752699259696198e-05 0 0.032250962051982086 0.00015887560384363514 0 0.032353832230364359 6.0752699259696198e-05 0 0.032446788791183123 0.00012231892233532609 0 0.032541195412589 0.00026998299959424043 0 0.032250962051982086 0.00015887560384363514 0 0.032446788791183123 0.00012231892233532609 0 0.032413966108846545 -4.7667223746525223e-05 0 0.032353832230364359 6.0752699259696198e-05 0 0.032446788791183123 0.00012231892233532609 0 0.032541195412589 0.00026998299959424043 0 0.032446788791183123 0.00012231892233532609 0 0.032680461079736767 9.9921247839001133e-05 0 0.032541608233664594 -2.3587760308771263e-05 0 0.032446788791183123 0.00012231892233532609 0 0.032680461079736767 9.9921247839001133e-05 0 0.03335243454439768 0.00030538694602964562 0 0.032821229191835853 0.00020649607999960617 0 0.032843145156589551 1.2447323274865575e-06 0 0.032821229191835853 0.00020649607999960617 0 0.032541195412589 0.00026998299959424043 0 0.032680461079736767 9.9921247839001133e-05 0 0.03335243454439768 0.00030538694602964562 0 0.032843145156589551 1.2447323274865575e-06 0 0.032201534687821838 -0.00023806859285738623 0 0.032821229191835853 0.00020649607999960617 0 0.032680461079736767 9.9921247839001133e-05 0 0.032843145156589551 1.2447323274865575e-06 0 0.032680461079736767 9.9921247839001133e-05 0 0.032843145156589551 1.2447323274865575e-06 0 0.032635117233916933 -6.3036703974496831e-05 0 0.032541608233664594 -2.3587760308771263e-05 0 0.032680461079736767 9.9921247839001133e-05 0 0.032635117233916933 -6.3036703974496831e-05 0 0.032843145156589551 1.2447323274865575e-06 0 0.032635117233916933 -6.3036703974496831e-05 0 0.032529384713465122 -0.00016269596214992565 0 0.032635117233916933 -6.3036703974496831e-05 0 0.032529384713465122 -0.00016269596214992565 0 0.032494162197854705 -0.00013153575075796139 0 0.032529384713465122 -0.00016269596214992565 0 0.032387637519899801 -0.00021620515880144909 0 0.032186686169641585 -0.00023017641674087099 0 0.032529384713465122 -0.00016269596214992565 0 0.032387637519899801 -0.00021620515880144909 0 0.032494162197854705 -0.00013153575075796139 0 0.032400838523420697 -0.00019038698758968409 0 0.032387637519899801 -0.00021620515880144909 0 0.032373216920883047 -0.00015566567216268733 0 0.032387637519899801 -0.00021620515880144909 0 0.032494162197854705 -0.00013153575075796139 0 0.032373216920883047 -0.00015566567216268733 0 0.032413966108846545 -4.7667223746525223e-05 0 0.032494162197854705 -0.00013153575075796139 0 0.032373216920883047 -0.00015566567216268733 0 0.032400838523420697 -0.00019038698758968409 0 0.032387637519899801 -0.00021620515880144909 0 0.032393005454499982 -4.7745913230022656e-07 0 0.034482444375607969 -0.00025328203897302182 0 0.033294693654422385 0.00038415565491248336 0 0.032026213933158312 0.00025768834713743192 0 0.032111588370971896 0.00036274596327280195 0 0.031972592379669956 0.00016444796497765534 0 0.031876232826286544 0.00019490256169639523 0 0.032026213933158312 0.00025768834713743192 0 0.031972592379669956 0.00016444796497765534 0 0.033294693654422385 0.00038415565491248336 0 0.032994858136495948 0.00051570697686540974 0 0.032393005454499982 -4.7745913230022656e-07 0 0.032108600250288125 7.3699074520634143e-05 0 0.032111588370971896 0.00036274596327280195 0 0.032393005454499982 -4.7745913230022656e-07 0 0.032108600250288125 7.3699074520634143e-05 0 0.032186686169641585 -0.00023017641674087099 0 0.032387637519899801 -0.00021620515880144909 0 0.032393005454499982 -4.7745913230022656e-07 0 0.032186686169641585 -0.00023017641674087099 0 0.032186686169641585 -0.00023017641674087099 0 0.031968055303625786 -0.00041800453782418084 0 0.031473341889876133 -4.4400205026958784e-05 0 0.032108600250288125 7.3699074520634143e-05 0 0.032186686169641585 -0.00023017641674087099 0 0.031473341889876133 -4.4400205026958784e-05 0 0.032108600250288125 7.3699074520634143e-05 0 0.031473341889876133 -4.4400205026958784e-05 0 0.031558939643504522 0.00089324416675774646 0 0.031473341889876133 -4.4400205026958784e-05 0 0.028538066434582555 2.4348299123770672e-07 0 0.031558939643504522 0.00089324416675774646 0 0.028519541343421186 -6.9432563803337617e-07 0 0.027220896321618965 -0.00039106514971710857 0 0.031968055303625786 -0.00041800453782418084 0 0.031473341889876133 -4.4400205026958784e-05 0 0.028538066434582555 2.4348299123770672e-07 0 0.031968055303625786 -0.00041800453782418084 0 0.028538066434582555 2.4348299123770672e-07 0 0.032637175335987756 -8.7794413176417236e-07 0 0.031968055303625786 -0.00041800453782418084 0 0.032637175335987756 -8.7794413176417236e-07 0 0.032201534687821838 -0.00023806859285738623 0 0.032658259142735083 1.935781159329623e-06 0 0.037104804927980593 -0.0009420681730700121 0 0.037157022834494992 -3.2823372385707296e-06 0 0.032653457436283971 -7.2190972667298001e-07 0 0.033552222556265859 -0.00036164652967452806 0 0.032529384713465122 -0.00016269596214992565 0 0.031968055303625786 -0.00041800453782418084 0 0.032201534687821838 -0.00023806859285738623 0 0.032529384713465122 -0.00016269596214992565 0 0.032186686169641585 -0.00023017641674087099 0 0.031968055303625786 -0.00041800453782418084 0 0.033275485576591671 2.0622169697349316e-05 0 0.033552222556265859 -0.00036164652967452806 0 0.032843145156589551 1.2447323274865575e-06 0 0.032529384713465122 -0.00016269596214992565 0 0.032201534687821838 -0.00023806859285738623 0 0.036418690388786118 0.0012091669537666351 0 0.03335243454439768 0.00030538694602964562 0 0.037104804927980593 -0.0009420681730700121 0 0.036418690388786118 0.0012091669537666351 0 0.037104804927980593 -0.0009420681730700121 0 0.038135570834421595 -0.0002486988023952595 0 0.041658312187647303 4.2272098246558449e-06 0 0.038135570834421595 -0.0002486988023952595 0 0.037157022834494992 -3.2823372385707296e-06 0 0.037104804927980593 -0.0009420681730700121 0 0.038135570834421595 -0.0002486988023952595 0 0.037157022834494992 -3.2823372385707296e-06 0 0.017188007511312855 -0.00030025402549156656 0 0.014930627066017518 2.1629323672947661e-06 0 0.018608251754560285 0.0019390321125793868 0 0.014917838761184668 5.7477701516967768e-07 0 0.014141872309625136 0.00027382714661940388 0 0.017188007511312855 -0.00030025402549156656 0 0.02037268748829367 0.001932402776680391 0 0.018608251754560285 0.0019390321125793868 0 0.020545673606524355 0.0010230633810176296 0 0.020972028008800929 0.0010905904953339069 0 0.02037268748829367 0.001932402776680391 0 0.020545673606524355 0.0010230633810176296 0 0.020972028008800929 0.0010905904953339069 0 0.021107700317964398 0.00046615835842682483 0 0.019428575839805565 0.00048292402201092669 0 0.019894521375734293 0.0010762870405227601 0 0.020545673606524355 0.0010230633810176296 0 0.021107700317964398 0.00046615835842682483 0 0.021241433118113797 -0.00022900188826792785 0 0.021107700317964398 0.00046615835842682483 0 0.021241433118113797 -0.00022900188826792785 0 0.021521127617511494 -0.00022819218457854011 0 0.020545673606524355 0.0010230633810176296 0 0.019214005572175435 1.6146646879566872e-06 0 0.021241433118113797 -0.00022900188826792785 0 0.019428575839805565 0.00048292402201092669 0 0.019205260722284779 2.8314398419048032e-07 0 0.017188007511312855 -0.00030025402549156656 0 0.014930627066017518 2.1629323672947661e-06 0 0.019195681395038477 -2.3023425608453598e-06 0 0.023861894439924241 -2.2485553524208278e-06 0 0.02243453386703162 0.00022677848624611609 0 0.021241433118113797 -0.00022900188826792785 0 0.019214005572175435 1.6146646879566872e-06 0 0.023861894439924241 -2.2485553524208278e-06 0 0.021241433118113797 -0.00022900188826792785 0 0.028516663361640288 2.9574047489758592e-06 0 0.023861894439924241 -2.2485553524208278e-06 0 0.02243453386703162 0.00022677848624611609 0 0.02243453386703162 0.00022677848624611609 0 0.021241433118113797 -0.00022900188826792785 0 0.021521127617511494 -0.00022819218457854011 0 0.027220896321618965 -0.00039106514971710857 0 0.026994573933554384 -0.00024502201747690232 0 0.032247612982002544 -1.2132655583697385e-05 0 0.032111588370971896 0.00036274596327280195 0 0.03201970357956619 -4.989627090065246e-05 0 0.031558939643504522 0.00089324416675774646 0 0.032247612982002544 -1.2132655583697385e-05 0 0.032111588370971896 0.00036274596327280195 0 0.032108600250288125 7.3699074520634143e-05 0 0.031558939643504522 0.00089324416675774646 0 0.032111588370971896 0.00036274596327280195 0 0.032111588370971896 0.00036274596327280195 0 0.031972592379669956 0.00016444796497765534 0 0.03201970357956619 -4.989627090065246e-05 0 0.032247612982002544 -1.2132655583697385e-05 0 0.03201970357956619 -4.989627090065246e-05 0 0.032022780296775098 -0.00094567018105233764 0 0.026994573933554384 -0.00024502201747690232 0 0.027003889269027782 -2.5692579100546776e-05 0 0.021107700317964398 0.00046615835842682483 0 0.021521127617511494 -0.00022819218457854011 0 0.021548879081258167 0.00063573167859121366 0 0.021521127617511494 -0.00022819218457854011 0 0.02267572943148578 0.00050248385590135475 0 0.021548879081258167 0.00063573167859121366 0 0.020972028008800929 0.0010905904953339069 0 0.021107700317964398 0.00046615835842682483 0 0.021548879081258167 0.00063573167859121366 0 0.020972028008800929 0.0010905904953339069 0 0.021548879081258167 0.00063573167859121366 0 0.022027466323059006 0.0015721237923270218 0 0.020972028008800929 0.0010905904953339069 0 0.022027466323059006 0.0015721237923270218 0 0.02037268748829367 0.001932402776680391 0 0.02267572943148578 0.00050248385590135475 0 0.021548879081258167 0.00063573167859121366 0 0.022027466323059006 0.0015721237923270218 0 0.02267572943148578 0.00050248385590135475 0 0.022027466323059006 0.0015721237923270218 0 0.024002652669201773 0.0016882376982758308 0 0.032022780296775098 -0.00094567018105233764 0 0.031721491224749335 -0.0015239891862501693 0 0.03163697555785322 -0.0011636910461732246 0 0.027003889269027782 -2.5692579100546776e-05 0 0.026577077428201444 6.9821484823909732e-05 0 0.031721491224749335 -0.0015239891862501693 0 0.03163697555785322 -0.0011636910461732246 0 0.0315397276032824 -0.0015126957548911271 0 0.032022780296775098 -0.00094567018105233764 0 0.03163697555785322 -0.0011636910461732246 0 0.031707460174401333 -0.00057520132651528119 0 0.03221179439366087 -0.0016832243711397256 0 0.032171522873672531 -0.0019832799217553714 0 0.03201970357956619 -4.989627090065246e-05 0 0.032022780296775098 -0.00094567018105233764 0 0.031707460174401333 -0.00057520132651528119 0 0.031972592379669956 0.00016444796497765534 0 0.03201970357956619 -4.989627090065246e-05 0 0.031847137777525923 -9.4522013362845214e-06 0 0.031876232826286544 0.00019490256169639523 0 0.031972592379669956 0.00016444796497765534 0 0.031847137777525923 -9.4522013362845214e-06 0 0.031876232826286544 0.00019490256169639523 0 0.031847137777525923 -9.4522013362845214e-06 0 0.031766365086654369 9.4352065119096836e-05 0 0.032171522873672531 -0.0019832799217553714 0 0.032268209415122616 -0.0029156421930367298 0 0.031847137777525923 -9.4522013362845214e-06 0 0.031766365086654369 9.4352065119096836e-05 0 0.031713223887587697 -2.6700559363587088e-05 0 0.03163697555785322 -0.0011636910461732246 0 0.031707460174401333 -0.00057520132651528119 0 0.031546979645432932 -0.00094515359869926411 0 0.031713223887587697 -2.6700559363587088e-05 0 0.031633180733606457 1.4229911280078031e-05 0 0.031557752112294085 -4.6651153525592512e-05 0 0.031546979645432932 -0.00094515359869926411 0 0.031059244993815655 -0.0010234078726578573 0 0.031490014958606205 -0.0014988092029981734 0 0.032268209415122616 -0.0029156421930367298 0 0.033395267976609751 -0.0048264743984751989 0 0.031766365086654369 9.4352065119096836e-05 0 0.031713223887587697 -2.6700559363587088e-05 0 0.031633180733606457 1.4229911280078031e-05 0 0.031766365086654369 9.4352065119096836e-05 0 0.031633180733606457 1.4229911280078031e-05 0 0.031654914997911072 0.00012793569227620552 0 0.040474353031709563 -0.010859379281156781 0 0.038849766553512112 -0.011213272935262711 0 0.038981434502881301 -0.01325851942670599 0 0.031633180733606457 1.4229911280078031e-05 0 0.031654914997911072 0.00012793569227620552 0 0.031557752112294085 -4.6651153525592512e-05 0 0.035224791810779497 -0.0047186246098882027 0 0.033395267976609751 -0.0048264743984751989 0 0.038849766553512112 -0.011213272935262711 0 0.038981434502881301 -0.01325851942670599 0 0.037106214918444708 -0.010942473392422467 0 0.03499364885930098 -0.0089077084343462641 0 0.034985895405761844 -0.0089254778136548182 0 0.034858689258528447 -0.008835461698348604 0 0.031473781528435441 -0.0013195493428128974 0 0.031443327686050036 -0.0013236245426559534 0 0.031452589567375004 -0.00149094056589771 0 0.033395267976609751 -0.0048264743984751989 0 0.033131935823469225 -0.0050968473893928459 0 0.031443327686050036 -0.0013236245426559534 0 0.031452589567375004 -0.00149094056589771 0 0.030926704775822968 -0.0020325861490401559 0 0.033395267976609751 -0.0048264743984751989 0 0.032217420496682414 -0.0031981803560209771 0 0.031473781528435441 -0.0013195493428128974 0 0.031452589567375004 -0.00149094056589771 0 0.031490014958606205 -0.0014988092029981734 0 0.03147433392827715 -0.0017291067787143181 0 0.031592023002759373 -0.0019524210284892827 0 0.030926704775822968 -0.0020325861490401559 0 0.031452589567375004 -0.00149094056589771 0 0.03147433392827715 -0.0017291067787143181 0 0.030926704775822968 -0.0020325861490401559 0 0.031490014958606205 -0.0014988092029981734 0 0.031502385062538198 -0.0016600229734199969 0 0.031592023002759373 -0.0019524210284892827 0 0.03147433392827715 -0.0017291067787143181 0 0.031490014958606205 -0.0014988092029981734 0 0.031592023002759373 -0.0019524210284892827 0 0.031452589567375004 -0.00149094056589771 0 0.03147433392827715 -0.0017291067787143181 0 0.031490014958606205 -0.0014988092029981734 0 0.03163697555785322 -0.0011636910461732246 0 0.031546979645432932 -0.00094515359869926411 0 0.031490014958606205 -0.0014988092029981734 0 0.03163697555785322 -0.0011636910461732246 0 0.031490014958606205 -0.0014988092029981734 0 0.0315397276032824 -0.0015126957548911271 0 0.031490014958606205 -0.0014988092029981734 0 0.031502385062538198 -0.0016600229734199969 0 0.0315397276032824 -0.0015126957548911271 0 0.031502385062538198 -0.0016600229734199969 0 0.0315397276032824 -0.0015126957548911271 0 0.031487504936654122 -0.0015770972430671037 0 0.027638631369890716 -0.0035752482766500796 0 0.026788682283876274 -0.0033588679900287159 0 0.031592023002759373 -0.0019524210284892827 0 0.032358207760062194 -0.0031088426144964356 0 0.03120043205058904 -0.0032009148478061122 0 0.031502385062538198 -0.0016600229734199969 0 0.031592023002759373 -0.0019524210284892827 0 0.031487504936654122 -0.0015770972430671037 0 0.031414726275458597 -0.003722376248989856 0 0.03195485857561866 -0.0040154337071964617 0 0.030987248110314801 -0.0040447137426007744 0 0.031414726275458597 -0.003722376248989856 0 0.032358207760062194 -0.0031088426144964356 0 0.03195485857561866 -0.0040154337071964617 0 0.031414726275458597 -0.003722376248989856 0 0.032358207760062194 -0.0031088426144964356 0 0.03120043205058904 -0.0032009148478061122 0 0.0315397276032824 -0.0015126957548911271 0 0.031487504936654122 -0.0015770972430671037 0 0.031522832315697052 -0.0016802840510679107 0 0.032358207760062194 -0.0031088426144964356 0 0.032939036436762506 -0.0039514657325096661 0 0.03195485857561866 -0.0040154337071964617 0 0.026788682283876274 -0.0033588679900287159 0 0.023346359264721984 -0.001716023460673076 0 0.023346359264721984 -0.001716023460673076 0 0.021328803410105367 -0.0044812315055038207 0 0.016653271189659861 0.00093785860212775864 0 0.012986191406423308 -0.0024150387417624171 0 0.016259896240674789 -0.002440871037116803 0 0.03195485857561866 -0.0040154337071964617 0 0.031811797518843325 -0.005056688731402797 0 0.030987248110314801 -0.0040447137426007744 0 0.032939036436762506 -0.0039514657325096661 0 0.03195485857561866 -0.0040154337071964617 0 0.031811797518843325 -0.005056688731402797 0 0.012986191406423308 -0.0024150387417624171 0 0.012232854350974605 -0.0053515564246747098 0 0.015186850830293036 -0.0055401192539493264 0 0.010887364672103593 -0.0080010451289037332 0 0.012232854350974605 -0.0053515564246747098 0 0.015186850830293036 -0.0055401192539493264 0 0.0032703944940368121 -0.0046016684808932269 0 0.0091833779710630854 -0.0023579196755576619 0 0.003235342263351051 -0.00055538766529930129 0 0.0033139261269895673 -0.00055028315698458011 0 0.0033591118289131314 2.1151341598319677e-05 0 0.0037650799793459214 -0.00039497926930854611 0 0.0033591118289131314 2.1151341598319677e-05 0 0.004439398818111253 3.0862224778109751e-05 0 0.0033139261269895673 -0.00055028315698458011 0 0.0037650799793459214 -0.00039497926930854611 0 0.0033591118289131314 2.1151341598319677e-05 0 0.015186850830293036 -0.0055401192539493264 0 0.016259896240674789 -0.002440871037116803 0 0.019458670128963473 -0.0030920276128290681 0 0.012986191406423308 -0.0024150387417624171 0 0.015186850830293036 -0.0055401192539493264 0 0.016259896240674789 -0.002440871037116803 0 0.0091833779710630854 -0.0023579196755576619 0 0.014756193463236733 -3.1053799683937214e-06 0 0.0033591118289131314 2.1151341598319677e-05 0 0.0047258153113763522 0.0010782481792721568 0 0.004439398818111253 3.0862224778109751e-05 0 0.0047258153113763522 0.0010782481792721568 0 0.004439398818111253 3.0862224778109751e-05 0 0.0055633265510623758 6.4053705360811214e-05 0 0.0051211382156930562 -0.0009150305888260766 0 0.004439398818111253 3.0862224778109751e-05 0 0.0055633265510623758 6.4053705360811214e-05 0 0.014756193463236733 -3.1053799683937214e-06 0 0.014763564091794527 0.00076689719814764586 0 0.005535709308891878 0.00028269870475206179 0 0.0061904859952039001 0.00038387372105465946 0 0.006114170836593236 0.00014996103008045134 0 0.005535709308891878 0.00028269870475206179 0 0.0055633265510623758 6.4053705360811214e-05 0 0.006114170836593236 0.00014996103008045134 0 0.014756193463236733 -3.1053799683937214e-06 0 0.012927608549543437 0.0011585807555832769 0 0.024208128568126701 0.0041992920781475087 0 0.023951991546519169 0.003010363875716628 0 0.022960957278383425 0.0035022349697950038 0 0.023951991546519169 0.003010363875716628 0 0.022964692612884995 0.0025764651295183401 0 0.022960957278383425 0.0035022349697950038 0 0.023346359264721984 -0.001716023460673076 0 0.014756193463236733 -3.1053799683937214e-06 0 0.016653271189659861 0.00093785860212775864 0 0.016259896240674789 -0.002440871037116803 0 0.019458670128963473 -0.0030920276128290681 0 0.025193217060080271 0.0028211306999963914 0 0.024208128568126701 0.0041992920781475087 0 0.023951991546519169 0.003010363875716628 0 0.031721491224749335 -0.0015239891862501693 0 0.0315397276032824 -0.0015126957548911271 0 0.031522832315697052 -0.0016802840510679107 0 0.026577077428201444 6.9821484823909732e-05 0 0.023346359264721984 -0.001716023460673076 0 0.024002652669201773 0.0016882376982758308 0 0.025193217060080271 0.0028211306999963914 0 0.023951991546519169 0.003010363875716628 0 0.024002652669201773 0.0016882376982758308 0 0.023951991546519169 0.003010363875716628 0 0.022964692612884995 0.0025764651295183401 0 0.022027466323059006 0.0015721237923270218 0 0.024002652669201773 0.0016882376982758308 0 0.022964692612884995 0.0025764651295183401 0 0.022027466323059006 0.0015721237923270218 0 0.022964692612884995 0.0025764651295183401 0 0.021719342154621648 0.0029830466564007554 0 0.022027466323059006 0.0015721237923270218 0 0.021719342154621648 0.0029830466564007554 0 0.02037268748829367 0.001932402776680391 0 0.0068293780774802146 0.00021676262838521665 0 0.0066721955622947166 4.6401985610013436e-05 0 0.0069906845315902523 -0.0004474503786187214 0 0.014386786482294328 0.00071253278264735783 0 0.014763564091794527 0.00076689719814764586 0 0.022964692612884995 0.0025764651295183401 0 0.021719342154621648 0.0029830466564007554 0 0.022960957278383425 0.0035022349697950038 0 0.0068293780774802146 0.00021676262838521665 0 0.0061904859952039001 0.00038387372105465946 0 0.0066721955622947166 4.6401985610013436e-05 0 0.0061904859952039001 0.00038387372105465946 0 0.006114170836593236 0.00014996103008045134 0 0.0066721955622947166 4.6401985610013436e-05 0 0.0064442879931181684 -0.000242480385828122 0 0.0055633265510623758 6.4053705360811214e-05 0 0.006114170836593236 0.00014996103008045134 0 0.0064442879931181684 -0.000242480385828122 0 0.006114170836593236 0.00014996103008045134 0 0.0066721955622947166 4.6401985610013436e-05 0 0.0019171725375975691 -0.00056313944112843396 0 0.0017882628411869962 -0.00032989081880110944 0 0.0064442879931181684 -0.000242480385828122 0 0.0066721955622947166 4.6401985610013436e-05 0 0.0065877742964952791 0.00048220234458718218 0 0.0066721955622947166 4.6401985610013436e-05 0 0.0065877742964952791 0.00048220234458718218 0 0.0069906845315902523 -0.0004474503786187214 0 0.0065877742964952791 0.00048220234458718218 0 0.0032097260562294447 8.8725386008204664e-05 0 0.0069906845315902523 -0.0004474503786187214 0 -0.0031971375567936564 -2.6020090805088289e-06 0 -0.0007923301761756864 -0.00035514762233878738 0 0.0028428802753485759 2.7249272808597285e-06 0 -0.0034065394108143228 0.00011797870165209228 0 -0.0007923301761756864 -0.00035514762233878738 0 0.0032097260562294447 8.8725386008204664e-05 0 0.0017882628411869962 -0.00032989081880110944 0 0.0019521823812378568 -0.00023147713522963389 0 -0.0007923301761756864 -0.00035514762233878738 0 0.0032097260562294447 8.8725386008204664e-05 0 0.0028428802753485759 2.7249272808597285e-06 0 0.0032097260562294447 8.8725386008204664e-05 0 0.0028428802753485759 2.7249272808597285e-06 0 0.0088824299031109548 -3.5449396955423762e-06 0 0.0032097260562294447 8.8725386008204664e-05 0 0.0088824299031109548 -3.5449396955423762e-06 0 0.0069906845315902523 -0.0004474503786187214 0 0.0088824299031109548 -3.5449396955423762e-06 0 0.0069906845315902523 -0.0004474503786187214 0 0.0087937865834888645 0.00047436249734932588 0 0.0068293780774802146 0.00021676262838521665 0 0.0069906845315902523 -0.0004474503786187214 0 0.0087937865834888645 0.00047436249734932588 0 0.021719342154621648 0.0029830466564007554 0 0.02037268748829367 0.001932402776680391 0 0.018608251754560285 0.0019390321125793868 0 0.014386786482294328 0.00071253278264735783 0 0.014141872309625136 0.00027382714661940388 0 0.014910550991429102 5.1268843754854614e-06 0 0.0088824299031109548 -3.5449396955423762e-06 0 0.0087937865834888645 0.00047436249734932588 0 0.028246143435303163 -0.018767912267003393 0 0.030890069530404834 -0.019357420275962153 0 0.030979245495022453 -0.01577124976066949 0 0.028246143435303163 -0.018767912267003393 0 0.026580367865983515 -0.015796626523494988 0 0.030979245495022453 -0.01577124976066949 0 0.030890069530404834 -0.019357420275962153 0 0.030979245495022453 -0.01577124976066949 0 0.033619083186493717 -0.019534391474331975 0 0.031490081916745266 -0.012510751666701776 0 0.031618294470749646 -0.014285687011488536 0 0.030890069530404834 -0.019357420275962153 0 0.033619083186493717 -0.019534391474331975 0 0.032210798165916786 -0.022237195494668956 0 0.030890069530404834 -0.019357420275962153 0 0.029849632583702091 -0.020446209262058309 0 0.032210798165916786 -0.022237195494668956 0 0.029849632583702091 -0.020446209262058309 0 0.028023175540804936 -0.0213721198230922 0 0.032210798165916786 -0.022237195494668956 0 0.028246143435303163 -0.018767912267003393 0 0.030890069530404834 -0.019357420275962153 0 0.029849632583702091 -0.020446209262058309 0 0.028246143435303163 -0.018767912267003393 0 0.029849632583702091 -0.020446209262058309 0 0.028023175540804936 -0.0213721198230922 0 0.027363834080563774 -0.019554924001575814 0 0.02584532528143918 -0.01954393563209128 0 0.028246143435303163 -0.018767912267003393 0 0.028023175540804936 -0.0213721198230922 0 0.023380739505511193 -0.020244571012216914 0 0.023380739505511193 -0.020244571012216914 0 0.026580367865983515 -0.015796626523494988 0 0.022461180083121209 -0.015793261722078178 0 0.028246143435303163 -0.018767912267003393 0 0.023380739505511193 -0.020244571012216914 0 0.026580367865983515 -0.015796626523494988 0 0.026580367865983515 -0.015796626523494988 0 0.025314441248580313 -0.012584650519470504 0 0.028486995786429069 -0.0120681340102263 0 0.026580367865983515 -0.015796626523494988 0 0.022461180083121209 -0.015793261722078178 0 0.025314441248580313 -0.012584650519470504 0 0.026432060508205266 -0.0086312304242940358 0 0.025314441248580313 -0.012584650519470504 0 0.021903676918915781 -0.01165602765993813 0 0.022461180083121209 -0.015793261722078178 0 0.025314441248580313 -0.012584650519470504 0 0.021903676918915781 -0.01165602765993813 0 0.026432060508205266 -0.0086312304242940358 0 0.025314441248580313 -0.012584650519470504 0 0.028486995786429069 -0.0120681340102263 0 0.03345442317537415 -0.0087456031501247766 0 0.033510736214222347 -0.0096173650124343601 0 0.034360332054343676 -0.0091731953846641134 0 0.033510736214222347 -0.0096173650124343601 0 0.03484040501442727 -0.0089900410600677032 0 0.034360332054343676 -0.0091731953846641134 0 0.030192756327240246 -0.010442953435772138 0 0.031490081916745266 -0.012510751666701776 0 0.026580367865983515 -0.015796626523494988 0 0.028486995786429069 -0.0120681340102263 0 0.030979245495022453 -0.01577124976066949 0 0.03484040501442727 -0.0089900410600677032 0 0.034360332054343676 -0.0091731953846641134 0 0.034462168663915022 -0.0089924492950345606 0 0.034360332054343676 -0.0091731953846641134 0 0.034678362460724164 -0.0087884976862225798 0 0.034462168663915022 -0.0089924492950345606 0 0.034678362460724164 -0.0087884976862225798 0 0.034462168663915022 -0.0089924492950345606 0 0.034589504164557645 -0.0087725826550528602 0 0.033906955576140485 -0.0088500713221493776 0 0.034462168663915022 -0.0089924492950345606 0 0.034589504164557645 -0.0087725826550528602 0 0.033906955576140485 -0.0088500713221493776 0 0.034462168663915022 -0.0089924492950345606 0 0.034323220964997396 -0.0081245002373089743 0 0.03484040501442727 -0.0089900410600677032 0 0.034462168663915022 -0.0089924492950345606 0 0.034323220964997396 -0.0081245002373089743 0 0.033395267976609751 -0.0048264743984751989 0 0.035768865097827833 -0.0085719533118103833 0 0.03499364885930098 -0.0089077084343462641 0 0.034860689909924511 -0.0086778373652746411 0 0.034858689258528447 -0.008835461698348604 0 0.034860689909924511 -0.0086778373652746411 0 0.034589504164557645 -0.0087725826550528602 0 0.034858689258528447 -0.008835461698348604 0 0.034589504164557645 -0.0087725826550528602 0 0.034698891984263604 -0.0089634542386598376 0 0.034858689258528447 -0.008835461698348604 0 0.033906955576140485 -0.0088500713221493776 0 0.034589504164557645 -0.0087725826550528602 0 0.034698891984263604 -0.0089634542386598376 0 0.033024523671620377 -0.0070524468291343302 0 0.032728809018667947 -0.0066620870296221751 0 0.033131935823469225 -0.0050968473893928459 0 0.032728809018667947 -0.0066620870296221751 0 0.034985895405761844 -0.0089254778136548182 0 0.034698891984263604 -0.0089634542386598376 0 0.034858689258528447 -0.008835461698348604 0 0.027708220231982425 -0.0098577740557781682 0 0.03066487772050943 -0.0094985589334630645 0 0.029374103074110917 -0.0070564718401111906 0 0.033131935823469225 -0.0050968473893928459 0 0.031787946798739738 -0.0050614316284926303 0 0.033906955576140485 -0.0088500713221493776 0 0.03066487772050943 -0.0094985589334630645 0 0.032205809775338795 -0.0077537301136318066 0 0.029374103074110917 -0.0070564718401111906 0 0.032205809775338795 -0.0077537301136318066 0 0.031131074629784369 -0.00621401644176337 0 0.03066487772050943 -0.0094985589334630645 0 0.029374103074110917 -0.0070564718401111906 0 0.032205809775338795 -0.0077537301136318066 0 0.029374103074110917 -0.0070564718401111906 0 0.031131074629784369 -0.00621401644176337 0 0.030877274053989184 -0.0040408331352127192 0 0.032205809775338795 -0.0077537301136318066 0 0.031131074629784369 -0.00621401644176337 0 0.032922539044992379 -0.0064730761698767129 0 0.031636359639152997 -0.0051710520160051779 0 0.031131074629784369 -0.00621401644176337 0 0.032922539044992379 -0.0064730761698767129 0 0.031636359639152997 -0.0051710520160051779 0 0.031131074629784369 -0.00621401644176337 0 0.030877274053989184 -0.0040408331352127192 0 0.031787946798739738 -0.0050614316284926303 0 0.031669010939746806 -0.0046733452588358648 0 0.031592023002759373 -0.0019524210284892827 0 0.030926704775822968 -0.0020325861490401559 0 0.03120043205058904 -0.0032009148478061122 0 0.030926704775822968 -0.0020325861490401559 0 0.03120043205058904 -0.0032009148478061122 0 0.030877274053989184 -0.0040408331352127192 0 0.03484040501442727 -0.0089900410600677032 0 0.034323220964997396 -0.0081245002373089743 0 0.035086505177271118 -0.0070632303798373241 0 0.033906955576140485 -0.0088500713221493776 0 0.032205809775338795 -0.0077537301136318066 0 0.034323220964997396 -0.0081245002373089743 0 0.032205809775338795 -0.0077537301136318066 0 0.034323220964997396 -0.0081245002373089743 0 0.032922539044992379 -0.0064730761698767129 0 0.032922539044992379 -0.0064730761698767129 0 0.035086505177271118 -0.0070632303798373241 0 0.033582705317580994 -0.0039454590085384765 0 0.031636359639152997 -0.0051710520160051779 0 0.032922539044992379 -0.0064730761698767129 0 0.03234100845780509 -0.0048543074432347462 0 0.031618294470749646 -0.014285687011488536 0 0.029494811011791099 -0.015907652743405457 0 0.034323220964997396 -0.0081245002373089743 0 0.032922539044992379 -0.0064730761698767129 0 0.035086505177271118 -0.0070632303798373241 0 0.029494811011791099 -0.015907652743405457 0 0.029472702862562625 -0.018780247942832156 0 0.028011554085395102 -0.021617399585160169 0 0.027489664801387991 -0.021906682739289942 0 0.027175312511658216 -0.02141530917747653 0 0.033619083186493717 -0.019534391474331975 0 0.036215147834202585 -0.023172425135891989 0 0.032210798165916786 -0.022237195494668956 0 0.029494811011791099 -0.015907652743405457 0 0.029439533265917688 -0.013877851577785059 0 0.032922539044992379 -0.0064730761698767129 0 0.03234100845780509 -0.0048543074432347462 0 0.033582705317580994 -0.0039454590085384765 0 0.03234100845780509 -0.0048543074432347462 0 0.033582705317580994 -0.0039454590085384765 0 0.03141147908784632 -0.0039414578304845967 0 0.02880696014455186 -0.014716078074457049 0 0.028448646109574913 -0.014218338805995885 0 0.027953930789006771 -0.014504787216654876 0 0.028011554085395102 -0.021617399585160169 0 0.028321301377925254 -0.022039373206154188 0 0.027489664801387991 -0.021906682739289942 0 0.027558628695522572 -0.015517340285587815 0 0.026375075414886033 -0.019097395332559778 0 0.02739852266534035 -0.022418735283730035 0 0.026991064043514795 -0.022678662078787 0 0.027311671023223013 -0.022755584487111517 0 0.029494811011791099 -0.015907652743405457 0 0.027558628695522572 -0.015517340285587815 0 0.028321301377925254 -0.022039373206154188 0 0.027489664801387991 -0.021906682739289942 0 0.027657188492715569 -0.022444713133919915 0 0.027489664801387991 -0.021906682739289942 0 0.027657188492715569 -0.022444713133919915 0 0.02711709570289755 -0.022291453568380304 0 0.03120043205058904 -0.0032009148478061122 0 0.030927546387664668 -0.0037358229404892934 0 0.030877274053989184 -0.0040408331352127192 0 0.031414726275458597 -0.003722376248989856 0 0.030927546387664668 -0.0037358229404892934 0 0.030987248110314801 -0.0040447137426007744 0 0.031414726275458597 -0.003722376248989856 0 0.03120043205058904 -0.0032009148478061122 0 0.030927546387664668 -0.0037358229404892934 0 0.030927546387664668 -0.0037358229404892934 0 0.030948234410402328 -0.0036019516586534199 0 0.030987248110314801 -0.0040447137426007744 0 0.033582705317580994 -0.0039454590085384765 0 0.031130078930883331 -0.003367567304599587 0 0.03141147908784632 -0.0039414578304845967 0 0.030927546387664668 -0.0037358229404892934 0 0.030895884643012187 -0.0037867852267221449 0 0.030948234410402328 -0.0036019516586534199 0 0.030895884643012187 -0.0037867852267221449 0 0.030948234410402328 -0.0036019516586534199 0 0.03141147908784632 -0.0039414578304845967 0 0.030948234410402328 -0.0036019516586534199 0 0.031130078930883331 -0.003367567304599587 0 0.03141147908784632 -0.0039414578304845967 0 0.02948226387236105 -0.013831900377312478 0 0.029439533265917688 -0.013877851577785059 0 0.030927546387664668 -0.0037358229404892934 0 0.030895884643012187 -0.0037867852267221449 0 0.030877274053989184 -0.0040408331352127192 0 0.030895884643012187 -0.0037867852267221449 0 0.030877274053989184 -0.0040408331352127192 0 0.03141147908784632 -0.0039414578304845967 0 0.031636359639152997 -0.0051710520160051779 0 0.030877274053989184 -0.0040408331352127192 0 0.03141147908784632 -0.0039414578304845967 0 0.031636359639152997 -0.0051710520160051779 0 0.03234100845780509 -0.0048543074432347462 0 0.03141147908784632 -0.0039414578304845967 0 0.030948234410402328 -0.0036019516586534199 0 0.030936231701183821 -0.0035803948091226788 0 0.030987248110314801 -0.0040447137426007744 0 0.027558628695522572 -0.015517340285587815 0 0.029439533265917688 -0.013877851577785059 0 0.028926513896526652 -0.0042667035116293614 0 0.029783940402482983 -0.0037607188048387591 0 0.029707365617497327 -0.0043199106244519066 0 0.028926513896526652 -0.0042667035116293614 0 0.029707365617497327 -0.0043199106244519066 0 0.029926092755369567 -0.0048745530490524455 0 0.028926513896526652 -0.0042667035116293614 0 0.029926092755369567 -0.0048745530490524455 0 0.029726025545689729 -0.0053668926619876512 0 0.027558628695522572 -0.015517340285587815 0 0.021865030317378364 -0.014032556336753406 0 0.029707365617497327 -0.0043199106244519066 0 0.029926092755369567 -0.0048745530490524455 0 0.030193060440675525 -0.0043746597838417748 0 0.029783940402482983 -0.0037607188048387591 0 0.029707365617497327 -0.0043199106244519066 0 0.030193060440675525 -0.0043746597838417748 0 0.031811797518843325 -0.005056688731402797 0 0.030740565121166432 -0.0047568728405577194 0 0.030987248110314801 -0.0040447137426007744 0 0.029783940402482983 -0.0037607188048387591 0 0.030193060440675525 -0.0043746597838417748 0 0.030987248110314801 -0.0040447137426007744 0 0.029439533265917688 -0.013877851577785059 0 0.029392692733964644 -0.012798442022398958 0 0.030193060440675525 -0.0043746597838417748 0 0.030740565121166432 -0.0047568728405577194 0 0.030987248110314801 -0.0040447137426007744 0 0.029926092755369567 -0.0048745530490524455 0 0.030193060440675525 -0.0043746597838417748 0 0.030740565121166432 -0.0047568728405577194 0 0.021328803410105367 -0.0044812315055038207 0 0.015591012472371161 -0.010505036138570435 0 0.031811797518843325 -0.005056688731402797 0 0.030689421193955183 -0.0054067194382556583 0 0.030491752788682283 -0.0063357429642243992 0 0.031811797518843325 -0.005056688731402797 0 0.030740565121166432 -0.0047568728405577194 0 0.030689421193955183 -0.0054067194382556583 0 0.012986191406423308 -0.0024150387417624171 0 0.012232854350974605 -0.0053515564246747098 0 0.0092992354911299174 -0.0057923523907434226 0 0.029926092755369567 -0.0048745530490524455 0 0.030740565121166432 -0.0047568728405577194 0 0.030689421193955183 -0.0054067194382556583 0 0.030689421193955183 -0.0054067194382556583 0 0.029744739250567115 -0.00530970291942568 0 0.030491752788682283 -0.0063357429642243992 0 0.021865030317378364 -0.014032556336753406 0 0.01904974249803866 -0.01658555584349497 0 0.027643548003023585 -0.022766435847139364 0 0.027476423625001908 -0.023183704670038538 0 0.027311671023223013 -0.022755584487111517 0 0.021865030317378364 -0.014032556336753406 0 0.015591012472371161 -0.010505036138570435 0 0.029926092755369567 -0.0048745530490524455 0 0.030689421193955183 -0.0054067194382556583 0 0.029744739250567115 -0.00530970291942568 0 0.022267070560129762 -0.013249591393738025 0 0.021865030317378364 -0.014032556336753406 0 0.013876099144511603 -0.016782387710650108 0 0.015591012472371161 -0.010505036138570435 0 0.017202633044248454 -0.016818271663987368 0 0.017669193087135732 -0.014157271670621824 0 0.02049737330849832 -0.013787788729202128 0 0.01878229321932957 -0.011403952766045295 0 0.017669193087135732 -0.014157271670621824 0 0.02049737330849832 -0.013787788729202128 0 0.010887364672103593 -0.0080010451289037332 0 0.012232854350974605 -0.0053515564246747098 0 0.0092992354911299174 -0.0057923523907434226 0 0.011257106220813913 -0.011715164245338552 0 0.013529103317079362 -0.010849469894175687 0 0.011989993840743068 -0.0087275129181341917 0 0.0032703944940368121 -0.0046016684808932269 0 0.015591012472371161 -0.010505036138570435 0 0.026375075414886033 -0.019097395332559778 0 0.025997342240860699 -0.020707930683556364 0 0.026991064043514795 -0.022678662078787 0 0.026857762656663332 -0.023036603655891337 0 0.026600568214479613 -0.022936226567438652 0 0.026991064043514795 -0.022678662078787 0 0.027147149530650908 -0.023033932259867829 0 0.026857762656663332 -0.023036603655891337 0 0.026991064043514795 -0.022678662078787 0 0.027311671023223013 -0.022755584487111517 0 0.027147149530650908 -0.023033932259867829 0 0.027476423625001908 -0.023183704670038538 0 0.027311671023223013 -0.022755584487111517 0 0.027147149530650908 -0.023033932259867829 0 0.02739852266534035 -0.022418735283730035 0 0.027643548003023585 -0.022766435847139364 0 0.027311671023223013 -0.022755584487111517 0 0.027476423625001908 -0.023183704670038538 0 0.027147149530650908 -0.023033932259867829 0 0.027234314979855335 -0.023283233906600191 0 0.027309082976126615 -0.023589392091200263 0 0.027476423625001908 -0.023183704670038538 0 0.027234314979855335 -0.023283233906600191 0 0.027147149530650908 -0.023033932259867829 0 0.027234314979855335 -0.023283233906600191 0 0.026987040094284067 -0.023326604132822514 0 0.026987040094284067 -0.023326604132822514 0 0.026857762656663332 -0.023036603655891337 0 0.02651749199689309 -0.023334392226572964 0 0.027147149530650908 -0.023033932259867829 0 0.026987040094284067 -0.023326604132822514 0 0.026857762656663332 -0.023036603655891337 0 0.02651749199689309 -0.023334392226572964 0 0.026227615969512574 -0.02317376943310432 0 0.026600568214479613 -0.022936226567438652 0 0.026857762656663332 -0.023036603655891337 0 0.02651749199689309 -0.023334392226572964 0 0.026600568214479613 -0.022936226567438652 0 0.02604869587173464 -0.023456740013475537 0 0.02651749199689309 -0.023334392226572964 0 0.026227615969512574 -0.02317376943310432 0 0.025838649657400018 -0.021211091785200777 0 0.025997342240860699 -0.020707930683556364 0 0.026227615969512574 -0.02317376943310432 0 0.026932774061961349 -0.022834812297906661 0 0.025934553637751642 -0.022344803299687892 0 0.027657188492715569 -0.022444713133919915 0 0.026932774061961349 -0.022834812297906661 0 0.02711709570289755 -0.022291453568380304 0 0.026932774061961349 -0.022834812297906661 0 0.02711709570289755 -0.022291453568380304 0 0.026599649861152003 -0.021983025360245521 0 0.027489664801387991 -0.021906682739289942 0 0.02711709570289755 -0.022291453568380304 0 0.026599649861152003 -0.021983025360245521 0 0.026932774061961349 -0.022834812297906661 0 0.026599649861152003 -0.021983025360245521 0 0.025934553637751642 -0.022344803299687892 0 0.026599649861152003 -0.021983025360245521 0 0.026282351251454925 -0.021260150306310226 0 0.025934553637751642 -0.022344803299687892 0 0.027363834080563774 -0.019554924001575814 0 0.029472702862562625 -0.018780247942832156 0 0.025696831380534468 -0.022525438006652833 0 0.025154265730151854 -0.023798013585128803 0 0.02608372226703274 -0.021151711099922896 0 0.026282351251454925 -0.021260150306310226 0 0.027175312511658216 -0.02141530917747653 0 0.026599649861152003 -0.021983025360245521 0 0.026282351251454925 -0.021260150306310226 0 0.027175312511658216 -0.02141530917747653 0 0.027489664801387991 -0.021906682739289942 0 0.026599649861152003 -0.021983025360245521 0 0.027175312511658216 -0.02141530917747653 0 0.023380739505511193 -0.020244571012216914 0 0.024210636445675959 -0.022656768271901204 0 0.021173774362734283 -0.023420485573322585 0 0.02608372226703274 -0.021151711099922896 0 0.023380739505511193 -0.020244571012216914 0 0.024210636445675959 -0.022656768271901204 0 0.026282351251454925 -0.021260150306310226 0 0.024210636445675959 -0.022656768271901204 0 0.025170046434673247 -0.025069730678874306 0 0.02608372226703274 -0.021151711099922896 0 0.026282351251454925 -0.021260150306310226 0 0.024210636445675959 -0.022656768271901204 0 0.024210636445675959 -0.022656768271901204 0 0.025170046434673247 -0.025069730678874306 0 0.022646986548231128 -0.025072640705698854 0 0.024210636445675959 -0.022656768271901204 0 0.022646986548231128 -0.025072640705698854 0 0.021173774362734283 -0.023420485573322585 0 0.022646986548231128 -0.025072640705698854 0 0.020539534034648425 -0.026706191902243503 0 0.021173774362734283 -0.023420485573322585 0 0.022646986548231128 -0.025072640705698854 0 0.023398013846100879 -0.029182157836405195 0 0.020539534034648425 -0.026706191902243503 0 0.026227615969512574 -0.02317376943310432 0 0.025934553637751642 -0.022344803299687892 0 0.025648221268929672 -0.023258476311140724 0 0.025170046434673247 -0.025069730678874306 0 0.022646986548231128 -0.025072640705698854 0 0.023398013846100879 -0.029182157836405195 0 0.025154265730151854 -0.023798013585128803 0 0.023989384157084934 -0.026044580012072441 0 0.02604869587173464 -0.023456740013475537 0 0.026227615969512574 -0.02317376943310432 0 0.025648221268929672 -0.023258476311140724 0 0.023398013846100879 -0.029182157836405195 0 0.01982234850943039 -0.029206550344339669 0 0.020539534034648425 -0.026706191902243503 0 0.020371838399371917 -0.031207576446432149 0 0.023398013846100879 -0.029182157836405195 0 0.01982234850943039 -0.029206550344339669 0 0.01982234850943039 -0.029206550344339669 0 0.017789036947370915 -0.029553017483684003 0 0.018183375328679759 -0.027267299523740976 0 0.018554118618616749 -0.031250859510687123 0 0.01982234850943039 -0.029206550344339669 0 0.017789036947370915 -0.029553017483684003 0 0.015907897757568179 -0.031109998690192351 0 0.017789036947370915 -0.029553017483684003 0 0.016049245843821495 -0.028324128400960387 0 0.017789036947370915 -0.029553017483684003 0 0.018183375328679759 -0.027267299523740976 0 0.016049245843821495 -0.028324128400960387 0 0.018183375328679759 -0.027267299523740976 0 0.016659266804669164 -0.025993505897543723 0 0.016049245843821495 -0.028324128400960387 0 0.018183375328679759 -0.027267299523740976 0 0.016659266804669164 -0.025993505897543723 0 0.018323937861650652 -0.024185032445031823 0 0.01982234850943039 -0.029206550344339669 0 0.018183375328679759 -0.027267299523740976 0 0.020539534034648425 -0.026706191902243503 0 0.018183375328679759 -0.027267299523740976 0 0.020539534034648425 -0.026706191902243503 0 0.018323937861650652 -0.024185032445031823 0 0.015907897757568179 -0.031109998690192351 0 0.013601364608900192 -0.029523074202953279 0 0.016049245843821495 -0.028324128400960387 0 0.013601364608900192 -0.029523074202953279 0 0.016049245843821495 -0.028324128400960387 0 0.014289948023421001 -0.026475294871688253 0 0.016659266804669164 -0.025993505897543723 0 0.016049245843821495 -0.028324128400960387 0 0.014289948023421001 -0.026475294871688253 0 0.014289948023421001 -0.026475294871688253 0 0.012289295781292228 -0.025375672306745256 0 0.011476701001335422 -0.027427250137189926 0 0.013601364608900192 -0.029523074202953279 0 0.014289948023421001 -0.026475294871688253 0 0.011476701001335422 -0.027427250137189926 0 0.015102234368151134 -0.023130074422597138 0 0.011587008716225613 -0.023019628008177324 0 0.012289295781292228 -0.025375672306745256 0 0.014289948023421001 -0.026475294871688253 0 0.015102234368151134 -0.023130074422597138 0 0.012289295781292228 -0.025375672306745256 0 0.016659266804669164 -0.025993505897543723 0 0.014289948023421001 -0.026475294871688253 0 0.015102234368151134 -0.023130074422597138 0 0.016659266804669164 -0.025993505897543723 0 0.015102234368151134 -0.023130074422597138 0 0.018323937861650652 -0.024185032445031823 0 0.015102234368151134 -0.023130074422597138 0 0.0183698174011129 -0.021574094910491847 0 0.015890851257984531 -0.020595880675180624 0 0.015102234368151134 -0.023130074422597138 0 0.012921617272311486 -0.020567260294883209 0 0.011587008716225613 -0.023019628008177324 0 0.015102234368151134 -0.023130074422597138 0 0.015890851257984531 -0.020595880675180624 0 0.012921617272311486 -0.020567260294883209 0 0.023380739505511193 -0.020244571012216914 0 0.021173774362734283 -0.023420485573322585 0 0.0183698174011129 -0.021574094910491847 0 0.020539534034648425 -0.026706191902243503 0 0.021173774362734283 -0.023420485573322585 0 0.018323937861650652 -0.024185032445031823 0 0.015102234368151134 -0.023130074422597138 0 0.018323937861650652 -0.024185032445031823 0 0.0183698174011129 -0.021574094910491847 0 0.021173774362734283 -0.023420485573322585 0 0.018323937861650652 -0.024185032445031823 0 0.0183698174011129 -0.021574094910491847 0 0.023380739505511193 -0.020244571012216914 0 0.0183698174011129 -0.021574094910491847 0 0.019236092751272301 -0.018419967202434669 0 0.023380739505511193 -0.020244571012216914 0 0.022461180083121209 -0.015793261722078178 0 0.019236092751272301 -0.018419967202434669 0 0.022461180083121209 -0.015793261722078178 0 0.019236092751272301 -0.018419967202434669 0 0.018288654740905675 -0.014890300586805856 0 0.019236092751272301 -0.018419967202434669 0 0.015269168224921971 -0.017957316926480112 0 0.018288654740905675 -0.014890300586805856 0 0.0183698174011129 -0.021574094910491847 0 0.019236092751272301 -0.018419967202434669 0 0.015890851257984531 -0.020595880675180624 0 0.019236092751272301 -0.018419967202434669 0 0.015890851257984531 -0.020595880675180624 0 0.015269168224921971 -0.017957316926480112 0 0.016792683629908611 -0.017258601297082066 0 0.015145302789869182 -0.018695874547734328 0 0.015890851257984531 -0.020595880675180624 0 0.015269168224921971 -0.017957316926480112 0 0.012921617272311486 -0.020567260294883209 0 0.013953810299153636 -0.01623727541724029 0 0.01738592381487809 -0.017650295349522869 0 0.012921617272311486 -0.020567260294883209 0 0.016792683629908611 -0.017258601297082066 0 0.019764540358786234 -0.014616258547623693 0 0.01738592381487809 -0.017650295349522869 0 0.017243435185184078 -0.013874622933046279 0 0.021219320591972065 -0.014420521178781403 0 0.013953810299153636 -0.01623727541724029 0 0.017243435185184078 -0.013874622933046279 0 0.012279827824385768 -0.012485414640297872 0 0.013953810299153636 -0.01623727541724029 0 0.01738592381487809 -0.017650295349522869 0 0.017243435185184078 -0.013874622933046279 0 0.017243435185184078 -0.013874622933046279 0 0.012279827824385768 -0.012485414640297872 0 0.016446875877216462 -0.010406523970730637 0 0.017243435185184078 -0.013874622933046279 0 0.020705409063796906 -0.010051588628260805 0 0.016446875877216462 -0.010406523970730637 0 0.017243435185184078 -0.013874622933046279 0 0.021219320591972065 -0.014420521178781403 0 0.020705409063796906 -0.010051588628260805 0 0.024544798420831689 -0.011217931307557806 0 0.021219320591972065 -0.014420521178781403 0 0.020705409063796906 -0.010051588628260805 0 0.02270572987769726 -0.011985012156038373 0 0.019764540358786234 -0.014616258547623693 0 0.022461180083121209 -0.015793261722078178 0 0.021903676918915781 -0.01165602765993813 0 0.018288654740905675 -0.014890300586805856 0 0.0074822354176070031 -0.014976540881816039 0 0.0067989077898616516 -0.012086016376951118 0 0.0090263096746994939 -0.013110382220186052 0 0.0074822354176070031 -0.014976540881816039 0 0.0046447089121783606 -0.015034309853237126 0 0.0067989077898616516 -0.012086016376951118 0 0.0041486766729734604 -0.0071732073887133879 0 0.0037683664460358588 -0.0089809499406729321 0 0.004421969014820371 -0.015090612932828885 0 0.0048593593421575538 -0.014151752968331547 0 0.0067989077898616516 -0.012086016376951118 0 0.021345430475080376 -0.003986127155406919 0 0.021392432625384334 -0.0039206688346710757 0 0.021492245552122462 -0.0040335521612149816 0 0.0041486766729734604 -0.0071732073887133879 0 0.0034399912401506848 -0.0051912477271589715 0 -0.0038134925234769861 -0.0069542130702103747 0 -0.0041332663044303455 -0.0073567851014070254 0 -0.0039436189209136356 -0.0073930497731595135 0 0.021345430475080376 -0.003986127155406919 0 0.021355766916358279 -0.0040815401148666837 0 0.021492245552122462 -0.0040335521612149816 0 0.004421969014820371 -0.015090612932828885 0 0.0048593593421575538 -0.014151752968331547 0 0.0044397337009707298 -0.013399968994846226 0 0.0041486766729734604 -0.0071732073887133879 0 0.00799385379364277 -0.0071614080840108002 0 0.0080190383618478338 -0.0073174514316835075 0 0.00799385379364277 -0.0071614080840108002 0 0.0044339275536617829 -0.013410170901976534 0 0.0067989077898616516 -0.012086016376951118 0 0.0044112174278889684 -0.0083369679675020705 0 0.01522274550174642 -0.0061411861281342704 0 0.014726386415803989 -0.0052115165305881344 0 0.015261514951589237 -0.0048037154967580193 0 0.0048593593421575538 -0.014151752968331547 0 0.0044339275536617829 -0.013410170901976534 0 0.0067989077898616516 -0.012086016376951118 0 0.021355766916358279 -0.0040815401148666837 0 0.021492245552122462 -0.0040335521612149816 0 0.021517672573701636 -0.0042640509770985636 0 0.00799385379364277 -0.0071614080840108002 0 0.013748813414270143 -0.0062445851518009611 0 0.00799385379364277 -0.0071614080840108002 0 0.010570723770777946 -0.0061500258931718359 0 0.0067989077898616516 -0.012086016376951118 0 0.0090263096746994939 -0.013110382220186052 0 0.0082676766965984454 -0.0094416556178198285 0 0.0090263096746994939 -0.013110382220186052 0 0.012279827824385768 -0.012485414640297872 0 0.0082676766965984454 -0.0094416556178198285 0 0.013953810299153636 -0.01623727541724029 0 0.012279827824385768 -0.012485414640297872 0 0.010166929532827466 -0.016542618582740126 0 0.0090263096746994939 -0.013110382220186052 0 0.012279827824385768 -0.012485414640297872 0 0.010166929532827466 -0.016542618582740126 0 0.0074822354176070031 -0.014976540881816039 0 0.0090263096746994939 -0.013110382220186052 0 0.010166929532827466 -0.016542618582740126 0 0.0074822354176070031 -0.014976540881816039 0 0.010166929532827466 -0.016542618582740126 0 0.0073010093824801862 -0.018284136404547065 0 0.010166929532827466 -0.016542618582740126 0 0.0095338550684886721 -0.020704677924403326 0 0.0073010093824801862 -0.018284136404547065 0 0.013953810299153636 -0.01623727541724029 0 0.010166929532827466 -0.016542618582740126 0 0.012921617272311486 -0.020567260294883209 0 0.010166929532827466 -0.016542618582740126 0 0.012921617272311486 -0.020567260294883209 0 0.0095338550684886721 -0.020704677924403326 0 0.0095338550684886721 -0.020704677924403326 0 0.0073010093824801862 -0.018284136404547065 0 0.0071671716410512936 -0.022049853848246474 0 0.0073010093824801862 -0.018284136404547065 0 0.0047588437815309784 -0.019995407384506919 0 0.0071671716410512936 -0.022049853848246474 0 0.0074822354176070031 -0.014976540881816039 0 0.0046447089121783606 -0.015034309853237126 0 0.0073010093824801862 -0.018284136404547065 0 0.0046447089121783606 -0.015034309853237126 0 0.0073010093824801862 -0.018284136404547065 0 0.0047588437815309784 -0.019995407384506919 0 -0.0038134925234769861 -0.0069542130702103747 0 -0.0039436189209136356 -0.0073930497731595135 0 -0.0038595125100319792 -0.0089533019384958612 0 0.0041486766729734604 -0.0071732073887133879 0 -0.0015566667744757047 -0.013293233625413545 0 -0.0039436189209136356 -0.0073930497731595135 0 -0.0038595125100319792 -0.0089533019384958612 0 -0.004887061314866689 -0.0083029813891117195 0 -0.004135514665495217 -0.0073574630044980667 0 -0.0039436189209136356 -0.0073930497731595135 0 -0.004887061314866689 -0.0083029813891117195 0 0.0034399912401506848 -0.0051912477271589715 0 0.0033449496949427334 -0.0051859579458490594 0 -0.0038595125100319792 -0.0089533019384958612 0 -0.0047534637502227826 -0.010076921381577895 0 -0.0047817820137460816 -0.0091432535722451563 0 -0.0038595125100319792 -0.0089533019384958612 0 -0.003889289664414299 -0.01091686488623881 0 -0.0047534637502227826 -0.010076921381577895 0 0.0047588437815309784 -0.019995407384506919 0 0.0071671716410512936 -0.022049853848246474 0 0.004860834466010806 -0.024511568252165154 0 -0.0015566667744757047 -0.013293233625413545 0 -0.0088829243480025768 -0.013284543598044705 0 0.0071671716410512936 -0.022049853848246474 0 0.0078135676422684264 -0.024595718414850736 0 0.0090715464110761868 -0.0233657062366758 0 0.0071671716410512936 -0.022049853848246474 0 0.0078135676422684264 -0.024595718414850736 0 0.004860834466010806 -0.024511568252165154 0 0.0078135676422684264 -0.024595718414850736 0 0.004860834466010806 -0.024511568252165154 0 0.0079652447249176309 -0.027364970661017396 0 -0.031000195652078798 -0.0044976617793063686 0 -0.031246212562831624 -0.0037441921368593194 0 -0.029098080139240798 -0.0060265103352829634 0 -0.0090765491438612404 -0.012966934022852811 0 -0.0088829243480025768 -0.013284543598044705 0 -0.031000195652078798 -0.0044976617793063686 0 -0.031807201210203778 -0.0056154200768661101 0 -0.032064221181481563 -0.0046743507667853295 0 -0.031000195652078798 -0.0044976617793063686 0 -0.030997959109326838 -0.004327959861286119 0 -0.032064221181481563 -0.0046743507667853295 0 -0.0088829243480025768 -0.013284543598044705 0 -0.014538049004937756 -0.0083850746329305823 0 -0.030997959109326838 -0.004327959861286119 0 -0.032333468076293906 -0.0031694171150700905 0 -0.032064221181481563 -0.0046743507667853295 0 0.012921617272311486 -0.020567260294883209 0 0.0095338550684886721 -0.020704677924403326 0 0.011587008716225613 -0.023019628008177324 0 0.0095338550684886721 -0.020704677924403326 0 0.011587008716225613 -0.023019628008177324 0 0.0090715464110761868 -0.0233657062366758 0 0.0095338550684886721 -0.020704677924403326 0 0.0071671716410512936 -0.022049853848246474 0 0.0090715464110761868 -0.0233657062366758 0 0.011587008716225613 -0.023019628008177324 0 0.0090715464110761868 -0.0233657062366758 0 0.0099314360105083408 -0.025578243667324627 0 0.0078135676422684264 -0.024595718414850736 0 0.0090715464110761868 -0.0233657062366758 0 0.0099314360105083408 -0.025578243667324627 0 0.011587008716225613 -0.023019628008177324 0 0.0099314360105083408 -0.025578243667324627 0 0.012289295781292228 -0.025375672306745256 0 0.0099314360105083408 -0.025578243667324627 0 0.012289295781292228 -0.025375672306745256 0 0.011476701001335422 -0.027427250137189926 0 0.0099314360105083408 -0.025578243667324627 0 0.011476701001335422 -0.027427250137189926 0 0.0079652447249176309 -0.027364970661017396 0 0.0078135676422684264 -0.024595718414850736 0 0.0099314360105083408 -0.025578243667324627 0 0.0079652447249176309 -0.027364970661017396 0 0.010704987418420785 -0.030120161337931332 0 0.011476701001335422 -0.027427250137189926 0 0.0079652447249176309 -0.027364970661017396 0 -0.00026666711470459299 -0.022480765205949788 0 -0.0061922127606483489 -0.017007606712558205 0 -0.012562887621554948 -0.01344912816728077 0 -0.024979135860542533 -0.0056688153647649932 0 -0.024276338878477424 -0.012043679246429705 0 0.010704987418420785 -0.030120161337931332 0 0.013601364608900192 -0.029523074202953279 0 0.011476701001335422 -0.027427250137189926 0 -0.031854021078492584 -0.006988284868914227 0 -0.029098080139240798 -0.0060265103352829634 0 -0.030994640936327374 -0.0089909776364324508 0 -0.031854021078492584 -0.006988284868914227 0 -0.030984097080242967 -0.0057297367807763551 0 -0.029098080139240798 -0.0060265103352829634 0 -0.031000195652078798 -0.0044976617793063686 0 -0.031807201210203778 -0.0056154200768661101 0 -0.030984097080242967 -0.0057297367807763551 0 -0.031854021078492584 -0.006988284868914227 0 -0.031807201210203778 -0.0056154200768661101 0 -0.030984097080242967 -0.0057297367807763551 0 -0.031000195652078798 -0.0044976617793063686 0 -0.030984097080242967 -0.0057297367807763551 0 -0.029098080139240798 -0.0060265103352829634 0 -0.0088829243480025768 -0.013284543598044705 0 -0.0061922127606483489 -0.017007606712558205 0 -0.024979135860542533 -0.0056688153647649932 0 -0.029098080139240798 -0.0060265103352829634 0 -0.030994640936327374 -0.0089909776364324508 0 -0.031246212562831624 -0.0037441921368593194 0 -0.024979135860542533 -0.0056688153647649932 0 -0.029098080139240798 -0.0060265103352829634 0 -0.024979135860542533 -0.0056688153647649932 0 -0.024276338878477424 -0.012043679246429705 0 -0.030994640936327374 -0.0089909776364324508 0 -0.031854021078492584 -0.006988284868914227 0 -0.030994640936327374 -0.0089909776364324508 0 -0.032800511665119325 -0.0087122148953304428 0 -0.031854021078492584 -0.006988284868914227 0 -0.032800511665119325 -0.0087122148953304428 0 -0.033295922132859701 -0.0075432889826045728 0 -0.031854021078492584 -0.006988284868914227 0 -0.033012336154349516 -0.0063677533206572632 0 -0.033295922132859701 -0.0075432889826045728 0 -0.031854021078492584 -0.006988284868914227 0 -0.031807201210203778 -0.0056154200768661101 0 -0.033012336154349516 -0.0063677533206572632 0 -0.033295922132859701 -0.0075432889826045728 0 -0.033822170939853083 -0.0074493188714935786 0 -0.033547684354885962 -0.0065026921687573415 0 -0.033012336154349516 -0.0063677533206572632 0 -0.033295922132859701 -0.0075432889826045728 0 -0.033547684354885962 -0.0065026921687573415 0 -0.033822170939853083 -0.0074493188714935786 0 -0.034007142441657666 -0.006873874703021636 0 -0.033547684354885962 -0.0065026921687573415 0 -0.033295922132859701 -0.0075432889826045728 0 -0.033566595238571827 -0.008338072043411849 0 -0.033822170939853083 -0.0074493188714935786 0 -0.032800511665119325 -0.0087122148953304428 0 -0.033295922132859701 -0.0075432889826045728 0 -0.033566595238571827 -0.008338072043411849 0 -0.033566595238571827 -0.008338072043411849 0 -0.034264399773387987 -0.0080058557850718453 0 -0.033822170939853083 -0.0074493188714935786 0 -0.034264399773387987 -0.0080058557850718453 0 -0.034608052835534857 -0.0074542005269842429 0 -0.034180796957404627 -0.0074489821000137332 0 -0.034264399773387987 -0.0080058557850718453 0 -0.033822170939853083 -0.0074493188714935786 0 -0.034180796957404627 -0.0074489821000137332 0 -0.034264399773387987 -0.0080058557850718453 0 -0.034608052835534857 -0.0074542005269842429 0 -0.035128378829357605 -0.008260233786434935 0 -0.034608052835534857 -0.0074542005269842429 0 -0.035128378829357605 -0.008260233786434935 0 -0.034941957546462211 -0.0070075863066747677 0 -0.034608052835534857 -0.0074542005269842429 0 -0.033929347137705207 -0.0066578555102921816 0 -0.034941957546462211 -0.0070075863066747677 0 -0.029897677822257097 -0.0093919419779114246 0 -0.02783629306113854 -0.0091836749256036347 0 -0.034608052835534857 -0.0074542005269842429 0 -0.034007142441657666 -0.006873874703021636 0 -0.034078160183830315 -0.0062764480184686307 0 -0.034608052835534857 -0.0074542005269842429 0 -0.034180796957404627 -0.0074489821000137332 0 -0.034007142441657666 -0.006873874703021636 0 -0.033822170939853083 -0.0074493188714935786 0 -0.034180796957404627 -0.0074489821000137332 0 -0.034007142441657666 -0.006873874703021636 0 -0.034608052835534857 -0.0074542005269842429 0 -0.033929347137705207 -0.0066578555102921816 0 -0.033641875303991507 -0.0065894634688533496 0 -0.034007142441657666 -0.006873874703021636 0 -0.034078160183830315 -0.0062764480184686307 0 -0.033778678836324329 -0.0063933900261870505 0 -0.033929347137705207 -0.0066578555102921816 0 -0.033641875303991507 -0.0065894634688533496 0 -0.033665722834999662 -0.00667748376576849 0 -0.015112820563573456 -0.0068891557098457049 0 -0.024028464299406124 -0.0096189780296130657 0 -0.033929347137705207 -0.0066578555102921816 0 -0.034785476898642531 -0.0055273714439075805 0 -0.034941957546462211 -0.0070075863066747677 0 -0.023015218358157043 -0.0028823216781237999 0 -0.015112820563573456 -0.0068891557098457049 0 -0.033274522757099113 -0.0067409056097937582 0 -0.033665722834999662 -0.00667748376576849 0 -0.033604197215264288 -0.0067955001661137524 0 -0.033929347137705207 -0.0066578555102921816 0 -0.033274522757099113 -0.0067409056097937582 0 -0.033665722834999662 -0.00667748376576849 0 -0.033641875303991507 -0.0065894634688533496 0 -0.033665722834999662 -0.00667748376576849 0 -0.033703179943579208 -0.006797265666740656 0 -0.033665722834999662 -0.00667748376576849 0 -0.033604197215264288 -0.0067955001661137524 0 -0.033703179943579208 -0.006797265666740656 0 -0.033374082827203992 -0.0054243227793563213 0 -0.03359208829262357 -0.0061460572356558385 0 -0.033211043237281253 -0.0060757380082441309 0 -0.019194187281091447 -0.0069081420744121795 0 -0.023533608325808593 -0.0046183952769518971 0 -0.033641875303991507 -0.0065894634688533496 0 -0.033703179943579208 -0.006797265666740656 0 -0.033851513677546047 -0.0067915270796275479 0 -0.034139336729006285 -0.0023730524237399139 0 -0.03339695376174056 -0.0030602695631094337 0 -0.033657076881767459 -0.0040724364097494119 0 -0.02783629306113854 -0.0091836749256036347 0 -0.019194187281091447 -0.0069081420744121795 0 -0.034078160183830315 -0.0062764480184686307 0 -0.033374082827203992 -0.0054243227793563213 0 -0.03359208829262357 -0.0061460572356558385 0 -0.034139336729006285 -0.0023730524237399139 0 -0.03339695376174056 -0.0030602695631094337 0 -0.033733143306235412 -0.0018458286600527955 0 -0.0047534637502227826 -0.010076921381577895 0 -0.0047817820137460816 -0.0091432535722451563 0 -0.0056302333277381952 -0.0092373143173787517 0 -0.014538049004937756 -0.0083850746329305823 0 -0.015970051573604718 -0.0069662561117164118 0 -0.032333468076293906 -0.0031694171150700905 0 -0.03339695376174056 -0.0030602695631094337 0 -0.033733143306235412 -0.0018458286600527955 0 -0.032333468076293906 -0.0031694171150700905 0 -0.03339695376174056 -0.0030602695631094337 0 -0.033657076881767459 -0.0040724364097494119 0 -0.033012336154349516 -0.0063677533206572632 0 -0.032064221181481563 -0.0046743507667853295 0 -0.033657076881767459 -0.0040724364097494119 0 -0.024720313334886036 -0.0043715398705980943 0 -0.023533608325808593 -0.0046183952769518971 0 -0.032333468076293906 -0.0031694171150700905 0 -0.032064221181481563 -0.0046743507667853295 0 -0.033657076881767459 -0.0040724364097494119 0 -0.031807201210203778 -0.0056154200768661101 0 -0.033012336154349516 -0.0063677533206572632 0 -0.032064221181481563 -0.0046743507667853295 0 -0.033012336154349516 -0.0063677533206572632 0 -0.033547684354885962 -0.0065026921687573415 0 -0.033211043237281253 -0.0060757380082441309 0 -0.033778678836324329 -0.0063933900261870505 0 -0.033547684354885962 -0.0065026921687573415 0 -0.03359208829262357 -0.0061460572356558385 0 -0.034007142441657666 -0.006873874703021636 0 -0.033778678836324329 -0.0063933900261870505 0 -0.033547684354885962 -0.0065026921687573415 0 -0.034078160183830315 -0.0062764480184686307 0 -0.033778678836324329 -0.0063933900261870505 0 -0.03359208829262357 -0.0061460572356558385 0 -0.033547684354885962 -0.0065026921687573415 0 -0.03359208829262357 -0.0061460572356558385 0 -0.033211043237281253 -0.0060757380082441309 0 -0.021481344819381631 -0.012489328784685005 0 -0.022734623225379721 -0.01266829757163431 0 -0.022687658891695318 -0.011366382392177684 0 -0.022734623225379721 -0.01266829757163431 0 -0.022687658891695318 -0.011366382392177684 0 -0.024153655612348727 -0.012243068149083495 0 -0.022687658891695318 -0.011366382392177684 0 -0.024821761425375559 -0.011160990935417787 0 -0.024153655612348727 -0.012243068149083495 0 -0.022734623225379721 -0.01266829757163431 0 -0.024153655612348727 -0.012243068149083495 0 -0.02384784298302392 -0.013222726991401345 0 -0.024153655612348727 -0.012243068149083495 0 -0.02515855885985218 -0.012787912098564306 0 -0.02384784298302392 -0.013222726991401345 0 -0.024153655612348727 -0.012243068149083495 0 -0.02515855885985218 -0.012787912098564306 0 -0.025219044197762979 -0.011600392006423339 0 -0.02515855885985218 -0.012787912098564306 0 -0.025219044197762979 -0.011600392006423339 0 -0.025813336310966339 -0.012048511102287685 0 -0.025522905898948029 -0.011204842583562727 0 -0.026182190081843641 -0.01079026912535521 0 -0.026328184955846282 -0.010276749681211417 0 -0.024821761425375559 -0.011160990935417787 0 -0.026278151570261973 -0.011830547388360623 0 -0.024821761425375559 -0.011160990935417787 0 -0.024153655612348727 -0.012243068149083495 0 -0.026278151570261973 -0.011830547388360623 0 -0.025219044197762979 -0.011600392006423339 0 -0.026383996223274083 -0.010967349781092223 0 -0.025813336310966339 -0.012048511102287685 0 -0.026383996223274083 -0.010967349781092223 0 -0.025813336310966339 -0.012048511102287685 0 -0.026496228199272196 -0.012849698089399937 0 -0.026182190081843641 -0.01079026912535521 0 -0.027781434140958055 -0.0096609324468889691 0 -0.027781434140958055 -0.0096609324468889691 0 -0.024028464299406124 -0.0096189780296130657 0 -0.02515855885985218 -0.012787912098564306 0 -0.025813336310966339 -0.012048511102287685 0 -0.026496228199272196 -0.012849698089399937 0 -0.02515855885985218 -0.012787912098564306 0 -0.026496228199272196 -0.012849698089399937 0 -0.025622185373321331 -0.013901571043871509 0 -0.026671116982342348 -0.014976561427061148 0 -0.026496228199272196 -0.012849698089399937 0 -0.025622185373321331 -0.013901571043871509 0 -0.026671116982342348 -0.014976561427061148 0 -0.025622185373321331 -0.013901571043871509 0 -0.02490045351363666 -0.015124831682812968 0 -0.02490045351363666 -0.015124831682812968 0 -0.024586316458638333 -0.013961460162464547 0 -0.023503082615563144 -0.014552952616838984 0 -0.025622185373321331 -0.013901571043871509 0 -0.02490045351363666 -0.015124831682812968 0 -0.024586316458638333 -0.013961460162464547 0 -0.02515855885985218 -0.012787912098564306 0 -0.025622185373321331 -0.013901571043871509 0 -0.024586316458638333 -0.013961460162464547 0 -0.02515855885985218 -0.012787912098564306 0 -0.024586316458638333 -0.013961460162464547 0 -0.02384784298302392 -0.013222726991401345 0 -0.024586316458638333 -0.013961460162464547 0 -0.02384784298302392 -0.013222726991401345 0 -0.023503082615563144 -0.014552952616838984 0 -0.02384784298302392 -0.013222726991401345 0 -0.023503082615563144 -0.014552952616838984 0 -0.022855418649337322 -0.013546546020786296 0 -0.022734623225379721 -0.01266829757163431 0 -0.02384784298302392 -0.013222726991401345 0 -0.022855418649337322 -0.013546546020786296 0 -0.02490045351363666 -0.015124831682812968 0 -0.023503082615563144 -0.014552952616838984 0 -0.023752504575798594 -0.016238622247909729 0 -0.023503082615563144 -0.014552952616838984 0 -0.022236188954361014 -0.014308145090911205 0 -0.022855418649337322 -0.013546546020786296 0 -0.023503082615563144 -0.014552952616838984 0 -0.022236188954361014 -0.014308145090911205 0 -0.022512525459850292 -0.015688850059822342 0 -0.022236188954361014 -0.014308145090911205 0 -0.02183873357677401 -0.01319736516310124 0 -0.022855418649337322 -0.013546546020786296 0 -0.021481344819381631 -0.012489328784685005 0 -0.022734623225379721 -0.01266829757163431 0 -0.02183873357677401 -0.01319736516310124 0 -0.020998123495603739 -0.013951381713642476 0 -0.022236188954361014 -0.014308145090911205 0 -0.02183873357677401 -0.01319736516310124 0 -0.022734623225379721 -0.01266829757163431 0 -0.02183873357677401 -0.01319736516310124 0 -0.022855418649337322 -0.013546546020786296 0 -0.020864231269187784 -0.016434913611304759 0 -0.022374560933793992 -0.017016225327319008 0 -0.021691128611619086 -0.018523680388204747 0 -0.016179963085105119 -0.01679648297106854 0 -0.018259345167884692 -0.015057239798001233 0 -0.020864231269187784 -0.016434913611304759 0 -0.022236188954361014 -0.014308145090911205 0 -0.022512525459850292 -0.015688850059822342 0 -0.020864231269187784 -0.016434913611304759 0 -0.022374560933793992 -0.017016225327319008 0 -0.022512525459850292 -0.015688850059822342 0 -0.022374560933793992 -0.017016225327319008 0 -0.022512525459850292 -0.015688850059822342 0 -0.023752504575798594 -0.016238622247909729 0 -0.023503082615563144 -0.014552952616838984 0 -0.022512525459850292 -0.015688850059822342 0 -0.023752504575798594 -0.016238622247909729 0 -0.022374560933793992 -0.017016225327319008 0 -0.024079724567143964 -0.018470974773654145 0 -0.021691128611619086 -0.018523680388204747 0 -0.022374560933793992 -0.017016225327319008 0 -0.023752504575798594 -0.016238622247909729 0 -0.024079724567143964 -0.018470974773654145 0 0.013380727193906962 -0.0053915291230031545 0 0.013527202053443568 -0.0063954426159509139 0 0.014194817018603754 -0.0064273324167134858 0 -0.023752504575798594 -0.016238622247909729 0 -0.025468163189232045 -0.016641968927397003 0 -0.024079724567143964 -0.018470974773654145 0 -0.0079221745869169132 -0.010769918154137687 0 -0.0041293079754288016 -0.011632359764566395 0 -0.02490045351363666 -0.015124831682812968 0 -0.023752504575798594 -0.016238622247909729 0 -0.025468163189232045 -0.016641968927397003 0 -0.015112820563573456 -0.0068891557098457049 0 -0.0079221745869169132 -0.010769918154137687 0 -0.026671116982342348 -0.014976561427061148 0 -0.02490045351363666 -0.015124831682812968 0 -0.025468163189232045 -0.016641968927397003 0 0.012458413651062318 -0.004349520629742764 0 0.013380727193906962 -0.0053915291230031545 0 0.012503059452122075 -0.0055871730442013136 0 0.013380727193906962 -0.0053915291230031545 0 0.01296655194995959 -0.0062023142391709092 0 0.012503059452122075 -0.0055871730442013136 0 0.013380727193906962 -0.0053915291230031545 0 0.01296655194995959 -0.0062023142391709092 0 0.013527202053443568 -0.0063954426159509139 0 0.01296655194995959 -0.0062023142391709092 0 0.012503059452122075 -0.0055871730442013136 0 0.012533041809591777 -0.0068337990608573363 0 0.01296655194995959 -0.0062023142391709092 0 0.013128141431610717 -0.0068562540731507381 0 0.013527202053443568 -0.0063954426159509139 0 0.01296655194995959 -0.0062023142391709092 0 0.013128141431610717 -0.0068562540731507381 0 0.012533041809591777 -0.0068337990608573363 0 0.0049650218406079652 -0.0092004572169141138 0 0.0033641969950713507 -0.0092236335403008129 0 0.013128141431610717 -0.0068562540731507381 0 0.013526286360744627 -0.0075446908279612531 0 0.012574564615861712 -0.0068317868775677904 0 0.0096447027673421983 -0.010431589123112055 0 0.0033641969950713507 -0.0092236335403008129 0 0.013128141431610717 -0.0068562540731507381 0 0.013526286360744627 -0.0075446908279612531 0 0.013865831955361558 -0.0070023976780124479 0 0.015319021742245149 -0.0085721863718660734 0 0.016013246004367408 -0.0092634100603722052 0 0.016073249972147607 -0.0079853438242566289 0 0.013526286360744627 -0.0075446908279612531 0 0.013865831955361558 -0.0070023976780124479 0 0.01430867905595631 -0.0075345832257663814 0 0.013865831955361558 -0.0070023976780124479 0 0.013527202053443568 -0.0063954426159509139 0 0.014194817018603754 -0.0064273324167134858 0 0.013128141431610717 -0.0068562540731507381 0 0.013865831955361558 -0.0070023976780124479 0 0.013527202053443568 -0.0063954426159509139 0 -0.0041293079754288016 -0.011632359764566395 0 -4.6005225977028252e-05 -0.011820867750067635 0 -0.024079724567143964 -0.018470974773654145 0 -0.02251367724188947 -0.020388572909411692 0 -0.021691128611619086 -0.018523680388204747 0 0.013865831955361558 -0.0070023976780124479 0 0.014194817018603754 -0.0064273324167134858 0 0.014777249412985041 -0.0073276008969032106 0 0.013865831955361558 -0.0070023976780124479 0 0.01430867905595631 -0.0075345832257663814 0 0.014777249412985041 -0.0073276008969032106 0 0.01430867905595631 -0.0075345832257663814 0 0.014777249412985041 -0.0073276008969032106 0 0.014606864859489978 -0.0077276034577920131 0 -0.020372774451099002 -0.020514948461348138 0 -0.02251367724188947 -0.020388572909411692 0 -0.021691128611619086 -0.018523680388204747 0 -0.020372774451099002 -0.020514948461348138 0 -0.020861023174646796 -0.022313453592536781 0 -0.02251367724188947 -0.020388572909411692 0 -0.015505562114991668 -0.0060576599326912853 0 -0.012025143410282163 -0.0076401874656884181 0 -0.0050156171235892907 -0.006240992950945495 0 -0.0049236909247268833 -0.0053287150259349282 0 -0.0043674192637070805 -0.0069605263339367366 0 -0.0053263977934712428 -0.0059277119753533567 0 -0.0050156171235892907 -0.006240992950945495 0 -0.0049236909247268833 -0.0053287150259349282 0 -0.0053263977934712428 -0.0059277119753533567 0 -0.0050156171235892907 -0.006240992950945495 0 -0.0054389162312876689 -0.0067412674533289 0 -0.0066317021183242763 -0.0064981314390727069 0 -0.0060280932053802224 -0.0056977420024613172 0 -0.0054389162312876689 -0.0067412674533289 0 -0.0053263977934712428 -0.0059277119753533567 0 -0.0060280932053802224 -0.0056977420024613172 0 -0.0054389162312876689 -0.0067412674533289 0 0.0034399912401506848 -0.0051912477271589715 0 -0.0062049436352982794 -0.0062352800457956218 0 -0.0062049436352982794 -0.0062352800457956218 0 -0.015970051573604718 -0.0069662561117164118 0 -0.0053263977934712428 -0.0059277119753533567 0 -0.0060280932053802224 -0.0056977420024613172 0 -0.0054113221628188874 -0.0048691626395064259 0 -0.004887061314866689 -0.0083029813891117195 0 -0.0047817820137460816 -0.0091432535722451563 0 -0.0056302333277381952 -0.0092373143173787517 0 -0.0038595125100319792 -0.0089533019384958612 0 -0.004887061314866689 -0.0083029813891117195 0 -0.0047817820137460816 -0.0091432535722451563 0 -0.019194187281091447 -0.0069081420744121795 0 -0.015970051573604718 -0.0069662561117164118 0 -0.019194187281091447 -0.0069081420744121795 0 -0.015505562114991668 -0.0060576599326912853 0 -0.015970051573604718 -0.0069662561117164118 0 -0.015505562114991668 -0.0060576599326912853 0 -0.0053263977934712428 -0.0059277119753533567 0 -0.0054113221628188874 -0.0048691626395064259 0 -0.0049236909247268833 -0.0053287150259349282 0 -0.018218617246038987 -0.0049632678606680077 0 -0.019088925826844939 -0.0060816477121190485 0 -0.017271117685896793 -0.0078349557353047331 0 -0.033703179943579208 -0.006797265666740656 0 -0.033851513677546047 -0.0067915270796275479 0 -0.033817344806211978 -0.0069896280631449349 0 -0.033703179943579208 -0.006797265666740656 0 -0.033817344806211978 -0.0069896280631449349 0 -0.033554639192493595 -0.0070229440023687299 0 -0.033604197215264288 -0.0067955001661137524 0 -0.033703179943579208 -0.006797265666740656 0 -0.033554639192493595 -0.0070229440023687299 0 -0.015112820563573456 -0.0068891557098457049 0 -0.0069675189711890023 -0.0071406387032715386 0 -0.033274522757099113 -0.0067409056097937582 0 -0.033554639192493595 -0.0070229440023687299 0 -0.033145779083153047 -0.0071689242374116122 0 -0.033274522757099113 -0.0067409056097937582 0 -0.033604197215264288 -0.0067955001661137524 0 -0.033554639192493595 -0.0070229440023687299 0 -0.033554639192493595 -0.0070229440023687299 0 -0.033145779083153047 -0.0071689242374116122 0 -0.033523920268852106 -0.0073158122565721425 0 -0.033145779083153047 -0.0071689242374116122 0 -0.033523920268852106 -0.0073158122565721425 0 -0.033087178000215996 -0.0076846620163360307 0 -0.033817344806211978 -0.0069896280631449349 0 -0.033554639192493595 -0.0070229440023687299 0 -0.033523920268852106 -0.0073158122565721425 0 -0.015505562114991668 -0.0060576599326912853 0 -0.011123394483791915 -0.0049752938280884368 0 -0.0051430398219928361 -0.0048700089149049152 0 -0.0038289426178149031 -0.0060961869112579701 0 -0.0043674192637070805 -0.0069605263339367366 0 -0.0038289426178149031 -0.0060961869112579701 0 -0.0041987267140400292 -0.0070344021685331453 0 -0.0025495434524624391 -0.0073455544626273199 0 -0.0038289426178149031 -0.0060961869112579701 0 -0.0043674192637070805 -0.0069605263339367366 0 -0.0041987267140400292 -0.0070344021685331453 0 0.027051481237455027 -0.0060220692255463877 0 0.026382135767857536 -0.0055612719099067077 0 0.025577694068315421 -0.0057826668387534318 0 -0.011123394483791915 -0.0049752938280884368 0 0.0026169169707488081 -0.008769364412910088 0 -0.033145779083153047 -0.0071689242374116122 0 -0.033043053516400051 -0.0077174234808407363 0 -0.033087178000215996 -0.0076846620163360307 0 -0.0069675189711890023 -0.0071406387032715386 0 0.0033641969950713507 -0.0092236335403008129 0 0.012759579154325138 -0.0064391807728765788 0 0.0026169169707488081 -0.008769364412910088 0 0.026382135767857536 -0.0055612719099067077 0 0.025474085129304221 -0.005683536898268989 0 0.025577694068315421 -0.0057826668387534318 0 0.0033641969950713507 -0.0092236335403008129 0 0.0026169169707488081 -0.008769364412910088 0 0.0033641969950713507 -0.0092236335403008129 0 0.016366309666202079 -0.0061321746213801234 0 0.026382135767857536 -0.0055612719099067077 0 0.025474085129304221 -0.005683536898268989 0 0.026227801225262803 -0.0045507145917440513 0 0.025474085129304221 -0.005683536898268989 0 0.026227801225262803 -0.0045507145917440513 0 0.025596927831507691 -0.0037050259840156721 0 0.027051481237455027 -0.0060220692255463877 0 0.026382135767857536 -0.0055612719099067077 0 0.027160573869356403 -0.0042711309411704096 0 0.012759579154325138 -0.0064391807728765788 0 0.020213431252183941 -0.0043605901197192746 0 0.026382135767857536 -0.0055612719099067077 0 0.026227801225262803 -0.0045507145917440513 0 0.027160573869356403 -0.0042711309411704096 0 0.021842436650896916 -0.0040142753058059928 0 0.021688571368086104 -0.0041437788614543773 0 0.021864368206561166 -0.0042509455726089341 0 0.021842436650896916 -0.0040142753058059928 0 0.021688571368086104 -0.0041437788614543773 0 0.021632624518502567 -0.003965303017908671 0 0.012759579154325138 -0.0064391807728765788 0 0.0081611690095405812 -0.0057433044001445228 0 -0.0050156171235892907 -0.006240992950945495 0 -0.0043674192637070805 -0.0069605263339367366 0 -0.0054389162312876689 -0.0067412674533289 0 -0.0043674192637070805 -0.0069605263339367366 0 -0.0041987267140400292 -0.0070344021685331453 0 -0.0054389162312876689 -0.0067412674533289 0 0.021392432625384334 -0.0039206688346710757 0 0.021632624518502567 -0.003965303017908671 0 0.021492245552122462 -0.0040335521612149816 0 0.0034399912401506848 -0.0051912477271589715 0 0.0081611690095405812 -0.0057433044001445228 0 0.021688571368086104 -0.0041437788614543773 0 0.021632624518502567 -0.003965303017908671 0 0.021492245552122462 -0.0040335521612149816 0 0.021688571368086104 -0.0041437788614543773 0 0.021492245552122462 -0.0040335521612149816 0 0.021517672573701636 -0.0042640509770985636 0 0.021517672573701636 -0.0042640509770985636 0 0.021695892706464007 -0.0043933994966776834 0 0.021751520179800848 -0.0043305136161850936 0 0.013748813414270143 -0.0062445851518009611 0 0.017036873812512725 -0.0047703834924848129 0 0.021688571368086104 -0.0041437788614543773 0 0.021517672573701636 -0.0042640509770985636 0 0.021751520179800848 -0.0043305136161850936 0 0.014726386415803989 -0.0052115165305881344 0 0.014217836800530792 -0.004275469425936017 0 0.014909187372855208 -0.0042034208356359166 0 0.014217836800530792 -0.004275469425936017 0 0.014476447666213383 -0.0035942771274730429 0 0.014909187372855208 -0.0042034208356359166 0 0.02184150028167995 -0.0043951780737168222 0 0.021751520179800848 -0.0043305136161850936 0 0.021840408621719942 -0.0045256776405845902 0 0.021695892706464007 -0.0043933994966776834 0 0.02184150028167995 -0.0043951780737168222 0 0.021832715791986493 -0.0044453713477410001 0 0.021695892706464007 -0.0043933994966776834 0 0.02184150028167995 -0.0043951780737168222 0 0.021751520179800848 -0.0043305136161850936 0 0.021688571368086104 -0.0041437788614543773 0 0.021751520179800848 -0.0043305136161850936 0 0.021864368206561166 -0.0042509455726089341 0 0.027160573869356403 -0.0042711309411704096 0 0.026525245132926152 -0.0035216837228653581 0 0.027304460572503665 -0.0024853702379314438 0 0.020213431252183941 -0.0043605901197192746 0 0.025180990371963887 -0.0030027011985046372 0 0.021751520179800848 -0.0043305136161850936 0 0.021864368206561166 -0.0042509455726089341 0 0.021840408621719942 -0.0045256776405845902 0 0.026227801225262803 -0.0045507145917440513 0 0.027160573869356403 -0.0042711309411704096 0 0.026525245132926152 -0.0035216837228653581 0 0.026227801225262803 -0.0045507145917440513 0 0.026525245132926152 -0.0035216837228653581 0 0.025596927831507691 -0.0037050259840156721 0 0.016366309666202079 -0.0061321746213801234 0 0.026017066247671521 -0.0044780916367273159 0 0.025596927831507691 -0.0037050259840156721 0 0.0264101995185126 -0.0025673374065316029 0 0.025745604645336647 -0.0016799697696851027 0 0.016073249972147607 -0.0079853438242566289 0 0.015801471634637864 -0.0076019241389256118 0 0.016079652843982054 -0.0074417201771348465 0 0.026525245132926152 -0.0035216837228653581 0 0.025596927831507691 -0.0037050259840156721 0 0.0264101995185126 -0.0025673374065316029 0 0.026525245132926152 -0.0035216837228653581 0 0.0264101995185126 -0.0025673374065316029 0 0.027304460572503665 -0.0024853702379314438 0 0.02184150028167995 -0.0043951780737168222 0 0.021840408621719942 -0.0045256776405845902 0 0.021925504205210982 -0.0042164593494364317 0 0.021840408621719942 -0.0045256776405845902 0 0.021925504205210982 -0.0042164593494364317 0 0.021981706369573407 -0.0016570954988611786 0 0.025180990371963887 -0.0030027011985046372 0 0.030509379566752877 -0.00088419478874343269 0 0.021925504205210982 -0.0042164593494364317 0 0.022331858159134032 -0.0027805579269434056 0 0.021981706369573407 -0.0016570954988611786 0 0.027304460572503665 -0.0024853702379314438 0 0.02667082107629179 -0.0015938246958664228 0 0.02744129214847927 -0.00066008552928207512 0 0.0264101995185126 -0.0025673374065316029 0 0.027304460572503665 -0.0024853702379314438 0 0.02667082107629179 -0.0015938246958664228 0 0.0264101995185126 -0.0025673374065316029 0 0.02667082107629179 -0.0015938246958664228 0 0.025745604645336647 -0.0016799697696851027 0 0.02667082107629179 -0.0015938246958664228 0 0.025745604645336647 -0.0016799697696851027 0 0.026553387212702659 -0.00067480711347896931 0 0.015801471634637864 -0.0076019241389256118 0 0.017333309624645601 -0.0092279809186644138 0 0.015203629748835702 -0.012985799714632094 0 0.026017066247671521 -0.0044780916367273159 0 0.039720777681482702 0.0013863699450121967 0 0.025745604645336647 -0.0016799697696851027 0 0.026553387212702659 -0.00067480711347896931 0 0.02589367275625586 0.00036771220314627261 0 0.026553387212702659 -0.00067480711347896931 0 0.02677344253673096 0.00017955637964957519 0 0.02589367275625586 0.00036771220314627261 0 0.022331858159134032 -0.0027805579269434056 0 0.021981706369573407 -0.0016570954988611786 0 0.022508319438565103 -0.0022373982247701706 0 0.021981706369573407 -0.0016570954988611786 0 0.022820939249902222 -0.001641102208936765 0 0.022508319438565103 -0.0022373982247701706 0 0.02667082107629179 -0.0015938246958664228 0 0.026553387212702659 -0.00067480711347896931 0 0.02744129214847927 -0.00066008552928207512 0 0.026553387212702659 -0.00067480711347896931 0 0.027036431019499672 -0.00016626798893728644 0 0.02677344253673096 0.00017955637964957519 0 0.026553387212702659 -0.00067480711347896931 0 0.02744129214847927 -0.00066008552928207512 0 0.027036431019499672 -0.00016626798893728644 0 0.023098670923921431 -0.00059449475740260362 0 0.024514473842734391 -0.00039028195528132179 0 0.023037652687847337 0.00096147698338596669 0 0.022820939249902222 -0.001641102208936765 0 0.024514473842734391 -0.00039028195528132179 0 0.024126395577393656 -0.0039169970260699216 0 0.024514473842734391 -0.00039028195528132179 0 0.027216990901629236 -0.0012959951835550697 0 0.024126395577393656 -0.0039169970260699216 0 0.023098670923921431 -0.00059449475740260362 0 0.022820939249902222 -0.001641102208936765 0 0.024514473842734391 -0.00039028195528132179 0 0.021981706369573407 -0.0016570954988611786 0 0.023098670923921431 -0.00059449475740260362 0 0.023037652687847337 0.00096147698338596669 0 0.021981706369573407 -0.0016570954988611786 0 0.023098670923921431 -0.00059449475740260362 0 0.022820939249902222 -0.001641102208936765 0 0.022820939249902222 -0.001641102208936765 0 0.022508319438565103 -0.0022373982247701706 0 0.02341934037943175 -0.0030659267120215178 0 0.020190782182079418 -0.003411167592892294 0 0.019918724548252963 -0.0034267645119247605 0 0.024514473842734391 -0.00039028195528132179 0 0.027216990901629236 -0.0012959951835550697 0 0.025572423850276221 0.00093797870204976469 0 0.020076124355377992 -0.0012790930605464479 0 0.019918724548252963 -0.0034267645119247605 0 0.01450189948921451 -0.0026351446791055382 0 0.014476447666213383 -0.0035942771274730429 0 0.01369566496374912 -0.0033327554110374712 0 0.014217836800530792 -0.004275469425936017 0 0.014476447666213383 -0.0035942771274730429 0 0.01369566496374912 -0.0033327554110374712 0 0.01450189948921451 -0.0026351446791055382 0 0.014476447666213383 -0.0035942771274730429 0 0.015056829065786209 -0.0035115136315441867 0 0.017036873812512725 -0.0047703834924848129 0 0.019918724548252963 -0.0034267645119247605 0 0.021925504205210982 -0.0042164593494364317 0 0.022331858159134032 -0.0027805579269434056 0 0.02341934037943175 -0.0030659267120215178 0 0.02184150028167995 -0.0043951780737168222 0 0.021925504205210982 -0.0042164593494364317 0 0.021832715791986493 -0.0044453713477410001 0 0.020359585159990923 -0.0032992306800414973 0 0.019918724548252963 -0.0034267645119247605 0 0.022331858159134032 -0.0027805579269434056 0 0.022508319438565103 -0.0022373982247701706 0 0.02341934037943175 -0.0030659267120215178 0 0.0077084675457219573 -0.012712264392499423 0 0.015856083105364599 -0.0087574599025869657 0 0.031529978317509658 -0.0010220100013862991 0 0.025802310668529838 -0.00491946494986402 0 0.028748705326430403 -0.0052157252164231234 0 0.01179569474893017 -0.013034223342276585 0 0.021644186716743556 -0.0070953801304421442 0 0.025900899332406087 -0.0048472183365666525 0 0.022883848712264464 -0.0051411934922669577 0 0.023220174927713427 -0.0067400997538277366 0 0.025900899332406087 -0.0048472183365666525 0 0.025419987000781751 -0.0042604459134615155 0 0.022883848712264464 -0.0051411934922669577 0 0.0077084675457219573 -0.012712264392499423 0 -4.6005225977028252e-05 -0.011820867750067635 0 0.01502651980442242 -0.0078552270185304994 0 0.014777249412985041 -0.0073276008969032106 0 0.014606864859489978 -0.0077276034577920131 0 0.01502651980442242 -0.0078552270185304994 0 0.014606864859489978 -0.0077276034577920131 0 0.014517170954008949 -0.0079240707227990308 0 0.014606864859489978 -0.0077276034577920131 0 0.014573412884859433 -0.0079445357519173677 0 0.014517170954008949 -0.0079240707227990308 0 0.01430867905595631 -0.0075345832257663814 0 0.014606864859489978 -0.0077276034577920131 0 0.014573412884859433 -0.0079445357519173677 0 0.022883848712264464 -0.0051411934922669577 0 0.020003017272766092 -0.0060229255236896638 0 0.023220174927713427 -0.0067400997538277366 0 0.014573412884859433 -0.0079445357519173677 0 0.014517170954008949 -0.0079240707227990308 0 0.015022989522398505 -0.0075059741285310811 0 0.015856083105364599 -0.0087574599025869657 0 0.017025348730620126 -0.0078395890429876752 0 0.015022989522398505 -0.0075059741285310811 0 0.015255177631192992 -0.0080236816653937986 0 0.015657332365964456 -0.007756107092034609 0 0.014573412884859433 -0.0079445357519173677 0 0.015022989522398505 -0.0075059741285310811 0 0.015255177631192992 -0.0080236816653937986 0 0.015319021742245149 -0.0085721863718660734 0 0.014573412884859433 -0.0079445357519173677 0 0.015255177631192992 -0.0080236816653937986 0 0.013526286360744627 -0.0075446908279612531 0 0.01430867905595631 -0.0075345832257663814 0 0.014573412884859433 -0.0079445357519173677 0 0.0096447027673421983 -0.010431589123112055 0 0.01103191398753132 -0.010359005569105075 0 0.015319021742245149 -0.0085721863718660734 0 0.016073249972147607 -0.0079853438242566289 0 0.015255177631192992 -0.0080236816653937986 0 0.016073249972147607 -0.0079853438242566289 0 0.015255177631192992 -0.0080236816653937986 0 0.015657332365964456 -0.007756107092034609 0 0.016073249972147607 -0.0079853438242566289 0 0.015657332365964456 -0.007756107092034609 0 0.016079652843982054 -0.0074417201771348465 0 0.015022989522398505 -0.0075059741285310811 0 0.015657332365964456 -0.007756107092034609 0 0.016079652843982054 -0.0074417201771348465 0 0.020003017272766092 -0.0060229255236896638 0 0.016079652843982054 -0.0074417201771348465 0 0.018412762262169577 -0.0079527583802488176 0 0.018412762262169577 -0.0079527583802488176 0 0.017333309624645601 -0.0092279809186644138 0 0.020233937776451688 -0.0090395309756084469 0 0.017025348730620126 -0.0078395890429876752 0 0.016828931456653935 -0.0077715878839482123 0 0.015801471634637864 -0.0076019241389256118 0 0.016079652843982054 -0.0074417201771348465 0 0.017333309624645601 -0.0092279809186644138 0 0.016079652843982054 -0.0074417201771348465 0 0.018412762262169577 -0.0079527583802488176 0 0.017333309624645601 -0.0092279809186644138 0 0.017333309624645601 -0.0092279809186644138 0 0.01844570434069337 -0.01145024263773362 0 0.020233937776451688 -0.0090395309756084469 0 0.017333309624645601 -0.0092279809186644138 0 0.01844570434069337 -0.01145024263773362 0 0.015203629748835702 -0.012985799714632094 0 0.020233937776451688 -0.0090395309756084469 0 0.02224959087780367 -0.010816250573848737 0 0.024520400388501777 -0.0096623803996683782 0 0.01844570434069337 -0.01145024263773362 0 0.020233937776451688 -0.0090395309756084469 0 0.020995485651201722 -0.012070417088964556 0 0.020233937776451688 -0.0090395309756084469 0 0.020995485651201722 -0.012070417088964556 0 0.02224959087780367 -0.010816250573848737 0 0.020995485651201722 -0.012070417088964556 0 0.02224959087780367 -0.010816250573848737 0 0.022739811716000286 -0.011998963185396097 0 0.020003017272766092 -0.0060229255236896638 0 0.020233937776451688 -0.0090395309756084469 0 0.023220174927713427 -0.0067400997538277366 0 0.020003017272766092 -0.0060229255236896638 0 0.018412762262169577 -0.0079527583802488176 0 0.020233937776451688 -0.0090395309756084469 0 0.021494223078262528 -0.0074134600678617277 0 0.021644186716743556 -0.0070953801304421442 0 0.020233937776451688 -0.0090395309756084469 0 0.025292535472507604 -0.0074031352996139993 0 0.024520400388501777 -0.0096623803996683782 0 0.020233937776451688 -0.0090395309756084469 0 0.025802310668529838 -0.00491946494986402 0 0.025292535472507604 -0.0074031352996139993 0 0.025292535472507604 -0.0074031352996139993 0 0.024520400388501777 -0.0096623803996683782 0 0.027744154961483448 -0.0081159398633175919 0 0.02224959087780367 -0.010816250573848737 0 0.024876940659056008 -0.011646482840083495 0 0.024520400388501777 -0.0096623803996683782 0 0.02224959087780367 -0.010816250573848737 0 0.022739811716000286 -0.011998963185396097 0 0.024876940659056008 -0.011646482840083495 0 0.024876940659056008 -0.011646482840083495 0 0.024520400388501777 -0.0096623803996683782 0 0.027320387002961844 -0.01034545986636296 0 0.024520400388501777 -0.0096623803996683782 0 0.027320387002961844 -0.01034545986636296 0 0.027744154961483448 -0.0081159398633175919 0 0.027320387002961844 -0.01034545986636296 0 0.029757141645424645 -0.0094292497712651063 0 0.027744154961483448 -0.0081159398633175919 0 0.024876940659056008 -0.011646482840083495 0 0.027320387002961844 -0.01034545986636296 0 0.029787334775162006 -0.012889496784840433 0 0.027320387002961844 -0.01034545986636296 0 0.029757141645424645 -0.0094292497712651063 0 0.029787334775162006 -0.012889496784840433 0 0.030696530236340055 -0.0063055908355444459 0 0.029757141645424645 -0.0094292497712651063 0 0.027744154961483448 -0.0081159398633175919 0 0.025292535472507604 -0.0074031352996139993 0 0.027744154961483448 -0.0081159398633175919 0 0.028748705326430403 -0.0052157252164231234 0 0.025802310668529838 -0.00491946494986402 0 0.025292535472507604 -0.0074031352996139993 0 0.028748705326430403 -0.0052157252164231234 0 0.030696530236340055 -0.0063055908355444459 0 0.027744154961483448 -0.0081159398633175919 0 0.028748705326430403 -0.0052157252164231234 0 0.030696530236340055 -0.0063055908355444459 0 0.031118462119577146 -0.0041882029629932054 0 0.028748705326430403 -0.0052157252164231234 0 0.097416626107362056 0.0044893627836483105 0 0.097490488117977545 0.0045629260359190665 0 0.097515737532657076 0.0044785772141128369 0 0.097490488117977545 0.0045629260359190665 0 0.097515737532657076 0.0044785772141128369 0 0.097310236020972676 0.0044767151188994268 0 0.092705250309037368 0.0047802205129089245 0 0.093451527890953331 0.0076544278353858162 0 0.088271346266611275 0.0068931911324481921 0 0.092705250309037368 0.0047802205129089245 0 0.088271346266611275 0.0068931911324481921 0 0.087666792697488172 0.0057629152713199868 0 0.061938225156115301 -0.0030826313120288803 0 0.062669782328270779 0.0011796002077130872 0 0.090282479700974735 0.0018727535688868734 0 0.067721138871995115 0.0027165646878635989 0 0.024876940659056008 -0.011646482840083495 0 0.029787334775162006 -0.012889496784840433 0 0.02249535815311 -0.013696787846022724 0 0.022739811716000286 -0.011998963185396097 0 0.024876940659056008 -0.011646482840083495 0 0.02249535815311 -0.013696787846022724 0 0.097490488117977545 0.0045629260359190665 0 0.097112328797854905 0.004703478814411478 0 0.097310236020972676 0.0044767151188994268 0 0.067721138871995115 0.0027165646878635989 0 0.071956130665378801 0.0043349959533322087 0 0.097112328797854905 0.004703478814411478 0 0.096977328750876682 0.0044941721945171691 0 0.097310236020972676 0.0044767151188994268 0 0.058726148999805813 -0.00058767261716177841 0 0.059768164305850177 -0.00080918047378930873 0 0.05947967065653996 0.00086376057471597239 0 0.062669782328270779 0.0011796002077130872 0 0.050637220436982461 0.0014564583512672951 0 0.020995485651201722 -0.012070417088964556 0 0.02249535815311 -0.013696787846022724 0 0.018632221675705048 -0.01392542748199998 0 0.064965349893813293 0.0042282048732048185 0 0.063639650147232579 0.0017093404909307506 0 0.05761254940019598 0.0029805023858618719 0 0.062669782328270779 0.0011796002077130872 0 0.067721138871995115 0.0027165646878635989 0 0.020995485651201722 -0.012070417088964556 0 0.022739811716000286 -0.011998963185396097 0 0.02249535815311 -0.013696787846022724 0 0.01844570434069337 -0.01145024263773362 0 0.020995485651201722 -0.012070417088964556 0 0.018632221675705048 -0.01392542748199998 0 0.067721138871995115 0.0027165646878635989 0 0.050637220436982461 0.0014564583512672951 0 0.046211096449688981 -0.00038872150524269286 0 0.043756549311246222 0.00012503814819083548 0 0.043724761645268 -0.00081229250116065849 0 0.059768164305850177 -0.00080918047378930873 0 0.060362568519077675 0.00022834468294790158 0 0.061050983793076864 -0.0005799505120961787 0 0.050637220436982461 0.0014564583512672951 0 0.04375819942886458 0.0009290558738465223 0 0.050637220436982461 0.0014564583512672951 0 0.039720777681482702 0.0013863699450121967 0 0.01844570434069337 -0.01145024263773362 0 0.018632221675705048 -0.01392542748199998 0 0.015203629748835702 -0.012985799714632094 0 0.059768164305850177 -0.00080918047378930873 0 0.060362568519077675 0.00022834468294790158 0 0.05947967065653996 0.00086376057471597239 0 0.060240847343656631 0.0023134582399352028 0 0.05947967065653996 0.00086376057471597239 0 0.061150605561000465 0.0014409679863056162 0 0.060362568519077675 0.00022834468294790158 0 0.05947967065653996 0.00086376057471597239 0 0.061150605561000465 0.0014409679863056162 0 0.07197392211448464 0.0042521056264958976 0 0.071956130665378801 0.0043349959533322087 0 0.097172980515167387 0.0041095821158999664 0 0.09675778956346219 0.0042450396960932463 0 0.097098117329277853 0.0043286539242110792 0 0.097172980515167387 0.0041095821158999664 0 0.097098117329277853 0.0043286539242110792 0 0.097336934990656043 0.0042965410760676462 0 0.096977328750876682 0.0044941721945171691 0 0.097098117329277853 0.0043286539242110792 0 0.097310236020972676 0.0044767151188994268 0 0.09675778956346219 0.0042450396960932463 0 0.096977328750876682 0.0044941721945171691 0 0.097098117329277853 0.0043286539242110792 0 0.097310236020972676 0.0044767151188994268 0 0.097336934990656043 0.0042965410760676462 0 0.097533145494861834 0.0043610779259102639 0 0.097098117329277853 0.0043286539242110792 0 0.097310236020972676 0.0044767151188994268 0 0.097336934990656043 0.0042965410760676462 0 0.097172980515167387 0.0041095821158999664 0 0.097336934990656043 0.0042965410760676462 0 0.0975755005474475 0.0041609570475992829 0 0.097790198612206072 0.004233177508144584 0 0.0975755005474475 0.0041609570475992829 0 0.097533145494861834 0.0043610779259102639 0 0.097336934990656043 0.0042965410760676462 0 0.0975755005474475 0.0041609570475992829 0 0.097533145494861834 0.0043610779259102639 0 0.097515737532657076 0.0044785772141128369 0 0.097310236020972676 0.0044767151188994268 0 0.097533145494861834 0.0043610779259102639 0 0.097625232118826552 0.0044040754106107203 0 0.097515737532657076 0.0044785772141128369 0 0.097533145494861834 0.0043610779259102639 0 0.037185106473821603 0.0040738138471971561 0 0.039192443665038552 0.0020417414614225847 0 0.037185106473821603 0.0040738138471971561 0 0.052006651897299222 0.0026887840933063783 0 0.043683631367506838 0.0043522754713783782 0 0.045124211308735 0.004537351859735389 0 0.045086316455838618 0.0026482386291171701 0 0.051701993136139358 0.0045339963416356566 0 0.052247248192778956 0.0050575788974202007 0 0.05228995269820412 0.0044436778527405163 0 0.028186475928927736 0.0055801964544018191 0 0.028244744701714317 0.0040777615889670644 0 0.026075368391220079 0.003553703726562803 0 0.035875917605433599 0.0052408968124126997 0 0.037185106473821603 0.0040738138471971561 0 0.028244744701714317 0.0040777615889670644 0 0.025920227002981553 0.0035274625909637609 0 0.027271717066307547 0.0018241565642002548 0 0.034945998449698874 0.0036867391056252296 0 0.037185106473821603 0.0040738138471971561 0 0.027216990901629236 -0.0012959951835550697 0 0.027271717066307547 0.0018241565642002548 0 0.030184743193044202 0.0012703982201002501 0 0.037185106473821603 0.0040738138471971561 0 0.036094724857998382 0.004583178644755298 0 0.027216990901629236 -0.0012959951835550697 0 0.027271717066307547 0.0018241565642002548 0 0.025572423850276221 0.00093797870204976469 0 0.025847492038302222 0.003588900589222671 0 0.027271717066307547 0.0018241565642002548 0 0.025572423850276221 0.00093797870204976469 0 0.02600067090202865 0.003688205200019304 0 0.023037652687847337 0.00096147698338596669 0 0.02206297404360176 0.0031454988186440883 0 0.024514473842734391 -0.00039028195528132179 0 0.025572423850276221 0.00093797870204976469 0 0.023037652687847337 0.00096147698338596669 0 0.025847492038302222 0.003588900589222671 0 0.025572423850276221 0.00093797870204976469 0 0.023037652687847337 0.00096147698338596669 0 0.037185106473821603 0.0040738138471971561 0 0.032553586540270636 0.0013051491158736237 0 0.027036431019499672 -0.00016626798893728644 0 0.02677344253673096 0.00017955637964957519 0 0.027520264779238884 0.0011027994991131274 0 0.021981706369573407 -0.0016570954988611786 0 0.023037652687847337 0.00096147698338596669 0 0.02206297404360176 0.0031454988186440883 0 0.030509379566752877 -0.00088419478874343269 0 0.039192443665038552 0.0020417414614225847 0 0.02744129214847927 -0.00066008552928207512 0 0.027036431019499672 -0.00016626798893728644 0 0.027520264779238884 0.0011027994991131274 0 0.04375819942886458 0.0009290558738465223 0 0.039192443665038552 0.0020417414614225847 0 0.02677344253673096 0.00017955637964957519 0 0.026007887203358601 0.0008176471648401628 0 0.027520264779238884 0.0011027994991131274 0 0.02677344253673096 0.00017955637964957519 0 0.025995873249118499 0.0003595381289197462 0 0.026007887203358601 0.0008176471648401628 0 0.036974808914686144 0.0017239183719533091 0 0.039720777681482702 0.0013863699450121967 0 0.039720777681482702 0.0013863699450121967 0 0.04375819942886458 0.0009290558738465223 0 0.04375819942886458 0.0009290558738465223 0 0.054334957424261789 0.0013059893540683749 0 0.051510188473290794 0.001324157467395518 0 0.051457566146326808 0.0012364996308027859 0 0.051539732244204828 0.001179504604921514 0 0.060362568519077675 0.00022834468294790158 0 0.061050983793076864 -0.0005799505120961787 0 0.061150605561000465 0.0014409679863056162 0 0.051510188473290794 0.001324157467395518 0 0.05139298406613052 0.0013060504601931989 0 0.051457566146326808 0.0012364996308027859 0 0.05139298406613052 0.0013060504601931989 0 0.051457566146326808 0.0012364996308027859 0 0.051411377570613287 0.0011689613225814416 0 0.039192443665038552 0.0020417414614225847 0 0.052006651897299222 0.0026887840933063783 0 0.051457566146326808 0.0012364996308027859 0 0.051411377570613287 0.0011689613225814416 0 0.051539732244204828 0.001179504604921514 0 0.061244967771247563 0.003469608899505594 0 0.060240847343656631 0.0023134582399352028 0 0.061150605561000465 0.0014409679863056162 0 0.063399651618958941 0.0014021357648477256 0 0.054334957424261789 0.0013059893540683749 0 0.051580598675453032 0.0010101196939462584 0 0.051539732244204828 0.001179504604921514 0 0.051489551194044011 0.0010905466653987127 0 0.062334150803691847 0.002118390238127656 0 0.052006651897299222 0.0026887840933063783 0 0.051411377570613287 0.0011689613225814416 0 0.051539732244204828 0.001179504604921514 0 0.051489551194044011 0.0010905466653987127 0 0.066031864307965454 0.0024070753370955249 0 0.06617521378457536 0.0082342250565288315 0 0.068657056089604901 0.0052139808932586979 0 0.052006651897299222 0.0026887840933063783 0 0.058066197715406984 0.0020424170181987996 0 0.053164543284979708 0.0028461440822673502 0 0.05315748469312459 0.0039907467203723285 0 0.052117368468801405 0.0036570578962827737 0 0.052247248192778956 0.0050575788974202007 0 0.05315748469312459 0.0039907467203723285 0 0.05228995269820412 0.0044436778527405163 0 0.05315748469312459 0.0039907467203723285 0 0.05228995269820412 0.0044436778527405163 0 0.052117368468801405 0.0036570578962827737 0 0.051701993136139358 0.0045339963416356566 0 0.05228995269820412 0.0044436778527405163 0 0.052117368468801405 0.0036570578962827737 0 0.051701993136139358 0.0045339963416356566 0 0.052117368468801405 0.0036570578962827737 0 0.051196659146574786 0.0040579871312206757 0 0.052012585424368346 0.0027361067398154965 0 0.051217079388300606 0.0030850990664246908 0 0.052117368468801405 0.0036570578962827737 0 0.040453408583078207 0.0057533036626586506 0 0.041636830837687017 0.0058921787275880259 0 0.041082387572817909 0.0023202520225791296 0 0.051217079388300606 0.0030850990664246908 0 0.052117368468801405 0.0036570578962827737 0 0.051196659146574786 0.0040579871312206757 0 0.04379144768579487 0.004455114423137385 0 0.032278324425587659 0.0049014978232393936 0 0.040453408583078207 0.0057533036626586506 0 0.041082387572817909 0.0023202520225791296 0 0.040396669083867472 0.0016823538066497257 0 0.035817313115477006 0.0059077232416818379 0 0.029373781560641275 0.0047389766051592046 0 0.021809875387646525 0.0048996691987304875 0 0.029373781560641275 0.0047389766051592046 0 0.016583180340096801 0.0068448861976449678 0 0.014678169149438355 0.0049457092707596451 0 0.016312224218801269 0.0050334252404592864 0 0.018748944815698398 0.0087717614236193023 0 0.01886414894160186 0.0087811546319372397 0 0.018910075881154897 0.0088767915600413781 0 0.015749373229205478 0.0044424662565368039 0 0.015265618864488305 0.0038553692465314662 0 0.016610803785207229 0.0039162407081303361 0 0.015749373229205478 0.0044424662565368039 0 0.014678169149438355 0.0049457092707596451 0 0.016312224218801269 0.0050334252404592864 0 0.015749373229205478 0.0044424662565368039 0 0.015265618864488305 0.0038553692465314662 0 0.014678169149438355 0.0049457092707596451 0 0.029373781560641275 0.0047389766051592046 0 0.026381329389817767 0.0033912291558105614 0 0.032278324425587659 0.0049014978232393936 0 0.025596351576163523 0.0032377425386674835 0 0.014902583344000421 0.0049560838015332807 0 0.014557948585784259 0.0046553875505305573 0 0.014443353453702696 0.0031189742692943317 0 0.028186475928927736 0.0055801964544018191 0 0.030190019858679511 0.0074592105558941553 0 0.030178800256402315 0.0044033671105891733 0 0.015265618864488305 0.0038553692465314662 0 0.014678169149438355 0.0049457092707596451 0 0.014470771325238496 0.0029412734662778756 0 0.029373781560641275 0.0047389766051592046 0 0.032278324425587659 0.0049014978232393936 0 0.035875917605433599 0.0052408968124126997 0 0.032278324425587659 0.0049014978232393936 0 0.014902583344000421 0.0049560838015332807 0 0.014470771325238496 0.0029412734662778756 0 0.014443353453702696 0.0031189742692943317 0 0.028244744701714317 0.0040777615889670644 0 0.030178800256402315 0.0044033671105891733 0 0.030184743193044202 0.0012703982201002501 0 0.028186475928927736 0.0055801964544018191 0 0.028244744701714317 0.0040777615889670644 0 0.030178800256402315 0.0044033671105891733 0 0.014470771325238496 0.0029412734662778756 0 0.014443353453702696 0.0031189742692943317 0 0.014430642746191973 0.0016462016435757868 0 0.015265618864488305 0.0038553692465314662 0 0.016044552641902587 0.0030200682115935234 0 0.016610803785207229 0.0039162407081303361 0 0.015265618864488305 0.0038553692465314662 0 0.014470771325238496 0.0029412734662778756 0 0.016044552641902587 0.0030200682115935234 0 0.014470771325238496 0.0029412734662778756 0 0.016044552641902587 0.0030200682115935234 0 0.014430642746191973 0.0016462016435757868 0 0.016044552641902587 0.0030200682115935234 0 0.01608059289056123 0.0012332349364343796 0 0.014362106055668147 0.001564879431182752 0 0.018113455138890698 0.00077366820430103229 0 0.019759825959936327 0.00099875252785283056 0 0.028244744701714317 0.0040777615889670644 0 0.027271717066307547 0.0018241565642002548 0 0.030184743193044202 0.0012703982201002501 0 0.025596351576163523 0.0032377425386674835 0 0.019759825959936327 0.00099875252785283056 0 0.017835158094348092 0.0025982878017756336 0 0.019292460837913177 0.0013719870534910444 0 0.017618867577649154 0.00084845533488091837 0 0.016044552641902587 0.0030200682115935234 0 0.01608059289056123 0.0012332349364343796 0 0.017835158094348092 0.0025982878017756336 0 0.01608059289056123 0.0012332349364343796 0 0.017835158094348092 0.0025982878017756336 0 0.017618867577649154 0.00084845533488091837 0 0.016044552641902587 0.0030200682115935234 0 0.017835158094348092 0.0025982878017756336 0 0.016610803785207229 0.0039162407081303361 0 0.017835158094348092 0.0025982878017756336 0 0.017795030636219303 0.004404589276679461 0 0.016610803785207229 0.0039162407081303361 0 0.017835158094348092 0.0025982878017756336 0 0.017795030636219303 0.004404589276679461 0 0.019098797613057612 0.0039546598938365041 0 0.017795030636219303 0.004404589276679461 0 0.018781700615047001 0.0053357643086384817 0 0.019098797613057612 0.0039546598938365041 0 0.017795030636219303 0.004404589276679461 0 0.016610803785207229 0.0039162407081303361 0 0.016312224218801269 0.0050334252404592864 0 0.017795030636219303 0.004404589276679461 0 0.016312224218801269 0.0050334252404592864 0 0.017515405598396701 0.0057639062792687783 0 0.015749373229205478 0.0044424662565368039 0 0.016610803785207229 0.0039162407081303361 0 0.016312224218801269 0.0050334252404592864 0 0.016583180340096801 0.0068448861976449678 0 0.016312224218801269 0.0050334252404592864 0 0.017515405598396701 0.0057639062792687783 0 0.017971821350895579 0.0070264082934249064 0 0.016583180340096801 0.0068448861976449678 0 0.017515405598396701 0.0057639062792687783 0 0.017795030636219303 0.004404589276679461 0 0.017515405598396701 0.0057639062792687783 0 0.018781700615047001 0.0053357643086384817 0 0.018694351423310232 0.0066224961892442594 0 0.017971821350895579 0.0070264082934249064 0 0.017515405598396701 0.0057639062792687783 0 0.018694351423310232 0.0066224961892442594 0 0.017515405598396701 0.0057639062792687783 0 0.018781700615047001 0.0053357643086384817 0 0.018694351423310232 0.0066224961892442594 0 0.018781700615047001 0.0053357643086384817 0 0.019866002921820568 0.0062941756057157275 0 0.018781700615047001 0.0053357643086384817 0 0.019866002921820568 0.0062941756057157275 0 0.019904005787271077 0.0050021090588549611 0 0.019866002921820568 0.0062941756057157275 0 0.021128778705304219 0.0056967111051214282 0 0.019904005787271077 0.0050021090588549611 0 0.021129806994864619 0.0073831706081423209 0 0.019866002921820568 0.0062941756057157275 0 0.021128778705304219 0.0056967111051214282 0 0.021129806994864619 0.0073831706081423209 0 0.021128778705304219 0.0056967111051214282 0 0.022840004960625496 0.0065845176841254757 0 0.020618419017666156 0.0040143482029248298 0 0.022524878399604372 0.0047462188157219318 0 0.021573857505291422 0.0030444868530917664 0 0.021128778705304219 0.0056967111051214282 0 0.020618419017666156 0.0040143482029248298 0 0.019904005787271077 0.0050021090588549611 0 0.021128778705304219 0.0056967111051214282 0 0.020618419017666156 0.0040143482029248298 0 0.022524878399604372 0.0047462188157219318 0 0.020618419017666156 0.0040143482029248298 0 0.019098797613057612 0.0039546598938365041 0 0.019904005787271077 0.0050021090588549611 0 0.018781700615047001 0.0053357643086384817 0 0.019098797613057612 0.0039546598938365041 0 0.019904005787271077 0.0050021090588549611 0 0.025058016516014178 0.005955262139003499 0 0.022840004960625496 0.0065845176841254757 0 0.022524878399604372 0.0047462188157219318 0 0.024174249624419934 0.0074519730228069852 0 0.025058016516014178 0.005955262139003499 0 0.022840004960625496 0.0065845176841254757 0 0.021128778705304219 0.0056967111051214282 0 0.022840004960625496 0.0065845176841254757 0 0.022524878399604372 0.0047462188157219318 0 0.025058016516014178 0.005955262139003499 0 0.022524878399604372 0.0047462188157219318 0 0.024677960457717873 0.0036376178487330111 0 0.038404869009394271 0.0049256368001154528 0 0.034491522862454764 0.003533207773759612 0 0.024677960457717873 0.0036376178487330111 0 0.022047271562228198 0.0017336573000179233 0 0.024487403835473667 0.001061277607158462 0 0.022524878399604372 0.0047462188157219318 0 0.024677960457717873 0.0036376178487330111 0 0.021573857505291422 0.0030444868530917664 0 0.024677960457717873 0.0036376178487330111 0 0.021573857505291422 0.0030444868530917664 0 0.022047271562228198 0.0017336573000179233 0 0.022047271562228198 0.0017336573000179233 0 0.024487403835473667 0.001061277607158462 0 0.022781841101530927 -0.0010420661358521446 0 0.021573857505291422 0.0030444868530917664 0 0.022047271562228198 0.0017336573000179233 0 0.020665968349925283 0.001729534222153232 0 0.017835158094348092 0.0025982878017756336 0 0.019098797613057612 0.0039546598938365041 0 0.019824943325197592 0.0025996291927488677 0 0.020618419017666156 0.0040143482029248298 0 0.019098797613057612 0.0039546598938365041 0 0.019824943325197592 0.0025996291927488677 0 0.020618419017666156 0.0040143482029248298 0 0.021573857505291422 0.0030444868530917664 0 0.019824943325197592 0.0025996291927488677 0 0.021573857505291422 0.0030444868530917664 0 0.019824943325197592 0.0025996291927488677 0 0.020665968349925283 0.001729534222153232 0 0.020665968349925283 0.001729534222153232 0 0.019292460837913177 0.0013719870534910444 0 0.020770327322706433 0.0003948805820647206 0 0.022047271562228198 0.0017336573000179233 0 0.020665968349925283 0.001729534222153232 0 0.020770327322706433 0.0003948805820647206 0 0.019824943325197592 0.0025996291927488677 0 0.020665968349925283 0.001729534222153232 0 0.019292460837913177 0.0013719870534910444 0 0.017835158094348092 0.0025982878017756336 0 0.019824943325197592 0.0025996291927488677 0 0.019292460837913177 0.0013719870534910444 0 0.015014868573039315 -0.00032869677487749725 0 0.020770327322706433 0.0003948805820647206 0 0.017816997762482929 -0.0021741475978380022 0 0.019292460837913177 0.0013719870534910444 0 0.018871786073857977 0.00017489681600973218 0 0.020770327322706433 0.0003948805820647206 0 0.016786077199945258 -0.00082616657794558628 0 0.018608156569588925 -0.0002668171163825345 0 0.020770327322706433 0.0003948805820647206 0 0.020714416886906686 -0.00085039186158464069 0 0.017816997762482929 -0.0021741475978380022 0 0.020714416886906686 -0.00085039186158464069 0 0.017816997762482929 -0.0021741475978380022 0 0.018620060652596603 -0.0056970871608812814 0 0.020066794806181721 -0.002351458502509101 0 0.018664067208556814 -0.0057780963789795404 0 0.019952539058881863 -0.0027284226580805283 0 0.020640713980246528 -0.004822868821704478 0 0.018327709371493171 -0.0066537162050400748 0 0.017816997762482929 -0.0021741475978380022 0 0.018620060652596603 -0.0056970871608812814 0 0.013868120814447431 -0.0049524434559855297 0 0.015014868573039315 -0.00032869677487749725 0 0.017816997762482929 -0.0021741475978380022 0 0.013868120814447431 -0.0049524434559855297 0 0.024487403835473667 0.001061277607158462 0 0.024971656417691362 -0.0019184305344938149 0 0.022781841101530927 -0.0010420661358521446 0 0.024971656417691362 -0.0019184305344938149 0 0.022781841101530927 -0.0010420661358521446 0 0.022228034016934788 -0.0035405236499022759 0 0.020841030201095713 -0.00047353002297895901 0 0.020066794806181721 -0.002351458502509101 0 0.022047271562228198 0.0017336573000179233 0 0.019952539058881863 -0.0027284226580805283 0 0.022781841101530927 -0.0010420661358521446 0 0.022047271562228198 0.0017336573000179233 0 0.020770327322706433 0.0003948805820647206 0 0.020714416886906686 -0.00085039186158464069 0 0.019952539058881863 -0.0027284226580805283 0 0.022781841101530927 -0.0010420661358521446 0 0.022228034016934788 -0.0035405236499022759 0 0.020640713980246528 -0.004822868821704478 0 0.022228034016934788 -0.0035405236499022759 0 0.022092211528287442 -0.0063347636578738381 0 0.019952539058881863 -0.0027284226580805283 0 0.020640713980246528 -0.004822868821704478 0 0.022228034016934788 -0.0035405236499022759 0 0.026214112350292369 -0.0054190996513987233 0 0.024971656417691362 -0.0019184305344938149 0 0.022228034016934788 -0.0035405236499022759 0 0.026214112350292369 -0.0054190996513987233 0 0.022228034016934788 -0.0035405236499022759 0 0.022092211528287442 -0.0063347636578738381 0 0.026214112350292369 -0.0054190996513987233 0 0.024459524440424246 -0.0082113489889794455 0 0.022092211528287442 -0.0063347636578738381 0 0.024459524440424246 -0.0082113489889794455 0 0.022092211528287442 -0.0063347636578738381 0 0.020705409063796906 -0.010051588628260805 0 0.022092211528287442 -0.0063347636578738381 0 0.020705409063796906 -0.010051588628260805 0 0.018327709371493171 -0.0066537162050400748 0 0.020640713980246528 -0.004822868821704478 0 0.022092211528287442 -0.0063347636578738381 0 0.018327709371493171 -0.0066537162050400748 0 0.024544798420831689 -0.011217931307557806 0 0.024459524440424246 -0.0082113489889794455 0 0.020705409063796906 -0.010051588628260805 0 0.018620060652596603 -0.0056970871608812814 0 0.016446875877216462 -0.010406523970730637 0 0.013868120814447431 -0.0049524434559855297 0 0.018664067208556814 -0.0057780963789795404 0 0.017806119178750232 -0.0078698447703430072 0 0.020705409063796906 -0.010051588628260805 0 0.018327709371493171 -0.0066537162050400748 0 0.016446875877216462 -0.010406523970730637 0 0.012279827824385768 -0.012485414640297872 0 0.016446875877216462 -0.010406523970730637 0 0.011625536743918622 -0.0083923592738426953 0 0.016446875877216462 -0.010406523970730637 0 0.011625536743918622 -0.0083923592738426953 0 0.013868120814447431 -0.0049524434559855297 0 0.011625536743918622 -0.0083923592738426953 0 0.013868120814447431 -0.0049524434559855297 0 0.0085599393401803742 -0.0058026423408630611 0 0.012279827824385768 -0.012485414640297872 0 0.011625536743918622 -0.0083923592738426953 0 0.0082676766965984454 -0.0094416556178198285 0 0.011625536743918622 -0.0083923592738426953 0 0.0085599393401803742 -0.0058026423408630611 0 0.0082676766965984454 -0.0094416556178198285 0 0.0085599393401803742 -0.0058026423408630611 0 0.0082676766965984454 -0.0094416556178198285 0 0.0044112174278889684 -0.0083369679675020705 0 0.0067989077898616516 -0.012086016376951118 0 0.0082676766965984454 -0.0094416556178198285 0 0.0044112174278889684 -0.0083369679675020705 0 0.014726386415803989 -0.0052115165305881344 0 0.015261514951589237 -0.0048037154967580193 0 0.014909187372855208 -0.0042034208356359166 0 0.010570723770777946 -0.0061500258931718359 0 0.013648104437449814 -0.0035389579293622583 0 0.015261514951589237 -0.0048037154967580193 0 0.014909187372855208 -0.0042034208356359166 0 0.015292970191871327 -0.0034518533850681869 0 0.0085599393401803742 -0.0058026423408630611 0 0.0044112174278889684 -0.0083369679675020705 0 0.0044071030657236191 -0.0031186865979613092 0 0.013648104437449814 -0.0035389579293622583 0 0.013958673417533226 -0.0020759491266089656 0 0.0085599393401803742 -0.0058026423408630611 0 0.0044071030657236191 -0.0031186865979613092 0 0.009567120827019944 -0.0017484901501035777 0 0.01450189948921451 -0.0026351446791055382 0 0.015056829065786209 -0.0035115136315441867 0 0.015301207663034392 -0.0034493808981653894 0 0.014476447666213383 -0.0035942771274730429 0 0.014909187372855208 -0.0042034208356359166 0 0.015056829065786209 -0.0035115136315441867 0 0.014909187372855208 -0.0042034208356359166 0 0.015056829065786209 -0.0035115136315441867 0 0.015292970191871327 -0.0034518533850681869 0 0.013704034825810894 -0.0035280849425036957 0 0.013648104437449814 -0.0035389579293622583 0 0.019759825959936327 0.00099875252785283056 0 0.013648104437449814 -0.0035389579293622583 0 0.020076124355377992 -0.0012790930605464479 0 0.019759825959936327 0.00099875252785283056 0 0.01450189948921451 -0.0026351446791055382 0 0.01532930971661922 -0.0019298218830661493 0 0.015301207663034392 -0.0034493808981653894 0 0.01608059289056123 0.0012332349364343796 0 0.014353652892238467 -0.00099895495999379152 0 0.016651863274194576 -0.0004069844075757018 0 0.01608059289056123 0.0012332349364343796 0 0.014362106055668147 0.001564879431182752 0 0.014353652892238467 -0.00099895495999379152 0 0.01608059289056123 0.0012332349364343796 0 0.017618867577649154 0.00084845533488091837 0 0.016651863274194576 -0.0004069844075757018 0 0.018871786073857977 0.00017489681600973218 0 0.017618867577649154 0.00084845533488091837 0 0.016651863274194576 -0.0004069844075757018 0 0.016786077199945258 -0.00082616657794558628 0 0.013958673417533226 -0.0020759491266089656 0 0.019292460837913177 0.0013719870534910444 0 0.018871786073857977 0.00017489681600973218 0 0.017618867577649154 0.00084845533488091837 0 0.015014868573039315 -0.00032869677487749725 0 0.013868120814447431 -0.0049524434559855297 0 0.009567120827019944 -0.0017484901501035777 0 0.013868120814447431 -0.0049524434559855297 0 0.0085599393401803742 -0.0058026423408630611 0 0.009567120827019944 -0.0017484901501035777 0 
</DataArray>
</PointData>
<CellData Scalars="region_id,cross_section_updated," Vectors="" Tensors="stress,">
<DataArray type="Float64" Name="region_id" format="ascii">
5 5 6 5 5 5 5 6 5 5 5 5 5 5 5 5 5 5 5 5 6 5 5 5 5 6 5 5 5 5 5 5 5 6 5 5 5 5 5 5 5 5 6 5 5 5 5 5 5 5 5 5 5 5 6 6 5 5 5 5 5 5 5 5 6 5 5 5 5 5 5 5 5 5 5 5 5 5 5 5 5 5 5 5 5 5 5 6 5 5 5 5 5 5 5 5 5 5 5 6 5 5 5 6 5 5 5 5 5 5 5 5 5 5 5 5 5 5 5 5 5 5 5 5 5 5 5 5 5 5 5 5 5 5 5 5 5 5 5 5 5 5 5 5 5 5 5 5 5 6 5 6 5 5 5 5 5 5 5 5 5 5 5 5 5 5 5 5 5 5 5 5 5 5 5 5 5 5 6 5 5 6 5 6 5 5 5 5 5 5 5 5 5 5 5 5 5 5 6 5 6 5 5 5 5 5 5 5 6 5 6 5 5 5 5 5 5 6 5 5 6 5 5 5 5 5 5 6 6 5 5 6 5 6 5 6 6 5 5 5 6 5 5 5 5 5 5 5 5 5 5 5 5 5 6 5 5 5 5 5 5 5 6 5 5 5 5 5 5 5 6 5 5 5 5 6 5 5 5 5 5 5 6 5 5 5 6 5 5 5 5 5 5 5 6 5 5 5 5 5 5 6 5 5 5 5 5 5 6 5 5 5 5 5 5 5 6 5 5 5 5 5 5 5 5 5 5 5 5 5 5 5 5 5 5 5 5 5 6 6 5 5 5 5 5 6 5 5 5 5 5 5 5 6 5 6 5 5 5 6 5 5 5 6 5 6 5 5 5 5 5 5 5 6 5 5 5 5 5 5 5 6 5 5 5 6 5 5 5 5 5 5 5 5 5 5 5 5 5 5 5 5 5 5 5 5 5 5 5 5 5 5 5 5 5 5 5 5 6 5 5 5 5 5 5 5 5 5 5 5 5 5 5 5 5 5 5 5 5 5 5 5 5 5 5 5 5 5 5 5 5 6 5 5 5 5 5 5 5 5 5 5 5 5 5 5 5 5 5 5 5 5 6 5 5 5 5 5 5 5 6 5 5 5 5 5 6 5 5 6 5 6 5 5 5 5 6 5 5 6 5 5 5 5 5 5 6 5 5 5 5 5 5 5 5 5 5 5 5 5 5 5 5 5 5 5 6 5 5 5 5 5 5 5 5 5 5 5 6 6 5 5 5 5 5 5 5 5 5 5 5 5 5 5 5 5 5 5 5 5 5 6 5 6 6 5 5 6 5 5 5 5 5 5 5 5 5 5 5 5 5 6 5 5 5 5 5 5 5 6 6 5 5 5 5 5 5 5 5 6 6 5 5 5 6 5 5 5 5 5 5 5 5 5 5 5 5 5 5 5 5 5 5 5 5 5 5 5 5 5 5 5 5 5 5 5 5 5 5 5 6 5 5 6 5 5 5 5 6 5 5 5 6 5 5 5 6 5 5 6 5 5 5 5 5 5 5 5 5 5 5 5 5 5 5 5 5 5 5 5 5 6 5 5 5 6 5 5 5 5 5 6 5 5 5 5 5 5 6 5 5 5 5 5 5 5 5 5 5 5 5 5 5 5 5 5 5 6 5 5 5 5 5 5 5 5 5 5 5 5 5 5 5 5 5 5 5 5 5 6 5 5 5 5 5 5 5 5 5 5 5 5 5 5 5 6 5 5 5 5 5 5 5 5 5 5 5 5 5 5 5 5 5 5 6 5 5 5 5 5 5 5 6 5 5 5 5 5 5 5 5 5 5 5 5 5 5 5 5 5 5 5 5 5 6 5 5 5 5 5 5 5 5 5 6 5 5 5 5 5 5 5 5 6 5 5 5 5 5 5 5 5 5 5 5 5 5 5 5 5 5 5 5 6 5 5 5 5 5 6 5 5 5 6 5 5 5 5 5 5 6 5 5 5 5 5 5 5 5 5 5 6 5 5 5 5 5 5 5 5 5 5 5 5 6 5 6 5 5 5 5 5 5 5 6 5 6 5 5 5 5 5 5 5 5 5 5 5 5 5 5 5 5 5 5 5 5 5 5 5 5 5 5 5 5 5 5 5 5 5 5 5 5 5 5 5 5 5 5 5 5 5 6 6 5 5 6 5 5 5 5 5 5 5 5 5 5 5 5 5 5 5 5 6 5 5 5 5 6 5 5 6 5 5 5 5 5 5 6 5 6 5 5 6 5 5 5 5 5 5 5 5 5 5 6 5 5 5 5 5 6 6 5 5 5 5 6 5 5 6 5 6 5 5 5 5 5 6 5 5 6 5 5 5 5 5 5 5 5 5 5 5 5 6 5 5 5 5 5 5 5 5 5 5 5 5 5 5 5 6 5 6 5 6 6 5 6 5 5 6 5 5 5 5 5 5 6 5 6 5 5 6 5 5 5 6 5 5 6 5 5 5 5 5 6 5 5 6 5 5 5 5 5 6 5 6 5 5 6 5 5 6 5 5 5 5 5 5 5 5 6 5 5 5 5 5 5 5 5 5 5 6 5 5 5 5 6 5 5 6 5 5 5 5 5 6 5 5 5 5 5 6 5 6 5 5 5 5 5 5 6 5 5 5 5 5 5 5 5 6 6 6 5 5 5 5 6 5 6 5 5 5 6 6 5 5 5 6 5 5 5 6 5 6 5 6 6 5 6 5 5 5 5 6 5 5 5 6 5 6 5 6 5 5 5 5 5 5 5 6 5 5 5 5 6 5 5 5 5 5 5 5 5 6 5 6 6 5 5 5 6 5 5 5 5 6 6 5 5 6 6 5 5 5 5 5 6 5 5 5 5 5 5 5 5 6 5 6 5 5 5 5 5 5 5 5 5 5 5 5 5 5 5 5 5 6 5 5 5 5 5 5 5 5 5 5 5 5 5 5 5 5 5 5 5 5 5 5 5 5 5 6 5 6 5 5 5 5 5 6 6 5 5 5 5 6 6 5 6 5 5 6 5 5 6 5 5 5 5 6 6 5 5 5 5 5 5 5 5 6 5 5 6 5 5 5 6 5 5 6 5 5 5 5 5 5 6 5 5 5 5 5 5 6 5 5 5 5 5 6 5 5 6 6 5 5 6 5 5 6 5 5 5 5 5 5 5 5 5 5 5 5 6 5 6 5 5 6 5 5 5 5 5 5 6 5 5 5 6 6 6 5 5 5 6 6 5 6 6 5 5 6 5 5 6 5 6 5 6 5 5 5 6 6 5 5 6 6 6 6 5 5 5 6 6 5 5 6 6 6 5 6 6 5 5 6 5 6 6 5 6 5 5 6 5 6 6 5 5 5 5 6 6 5 5 6 5 5 5 6 5 5 5 5 5 5 5 5 5 5 5 5 5 5 5 5 5 5 5 5 5 5 5 5 5 5 5 5 5 5 5 5 5 5 5 5 5 5 5 5 5 5 5 5 5 5 5 5 5 5 5 5 5 5 5 5 5 5 6 5 6 5 5 5 5 5 5 5 5 5 5 5 5 5 5 6 5 5 5 5 5 5 5 5 5 5 6 5 5 5 5 5 5 5 5 5 5 5 5 5 5 5 5 5 5 5 5 5 5 5 5 5 5 5 5 5 5 5 5 5 5 5 5 5 5 5 5 5 5 5 5 5 5 6 5 5 5 6 5 6 5 5 5 5 5 6 5 6 5 5 5 5 5 5 5 5 5 5 5 5 5 5 5 5 5 5 5 5 5 5 5 5 5 6 5 5 5 5 5 5 6 5 6 5 5 5 6 5 5 6 5 5 5 5 5 5 5 5 5 5 5 5 5 5 5 5 5 5 5 5 5 5 5 5 5 5 5 5 5 5 5 5 5 5 5 5 5 6 5 6 5 5 5 5 5 5 5 5 5 5 6 5 5 5 5 5 5 5 5 5 5 5 5 5 5 5 5 5 6 5 5 5 6 6 5 6 5 5 5 5 5 5 5 5 6 5 5 5 5 6 5 5 5 5 5 5 5 6 5 5 6 5 6 5 5 6 5 5 6 6 5 5 5 5 5 5 5 5 5 5 5 5 5 5 5 6 5 6 5 5 5 6 5 6 5 5 5 5 5 5 5 5 5 5 5 5 6 5 6 5 5 5 5 5 5 5 5 6 5 5 6 5 5 5 6 6 5 5 5 5 5 5 5 5 5 5 5 5 5 5 5 5 5 5 5 5 5 6 5 5 5 5 5 6 5 6 5 5 5 5 6 5 5 6 5 5 5 5 5 6 5 5 5 5 6 5 5 5 5 5 5 5 6 5 5 5 6 5 5 5 5 5 5 5 5 5 5 5 6 5 5 5 5 5 5 5 5 6 5 5 5 5 5 5 6 5 5 5 5 5 5 6 5 5 5 5 5 5 5 5 5 5 5 6 5 5 5 6 5 5 5 6 5 6 5 5 5 5 5 5 6 5 5 5 5 5 5 5 5 5 5 5 5 5 5 5 6 5 5 5 5 5 6 5 5 5 5 5 5 5 5 6 5 5 5 5 5 5 5 5 5 5 5 5 5 5 5 5 6 5 5 5 5 6 5 5 5 5 5 5 5 5 5 5 5 5 5 5 5 5 5 5 5 5 5 5 5 5 5 5 6 5 5 5 6 5 6 5 5 5 5 6 5 6 5 5 5 5 5 6 5 5 5 5 5 5 5 5 5 6 5 5 5 5 5 5 5 5 5 5 5 5 5 5 5 5 5 5 5 5 5 5 5 5 6 6 5 5 5 5 5 6 5 5 5 6 5 5 5 6 5 5 6 5 6 5 5 5 5 6 5 5 5 5 6 6 5 5 5 5 5 5 5 5 5 5 5 5 6 5 5 5 5 6 5 5 5 5 5 6 5 5 6 5 5 5 5 5 5 5 5 5 5 5 5 5 5 5 5 6 5 5 6 5 5 5 6 5 5 5 5 5 5 5 5 5 5 5 6 5 5 5 5 5 5 5 5 5 5 5 5 5 5 5 5 6 5 5 6 5 6 5 5 6 5 6 5 6 5 5 5 5 5 5 5 5 5 5 5 5 5 6 5 6 6 5 5 6 6 5 5 6 6 5 5 5 6 5 6 5 5 6 5 5 5 5 6 6 5 6 5 5 6 6 5 5 6 5 5 5 6 5 5 5 6 6 6 5 5 6 5 6 6 5 5 5 5 5 5 5 5 5 5 5 6 6 5 6 5 6 5 6 5 5 5 6 5 5 5 5 5 6 5 5 5 5 5 5 5 5 5 5 5 5 5 5 5 5 5 5 5 5 5 5 5 5 6 5 5 5 5 5 5 5 5 5 5 5 5 5 5 5 5 5 5 6 5 5 5 5 5 5 5 5 5 5 5 6 5 5 5 5 5 6 5 5 5 5 5 5 5 5 5 5 5 5 5 5 6 5 5 5 5 5 5 5 5 5 5 5 5 5 5 6 5 6 5 5 5 5 6 5 5 5 5 5 5 5 5 5 5 5 5 6 5 6 5 5 5 5 6 5 5 5 5 5 5 5 6 5 5 5 5 5 5 5 6 5 5 5 6 5 6 5 5 5 5 5 5 5 5 5 6 5 5 5 5 5 5 5 5 5 5 5 5 5 5 5 5 5 5 5 5 5 5 5 5 5 5 5 5 5 5 5 5 5 5 5 5 5 5 5 5 5 5 5 6 5 5 6 5 5 5 5 5 5 5 5 5 5 6 5 5 5 5 5 6 5 5 6 5 5 5 5 5 5 6 5 5 5 5 6 5 5 6 5 6 5 5 5 5 5 5 5 5 5 5 5 6 5 6 5 5 5 5 6 5 5 5 5 5 5 5 5 5 5 5 5 5 5 5 5 5 5 5 5 5 6 5 5 5 5 6 5 5 5 5 5 5 5 6 5 5 5 5 5 6 5 5 5 6 5 5 5 6 5 5 6 5 5 5 6 5 5 6 5 5 5 5 5 5 5 5 5 5 5 5 5 5 5 5 5 5 5 5 5 5 5 5 5 5 5 5 5 5 5 6 5 5 5 5 5 5 5 5 5 5 5 6 5 5 5 5 5 5 5 5 5 5 5 5 5 5 5 6 6 5 5 5 6 5 5 5 5 6 5 5 6 5 5 5 5 5 5 5 5 5 5 5 5 5 6 6 5 5 5 5 5 5 5 5 5 5 5 6 5 5 6 5 5 5 5 5 5 5 5 5 5 5 5 5 5 5 5 5 5 5 6 5 5 5 6 5 5 5 5 5 6 5 5 5 5 5 5 5 5 5 5 5 5 5 5 5 5 5 5 5 5 6 5 5 6 5 5 5 5 5 5 5 5 5 5 5 5 5 5 5 5 5 5 5 6 5 5 5 5 5 5 5 5 5 5 5 5 5 5 5 5 5 5 5 5 5 5 5 5 5 5 5 5 5 5 5 5 6 5 5 5 5 5 5 6 5 5 5 5 5 6 5 5 5 5 6 5 5 5 5 5 5 5 5 5 5 5 5 5 5 5 5 5 5 5 5 5 5 6 5 5 5 5 5 5 5 6 5 5 6 5 5 6 5 5 5 5 5 5 6 5 5 5 5 5 5 5 5 5 5 6 5 6 5 5 5 5 5 5 5 5 6 5 5 6 5 5 5 6 5 5 5 6 5 5 5 6 6 5 5 6 5 5 6 5 5 6 5 5 5 5 5 5 5 5 5 6 5 5 5 6 5 5 5 6 5 5 5 6 5 6 5 5 6 5 5 5 5 5 5 5 5 6 5 5 6 5 5 5 5 5 5 5 5 5 5 5 5 5 6 5 6 5 5 5 6 6 5 6 5 5 5 5 6 5 6 5 5 5 5 5 5 5 5 5 6 5 5 5 5 5 5 5 5 5 5 5 5 5 5 5 5 5 5 5 5 5 5 5 5 5 5 5 5 6 5 5 5 5 5 5 6 5 5 5 5 5 5 6 5 5 5 5 5 5 6 5 5 5 6 5 5 5 6 5 5 6 5 5 5 5 5 5 6 5 5 5 6 6 5 5 5 5 5 5 5 5 5 5 5 5 5 5 5 5 5 6 5 5 5 5 5 5 5 6 5 5 5 5 5 6 5 5 5 5 5 6 5 5 6 5 5 5 5 6 5 5 5 5 5 5 6 5 6 5 6 6 5 6 5 5 5 6 5 5 5 5 5 6 5 5 5 6 5 5 5 5 6 6 6 5 5 5 5 6 6 5 6 5 5 5 5 5 5 6 5 6 5 5 6 5 5 5 6 5 5 6 5 5 5 5 5 5 5 5 5 5 5 5 6 5 5 5 5 6 5 5 5 5 6 5 5 5 5 5 5 5 5 5 6 6 6 5 5 5 6 6 5 5 6 5 6 5 5 5 5 5 5 5 6 5 5 5 5 5 5 5 5 5 5 5 5 5 5 5 5 6 5 5 5 5 5 5 5 5 5 6 5 5 6 5 6 5 6 5 5 6 5 5 5 6 6 5 5 6 5 5 5 6 5 5 5 5 6 5 5 5 5 5 5 5 5 5 5 5 6 6 5 5 5 5 5 5 5 5 5 5 5 5 5 5 5 5 5 5 5 5 5 5 5 5 5 5 5 5 5 5 5 5 6 5 5 5 5 5 5 5 5 5 5 5 5 5 5 5 5 5 5 5 6 5 5 5 5 5 5 6 6 5 5 6 6 5 5 5 6 5 5 5 5 5 5 5 5 5 5 5 5 5 5 5 5 5 5 5 5 5 5 5 6 5 6 5 6 5 5 5 5 5 5 6 5 6 6 5 5 6 5 5 5 5 5 5 6 6 5 5 6 6 5 5 6 6 5 5 5 5 5 5 5 5 6 5 5 5 5 5 6 5 5 6 5 5 5 6 5 5 5 5 5 5 5 5 5 5 5 5 5 5 5 5 5 5 5 5 5 5 5 5 5 5 5 5 5 5 5 5 5 5 6 5 5 6 5 6 6 5 5 5 5 5 5 5 5 5 6 5 5 5 5 5 6 5 5 5 5 5 5 5 6 5 5 5 5 5 5 5 5 6 5 5 5 5 5 6 5 5 5 5 5 5 5 5 5 5 5 5 5 5 5 5 5 5 5 5 5 5 5 5 5 5 5 5 5 5 6 6 5 5 5 5 5 5 5 6 5 5 5 6 5 6 5 5 5 5 5 5 5 5 5 5 5 5 5 5 5 5 5 5 5 5 5 6 5 5 5 5 5 5 6 5 5 5 5 5 5 5 6 5 5 6 5 5 5 5 5 5 6 5 5 5 6 5 5 6 6 5 5 5 5 5 5 5 5 5 5 5 5 5 5 5 5 5 5 5 5 5 5 5 5 5 5 5 5 6 5 5 5 5 5 5 5 5 5 5 5 5 5 5 5 5 5 5 5 6 5 5 5 6 6 5 5 5 5 5 6 5 5 5 6 5 5 5 5 5 6 5 5 5 5 5 5 5 5 5 5 5 5 5 5 5 5 5 5 5 5 5 6 5 5 5 5 5 5 6 5 5 5 5 5 5 5 5 5 5 5 5 6 5 5 5 5 6 5 6 5 5 5 5 5 5 5 5 5 5 5 5 5 6 5 5 5 5 5 6 5 5 5 5 5 5 6 5 5 5 5 5 5 5 5 5 5 5 5 6 5 5 6 5 5 6 5 5 6 5 5 5 5 5 5 5 5 5 5 6 5 5 5 5 5 5 5 5 6 5 5 5 6 5 5 5 6 5 5 6 5 5 5 6 5 5 5 5 5 6 5 6 5 5 5 5 6 6 5 5 5 6 5 5 5 5 6 5 5 5 5 5 5 5 5 5 5 5 5 5 5 5 6 5 5 6 6 5 5 5 5 6 5 5 5 5 5 5 6 5 5 5 5 5 5 6 5 5 5 5 5 5 5 5 6 5 5 5 5 5 5 5 5 5 5 6 5 5 6 5 5 6 5 5 5 5 5 6 6 5 5 6 6 5 6 5 6 5 6 6 5 5 6 5 6 5 6 5 6 5 6 5 5 6 5 6 5 6 5 5 5 5 5 5 6 5 5 5 6 5 5 5 5 5 5 5 5 5 6 5 5 6 5 6 5 6 5 5 5 6 6 5 5 5 5 5 5 5 5 5 5 5 6 5 5 5 5 5 6 5 5 5 5 5 5 5 5 5 5 5 5 5 5 5 5 5 6 5 5 5 5 5 5 6 5 5 5 6 5 5 6 5 5 5 6 5 6 6 5 5 5 5 5 5 5 5 5 6 5 5 5 5 5 5 5 6 5 6 5 6 5 5 5 5 5 5 5 5 5 5 5 5 5 5 5 5 5 5 5 5 5 5 5 5 5 5 5 5 5 5 5 5 5 5 5 5 5 6 5 5 6 6 5 5 5 5 6 5 5 5 5 5 6 5 5 6 6 5 5 5 5 5 5 6 5 6 5 5 6 6 5 6 5 5 5 6 5 5 5 5 6 5 5 5 6 5 5 6 6 5 5 5 6 5 5 5 5 6 5 5 6 5 5 5 6 5 5 6 5 5 5 6 5 6 5 5 6 5 5 6 6 5 5 6 5 6 6 5 5 5 5 6 5 5 5 5 6 5 5 5 5 5 5 5 5 5 5 5 5 6 5 5 5 5 6 5 6 5 5 5 5 5 6 6 6 5 5 5 5 5 5 5 5 6 5 5 5 5 5 5 6 5 5 5 5 6 5 5 5 5 5 5 5 5 5 5 5 5 5 5 5 5 5 5 6 5 6 5 5 6 6 5 6 5 5 6 5 6 5 6 5 6 5 5 5 5 6 5 5 5 6 5 5 5 5 5 5 5 5 5 5 5 5 5 5 5 5 5 5 5 5 5 5 5 5 5 6 5 5 5 5 5 6 5 5 5 5 5 5 5 5 5 5 5 6 5 5 5 5 5 6 5 5 6 6 5 5 5 6 5 5 6 6 5 6 5 5 5 5 5 5 5 5 5 5 5 5 5 5 5 5 6 5 5 5 5 6 5 5 5 5 5 5 5 5 6 6 5 5 6 5 5 5 5 5 5 5 5 5 6 6 5 5 6 5 5 5 6 5 5 5 5 5 5 5 5 5 5 5 5 5 5 5 5 5 5 5 5 5 5 5 5 5 5 6 5 5 5 5 5 5 5 5 5 5 5 5 5 5 5 5 5 5 5 5 6 5 5 5 6 6 5 5 5 6 5 5 6 5 5 5 5 5 6 5 6 5 5 5 5 5 5 5 5 6 5 5 5 6 5 5 6 5 6 5 5 5 6 5 5 5 6 5 5 5 5 5 5 5 5 5 5 5 5 5 5 5 5 5 6 5 5 5 5 5 5 5 5 5 6 5 5 5 5 5 5 5 5 6 5 5 5 5 5 5 5 5 5 5 5 5 5 6 5 5 5 6 5 5 5 5 5 5 5 5 5 5 5 5 5 5 5 5 5 5 5 6 5 5 5 6 5 6 5 5 5 6 5 5 5 6 6 5 5 5 5 5 5 5 5 5 5 5 5 5 5 5 5 5 5 5 5 5 5 6 5 5 5 5 6 5 5 5 5 6 5 5 5 5 5 5 5 6 5 5 5 5 6 5 5 5 5 5 5 6 5 5 5 5 5 5 6 5 5 5 6 5 5 5 5 5 5 5 5 5 6 5 5 5 5 5 5 6 5 5 5 5 5 5 5 5 5 5 5 6 5 5 6 5 5 5 5 5 6 5 5 6 5 5 5 5 5 5 5 6 6 5 5 5 5 6 5 5 5 5 5 5 6 5 5 5 5 5 5 5 5 5 5 6 5 5 5 5 5 5 5 5 5 5 5 5 6 5 6 5 5 5 6 5 5 6 5 5 5 5 6 5 5 5 5 5 6 5 5 5 5 5 5 5 5 6 5 5 5 5 6 5 5 5 5 5 5 5 6 5 5 5 5 5 5 5 5 5 5 6 5 5 5 6 5 6 5 5 5 5 5 5 6 5 6 5 6 5 5 5 5 6 5 5 5 5 5 5 5 5 5 5 5 5 5 5 6 5 6 5 5 5 5 5 5 5 6 5 5 5 5 5 5 5 5 5 5 5 5 5 6 5 5 5 5 6 5 5 5 5 5 5 5 5 5 5 5 5 5 5 5 5 5 5 5 5 5 5 5 5 6 5 5 5 5 6 5 5 5 6 5 5 6 5 5 6 5 5 5 5 5 5 5 5 5 5 5 5 5 5 5 6 5 5 6 5 5 5 5 5 5 5 6 5 5 5 5 5 6 5 5 5 6 5 5 5 6 5 5 5 5 5 5 5 6 5 5 5 6 5 6 6 5 5 5 5 5 6 5 5 5 5 5 5 5 5 5 5 6 5 5 5 5 5 5 5 5 5 5 5 5 5 5 5 5 5 5 5 5 5 5 5 5 5 5 5 5 5 5 5 5 5 5 5 5 5 6 5 5 5 5 5 5 5 5 5 5 5 5 5 5 5 5 6 5 5 5 5 5 5 5 5 5 6 5 5 5 5 5 5 5 6 5 5 5 5 5 5 5 5 5 5 5 5 5 5 5 5 5 5 5 5 5 6 5 5 5 5 5 5 5 5 5 5 5 5 5 5 5 5 5 6 5 5 5 5 5 5 5 5 5 5 5 5 5 5 5 5 5 5 5 5 5 5 5 5 5 5 5 5 5 5 5 5 5 5 5 5 5 5 5 5 5 5 5 5 5 5 6 5 5 5 5 5 5 5 5 5 5 5 5 5 6 5 6 5 5 5 5 5 6 5 5 5 5 5 6 6 5 5 5 5 5 5 5 5 5 5 5 5 5 5 5 5 5 6 6 5 5 5 5 5 5 6 5 6 5 5 5 5 5 5 5 5 5 6 5 5 5 5 5 5 5 5 5 5 5 5 5 5 5 5 5 5 5 6 5 5 5 5 5 6 5 6 5 5 5 5 5 5 5 6 5 5 5 6 5 5 5 6 5 5 6 5 5 5 6 5 5 6 5 6 5 6 5 5 6 5 5 5 5 5 5 5 5 5 5 5 5 5 5 5 5 5 5 5 5 5 6 5 6 5 5 5 5 5 5 5 6 5 5 5 5 5 5 5 5 5 5 5 5 5 5 5 5 5 5 5 6 5 5 5 6 5 5 5 5 5 5 5 5 5 5 6 5 5 5 5 6 5 5 6 5 5 5 5 5 6 5 5 5 5 6 5 6 5 5 6 5 5 5 5 5 5 5 6 5 5 6 5 6 5 5 5 5 5 5 5 5 5 5 5 5 5 5 5 5 5 5 6 5 5 5 5 5 5 5 6 5 5 5 5 6 5 5 5 5 5 5 5 5 5 6 5 5 5 5 6 5 5 5 5 5 5 5 5 5 5 5 5 6 5 5 5 5 5 5 5 5 5 6 5 5 5 5 5 5 5 5 5 5 5 5 6 5 5 6 5 5 5 5 5 5 5 5 5 6 6 6 5 5 5 6 5 5 5 5 5 5 6 5 5 5 6 6 5 5 5 5 5 5 5 5 5 5 5 5 6 5 5 5 6 6 5 5 5 5 5 6 5 5 5 5 6 5 5 5 5 6 5 5 5 5 5 6 6 6 5 5 5 6 6 5 5 5 5 5 5 5 5 5 6 6 5 5 5 6 6 5 5 5 5 5 5 5 5 5 5 5 5 5 5 5 5 5 6 5 6 5 5 5 5 6 5 5 5 5 5 5 5 6 5 5 5 5 5 5 5 6 5 5 6 5 6 6 5 5 5 6 6 5 5 5 6 6 5 5 5 5 5 5 5 5 5 5 6 5 5 5 5 5 5 5 6 5 5 5 5 6 5 5 5 5 5 5 6 5 5 5 5 6 5 6 5 5 5 5 5 5 5 5 5 5 5 5 5 5 6 5 5 5 5 5 5 5 6 5 5 5 5 6 5 5 5 6 5 5 5 5 5 5 5 5 5 5 5 5 5 5 5 5 5 5 5 5 5 5 6 5 6 5 5 6 5 5 5 6 5 5 6 5 5 5 5 5 5 5 5 5 5 5 5 5 5 5 5 5 5 5 5 6 6 6 5 5 5 5 5 5 5 5 5 5 5 5 5 6 5 5 5 6 5 5 6 5 5 5 5 6 5 5 6 6 5 5 5 5 6 5 5 6 5 6 5 5 5 5 5 5 5 5 5 5 5 5 6 5 5 5 5 5 5 5 6 5 6 5 5 5 5 6 5 5 5 5 5 5 5 5 5 5 5 5 5 5 5 5 5 5 5 5 5 5 5 6 5 5 5 6 5 6 5 5 5 6 5 5 5 5 5 6 5 5 6 5 5 5 5 5 5 5 5 6 5 5 5 5 5 6 5 5 5 5 5 5 5 5 5 5 5 5 5 5 6 5 5 5 5 6 5 5 5 5 5 5 5 5 5 5 5 5 6 5 5 5 5 6 5 5 5 5 5 5 5 5 5 5 5 5 5 6 5 5 6 5 5 5 6 5 5 5 5 5 5 5 5 5 5 5 5 5 6 6 5 6 6 5 5 5 6 6 5 6 5 6 5 6 5 5 5 6 5 6 5 5 5 5 6 5 5 5 5 5 5 6 5 5 5 5 5 6 5 5 6 5 5 6 5 5 6 5 5 5 5 5 6 5 6 5 5 5 5 5 5 5 5 5 5 5 5 5 6 5 5 6 5 5 5 5 5 5 5 5 5 6 5 5 5 5 5 5 5 5 5 6 5 5 6 5 6 5 5 5 5 5 5 5 6 5 5 5 5 5 5 5 6 5 6 5 5 6 5 5 5 6 5 5 5 5 6 5 5 5 5 5 6 5 5 5 5 5 5 5 5 5 5 5 5 5 5 5 5 5 5 5 5 5 6 5 5 6 5 5 5 6 5 5 5 5 6 5 5 5 5 5 5 5 5 5 5 5 5 5 5 5 5 5 5 5 5 5 5 5 6 5 5 5 5 5 5 6 5 5 5 5 5 5 5 5 5 5 5 5 5 6 5 6 5 5 6 5 5 5 5 6 6 5 6 5 6 5 5 5 5 5 6 5 5 6 6 5 5 5 5 5 6 5 5 6 5 5 5 5 5 5 5 5 6 6 5 5 5 6 5 6 5 5 5 5 5 6 5 6 5 5 5 5 5 6 6 5 5 5 5 6 5 5 5 5 6 5 5 5 5 5 5 5 5 5 5 5 5 5 5 5 5 5 6 5 5 6 5 5 5 6 5 5 5 5 5 5 5 5 5 5 5 5 5 5 5 5 5 5 5 6 5 5 5 5 5 5 5 5 5 5 5 5 5 5 6 6 5 5 5 6 5 5 5 5 5 6 5 5 5 5 5 5 5 5 5 5 5 6 5 5 6 5 5 5 5 5 5 5 5 5 5 6 5 5 5 6 5 6 5 6 5 5 5 6 6 5 6 5 5 6 5 5 6 6 5 5 5 6 5 5 6 5 6 5 5 5 6 5 5 6 6 5 6 5 5 6 5 6 5 5 5 5 5 5 5 5 5 6 5 5 5 5 5 6 5 5 5 5 5 5 5 5 5 5 6 5 5 5 5 6 6 5 5 6 5 6 5 5 5 5 5 6 5 5 6 5 6 5 5 5 5 5 5 5 6 5 5 5 5 5 5 5 5 5 6 5 6 5 6 5 6 5 5 5 5 6 5 5 5 5 5 6 6 5 5 5 5 5 5 6 5 5 5 5 5 6 5 5 5 5 6 5 5 6 5 6 5 5 5 6 5 6 5 5 6 6 6 5 5 5 5 5 5 6 6 6 5 5 5 5 6 5 6 5 6 5 5 5 5 5 5 6 5 5 5 5 5 5 5 5 5 5 5 5 5 5 5 5 5 5 5 5 5 5 5 5 5 5 5 5 5 5 5 5 5 5 5 5 5 5 5 5 5 5 5 5 5 5 5 5 5 6 5 5 5 6 6 5 5 5 5 5 5 5 5 5 5 5 5 5 5 5 5 5 5 5 6 5 5 5 5 5 5 5 6 5 5 6 5 5 6 5 5 6 5 6 5 5 6 5 5 5 6 5 6 5 6 6 5 5 5 6 6 5 5 6 5 5 6 5 5 5 5 5 5 5 5 5 5 5 5 6 5 5 5 5 6 5 5 5 5 6 5 5 5 5 5 5 5 5 5 6 5 6 5 5 5 5 6 5 5 5 6 5 5 5 5 5 5 6 5 5 6 5 5 5 6 5 5 5 5 5 5 5 6 5 5 5 5 5 6 5 5 5 5 5 5 5 5 5 5 5 5 5 5 5 6 5 5 5 5 5 6 5 5 6 5 6 5 5 5 5 6 6 5 5 6 5 5 5 5 5 5 5 5 5 5 5 6 5 6 5 5 5 5 5 6 5 5 5 6 5 5 5 6 5 5 5 5 5 5 5 5 5 5 5 5 5 6 5 5 5 5 5 5 5 6 5 6 5 5 5 5 5 5 5 6 6 5 5 5 5 5 5 5 5 5 6 5 5 5 5 5 5 6 6 6 5 6 5 5 5 5 5 5 6 5 6 5 6 5 6 5 5 5 5 5 5 6 5 5 6 5 5 5 5 6 5 5 5 5 5 5 5 5 5 5 5 5 5 5 5 5 5 5 5 5 5 6 5 6 5 5 5 5 5 5 5 5 5 5 5 5 5 5 5 5 5 5 5 5 5 5 5 5 5 5 5 5 5 5 5 5 5 5 5 5 5 5 5 5 5 5 5 5 5 5 5 5 5 5 5 5 5 5 5 5 5 5 6 5 5 5 5 5 5 5 5 5 5 5 5 5 5 5 5 5 5 5 5 5 5 5 6 5 5 5 6 5 6 5 5 5 5 5 5 5 5 5 5 5 5 5 5 5 5 5 5 5 5 5 5 5 5 5 5 5 5 5 5 5 5 5 5 5 5 5 5 5 6 5 6 5 5 5 5 5 5 5 5 5 5 5 5 5 5 5 5 5 5 5 5 5 5 5 5 5 6 5 5 5 5 5 5 5 5 5 5 5 5 5 5 5 5 5 5 5 5 5 5 5 5 5 5 5 5 5 5 5 5 5 5 5 5 5 5 5 5 5 5 5 5 5 5 5 5 5 5 5 5 5 5 5 5 5 5 5 5 5 5 5 5 5 5 5 5 5 6 5 5 5 5 5 5 5 6 5 5 6 5 5 5 5 5 5 5 5 5 5 5 5 5 5 5 5 5 5 5 5 6 5 5 5 5 5 5 5 5 5 5 5 5 5 5 5 5 5 5 5 5 5 5 5 5 5 5 5 5 5 5 5 5 6 5 5 5 5 6 5 6 5 5 5 5 5 5 6 5 5 6 5 5 6 6 5 6 5 5 5 6 5 5 5 5 5 5 5 5 5 5 5 5 5 5 5 6 5 5 5 5 5 5 5 5 6 5 5 5 5 5 5 5 5 5 5 5 5 5 5 5 5 5 5 5 5 5 5 5 5 5 5 5 5 5 5 5 5 5 5 5 5 6 5 5 5 5 5 5 5 6 5 5 6 5 6 5 5 5 5 5 5 5 5 5 5 5 6 6 5 5 6 5 5 6 6 5 5 5 5 6 5 6 5 5 6 5 6 6 5 6 5 6 5 5 5 5 5 5 5 6 5 6 5 5 5 5 5 6 5 5 5 6 5 5 6 5 6 5 6 6 5 5 6 5 5 5 5 5 5 6 5 5 5 5 5 5 5 5 6 6 5 5 5 6 5 5 5 5 6 6 5 6 5 5 5 6 5 5 5 5 5 5 5 5 5 5 5 5 5 5 5 5 6 5 5 5 5 5 5 6 5 6 5 5 5 6 6 5 5 6 5 6 5 5 5 5 5 5 5 5 5 5 5 5 6 6 5 5 5 5 5 6 5 5 5 5 5 5 5 6 5 5 5 6 5 6 5 5 6 5 5 5 5 5 5 5 5 5 6 5 5 6 5 5 5 5 5 5 5 5 5 5 5 6 5 5 5 5 5 5 5 5 5 5 5 5 5 5 5 5 5 5 5 5 5 5 6 5 5 5 5 5 5 5 5 5 5 5 6 5 5 5 5 6 5 5 5 5 5 5 5 5 5 5 5 6 5 5 5 5 5 6 5 6 5 5 5 5 5 5 5 5 5 6 5 5 6 5 5 6 5 5 5 5 6 5 5 5 5 5 5 5 5 5 5 5 5 5 5 5 5 5 5 5 5 5 6 5 5 6 5 6 5 5 5 5 5 5 5 5 5 6 5 5 6 6 6 5 5 5 6 5 5 5 5 5 5 6 6 5 6 5 5 6 5 5 6 5 5 5 5 6 5 5 5 5 6 5 5 5 5 5 5 5 5 5 5 5 6 5 5 6 5 6 6 5 5 6 6 6 5 5 5 5 5 5 5 5 5 5 6 5 5 5 5 5 5 5 5 5 6 5 5 5 5 5 6 5 5 5 5 5 5 5 5 5 5 6 5 5 5 5 5 5 5 5 5 5 5 5 5 5 5 5 5 5 5 5 5 5 5 5 6 6 5 5 5 5 5 5 5 5 6 5 5 5 5 5 5 5 5 5 5 5 5 5 5 5 5 6 5 5 5 5 6 5 5 5 6 6 5 5 5 5 5 5 6 5 6 5 5 5 6 5 5 5 5 5 5 5 5 6 5 6 6 5 5 5 5 5 5 5 5 5 5 5 5 6 5 5 6 5 6 5 5 5 5 5 5 5 5 5 5 5 5 5 5 5 5 5 5 5 5 5 5 5 6 5 5 5 5 5 6 5 5 5 5 5 5 5 5 5 5 6 5 5 5 6 5 5 5 5 5 5 5 5 5 5 5 6 6 5 5 5 5 5 6 5 5 5 6 5 5 5 5 5 5 5 5 5 5 6 5 5 5 5 5 5 5 6 6 5 6 5 5 5 5 6 5 5 5 5 5 6 5 5 5 5 5 5 5 5 5 5 6 5 5 5 5 5 5 5 5 5 5 6 5 5 5 5 5 5 5 6 5 5 5 5 5 5 5 5 5 5 5 5 5 5 5 5 5 5 5 5 6 5 5 5 6 5 5 5 5 5 5 5 5 5 5 5 5 5 6 5 6 6 5 6 6 5 5 5 5 5 6 5 5 5 5 5 5 5 6 5 5 6 5 5 6 5 5 6 5 5 6 6 6 6 5 5 6 6 5 5 6 5 5 6 5 5 5 5 6 6 6 6 5 5 5 6 5 6 5 6 5 6 6 5 5 5 5 5 5 5 6 5 5 6 5 6 5 5 6 6 5 5 5 5 5 5 5 5 5 5 5 5 5 5 5 5 5 6 5 5 5 5 5 5 5 5 5 5 5 5 5 5 5 5 5 6 5 5 5 5 5 5 5 5 5 5 5 5 5 5 6 6 5 5 5 5 6 5 6 5 5 5 6 6 5 6 5 5 5 5 5 5 5 5 5 5 5 5 5 5 5 5 5 5 5 6 5 6 5 5 5 5 6 5 5 5 5 5 5 5 5 5 5 5 5 5 5 5 5 5 5 5 5 6 5 5 5 5 5 5 5 5 5 5 5 5 5 5 6 5 5 5 5 5 5 5 5 5 5 5 5 5 5 5 5 5 5 5 5 5 5 5 5 5 5 5 5 5 5 5 5 5 5 5 5 5 5 5 5 5 5 5 5 5 5 5 5 5 5 5 5 5 5 5 5 5 5 5 5 5 5 6 5 5 5 6 5 5 6 5 5 5 5 5 5 5 5 5 5 5 6 5 5 5 5 6 5 5 5 5 5 5 5 5 5 5 5 5 5 5 5 5 5 5 5 5 5 5 5 5 5 5 5 5 5 6 5 5 5 5 6 5 5 5 5 5 5 5 5 5 5 6 5 5 6 5 5 5 5 5 5 5 5 5 5 5 5 6 5 5 5 5 5 5 5 5 6 5 5 5 5 5 5 5 5 5 5 6 5 6 5 5 5 6 5 5 5 6 5 6 5 6 6 5 5 5 5 5 6 5 5 5 5 5 5 5 5 5 5 5 5 5 5 5 5 5 5 5 5 5 5 5 6 5 5 6 5 5 5 6 5 6 5 5 5 5 5 5 5 5 5 5 5 5 6 5 5 5 5 5 5 5 5 5 5 5 5 5 5 5 5 5 5 5 6 5 5 5 5 5 5 5 5 5 5 5 5 5 5 5 5 5 5 5 5 5 5 5 5 5 5 5 6 5 5 5 5 5 5 5 5 5 5 5 5 5 5 5 5 5 5 6 5 5 5 6 5 5 5 6 6 5 5 5 5 5 6 5 5 5 5 5 5 5 6 6 5 5 5 6 5 6 5 5 5 5 5 5 6 6 5 5 6 6 5 5 5 5 5 5 5 5 5 5 6 5 5 5 5 5 5 6 5 5 5 5 5 5 5 5 5 5 5 5 5 5 5 5 5 6 5 5 5 5 6 5 5 6 5 5 5 5 5 5 5 5 5 5 5 6 5 6 5 6 5 5 5 5 5 5 5 5 5 5 5 5 5 5 5 5 5 5 5 6 5 5 6 5 5 5 6 5 5 6 5 5 5 5 6 5 5 5 5 5 5 5 6 5 5 5 5 5 5 5 5 5 5 5 5 5 5 5 5 5 5 5 5 5 5 5 5 5 5 5 5 5 6 5 5 5 5 5 5 5 5 5 5 5 5 5 5 5 5 5 5 5 5 5 5 5 5 5 5 5 5 5 5 5 5 5 5 5 5 5 6 6 6 5 5 6 5 5 5 6 5 6 5 5 5 5 5 6 5 5 5 5 5 5 5 6 5 5 5 5 5 5 5 5 5 5 5 5 5 5 6 5 5 5 6 5 6 5 5 5 5 5 5 5 5 6 5 5 5 5 5 5 5 6 5 6 5 6 5 5 5 5 5 5 5 5 6 5 5 6 6 6 5 6 5 6 5 5 5 5 5 5 5 5 5 5 5 5 5 5 5 5 5 5 5 5 5 6 5 5 6 6 5 5 5 6 5 5 5 5 5 5 5 6 5 6 5 5 5 5 6 5 5 6 5 5 5 5 5 5 5 6 5 5 6 5 5 5 6 5 5 5 5 5 5 5 5 5 6 5 5 5 5 5 5 6 5 5 6 5 5 5 5 6 5 5 5 5 5 5 6 6 6 5 5 5 6 5 6 5 6 5 5 5 5 5 5 6 5 5 5 6 5 5 5 6 5 5 5 5 5 5 5 5 5 5 5 5 6 5 5 5 6 5 5 5 5 5 6 6 5 5 6 5 6 6 6 5 5 5 6 5 5 5 5 5 6 5 5 5 5 5 5 5 5 5 5 5 5 6 5 5 5 5 5 5 6 5 5 6 5 5 6 5 5 5 5 5 6 5 5 6 5 6 5 6 5 5 5 5 5 5 6 5 5 5 5 6 5 5 5 5 5 5 5 5 5 5 6 5 5 5 5 5 6 5 5 5 5 5 5 5 5 5 5 5 5 5 5 5 6 5 5 5 5 5 6 5 6 5 5 5 5 5 6 5 5 5 5 5 6 5 5 5 5 5 6 5 5 5 5 5 5 5 5 5 5 6 5 6 5 6 5 5 6 5 5 5 5 5 5 5 5 6 5 6 5 5 5 5 5 5 5 5 5 5 6 5 5 5 5 5 5 5 5 5 5 6 5 5 5 6 5 6 6 5 5 5 6 5 5 5 6 6 5 5 5 5 5 5 5 5 5 5 6 6 5 5 5 5 5 6 5 5 5 5 5 5 5 5 5 5 6 5 6 6 6 5 5 5 5 5 5 5 5 6 5 5 5 5 5 5 5 5 5 5 5 5 5 5 5 5 5 5 5 5 5 5 5 5 5 5 5 5 5 6 5 5 5 5 6 5 5 5 5 5 5 5 5 6 5 5 5 5 5 5 5 5 6 5 5 5 5 5 5 5 5 5 5 5 5 5 5 5 5 5 5 5 5 5 5 5 5 5 5 6 5 5 5 5 5 5 6 5 6 5 5 6 5 5 5 6 5 6 5 5 5 6 5 5 5 6 5 5 5 5 5 5 6 5 5 5 5 5 5 5 5 5 5 5 5 5 5 5 5 5 5 5 5 5 5 5 5 5 5 5 6 5 6 5 5 5 5 6 5 5 5 5 5 5 5 5 5 5 5 5 5 6 5 5 6 5 5 6 5 5 5 5 5 6 5 5 5 5 5 5 5 5 6 5 6 5 5 5 5 5 6 6 5 5 6 5 5 5 6 5 5 5 5 5 5 5 6 5 5 5 5 5 5 5 5 5 5 5 5 5 5 5 5 6 5 5 5 5 5 6 5 6 5 5 5 5 5 5 5 5 5 5 5 5 6 5 6 5 5 5 5 5 5 6 6 5 5 5 5 5 5 5 5 5 5 5 5 5 5 5 5 5 5 5 5 5 6 5 5 6 5 5 5 5 5 6 5 5 5 5 5 5 6 5 5 5 5 5 5 5 5 5 5 5 5 5 5 5 5 6 5 5 6 5 5 5 5 6 5 5 5 5 5 5 5 5 5 5 5 6 5 5 5 5 5 5 5 5 5 5 5 5 5 5 5 5 5 5 5 6 5 5 5 5 5 5 5 5 5 5 5 5 6 5 5 5 5 5 5 5 5 5 5 5 5 5 6 6 5 5 5 5 5 5 6 5 5 5 5 5 5 5 5 5 5 5 5 5 5 5 5 5 5 5 5 5 5 5 5 5 5 5 5 5 5 5 5 5 5 5 6 5 5 5 5 5 5 5 5 6 5 5 5 5 5 5 5 5 5 5 5 5 6 5 5 5 5 6 5 6 5 5 5 5 5 5 5 5 6 5 5 5 5 5 5 5 5 5 5 6 5 5 5 6 5 5 6 5 5 5 5 6 5 5 6 5 5 5 5 5 5 5 5 6 5 5 5 6 5 5 5 5 5 5 5 6 5 6 5 6 5 6 6 5 5 5 6 6 6 5 5 6 5 5 5 6 5 5 5 5 6 5 5 5 5 5 5 5 5 5 5 5 5 5 5 5 5 5 5 5 5 5 5 5 5 5 5 5 5 5 5 5 5 5 5 5 5 5 5 6 5 5 5 5 5 5 5 5 6 5 5 5 5 6 5 5 6 5 5 6 5 5 5 5 6 5 5 5 5 5 6 5 5 5 5 5 5 5 5 5 5 5 5 5 6 6 5 5 5 6 5 5 5 5 5 5 5 5 5 5 5 5 5 5 6 5 5 5 5 5 5 6 5 5 6 5 5 5 5 5 5 5 5 5 5 6 5 5 5 5 5 6 5 5 5 5 5 5 5 5 5 5 6 5 5 5 5 5 5 5 5 5 5 5 5 5 5 5 6 5 5 5 5 5 5 5 5 5 5 5 5 5 5 5 5 5 5 5 5 5 5 5 6 5 6 5 5 5 6 5 5 5 5 5 5 5 5 5 6 5 5 5 6 5 5 5 5 5 5 5 5 5 5 5 5 5 5 5 5 6 5 5 5 5 5 6 5 5 5 6 5 6 5 5 5 5 5 5 6 5 5 5 5 5 5 5 5 5 5 5 5 5 5 5 5 5 5 5 5 5 5 5 5 5 5 5 6 5 5 6 5 5 5 5 5 5 5 6 5 5 5 5 6 5 5 6 5 5 5 5 5 5 6 5 5 5 6 5 5 5 6 5 5 5 5 5 6 5 5 5 5 5 6 5 5 5 5 5 5 5 5 6 5 5 6 5 5 5 5 6 5 5 5 5 6 5 5 5 5 6 5 5 5 6 5 6 5 5 5 5 5 5 5 5 5 5 6 5 5 5 5 5 5 5 6 6 5 5 5 5 5 6 5 5 5 5 5 6 5 5 5 6 5 5 6 5 5 6 5 5 5 6 5 5 5 5 5 5 6 5 5 5 5 5 6 5 5 5 5 5 6 5 5 5 5 5 5 6 5 5 5 5 6 5 5 5 5 5 6 5 5 5 5 5 5 5 5 5 5 6 5 5 5 5 5 5 5 6 5 5 5 5 6 6 5 5 6 5 5 5 5 5 5 5 6 5 5 5 5 5 5 5 6 5 6 5 5 6 5 5 5 5 6 5 6 5 5 5 5 5 5 5 5 5 5 6 5 5 5 5 5 6 5 5 5 6 5 5 5 5 6 5 5 6 5 5 5 5 5 6 5 6 5 6 6 5 5 5 5 6 6 5 5 5 5 5 5 5 5 5 5 5 5 5 6 5 5 5 5 5 5 6 6 5 5 5 5 5 5 5 5 5 5 5 5 5 6 5 5 5 5 5 5 5 5 5 5 5 5 5 5 5 5 5 5 5 5 5 5 5 5 5 5 5 5 5 5 5 5 5 6 5 5 6 5 5 5 5 5 5 5 6 5 5 5 6 5 5 6 5 5 5 6 6 5 5 5 5 6 6 5 5 5 5 5 5 5 5 5 5 5 5 5 5 6 5 5 6 5 5 5 6 5 5 5 5 6 5 5 6 5 5 5 5 5 5 5 5 5 5 5 6 5 5 5 5 5 5 5 6 5 5 5 5 5 5 5 5 5 5 5 5 5 5 5 5 5 5 6 5 5 5 5 5 5 6 5 6 5 5 5 5 5 6 5 5 6 5 5 5 6 5 5 5 6 5 5 5 5 5 5 5 5 5 5 5 5 5 5 6 5 5 5 5 6 6 5 5 5 5 5 5 5 5 5 5 5 5 5 5 5 5 5 5 5 6 5 5 5 5 5 5 5 5 6 5 6 5 5 5 5 5 5 5 6 5 6 5 5 5 5 5 6 5 5 5 5 5 5 6 5 5 5 5 5 6 6 5 5 5 6 6 6 5 5 5 5 5 6 5 5 5 5 5 6 5 5 5 5 6 5 6 6 5 6 6 5 5 5 6 5 5 5 6 5 5 5 6 5 5 5 6 5 5 5 5 5 5 5 5 6 5 5 5 6 5 5 5 5 5 5 6 5 5 5 5 5 5 6 5 5 5 5 5 5 5 5 5 5 5 5 5 5 6 5 6 5 5 5 6 5 5 6 5 6 5 6 5 5 6 5 5 5 5 5 5 6 5 5 5 5 6 5 5 5 5 5 5 6 5 5 5 5 5 5 5 5 5 5 6 5 5 5 5 5 5 5 5 5 5 5 5 5 5 5 5 5 5 5 6 6 5 5 5 6 5 5 6 5 5 6 5 5 6 5 5 6 6 5 5 5 5 6 5 5 5 5 5 5 5 5 5 5 5 6 6 5 5 5 6 5 6 5 6 5 5 5 5 5 6 5 5 6 5 6 5 5 6 6 6 5 5 5 5 6 5 5 6 5 6 5 5 6 5 5 5 5 5 5 5 5 6 5 6 6 5 5 5 5 5 6 6 5 5 5 6 6 5 5 5 5 5 5 5 5 6 5 6 5 5 5 5 5 5 5 5 5 5 5 5 5 5 5 5 5 5 5 5 5 5 5 5 5 5 5 5 5 6 5 5 5 5 5 5 5 5 5 5 5 5 5 5 5 6 5 5 6 5 5 5 5 5 6 5 5 5 5 5 5 5 5 5 5 5 5 5 6 5 5 5 5 5 5 5 5 5 6 5 5 6 5 5 5 5 6 6 6 5 5 5 5 5 6 5 5 5 
</DataArray>
<DataArray type="Float64" Name="stress" NumberOfComponents="9" format="ascii">
5290365384.9372253 -1518975.2555534586 0 -1518975.2555534586 2085938.7099925119 0 0 0 0 6609224575.1792145 -1866965347.2132871 0 -1866965347.2132871 -231350.3008760626 0 0 0 0 11754767.41502244 -2047579.9704439119 0 -2047579.9704439119 -384293.20748472336 0 0 0 0 6168922416.0883789 -1822605906.772486 0 -1822605906.772486 141437144.80745935 0 0 0 0 4639286992.2320251 -679618249.3101449 0 -679618249.3101449 2579277.625367993 0 0 0 0 4332368295.9415588 -1314931169.1415906 0 -1314931169.1415906 -416855282.95088887 0 0 0 0 4547816120.9653625 -930150012.86026728 0 -930150012.86026728 257454532.87005574 0 0 0 0 12127674.35297589 -1693437.5008563623 0 -1693437.5008563623 -682408.33768699691 0 0 0 0 5177458536.8157806 -943286590.58265245 0 -943286590.58265245 -767884323.90164948 0 0 0 0 4743582947.2369385 -1571680519.4071884 0 -1571680519.4071884 -1165422266.5903335 0 0 0 0 4745859294.0276012 -1301399643.084089 0 -1301399643.084089 -449781515.29033566 0 0 0 0 3292412020.1328735 -1561486383.8543878 0 -1561486383.8543878 -76114446.85009861 0 0 0 0 4218788777.7103271 -1722661809.1084745 0 -1722661809.1084745 -108008872.30576205 0 0 0 0 4494962532.4483643 -3105996711.9449978 0 -3105996711.9449978 -241853665.92962801 0 0 0 0 6608218940.5376282 -2265638772.9762115 0 -2265638772.9762115 -1082091413.3510447 0 0 0 0 1539316165.4924011 -559856296.36350942 0 -559856296.36350942 432519491.83904749 0 0 0 0 3405972642.7177429 -1286433851.4494667 0 -1286433851.4494667 164245847.92439589 0 0 0 0 1907648937.2764893 -939862903.65452802 0 -939862903.65452802 215172247.24072039 0 0 0 0 1999309726.6337128 -149932483.48575789 0 -149932483.48575789 29375286.96258688 0 0 0 0 1096860714.5341644 -761876883.84056151 0 -761876883.84056151 548969063.4810307 0 0 0 0 1256627.5101796724 -235908.51769682765 0 -235908.51769682765 578151.98860295408 0 0 0 0 3705492972.9579773 -564956188.68381596 0 -564956188.68381596 -327313066.11144441 0 0 0 0 3566201647.3743896 -638462375.29441404 0 -638462375.29441404 214022043.48312545 0 0 0 0 4186491687.9875183 -1110650113.0464823 0 -1110650113.0464823 147327164.99157676 0 0 0 0 3752120210.5523834 -604754812.54606259 0 -604754812.54606259 -1124944.8199957325 0 0 0 0 2802423.8302483447 -817604.74010974169 0 -817604.74010974169 341019.07400064234 0 0 0 0 1315214879.7658768 -176262187.84053904 0 -176262187.84053904 -53817047.994128287 0 0 0 0 3410983550.9688263 -775968009.84404981 0 -775968009.84404981 101981303.05385478 0 0 0 0 1207568693.7125549 -165120925.79896912 0 -165120925.79896912 -168806.13872526312 0 0 0 0 1097066645.8978271 -211751308.27095875 0 -211751308.27095875 12641839.396158338 0 0 0 0 1097206879.6598077 -339395616.87565142 0 -339395616.87565142 -83925720.940111399 0 0 0 0 1232415503.5683136 -229663496.47963956 0 -229663496.47963956 -35706237.237654984 0 0 0 0 439166785.70120239 262757594.89098671 0 262757594.89098671 -221008682.47144055 0 0 0 0 2321679.8907020241 887915.57598284632 0 887915.57598284632 -152887.2238842136 0 0 0 0 268539834.12792969 -258044880.9888981 0 -258044880.9888981 158540529.11929843 0 0 0 0 677903190.11303711 -207281332.13886473 0 -207281332.13886473 59623.989346012022 0 0 0 0 656254904.82321167 -422547412.57212609 0 -422547412.57212609 72841259.475381702 0 0 0 0 684127631.9046936 -189094206.44113472 0 -189094206.44113472 48064342.256599724 0 0 0 0 1634372138.1262207 -778619608.72666025 0 -778619608.72666025 296472323.2692436 0 0 0 0 2797201700.3655701 -1143713190.8577173 0 -1143713190.8577173 40825391.855890989 0 0 0 0 1667463329.0187988 -67824226.295512915 0 -67824226.295512915 -504952240.27902412 0 0 0 0 954341048.09213257 -253315808.16914392 0 -253315808.16914392 -83295446.729539871 0 0 0 0 5009094.5218778402 2541316.9105995446 0 2541316.9105995446 252494.3015625556 0 0 0 0 888463012.92356873 -10539773.700483203 0 -10539773.700483203 -159167724.94254875 0 0 0 0 195005616.39160156 22258504.788685799 0 22258504.788685799 -97399713.336490631 0 0 0 0 1060079759.0429993 77533044.478310108 0 77533044.478310108 -266520469.07739544 0 0 0 0 345728031.67556763 -69069561.0270226 0 -69069561.0270226 -125765414.83627558 0 0 0 0 1158943751.2109833 348025435.04231048 0 348025435.04231048 -186910001.00075531 0 0 0 0 1676094536.194397 46735623.795312881 0 46735623.795312881 -535814059.83950329 0 0 0 0 2887302640.1414337 -363845591.75047582 0 -363845591.75047582 -179543706.65067172 0 0 0 0 1810313941.6677246 32856049.512119263 0 32856049.512119263 57129247.364588812 0 0 0 0 1131116007.5255127 -313147067.85163921 0 -313147067.85163921 291341047.68291897 0 0 0 0 1072750283.0374298 -710138893.00872707 0 -710138893.00872707 292759840.3051706 0 0 0 0 2175453.0335540771 347295629.87839222 0 347295629.87839222 -226043033.05734921 0 0 0 0 5350478.2338804305 3376172.9870912433 0 3376172.9870912433 1008469.0929682453 0 0 0 0 -353263.38354563713 77931.797142654657 0 77931.797142654657 913597.52335854818 0 0 0 0 2232778354.497921 -490286344.443084 0 -490286344.443084 755609304.08962882 0 0 0 0 2272592837.1255493 -958715115.45317125 0 -958715115.45317125 257689131.71854222 0 0 0 0 1577872657.9832153 -104213490.82009304 0 -104213490.82009304 544037689.42410076 0 0 0 0 1518987259.009491 -130443149.14270926 0 -130443149.14270926 81488153.695796251 0 0 0 0 1472296588.6254883 -323977085.77491522 0 -323977085.77491522 285544389.62840939 0 0 0 0 -530961096.3598175 217294945.82374352 0 217294945.82374352 310826937.98093033 0 0 0 0 1280015946.8456726 751856504.14734364 0 751856504.14734364 42163043.175779819 0 0 0 0 869881141.38130188 162484887.48805368 0 162484887.48805368 237571146.58418941 0 0 0 0 1289920.2024022415 2351052.3475518376 0 2351052.3475518376 3988604.2355205761 0 0 0 0 1302331818.2915344 142532569.21847105 0 142532569.21847105 -47429543.825155258 0 0 0 0 942649565.24865723 146838341.84425497 0 146838341.84425497 -26001382.80935955 0 0 0 0 862811448.99143219 -93412777.996062964 0 -93412777.996062964 68050397.440023899 0 0 0 0 1098355399.3968582 -186624611.25231415 0 -186624611.25231415 101338785.31193542 0 0 0 0 1925490563.4983215 458493460.75538731 0 458493460.75538731 -41839045.529361725 0 0 0 0 1295083848.8191833 116410777.26349735 0 116410777.26349735 -169689849.93294716 0 0 0 0 966910280.60856628 468338899.43185616 0 468338899.43185616 -48759919.08489418 0 0 0 0 136771137.96664429 249008425.77898121 0 249008425.77898121 29482076.939250946 0 0 0 0 82065965.695770264 -476543796.20565319 0 -476543796.20565319 389766782.39490604 0 0 0 0 739354077.47357178 9053906.109079361 0 9053906.109079361 238745194.69543028 0 0 0 0 438272323.32383728 402688566.00600004 0 402688566.00600004 -168252523.07860374 0 0 0 0 869060738.03599548 361303473.15393376 0 361303473.15393376 820931113.07736778 0 0 0 0 1972298430.7589111 189782780.33843613 0 189782780.33843613 353415034.52218819 0 0 0 0 1907263150.6088867 261751148.82211018 0 261751148.82211018 366842764.55878639 0 0 0 0 1285798360.1469727 -413979217.56184149 0 -413979217.56184149 898196619.78286171 0 0 0 0 727990844.76283264 286911004.53478861 0 286911004.53478861 106524708.50060272 0 0 0 0 363039228.66644287 -397924529.19582129 0 -397924529.19582129 -148709527.49694777 0 0 0 0 403780998.57696533 165544909.78007841 0 165544909.78007841 -345905710.42161846 0 0 0 0 1107131302.6604919 -473788042.22040272 0 -473788042.22040272 138754538.43910062 0 0 0 0 1106137782.0527973 287382485.19215828 0 287382485.19215828 -151083415.65047455 0 0 0 0 1171034276.3716736 220802887.14295936 0 220802887.14295936 -134540365.81973457 0 0 0 0 -609205014.64582825 -72315467.203602314 0 -72315467.203602314 476623518.91806984 0 0 0 0 690472.77212497592 1074323.7580938488 0 1074323.7580938488 2648288.1122043794 0 0 0 0 423615870.08807373 -542583438.77235889 0 -542583438.77235889 -272786766.4430511 0 0 0 0 242871147.09182739 -681107877.75036478 0 -681107877.75036478 -452608324.2045778 0 0 0 0 675476130.13555145 -324119616.12742186 0 -324119616.12742186 -546625962.64195824 0 0 0 0 516837737.91482544 154954692.74664593 0 154954692.74664593 194129372.32441568 0 0 0 0 686440871.20743561 -727837296.69216883 0 -727837296.69216883 -672171718.71884727 0 0 0 0 317708208.79164124 -310445236.51877666 0 -310445236.51877666 -99218695.622754097 0 0 0 0 11182749.87538147 -948977868.34178519 0 -948977868.34178519 -224871451.92730093 0 0 0 0 -200735503.43585205 -712078992.6776104 0 -712078992.6776104 -595432063.89131689 0 0 0 0 -8751513.1045532227 -1051515195.794971 0 -1051515195.794971 -795180194.50917912 0 0 0 0 -766244262.31661987 -939043907.83510971 0 -939043907.83510971 -538735265.08721352 0 0 0 0 -756938104.41763306 -1121481794.9129171 0 -1121481794.9129171 -548585064.40963078 0 0 0 0 9522543.4477299042 -5401586.3025307208 0 -5401586.3025307208 4911875.0472845268 0 0 0 0 6615147706.893631 -309215826.36107141 0 -309215826.36107141 153928817.23482564 0 0 0 0 5352717208.3078041 -1943843006.4811473 0 -1943843006.4811473 708428824.33636844 0 0 0 0 -1190669066.7740631 -824645325.2025013 0 -824645325.2025013 -481548203.82688522 0 0 0 0 3201974.0645143529 -1843771.7400462776 0 -1843771.7400462776 2072862.3362504137 0 0 0 0 -2085635020.4735718 -532159911.16518402 0 -532159911.16518402 -436334632.89592016 0 0 0 0 10523005551.633316 -3738631172.1828504 0 -3738631172.1828504 1178220767.4128208 0 0 0 0 -5243572149.0315247 -1433018990.2523708 0 -1433018990.2523708 1440583427.2736371 0 0 0 0 258297992.0916748 -1042188980.8285403 0 -1042188980.8285403 -681043574.96356726 0 0 0 0 -933614648.14749146 -1690276639.0014799 0 -1690276639.0014799 -176025045.13686752 0 0 0 0 140622458.82673645 -1029868650.1720388 0 -1029868650.1720388 579487307.35161018 0 0 0 0 -1723646046.3618774 -3465420599.6839571 0 -3465420599.6839571 1784840153.2775803 0 0 0 0 519070859.25701904 -1431642625.4427133 0 -1431642625.4427133 -213482330.71007228 0 0 0 0 3960837983.5218506 -4168284490.4860129 0 -4168284490.4860129 918482394.20604086 0 0 0 0 6617385032.2179718 -5971966421.6353779 0 -5971966421.6353779 2032331067.1273201 0 0 0 0 4773066979.7355499 -3315017196.9364762 0 -3315017196.9364762 -45270045.262275524 0 0 0 0 4018563821.7701416 -2957595872.990335 0 -2957595872.990335 -194218005.54455495 0 0 0 0 2833568721.9663086 -2018650707.0927255 0 -2018650707.0927255 476919791.45419461 0 0 0 0 1661556112.5067062 -1707280046.5354624 0 -1707280046.5354624 394203468.24897659 0 0 0 0 2965374521.5292358 -3694812242.0653343 0 -3694812242.0653343 710260507.71824908 0 0 0 0 1879091546.6591034 -913459796.6784991 0 -913459796.6784991 432258318.09110898 0 0 0 0 1275786370.6505127 -756270045.18650699 0 -756270045.18650699 285003790.43121767 0 0 0 0 1171021068.5046997 -819433483.21199465 0 -819433483.21199465 476993419.0091365 0 0 0 0 1689616817.1782379 -525674786.27338374 0 -525674786.27338374 392206465.06111503 0 0 0 0 1216518380.5335693 -421355856.4261198 0 -421355856.4261198 373810665.6077919 0 0 0 0 1418328180.1036682 -512837490.59856111 0 -512837490.59856111 222563374.77286959 0 0 0 0 1098247116.7600098 -294138099.40792525 0 -294138099.40792525 -157493231.49488056 0 0 0 0 772140358.0957756 -347322459.74019825 0 -347322459.74019825 201242102.66637993 0 0 0 0 837429709.51002502 -883495822.0832969 0 -883495822.0832969 269674421.10520029 0 0 0 0 950081515.25006104 -697714670.17917609 0 -697714670.17917609 -189276649.85301292 0 0 0 0 1358666723.5707092 -1646656957.9914351 0 -1646656957.9914351 773575775.00080299 0 0 0 0 -18510319.739570618 75299745.820323825 0 75299745.820323825 -69027717.812058568 0 0 0 0 2210581.5800170898 106306035.62985182 0 106306035.62985182 -168615603.92965952 0 0 0 0 -143569738.37399292 218348249.31534272 0 218348249.31534272 -217869705.85772896 0 0 0 0 133705105.03475952 98658324.304068983 0 98658324.304068983 -245570204.78477865 0 0 0 0 119356989.03793716 34466442.294545844 0 34466442.294545844 -235081761.29778093 0 0 0 0 206159792.49421692 23701357.686379299 0 23701357.686379299 -232892129.32610929 0 0 0 0 38822195.891174316 124029079.75770195 0 124029079.75770195 -226759091.54266587 0 0 0 0 5019222.6411132812 90639601.681728661 0 90639601.681728661 -252418949.73918301 0 0 0 0 344038849.13075256 52680882.043760411 0 52680882.043760411 712116.70202799304 0 0 0 0 214916486.65205383 150968584.49370968 0 150968584.49370968 -26003853.998612851 0 0 0 0 97503184.427093506 61335395.886206143 0 61335395.886206143 -11497901.550930321 0 0 0 0 145481552.7240448 42370616.850236684 0 42370616.850236684 -179123845.65394837 0 0 0 0 75685310.816589355 105973929.43785803 0 105973929.43785803 -45767632.946442187 0 0 0 0 101259307.37979126 70049882.135071889 0 70049882.135071889 -170634.30230805746 0 0 0 0 76751241.527682304 76079027.675771102 0 76079027.675771102 -148362307.27643323 0 0 0 0 138235921.76251221 15594933.745766044 0 15594933.745766044 -383070382.99600434 0 0 0 0 102589990.75482178 63612160.906394988 0 63612160.906394988 -187651139.11688691 0 0 0 0 62260181.658538818 -14675654.105808064 0 -14675654.105808064 -165146351.83385691 0 0 0 0 -36671194.960662842 -181168799.6571441 0 -181168799.6571441 -346677445.26676553 0 0 0 0 1678876.6675954163 1432806.2072622851 0 1432806.2072622851 761407.98179288046 0 0 0 0 -97824594.142089844 -234056324.58753693 0 -234056324.58753693 -357346872.01026994 0 0 0 0 1819389.0530522559 730580.58041579276 0 730580.58041579276 -1572187.9600349013 0 0 0 0 142648169.95303345 -76752452.879781812 0 -76752452.879781812 -621431345.03610861 0 0 0 0 139196182.82142639 135906693.1225796 0 135906693.1225796 -188065487.87581965 0 0 0 0 113040003.20922852 167237523.96866876 0 167237523.96866876 -21017.394335297708 0 0 0 0 204376814.55075836 -22284937.425126381 0 -22284937.425126381 73692297.016683429 0 0 0 0 598046824.39416504 116500927.23664659 0 116500927.23664659 418917.24677975749 0 0 0 0 269158044.86558533 261510647.93783164 0 261510647.93783164 -182133022.4342837 0 0 0 0 370806473.85174561 -240169545.66788009 0 -240169545.66788009 -112522748.89558285 0 0 0 0 1286640286.2341309 112905322.48880011 0 112905322.48880011 -54121425.084983647 0 0 0 0 1315897656.3091431 -284595199.84738874 0 -284595199.84738874 39243680.441387206 0 0 0 0 1464770689.812439 -5163530.2947713435 0 -5163530.2947713435 371637331.88881648 0 0 0 0 2442677924.1883545 -412269136.26427954 0 -412269136.26427954 -48271.355030718238 0 0 0 0 2569905663.3067017 25047480.489322424 0 25047480.489322424 -54371128.074100852 0 0 0 0 1999627177.8472595 3959680.0878713131 0 3959680.0878713131 -385980786.48959082 0 0 0 0 1515956906.9321671 -360836354.26496518 0 -360836354.26496518 -75864338.428210497 0 0 0 0 1621526563.3591614 25720815.992412567 0 25720815.992412567 -647016599.43202949 0 0 0 0 1414460638.2988281 -188242388.32164693 0 -188242388.32164693 -419957530.32697773 0 0 0 0 1412988176.5736389 -215038709.28864074 0 -215038709.28864074 -860359227.59188175 0 0 0 0 1288846583.737915 178975359.09278345 0 178975359.09278345 -782863743.421785 0 0 0 0 550506667.17625427 -80035747.001866102 0 -80035747.001866102 -64035600.975152969 0 0 0 0 1580941140.5965271 -83564428.721025944 0 -83564428.721025944 -463300291.72266555 0 0 0 0 1334494824.2293777 10399007.646403253 0 10399007.646403253 -466700782.79545975 0 0 0 0 1852687126.4671211 -113252853.08408153 0 -113252853.08408153 511993697.69077301 0 0 0 0 2118731003.0053101 177925448.21458435 0 177925448.21458435 -346023371.11081457 0 0 0 0 1193172954.9241486 -887789352.3846693 0 -887789352.3846693 397646198.49609756 0 0 0 0 576391500.77000427 41542797.203084946 0 41542797.203084946 -142920298.64098358 0 0 0 0 -204663347.63427734 -152121635.44873238 0 -152121635.44873238 260719035.11521482 0 0 0 0 12934764.096730888 -6461556.0354902167 0 -6461556.0354902167 -1915612.5982965133 0 0 0 0 235893089.19224548 13622652.546717644 0 13622652.546717644 -182243926.30807495 0 0 0 0 3901488022.8141327 -618311659.63478994 0 -618311659.63478994 87817865.536869049 0 0 0 0 1605289.9106876552 58956.285519714467 0 58956.285519714467 -681828.93086066714 0 0 0 0 4100107374.5455627 16173648.550839424 0 16173648.550839424 204694773.36870384 0 0 0 0 2048545.199031122 -2339531.8706453219 0 -2339531.8706453219 -241677.93517825566 0 0 0 0 1977401384.2452087 420829448.75572622 0 420829448.75572622 1459439449.6236744 0 0 0 0 3032816179.9156494 -684666107.59328079 0 -684666107.59328079 1101215308.4706507 0 0 0 0 2145066108.2264709 1476774245.7269664 0 1476774245.7269664 1042410682.0582829 0 0 0 0 4387109353.984375 1052822879.6782522 0 1052822879.6782522 201697092.8572731 0 0 0 0 3229468571.8612061 2275467439.1613922 0 2275467439.1613922 1360089079.0722411 0 0 0 0 2319719191.8895874 712793759.98083687 0 712793759.98083687 -186803329.14312458 0 0 0 0 2891030887.4362488 407418650.19368029 0 407418650.19368029 -33996520.255947113 0 0 0 0 2083410203.395874 -285494986.42814827 0 -285494986.42814827 114033572.67651224 0 0 0 0 1877514594.8028564 378183178.18511534 0 378183178.18511534 -422539139.82692146 0 0 0 0 1927620641.0744019 420652314.88826847 0 420652314.88826847 -762374171.0992136 0 0 0 0 2173487683.5606232 919059322.31623507 0 919059322.31623507 -199840655.81963825 0 0 0 0 1962371523.5573425 844635442.13288569 0 844635442.13288569 125297842.46829033 0 0 0 0 81708732.833786011 -12656229.21672821 0 -12656229.21672821 -29181180.807352066 0 0 0 0 26745839.173187256 -4204361.8782815933 0 -4204361.8782815933 -8703155.4291954041 0 0 0 0 6153461.7474134117 1575291.8352054283 0 1575291.8352054283 -12818155.672436614 0 0 0 0 -28793117.045379639 -41495327.109857082 0 -41495327.109857082 8857409.5922813416 0 0 0 0 5391476.0754655357 -4509108.1558499113 0 -4509108.1558499113 7324792.9728523884 0 0 0 0 42466923.610107422 -60796491.022975445 0 -60796491.022975445 -9948467.9168624878 0 0 0 0 -20269508.001495361 64655822.310136795 0 64655822.310136795 68336124.751765251 0 0 0 0 28447751.609313965 -5897091.6542077065 0 -5897091.6542077065 6500361.3931553364 0 0 0 0 13997892.892921448 -30104198.705266356 0 -30104198.705266356 18629634.099950314 0 0 0 0 15371940.506988525 -7677608.2929463387 0 -7677608.2929463387 7614734.1151661873 0 0 0 0 10997559.877807617 -4116295.9423587322 0 -4116295.9423587322 4715378.3637700081 0 0 0 0 28047225.461654663 994529.05649834871 0 994529.05649834871 -8644892.5724990368 0 0 0 0 11982561.598888651 -349006.47660795506 0 -349006.47660795506 3814660.8440321279 0 0 0 0 50978519.252227783 -170763004.22386837 0 -170763004.22386837 261025945.409482 0 0 0 0 7103565.7651851792 179496.74878115207 0 179496.74878115207 -5431087.3654407309 0 0 0 0 16819280.435943604 -2553201.395426318 0 -2553201.395426318 2373746.4428799152 0 0 0 0 16618592.322845459 4192269.9796904325 0 4192269.9796904325 3258123.2324668169 0 0 0 0 47417131.221450806 11871515.872585833 0 11871515.872585833 -27010493.822311759 0 0 0 0 48710552.143908024 42550017.120406695 0 42550017.120406695 25551698.650374651 0 0 0 0 67924328.269378662 -32679909.536857828 0 -32679909.536857828 -136511298.59738794 0 0 0 0 43615002.388793945 -6699476.560293017 0 -6699476.560293017 -133257295.06548305 0 0 0 0 6494062.0876638591 4985624.4264866263 0 4985624.4264866263 2486878.0724892365 0 0 0 0 40976991.825805664 6587362.1021930464 0 6587362.1021930464 -148266531.31051484 0 0 0 0 27055988.570724487 21457213.593054831 0 21457213.593054831 6282291.980379343 0 0 0 0 11715245.639588743 3120885.3428511573 0 3120885.3428511573 6531508.9149003224 0 0 0 0 1918638.7279052734 -4426417.890137434 0 -4426417.890137434 16509694.021959394 0 0 0 0 8533919.1784667969 -8612180.336635977 0 -8612180.336635977 17780584.678458214 0 0 0 0 -4457838.8912658691 -10933567.127688527 0 -10933567.127688527 17925484.432348251 0 0 0 0 -14697635.83102417 2607493.0521717072 0 2607493.0521717072 22667231.774426319 0 0 0 0 -4263029.870010376 -7468561.9116715193 0 -7468561.9116715193 26239108.929347038 0 0 0 0 5648853.154296875 2479908.4822998643 0 2479908.4822998643 22655430.848392725 0 0 0 0 10088407.105398208 8110990.7193450257 0 8110990.7193450257 13901798.415259987 0 0 0 0 11808997.122764654 13831625.588231049 0 13831625.588231049 23497131.308564264 0 0 0 0 15567359.656311035 54776587.801927567 0 54776587.801927567 -69260806.928752899 0 0 0 0 1887148887.3699646 -1530535349.2966862 0 -1530535349.2966862 -829005946.40798187 0 0 0 0 1713763.8269518912 4536220.3310393766 0 4536220.3310393766 5617165.802027259 0 0 0 0 380628970.4758606 2168555232.7925777 0 2168555232.7925777 1824715334.8599377 0 0 0 0 13494707.406701349 11703077.831440382 0 11703077.831440382 11907546.438580435 0 0 0 0 2921076621.9676056 -2097853512.416214 0 -2097853512.416214 -1672241938.9286423 0 0 0 0 172607.03393621743 4091838.7610726142 0 4091838.7610726142 3059560.047972816 0 0 0 0 13314917.669410169 8631184.8280783817 0 8631184.8280783817 6701630.8956004158 0 0 0 0 1106060.8299560547 49963976.411472693 0 49963976.411472693 -25897598.848553572 0 0 0 0 6269217.9020080566 7287605.7805132866 0 7287605.7805132866 2574367.8398399353 0 0 0 0 36504615.1015625 21492111.031376101 0 21492111.031376101 -78088076.540428966 0 0 0 0 16201046.532400735 15674372.774098158 0 15674372.774098158 12506207.590790752 0 0 0 0 8432396.4642562866 43570847.630002782 0 43570847.630002782 -100680541.51679885 0 0 0 0 2285341485.0801697 105061161.05852318 0 105061161.05852318 31375398.973594666 0 0 0 0 765241786.13352966 173389643.95215321 0 173389643.95215321 -30936296.633369446 0 0 0 0 630190372.32183838 130573675.0865593 0 130573675.0865593 25617703.545768738 0 0 0 0 297031203.98931885 141112264.74807358 0 141112264.74807358 93693064.27438736 0 0 0 0 294987511.47879982 121200079.36798692 0 121200079.36798692 -63491733.049575806 0 0 0 0 385133810.82954407 183647541.73158646 0 183647541.73158646 -2598371.1041784286 0 0 0 0 700605515.60661316 44833656.215818405 0 44833656.215818405 -70706503.513381958 0 0 0 0 761458430.47503662 -81316214.336324692 0 -81316214.336324692 -60106071.341323853 0 0 0 0 741568395.51692963 210399335.96514797 0 210399335.96514797 -67000336.405952454 0 0 0 0 497328318.13156128 -52908159.377991676 0 -52908159.377991676 -123235361.79445267 0 0 0 0 -185392427.43765259 243218842.24847031 0 243218842.24847031 -15864815.605781555 0 0 0 0 289469904.33353043 23989783.226541519 0 23989783.226541519 -113013784.20420456 0 0 0 0 9658810.4867000431 12358372.610446952 0 12358372.610446952 24980811.082572959 0 0 0 0 -41431336.616546631 687168.61798143387 0 687168.61798143387 24466459.856220961 0 0 0 0 -118079884.92630005 9372433.7420227528 0 9372433.7420227528 43965181.59371233 0 0 0 0 -5696762.0669555664 -42097602.471415997 0 -42097602.471415997 20769738.194729328 0 0 0 0 21168986.807006836 -26990440.527701378 0 -26990440.527701378 13714212.028588772 0 0 0 0 -47430887.527526855 24259166.971075773 0 24259166.971075773 -1103989.7577135563 0 0 0 0 -50474429.097564697 -49238531.260444283 0 -49238531.260444283 30211802.973080158 0 0 0 0 -471462790.02690125 26413100.121793747 0 26413100.121793747 96593259.242565632 0 0 0 0 10373877.285036229 10915887.817816913 0 10915887.817816913 24607293.40704421 0 0 0 0 -59864729.84588623 -269282698.26903629 0 -269282698.26903629 -176201481.35706258 0 0 0 0 -197447910.14996338 61323796.540864944 0 61323796.540864944 85397085.489322662 0 0 0 0 -309248628.68266296 325876391.10671043 0 325876391.10671043 -87299596.779510498 0 0 0 0 -66549987.370697021 118217216.409935 0 118217216.409935 28311429.198963165 0 0 0 0 -68979550.119781494 61728327.811626434 0 61728327.811626434 148810071.49396515 0 0 0 0 -489056453.20230103 228241757.12403679 0 228241757.12403679 89170829.932434082 0 0 0 0 -296685497.809021 28223353.590866089 0 28223353.590866089 36975428.285470963 0 0 0 0 14279837.652983218 8304950.8459036872 0 8304950.8459036872 22140306.163999353 0 0 0 0 -260840611.77331543 -54052168.181124449 0 -54052168.181124449 1317203504.7470908 0 0 0 0 -810056810.25460815 597328633.54370308 0 597328633.54370308 1005445279.0825515 0 0 0 0 568671476.07355499 101603372.8992902 0 101603372.8992902 -281970806.14522266 0 0 0 0 417038128.86462402 -94224088.232709885 0 -94224088.232709885 -345880868.35565424 0 0 0 0 137925.5361410901 514107.73336113989 0 514107.73336113989 2014444.4367505834 0 0 0 0 -267593821.59811401 283034151.34457612 0 283034151.34457612 351298043.12381923 0 0 0 0 786697731.47131348 876774556.61081052 0 876774556.61081052 35008347.57891646 0 0 0 0 -81669347.324050903 537261552.84526098 0 537261552.84526098 -8234676.4275612831 0 0 0 0 719745162.0279541 484003174.4189949 0 484003174.4189949 -61407139.163227081 0 0 0 0 427364317.50862122 194809794.31976843 0 194809794.31976843 -696628862.32946682 0 0 0 0 -1484102404.7409515 -560379664.77309966 0 -560379664.77309966 2053924202.6257648 0 0 0 0 393321.66787717491 408046.59664094448 0 408046.59664094448 -429471.87248089514 0 0 0 0 211210924.73150635 62127766.49950698 0 62127766.49950698 71787162.410644412 0 0 0 0 180007694.34078979 84440092.773748398 0 84440092.773748398 121612091.77420616 0 0 0 0 -36229415.964294434 -161993108.58879328 0 -161993108.58879328 97196088.430969775 0 0 0 0 902246.56453185156 -31967.318823859096 0 -31967.318823859096 5059401.66540494 0 0 0 0 237237933.62617493 -60492435.495159864 0 -60492435.495159864 -11469127.4513309 0 0 0 0 74014026.752746582 -21068955.153463721 0 -21068955.153463721 2256859.8620755672 0 0 0 0 20961313.214103699 -27201471.797552824 0 -27201471.797552824 29790106.84787941 0 0 0 0 39606435.677474976 -42726441.530569911 0 -42726441.530569911 21298980.203617573 0 0 0 0 21133471.515350342 -22527046.503504992 0 -22527046.503504992 19217337.240477145 0 0 0 0 -160907139.7796936 -129696594.41548109 0 -129696594.41548109 22067707.304611206 0 0 0 0 236785680.31793213 -187931271.90645218 0 -187931271.90645218 -237401795.10606003 0 0 0 0 2371368.3505781367 -1389950.6434729323 0 -1389950.6434729323 6772216.8186296616 0 0 0 0 313119467.9145813 54605078.260044098 0 54605078.260044098 -156328181.76169109 0 0 0 0 -297421269.68669128 63161088.02721858 0 63161088.02721858 399654835.71393681 0 0 0 0 3268014203.67453 -1483425660.579082 0 -1483425660.579082 -751797390.43990707 0 0 0 0 -967200071.54458618 476690699.19102955 0 476690699.19102955 3203220095.4798346 0 0 0 0 2086822465.8708496 209638276.9091894 0 209638276.9091894 -594123877.02369738 0 0 0 0 1294281157.5816803 -734312309.96402621 0 -734312309.96402621 -1001805020.9549775 0 0 0 0 2773624.5684289187 657391.99254322797 0 657391.99254322797 -5455280.2149958005 0 0 0 0 1237022864.4838257 200597193.62778246 0 200597193.62778246 -774953797.51309621 0 0 0 0 1929949130.0276337 660881020.52889752 0 660881020.52889752 -1669427051.3252807 0 0 0 0 3362346775.3617554 112252569.48029184 0 112252569.48029184 -1908981263.6687427 0 0 0 0 1522124328.186264 1285983517.377151 0 1285983517.377151 -2257109834.911068 0 0 0 0 4323734037.0161743 -713720951.91355765 0 -713720951.91355765 -301353647.96917701 0 0 0 0 -21773295.401016235 -2096762957.8414297 0 -2096762957.8414297 4769790002.1728802 0 0 0 0 10033030.157211542 -3657771.2902450021 0 -3657771.2902450021 -503822.39838734909 0 0 0 0 1348132891.9376831 1642770565.9001746 0 1642770565.9001746 1974295582.6365447 0 0 0 0 615525866.88491821 -1134308671.664283 0 -1134308671.664283 -309764370.73510182 0 0 0 0 1889698177.8773193 -38879632.619729757 0 -38879632.619729757 -591864996.29352093 0 0 0 0 478858112.2300415 -216460954.37244129 0 -216460954.37244129 -602983368.05962861 0 0 0 0 -338935129.42684937 -1135735586.3547354 0 -1135735586.3547354 -166335880.19944429 0 0 0 0 -1148715617.5915222 -730050210.3785007 0 -730050210.3785007 104116265.83748245 0 0 0 0 1560014857.41539 -581686527.30222797 0 -581686527.30222797 240070572.23358917 0 0 0 0 4401388.3221206889 3235680.90662276 0 3235680.90662276 -2110633.2330845241 0 0 0 0 -296548441.19628906 -44444758.063851357 0 -44444758.063851357 -299565265.88195372 0 0 0 0 465534808.12637329 34911976.843506813 0 34911976.843506813 171964920.86069846 0 0 0 0 525555466.85006714 -295870935.06087494 0 -295870935.06087494 -475291484.54768753 0 0 0 0 114301620.88079834 -389119528.90903473 0 -389119528.90903473 -493135149.16669512 0 0 0 0 732461777.7557373 -37952400.376270294 0 -37952400.376270294 -510431820.40004539 0 0 0 0 382397860.76409912 -164106421.57936668 0 -164106421.57936668 -491408893.74459195 0 0 0 0 566773897.26077271 104023818.41957855 0 104023818.41957855 -425051111.49373055 0 0 0 0 342445131.41030884 -130249971.82903099 0 -130249971.82903099 -490726517.18713379 0 0 0 0 -263615890.31897736 -268204020.59427977 0 -268204020.59427977 -335740443.09702682 0 0 0 0 142076961.78112793 -195735840.40207481 0 -195735840.40207481 -441658802.4400053 0 0 0 0 101428913.05096436 -155606657.30512047 0 -155606657.30512047 -379116349.82021141 0 0 0 0 42167715.380432129 -180247057.19552994 0 -180247057.19552994 -355274267.00725365 0 0 0 0 -21378409.044052124 -113833243.26308823 0 -113833243.26308823 -98458980.293924332 0 0 0 0 97809692.218597412 -112586883.73709583 0 -112586883.73709583 -308960313.11948776 0 0 0 0 195120788.42596436 -11612875.607649803 0 -11612875.607649803 -371339030.61905861 0 0 0 0 240858292.55407715 -150573242.80629921 0 -150573242.80629921 -424981466.26552582 0 0 0 0 285254550.50359344 -35011125.162451029 0 -35011125.162451029 -404315936.6997757 0 0 0 0 122546168.50062561 -58707004.923965454 0 -58707004.923965454 -207165837.90945053 0 0 0 0 89290215.655639648 -45297978.562861443 0 -45297978.562861443 -190175247.22583389 0 0 0 0 111171750.71087646 -108442598.44674492 0 -108442598.44674492 -307681220.74694633 0 0 0 0 113780808.80006409 -38282481.294145584 0 -38282481.294145584 18294274.235801697 0 0 0 0 21558865.59591664 -151921.30751042068 0 -151921.30751042068 -11558553.415683635 0 0 0 0 8407844.4638706595 -7449991.6930296198 0 -7449991.6930296198 -2383712.45021943 0 0 0 0 313720167.42144775 187225684.20845222 0 187225684.20845222 -493544971.36695671 0 0 0 0 -29809934.03062439 -147484372.30216503 0 -147484372.30216503 -220962158.25696373 0 0 0 0 91427531.539115906 36196683.250776291 0 36196683.250776291 -228381987.59536743 0 0 0 0 -36385255.722839355 -62450322.093852997 0 -62450322.093852997 -343918928.72935486 0 0 0 0 -14612043.474891663 -309792808.61340857 0 -309792808.61340857 74553768.578323364 0 0 0 0 38027000.999920942 -23324255.914929077 0 -23324255.914929077 7396959.5048409104 0 0 0 0 25254575.595321655 3377808.8137606382 0 3377808.8137606382 22722732.179328442 0 0 0 0 48248888.565101624 -46860059.48593688 0 -46860059.48593688 -39941650.328566551 0 0 0 0 72290446.316963196 -21718415.120605588 0 -21718415.120605588 -54327755.590928555 0 0 0 0 41524416.989936829 -13746244.286814034 0 -13746244.286814034 -48744999.460586071 0 0 0 0 12835507.589904785 -47270967.987637043 0 -47270967.987637043 -37810696.622322083 0 0 0 0 102613127.79450989 -18243786.166790962 0 -18243786.166790962 -61754217.163509727 0 0 0 0 44660990.039825439 -19315193.592654705 0 -19315193.592654705 -2603796.0186511278 0 0 0 0 23988748.355119262 -5329208.4290173501 0 -5329208.4290173501 -2088385.1675057649 0 0 0 0 38686142.344543457 7406432.5029201508 0 7406432.5029201508 39349894.412004471 0 0 0 0 42372650.796431921 -18762211.210405808 0 -18762211.210405808 -64285.524976875633 0 0 0 0 414249.90432739258 -60571724.737268448 0 -60571724.737268448 -4031853.6275749207 0 0 0 0 98189292.546203613 -8604929.1373920441 0 -8604929.1373920441 -49834626.844695091 0 0 0 0 83023989.370239258 -24550830.523189545 0 -24550830.523189545 -56475577.600214958 0 0 0 0 34764437.970596194 7077552.8279417008 0 7077552.8279417008 2157965.9345041551 0 0 0 0 37309712.364746094 -17679842.480183363 0 -17679842.480183363 -19788292.269271851 0 0 0 0 81205054.538391113 -37298163.50182724 0 -37298163.50182724 -32379715.267449379 0 0 0 0 51398615.955993652 18824261.837312698 0 18824261.837312698 12960033.368694007 0 0 0 0 17608715.742372088 10236876.583686611 0 10236876.583686611 -8326271.5208753319 0 0 0 0 67165507.034973145 -23456201.177507102 0 -23456201.177507102 -102784983.41273093 0 0 0 0 4043252.3869451135 -186083.35605198517 0 -186083.35605198517 -997304.70875819435 0 0 0 0 71657640.404602051 -25163234.251837015 0 -25163234.251837015 -101758222.83947706 0 0 0 0 25704808.50100708 17212411.446312904 0 17212411.446312904 -121142859.07337332 0 0 0 0 -187407307.73609161 97435275.647041887 0 97435275.647041887 218770462.41963983 0 0 0 0 124956248.11743164 147492225.42691755 0 147492225.42691755 2928056.5969209671 0 0 0 0 144740665.95550537 1370440.2222919464 0 1370440.2222919464 -185538346.39861453 0 0 0 0 135650724.72564888 78299792.764660269 0 78299792.764660269 -186965760.20429611 0 0 0 0 -258970925.93426514 -85797211.246273041 0 -85797211.246273041 18590675.000915527 0 0 0 0 28275330.967942804 -21439023.962252688 0 -21439023.962252688 13302929.827340679 0 0 0 0 -256901007.95424652 -95811572.776286125 0 -95811572.776286125 12797617.091400146 0 0 0 0 50741206.302124023 -60065192.187359333 0 -60065192.187359333 -84807831.297634125 0 0 0 0 -266060797.6159668 -54215282.523994446 0 -54215282.523994446 -12146425.117874146 0 0 0 0 -264645120.42150879 -67471894.652866364 0 -67471894.652866364 34904741.152420044 0 0 0 0 -272348254.47515869 -1574047.9115791321 0 -1574047.9115791321 51325977.226287842 0 0 0 0 -287727034.40719604 19961450.832836151 0 19961450.832836151 39639709.135921478 0 0 0 0 -153631477.96948624 374084785.79647189 0 374084785.79647189 -392147530.16339588 0 0 0 0 24528467.303667679 3693269.9471452609 0 3693269.9471452609 15945184.825759206 0 0 0 0 -273775885.72753906 -3257908.2452850342 0 -3257908.2452850342 57765902.617567062 0 0 0 0 -287759224.70426607 17329569.406720579 0 17329569.406720579 79756141.783721924 0 0 0 0 -272193856.79272461 -13817050.332641602 0 -13817050.332641602 -8935132.2756695747 0 0 0 0 5632359.2640115395 444370.35825562477 0 444370.35825562477 -1946855.2076273263 0 0 0 0 99766307.367492676 99965553.633443832 0 99965553.633443832 35442509.27134037 0 0 0 0 -87323899.93270874 24422868.314208031 0 24422868.314208031 -188156634.10049438 0 0 0 0 106033312.2628479 42725665.254431725 0 42725665.254431725 -236247639.36329269 0 0 0 0 218499231.85827637 52314682.237647057 0 52314682.237647057 -236939167.74411726 0 0 0 0 148143649.17492676 182090675.70877361 0 182090675.70877361 -451984663.74898911 0 0 0 0 266442984.48278809 40498249.96404171 0 40498249.96404171 -409349878.9502914 0 0 0 0 296391455.38476562 6716387.9345741272 0 6716387.9345741272 -459809182.14354992 0 0 0 0 315043435.56219482 103116155.01288414 0 103116155.01288414 -335067566.68752861 0 0 0 0 248629486.92901611 149584564.68467712 0 149584564.68467712 -283854588.53707218 0 0 0 0 103749583.22839355 -33982718.50637722 0 -33982718.50637722 295800730.98762488 0 0 0 0 159118506.96893311 36437716.329973698 0 36437716.329973698 -343819213.10337448 0 0 0 0 366453916.19802856 -232544394.55057764 0 -232544394.55057764 -558331242.56162167 0 0 0 0 218918786.95418549 298935382.54558897 0 298935382.54558897 -655892553.26266289 0 0 0 0 -256297857.48684692 165586998.14192963 0 165586998.14192963 -33498552.563913345 0 0 0 0 -247532491.54663086 20324751.807258606 0 20324751.807258606 13540236.963371277 0 0 0 0 -147919909.53378296 -4243086.8054618835 0 -4243086.8054618835 106490804.95471573 0 0 0 0 -290404180.89942169 81327214.242238998 0 81327214.242238998 174109492.3746109 0 0 0 0 -2321978.1210784912 -42811254.878795624 0 -42811254.878795624 192095003.43515396 0 0 0 0 -104980441.93480682 80175315.0048666 0 80175315.0048666 268649613.71077728 0 0 0 0 -195338749.70986938 -56115886.064136505 0 -56115886.064136505 118473107.50648499 0 0 0 0 -261877689.63079834 -28360408.944236755 0 -28360408.944236755 184362781.17163467 0 0 0 0 -236272094.14987183 77761942.219198227 0 77761942.219198227 114469933.31298065 0 0 0 0 -275731293.19003296 3896865.2614097595 0 3896865.2614097595 109877192.56514168 0 0 0 0 -268592928.37609863 -63770162.444578171 0 -63770162.444578171 68446629.602722168 0 0 0 0 -266161697.03912354 -75632980.134994507 0 -75632980.134994507 101879849.0371666 0 0 0 0 -234824063.72377014 -40540412.076471329 0 -40540412.076471329 128460451.86257172 0 0 0 0 -195807850.87374878 -155601679.0587883 0 -155601679.0587883 61528370.89855957 0 0 0 0 -263405719.64898682 -117555065.496418 0 -117555065.496418 144638496.99828339 0 0 0 0 -269445434.58331299 -111686295.45821381 0 -111686295.45821381 59143397.530684471 0 0 0 0 -258299951.45394897 -90015109.828353882 0 -90015109.828353882 47836104.865753174 0 0 0 0 -260171597.0479126 -155132107.79420471 0 -155132107.79420471 44857551.670354366 0 0 0 0 -343256113.46499634 -326565138.1068058 0 -326565138.1068058 -44157488.933776855 0 0 0 0 25389452.096686408 -22681105.764837183 0 -22681105.764837183 13145239.329555636 0 0 0 0 -219702714.57794189 -232364964.24592972 0 -232364964.24592972 -143583654.89686012 0 0 0 0 -236089630.85958862 -111973430.38779831 0 -111973430.38779831 -84453053.663070679 0 0 0 0 -278097178.21966553 -221994196.41427231 0 -221994196.41427231 26133655.866022825 0 0 0 0 -216368073.17874146 -158770035.15673065 0 -158770035.15673065 23139932.224090576 0 0 0 0 -229877849.81967163 -116959341.29481697 0 -116959341.29481697 19179818.431976318 0 0 0 0 -167331172.72692871 -223934545.2647438 0 -223934545.2647438 74327733.518116474 0 0 0 0 -156483127.35681152 -241835062.29917526 0 -241835062.29917526 -13365829.558994293 0 0 0 0 -159979136.42807007 -211784594.7359581 0 -211784594.7359581 71892374.304214478 0 0 0 0 -41479338.31060791 -201124411.45237923 0 -201124411.45237923 91623741.257583618 0 0 0 0 -103407872.11083984 -152380359.79454041 0 -152380359.79454041 64296133.396084785 0 0 0 0 -158650855.01358032 -148038906.90092659 0 -148038906.90092659 208999355.86231232 0 0 0 0 -174074259.23730469 -102376312.36997986 0 -102376312.36997986 97420623.60843277 0 0 0 0 -194896490.60054302 -37100734.666001976 0 -37100734.666001976 273020722.83157349 0 0 0 0 -41802486.055450439 -92563198.429103851 0 -92563198.429103851 160048618.33876419 0 0 0 0 108010211.86099243 -180441907.61192131 0 -180441907.61192131 199319853.65544128 0 0 0 0 -50868965.176300049 -96059635.593601227 0 -96059635.593601227 386017152.1087265 0 0 0 0 -11691335.53742981 -114137694.28023243 0 -114137694.28023243 187022025.39874268 0 0 0 0 76938405.510009766 -308570745.39844894 0 -308570745.39844894 65174797.380832672 0 0 0 0 289589317.61175537 -182706415.75352097 0 -182706415.75352097 444283886.77939606 0 0 0 0 343083597.98336792 -352539398.2386055 0 -352539398.2386055 115138972.77876377 0 0 0 0 347446428.97038269 -206074105.54102516 0 -206074105.54102516 548272538.43080902 0 0 0 0 166287296.8935318 -9737854.3223729134 0 -9737854.3223729134 339739477.64975739 0 0 0 0 501110005.6594696 270434485.46295357 0 270434485.46295357 522208985.56254578 0 0 0 0 132290828.78738403 101317851.92808151 0 101317851.92808151 299884822.00992012 0 0 0 0 195139252.53430176 14183963.257436752 0 14183963.257436752 358372590.03580093 0 0 0 0 209649443.72749901 96467508.294336796 0 96467508.294336796 201880135.54080963 0 0 0 0 207855630.41278076 79521135.851222992 0 79521135.851222992 77345434.262783051 0 0 0 0 549248006.80514526 263205397.90321732 0 263205397.90321732 258429142.3032856 0 0 0 0 624463035.95163727 121605307.49029732 0 121605307.49029732 117088288.92998505 0 0 0 0 659239572.65432739 234031894.77459621 0 234031894.77459621 148415537.69810486 0 0 0 0 -808761877.55349731 -699436758.86905396 0 -699436758.86905396 -1082131461.8261707 0 0 0 0 -549319045.41392708 1426325023.5621057 0 1426325023.5621057 -417669400.07272077 0 0 0 0 -3093139.455262512 -11972097.806281077 0 -11972097.806281077 -1866993.1017881611 0 0 0 0 248576304.3894043 -909257202.48885 0 -909257202.48885 -2404605426.171299 0 0 0 0 1038417774.1335449 88917663.788182259 0 88917663.788182259 -3554501200.3017607 0 0 0 0 629604247.7008667 187788768.34244716 0 187788768.34244716 -1926544172.9772184 0 0 0 0 188648358.50271606 133987621.26485604 0 133987621.26485604 -132602019.61424333 0 0 0 0 689580123.89265442 -9519186.0153505802 0 -9519186.0153505802 -166176312.33964998 0 0 0 0 160485049.8372345 -34749626.734691411 0 -34749626.734691411 1531785030.7132447 0 0 0 0 350486867.45005035 523801518.62265146 0 523801518.62265146 906826310.09100986 0 0 0 0 1512841259.1144791 1539184667.3684192 0 1539184667.3684192 51438213.61922431 0 0 0 0 752671413.8157959 362230348.19781214 0 362230348.19781214 108310438.44168454 0 0 0 0 -277614944.9467926 448573609.07657695 0 448573609.07657695 119077425.9047778 0 0 0 0 2754256847.1181488 824810004.33591485 0 824810004.33591485 310571189.77761996 0 0 0 0 3744689228.7409821 2347951083.8976927 0 2347951083.8976927 -36665632.879179262 0 0 0 0 1366831681.5441895 813864627.65150356 0 813864627.65150356 -283072221.24047428 0 0 0 0 2161967934.9344482 1784391554.7699008 0 1784391554.7699008 21578748.056061924 0 0 0 0 3684275241.1305237 2476018989.167038 0 2476018989.167038 -260965327.09531504 0 0 0 0 5841030656.5050964 2622747019.1133876 0 2622747019.1133876 -303734454.35387385 0 0 0 0 6618847393.4412537 4555637948.7210417 0 4555637948.7210417 2738183588.7467761 0 0 0 0 -1661735280.747818 1266895957.7119398 0 1266895957.7119398 1781027606.7524395 0 0 0 0 3692949558.348114 3899976238.7457294 0 3899976238.7457294 863743316.55401278 0 0 0 0 -992269474.13085938 2179503702.9387169 0 2179503702.9387169 2934068607.75776 0 0 0 0 262261.20872795582 20926.135252929293 0 20926.135252929293 -706661.43244806665 0 0 0 0 1633110206.1297302 1145563958.8033824 0 1145563958.8033824 -1714855638.7914519 0 0 0 0 1619947788.277298 317761617.76030576 0 317761617.76030576 -717971839.54283476 0 0 0 0 1877740027.8385315 2037279032.0202396 0 2037279032.0202396 -191947742.54738402 0 0 0 0 154758264.36138916 -505834859.90550137 0 -505834859.90550137 190035305.1398735 0 0 0 0 -144631666.34780884 -209008856.3228426 0 -209008856.3228426 511569795.36544567 0 0 0 0 292503782.15840149 -89221481.103934288 0 -89221481.103934288 -321884502.70549965 0 0 0 0 -4608414.0977783203 -27165690.330619812 0 -27165690.330619812 -62087816.890984535 0 0 0 0 2766148.0239893403 766784.22588276118 0 766784.22588276118 3181113.8946063509 0 0 0 0 9007499852.697876 1547205987.1004572 0 1547205987.1004572 668015647.03665471 0 0 0 0 6612766173.5317993 -431345211.96596056 0 -431345211.96596056 -311924288.44610107 0 0 0 0 522707857.3374176 -403382719.44672155 0 -403382719.44672155 -589164508.57741928 0 0 0 0 106161341.99432373 158895331.33831024 0 158895331.33831024 -568179137.88944137 0 0 0 0 -131901911.22338867 218654076.07042027 0 218654076.07042027 -352994960.26192284 0 0 0 0 8003336.5246714847 3665577.8173414543 0 3665577.8173414543 8059718.2595195165 0 0 0 0 31911954.155944824 77175968.424451828 0 77175968.424451828 -278597623.23635674 0 0 0 0 5708335946.9620171 1370513559.3716905 0 1370513559.3716905 334718304.51129514 0 0 0 0 -443645.2135746628 1759934.0234694183 0 1759934.0234694183 15090607.104973892 0 0 0 0 -551890772.1555481 -675469553.01311922 0 -675469553.01311922 -521014120.45749855 0 0 0 0 32454282.204731524 -6639505.4725979716 0 -6639505.4725979716 2617738.4403891945 0 0 0 0 -468680113.617836 -819066873.02844453 0 -819066873.02844453 -901976287.27443886 0 0 0 0 -165794353.34662628 -684591709.79325247 0 -684591709.79325247 -1148140795.5125618 0 0 0 0 -62553089.202819824 -910470666.60196304 0 -910470666.60196304 -1466007835.9979572 0 0 0 0 -196102546.49279785 -1085645819.9184361 0 -1085645819.9184361 -1505827804.3745136 0 0 0 0 41689414.782329693 -7232837.8283229396 0 -7232837.8283229396 -1573548.6022587512 0 0 0 0 54983659.394412994 -258754726.55484194 0 -258754726.55484194 -129244068.81708622 0 0 0 0 260287773.22262573 78732575.904561043 0 78732575.904561043 -74291285.481431961 0 0 0 0 50647915.267709851 -6065177.1356292479 0 -6065177.1356292479 -5989564.9190392708 0 0 0 0 27785205.972976685 -621232774.9275347 0 -621232774.9275347 -1886104375.976213 0 0 0 0 -115190278.27199554 -87538776.59881711 0 -87538776.59881711 32335394.942553997 0 0 0 0 164419081.62823677 -363467057.61290723 0 -363467057.61290723 -1100541805.3159628 0 0 0 0 84311626.376922607 -921512742.36404371 0 -921512742.36404371 -938926864.48838758 0 0 0 0 -456600824.9193573 -915142184.74635744 0 -915142184.74635744 -1187007275.5692158 0 0 0 0 518191608.11143494 -461411453.41046333 0 -461411453.41046333 -1280307190.9908838 0 0 0 0 350036.64519347623 -86644.919926762581 0 -86644.919926762581 525294.74741897266 0 0 0 0 772142389.94625854 -308713936.71872735 0 -308713936.71872735 -1144406128.0065436 0 0 0 0 407907580.47729492 -469313515.10774326 0 -469313515.10774326 -2429987623.0983596 0 0 0 0 146841327.96279907 -71873451.800026417 0 -71873451.800026417 -1226548126.4159646 0 0 0 0 -9794005.8977050781 -610404240.39270759 0 -610404240.39270759 -1936367425.6776185 0 0 0 0 35310982.565872192 -801643680.43708539 0 -801643680.43708539 -1380274542.468637 0 0 0 0 -13452216.135971069 -345273899.03636408 0 -345273899.03636408 -1284122296.5194383 0 0 0 0 285746554.49433899 -220859938.03038204 0 -220859938.03038204 -2081829796.9773455 0 0 0 0 176351103.94638062 -182453487.91701984 0 -182453487.91701984 -371161246.37943393 0 0 0 0 1097450916.7520599 465237110.65275371 0 465237110.65275371 -1268037676.4328809 0 0 0 0 -27613885.14623642 -53600954.847690582 0 -53600954.847690582 -451652948.81351089 0 0 0 0 289532790.16723633 -73758956.462465286 0 -73758956.462465286 -1374837352.9395757 0 0 0 0 -144096003.22930908 -330381116.42297435 0 -330381116.42297435 -1409623563.595119 0 0 0 0 570733543.58435059 -58269166.954918385 0 -58269166.954918385 -3344015804.1324511 0 0 0 0 -125140471.64990234 329362677.87857533 0 329362677.87857533 -2289493516.7749763 0 0 0 0 -209375103.55065918 -196177263.18520844 0 -196177263.18520844 -1335683057.2966139 0 0 0 0 377124936.87652588 -544799583.30513537 0 -544799583.30513537 -2746000262.6632676 0 0 0 0 569079944.38539124 -1593652974.7971632 0 -1593652974.7971632 557533771.74215722 0 0 0 0 591290872.65786743 -1509597358.9083164 0 -1509597358.9083164 502670873.70203388 0 0 0 0 274292473.61653137 -1181487902.6505861 0 -1181487902.6505861 1265137737.899785 0 0 0 0 28362566.64729169 -10116586.019725418 0 -10116586.019725418 -2188587.5205742111 0 0 0 0 557095745.05505371 -2170697850.3007426 0 -2170697850.3007426 -376861584.91691303 0 0 0 0 285946846.72253418 -100005504.70739031 0 -100005504.70739031 -692042855.56444931 0 0 0 0 -84473204.093292236 -2113795563.1367226 0 -2113795563.1367226 1463339288.3892546 0 0 0 0 129784248.32669067 -1679555864.1367502 0 -1679555864.1367502 1420892836.9090238 0 0 0 0 480249842.41412354 -1796145102.3576188 0 -1796145102.3576188 211468906.29548836 0 0 0 0 472400698.53702736 -1580202165.7750955 0 -1580202165.7750955 677314893.32090414 0 0 0 0 550520156.31259155 -1289696633.0911369 0 -1289696633.0911369 1024765457.1057358 0 0 0 0 693425801.94888306 -1340795215.5087137 0 -1340795215.5087137 488590549.68998313 0 0 0 0 -491384505.46474457 -27864307.696744036 0 -27864307.696744036 -241082210.26787344 0 0 0 0 244416053.6060791 789058526.82164276 0 789058526.82164276 -2176954037.4975886 0 0 0 0 505738826.45657349 -1788560020.5735264 0 -1788560020.5735264 -1405335693.9590344 0 0 0 0 1949190.681303516 5493926.4809062593 0 5493926.4809062593 -5510269.5865470953 0 0 0 0 43653720.292218029 -17398962.784076072 0 -17398962.784076072 -4227304.8477277514 0 0 0 0 1224609855.9042664 -1163354638.0758538 0 -1163354638.0758538 -3720821025.7058926 0 0 0 0 299326110.88644409 30760238.179328918 0 30760238.179328918 -107897663.72090858 0 0 0 0 -1300815689.0987854 -1540937955.584106 0 -1540937955.584106 219980367.90496063 0 0 0 0 680439252.30418777 -166502880.6532473 0 -166502880.6532473 2594944.6753325462 0 0 0 0 603333996.82269287 -1688168926.3849068 0 -1688168926.3849068 193643045.02712637 0 0 0 0 1104628602.7562256 -2589273669.6967092 0 -2589273669.6967092 1325672134.411521 0 0 0 0 -40517456.959228516 -1554597027.1666813 0 -1554597027.1666813 2438475926.2162113 0 0 0 0 2566829492.5394592 -1886385194.1328692 0 -1886385194.1328692 1395280666.765233 0 0 0 0 1217684332.8874054 157869427.7139945 0 157869427.7139945 2343182219.7242823 0 0 0 0 1265028799.874054 -622317751.75727034 0 -622317751.75727034 -53148913.488368988 0 0 0 0 485771171.30474854 360129302.90549815 0 360129302.90549815 1645344975.8532929 0 0 0 0 913909535.02029037 -816323369.00449586 0 -816323369.00449586 2059120627.3536868 0 0 0 0 894604005.72933388 -981208315.72587287 0 -981208315.72587287 4975465002.9696608 0 0 0 0 2790186152.3549194 -3008092518.5788317 0 -3008092518.5788317 2617806153.0407 0 0 0 0 3754907900.0557861 -633038138.7325263 0 -633038138.7325263 2350637786.8010807 0 0 0 0 1498415487.0957947 -588108700.95250702 0 -588108700.95250702 3345296398.4044189 0 0 0 0 2820348395.4758987 -3298804143.0028162 0 -3298804143.0028162 6670249069.748806 0 0 0 0 1420924564.5511537 -2739007606.7873116 0 -2739007606.7873116 3328936362.74893 0 0 0 0 -540151568.16687012 -393168834.58847046 0 -393168834.58847046 4815145283.4365082 0 0 0 0 416812831.80507469 2048192756.596256 0 2048192756.596256 1851979242.1421356 0 0 0 0 3347004578.8082275 54677738.07831192 0 54677738.07831192 -867459577.84572411 0 0 0 0 2827614.5927844495 -1481301.9644850791 0 -1481301.9644850791 1211164.9886786877 0 0 0 0 721681750.04351807 -2310991455.4365234 0 -2310991455.4365234 7480041761.6517925 0 0 0 0 524023.76932955207 -175711.59141694009 0 -175711.59141694009 1642009.1241082549 0 0 0 0 4212225.1640759557 -9387993.3763520122 0 -9387993.3763520122 7628471.8628878482 0 0 0 0 5129000.3942370415 -7510102.8603378683 0 -7510102.8603378683 -2176889.0279502869 0 0 0 0 68458600.380525589 -472017464.08361453 0 -472017464.08361453 801071024.56834698 0 0 0 0 8667674.6949252598 -2625340.9321990311 0 -2625340.9321990311 3784769.0224449825 0 0 0 0 1647465621.415741 -387961059.08009028 0 -387961059.08009028 -380673018.50333667 0 0 0 0 1166853391.0225716 -1040982790.7873375 0 -1040982790.7873375 935844135.38805914 0 0 0 0 1987885804.0988007 -1559573041.6455135 0 -1559573041.6455135 643894561.10286057 0 0 0 0 -119482259.77313232 -1040798937.2679787 0 -1040798937.2679787 937812313.17877388 0 0 0 0 666606762.98815918 -341660436.89804173 0 -341660436.89804173 137885430.93919992 0 0 0 0 -115602653.95715332 -177252367.45924759 0 -177252367.45924759 334471496.44797897 0 0 0 0 346522943.57398224 -810126576.92211103 0 -810126576.92211103 1051993661.535347 0 0 0 0 -480311481.97409058 -387383547.43223 0 -387383547.43223 1525667031.9184046 0 0 0 0 -30500976.237304688 -525653758.53418732 0 -525653758.53418732 1215358369.8750534 0 0 0 0 -19021568.657371521 -1392975746.0200443 0 -1392975746.0200443 2163232138.0524349 0 0 0 0 -341916788.06039429 -17452127.798439026 0 -17452127.798439026 1617368732.7228127 0 0 0 0 -338042638.10964966 -567575683.97040558 0 -567575683.97040558 1733267460.1394043 0 0 0 0 501143832.76098633 -257441588.53217697 0 -257441588.53217697 728634439.93259811 0 0 0 0 16223435.268404469 -10386627.481849089 0 -10386627.481849089 4205262.5418355297 0 0 0 0 6337117.1600799561 -10657914.89115715 0 -10657914.89115715 -3263806.3445520401 0 0 0 0 6019910.6946563721 -3728941.5945425034 0 -3728941.5945425034 1746006.5836200714 0 0 0 0 -313807841.46841621 295652931.27412283 0 295652931.27412283 247565438.4095459 0 0 0 0 136009878.38189697 -302449057.60139084 0 -302449057.60139084 -210005094.72822571 0 0 0 0 -17459765.167022705 -295360649.45451736 0 -295360649.45451736 218682098.97155762 0 0 0 0 41470206.477844238 137704284.70372009 0 137704284.70372009 -9874483.7869138718 0 0 0 0 34383051.840759277 -37503514.786150575 0 -37503514.786150575 25403850.29622364 0 0 0 0 24597126.005900092 -9592673.4090218414 0 -9592673.4090218414 -548514.80507641728 0 0 0 0 18399982.534277722 -4268558.7155734375 0 -4268558.7155734375 938865.04402619461 0 0 0 0 34644792.889041901 -55214643.477060199 0 -55214643.477060199 23182495.904548168 0 0 0 0 -15895266.104644775 32673449.027964354 0 32673449.027964354 -38031938.116595663 0 0 0 0 55157720.701608658 -6515034.2747834623 0 -6515034.2747834623 -36581021.039133072 0 0 0 0 60505960.63343811 -44536010.385272026 0 -44536010.385272026 -90674363.783738613 0 0 0 0 561067401.26193237 -287823856.89634383 0 -287823856.89634383 746609374.42312574 0 0 0 0 1407928852.9008942 -744385179.23445833 0 -744385179.23445833 261524503.06439197 0 0 0 0 -220029736.86831665 -133878311.96371579 0 -133878311.96371579 400194774.90104508 0 0 0 0 9419514.3441925049 -5100541.72955513 0 -5100541.72955513 2267048.6752204895 0 0 0 0 9307197.5521407053 -1104926.8598194569 0 -1104926.8598194569 4933379.8359254645 0 0 0 0 10021870.936571442 -2322003.6574049853 0 -2322003.6574049853 -7701122.2534840703 0 0 0 0 33065044.053878784 -1295591.2020926476 0 -1295591.2020926476 -54767068.069025993 0 0 0 0 97018238.092315674 1263765.8094143867 0 1263765.8094143867 -33733400.505882859 0 0 0 0 811170944.4407959 -136092942.97367823 0 -136092942.97367823 16404745.323691368 0 0 0 0 13319246.601885818 3817651.0913038142 0 3817651.0913038142 2748950.8489509188 0 0 0 0 2010593624.7076569 -1451597837.9128428 0 -1451597837.9128428 853231575.10668695 0 0 0 0 717440362.300354 -753532793.1606108 0 -753532793.1606108 907982948.29499221 0 0 0 0 2920538410.6945648 -1202452498.8408282 0 -1202452498.8408282 712541571.79606283 0 0 0 0 2315555669.3748703 -983213456.20061135 0 -983213456.20061135 707115825.67958462 0 0 0 0 3247967098.6848831 -671558149.18446302 0 -671558149.18446302 517102632.14277184 0 0 0 0 1501634598.5936279 -1420710205.8533187 0 -1420710205.8533187 1012580217.116909 0 0 0 0 1435230800.9306488 -987895895.92958605 0 -987895895.92958605 1138863840.3683848 0 0 0 0 1014395208.0010986 -996083835.99628603 0 -996083835.99628603 1552562448.4645519 0 0 0 0 2228836596.3830261 -932856500.67879093 0 -932856500.67879093 1135568117.008508 0 0 0 0 1062483227.9509125 -1452659002.6885414 0 -1452659002.6885414 2614581956.5134635 0 0 0 0 3461543720.0315552 -311556684.28990161 0 -311556684.28990161 788807784.00840616 0 0 0 0 2095932019.1470947 -213111611.52571779 0 -213111611.52571779 802727166.55803275 0 0 0 0 2170336925.4137726 -403005516.47229111 0 -403005516.47229111 1286172902.8852887 0 0 0 0 933836557.19168091 -94026384.876005292 0 -94026384.876005292 1212537578.1513946 0 0 0 0 2013310683.3818512 243965327.55661434 0 243965327.55661434 952052893.71331906 0 0 0 0 530427162.38104248 -91176772.802782059 0 -91176772.802782059 1456901337.7807422 0 0 0 0 516193425.99819946 -783214204.86867905 0 -783214204.86867905 2335321414.0283747 0 0 0 0 982676107.09805489 -640007344.87406075 0 -640007344.87406075 2015463846.399689 0 0 0 0 6610631444.0197601 1547677336.8170555 0 1547677336.8170555 -737516321.53979504 0 0 0 0 3442546389.8617554 604814661.03241181 0 604814661.03241181 608654315.11191356 0 0 0 0 1767274160.4573059 823029415.74531662 0 823029415.74531662 609759850.90065122 0 0 0 0 4345821818.7007828 4627313.8959108442 0 4627313.8959108442 173225873.9993394 0 0 0 0 4798769476.984436 1023380276.1559381 0 1023380276.1559381 -673593414.54461074 0 0 0 0 5127302111.7651825 -448288646.79058433 0 -448288646.79058433 -5301863.1916531175 0 0 0 0 6613996079.391326 -21543662.077618435 0 -21543662.077618435 -565973169.82333493 0 0 0 0 5045510747.7177734 -360035109.97610235 0 -360035109.97610235 170532887.3855423 0 0 0 0 3461673677.4227142 -254026888.87281209 0 -254026888.87281209 216334336.95423573 0 0 0 0 3406812036.8080063 -879731927.95683372 0 -879731927.95683372 569475629.83040583 0 0 0 0 4835285457.4424133 -831739523.38514268 0 -831739523.38514268 421941642.48321366 0 0 0 0 6616676386.2593918 -873405481.18693209 0 -873405481.18693209 99053437.900471151 0 0 0 0 5000393385.2805634 -1311469863.2969604 0 -1311469863.2969604 1603933941.5559926 0 0 0 0 4332366356.0877838 -2487417025.0171828 0 -2487417025.0171828 915817082.27915871 0 0 0 0 4547040449.3378906 269055854.09032649 0 269055854.09032649 777493958.21903491 0 0 0 0 6599318923.9781799 -2892027483.2905574 0 -2892027483.2905574 162772743.26794845 0 0 0 0 15462330.200500488 365960595.79445148 0 365960595.79445148 1332545369.1004305 0 0 0 0 4556291.7138208151 1740933.7906478476 0 1740933.7906478476 1601029.4186686627 0 0 0 0 2936264861.7510376 -1277770943.5465355 0 -1277770943.5465355 719432207.46500063 0 0 0 0 1535158034.7131958 -2645097115.8319535 0 -2645097115.8319535 2265470533.5091724 0 0 0 0 3349432.4262007251 -1149812.3449817598 0 -1149812.3449817598 -65514.551217634464 0 0 0 0 332125003.91075134 288595040.1525712 0 288595040.1525712 801525751.47892749 0 0 0 0 -296368434.87744141 1875200134.8067243 0 1875200134.8067243 635256590.13729513 0 0 0 0 588524988.43960571 1326163843.3639469 0 1326163843.3639469 -745739896.91952598 0 0 0 0 638292567.49905777 864899929.63283026 0 864899929.63283026 -652866998.51032948 0 0 0 0 6262936.0036683381 -1429211.3500131071 0 -1429211.3500131071 -1654597.4748678417 0 0 0 0 7607929.9822158813 175299203.41757444 0 175299203.41757444 -185670967.73909628 0 0 0 0 1331341279.1050491 996942125.59630489 0 996942125.59630489 -749792477.39948523 0 0 0 0 1037940411.7335358 25986532.891154289 0 25986532.891154289 -1844572310.7017512 0 0 0 0 9569908.8899340034 -3652267.7125446154 0 -3652267.7125446154 33854.485243224422 0 0 0 0 535169398.30569458 -1382837943.0208511 0 -1382837943.0208511 -2178534087.2653913 0 0 0 0 -398557261.7613678 -92132572.660519361 0 -92132572.660519361 -1159730955.4992125 0 0 0 0 -439637807.63938904 702691453.87122309 0 702691453.87122309 321278780.33233833 0 0 0 0 3553310.4927789718 -1731479.9392122645 0 -1731479.9392122645 311259.54671931878 0 0 0 0 -305266147.1275177 -1169593141.8771124 0 -1169593141.8771124 598676349.57629204 0 0 0 0 -943734169.33743286 -655589457.78474689 0 -655589457.78474689 355915347.66239786 0 0 0 0 5760960.6228815839 -2310924.6604833677 0 -2310924.6604833677 -301426.12489891646 0 0 0 0 3028473833.8926849 2084759899.0964246 0 2084759899.0964246 -745382951.61077511 0 0 0 0 1757670630.2483826 -3319760487.8641739 0 -3319760487.8641739 800621409.09508395 0 0 0 0 356198752.45979309 1419531535.0573528 0 1419531535.0573528 -970369819.76965427 0 0 0 0 -350020228.42497253 -1275064748.4645085 0 -1275064748.4645085 -334679036.99119234 0 0 0 0 615636654.17179871 -108504361.32882142 0 -108504361.32882142 -302186613.02716649 0 0 0 0 6605438807.3402863 186341437.28054583 0 186341437.28054583 -1858805465.9193311 0 0 0 0 2800036103.6301804 -193061.60994827747 0 -193061.60994827747 -1322506535.4833317 0 0 0 0 6606749333.423954 -2008833937.3682888 0 -2008833937.3682888 -420341684.6368593 0 0 0 0 2232768956.924099 -2812164389.6957932 0 -2812164389.6957932 3338545081.5090809 0 0 0 0 459872226.79569244 -184842929.61833408 0 -184842929.61833408 696083050.07209086 0 0 0 0 302194862.28926086 -709159688.9045645 0 -709159688.9045645 1006860974.9778934 0 0 0 0 2647364204.410779 -1153680144.2506552 0 -1153680144.2506552 -18607784.95596385 0 0 0 0 243370884.78214645 -1154663197.8850586 0 -1154663197.8850586 -85337315.823631525 0 0 0 0 -360491897.83473206 -537530485.65012324 0 -537530485.65012324 464528162.07161707 0 0 0 0 289462896.23097229 -597755224.08953249 0 -597755224.08953249 285329236.21860647 0 0 0 0 -404380919.52106094 -1076584858.8788333 0 -1076584858.8788333 259254121.36787295 0 0 0 0 -380598242.53692627 -1001241171.4794697 0 -1001241171.4794697 207626460.51468647 0 0 0 0 30471683.61505127 -990097074.77554131 0 -990097074.77554131 58216039.78495717 0 0 0 0 -427344961.39389801 -983835147.34591818 0 -983835147.34591818 203766637.82462859 0 0 0 0 -39294015.871173859 -764810883.84698963 0 -764810883.84698963 -419890123.43849033 0 0 0 0 -340719872.86788177 -1443504667.8444245 0 -1443504667.8444245 971100362.68168545 0 0 0 0 11446976.241339847 -6164239.5671716137 0 -6164239.5671716137 -1040470.3667755078 0 0 0 0 281291082.79093933 -512795442.77996242 0 -512795442.77996242 -1135914928.3130121 0 0 0 0 -167032292.19166565 -261642316.70773125 0 -261642316.70773125 -253421674.18225896 0 0 0 0 274813649.61074829 -404335601.54732752 0 -404335601.54732752 437380737.10628462 0 0 0 0 14015163.282963417 -5234094.3797796294 0 -5234094.3797796294 -699052.34268784686 0 0 0 0 -168236900.18870544 -335275398.24188566 0 -335275398.24188566 532535963.70264816 0 0 0 0 2786994406.2801819 576319027.03135085 0 576319027.03135085 -2258389888.6134624 0 0 0 0 -852468903.10269165 -1641281877.6883905 0 -1641281877.6883905 1729500368.7143836 0 0 0 0 -802797072.67018127 -900028677.78071404 0 -900028677.78071404 1861428128.4252672 0 0 0 0 46005829.49710083 211323733.47964132 0 211323733.47964132 61329373.859157354 0 0 0 0 1742030.206327755 -3613170.1442870907 0 -3613170.1442870907 4158719.0081055108 0 0 0 0 1174870666.1949117 -1272533465.948384 0 -1272533465.948384 1081423464.9484429 0 0 0 0 1169757571.7760315 -716187557.03334939 0 -716187557.03334939 -44749831.813330621 0 0 0 0 1906878658.2024918 -1349402036.6805124 0 -1349402036.6805124 912583431.48878765 0 0 0 0 1228142111.0137634 -580461320.52441263 0 -580461320.52441263 599671764.82711589 0 0 0 0 2955394189.0605545 -240226010.79351789 0 -240226010.79351789 -524380439.9072963 0 0 0 0 1263976122.1985178 2154732198.7339845 0 2154732198.7339845 50716560.998148292 0 0 0 0 7166387.3198454455 -3947253.0517582144 0 -3947253.0517582144 307350.68881776015 0 0 0 0 6600873327.8498459 256796744.11085454 0 256796744.11085454 -574226026.66211605 0 0 0 0 134263989.09175873 -1558621258.8308671 0 -1558621258.8308671 1061342947.9621427 0 0 0 0 325254755.70199585 401620495.63209903 0 401620495.63209903 513743044.54623914 0 0 0 0 317952235.31201172 282832725.08200419 0 282832725.08200419 21660712.093925469 0 0 0 0 110502524.37275314 584602000.8796134 0 584602000.8796134 293833118.92410278 0 0 0 0 219501290.34851074 483565224.14258957 0 483565224.14258957 25116110.98128891 0 0 0 0 94693703.326934814 411473990.44820118 0 411473990.44820118 -137506168.93993473 0 0 0 0 131733116.95558167 313069625.9701519 0 313069625.9701519 -260317477.39485741 0 0 0 0 595037468.78918457 261961164.81141281 0 261961164.81141281 -484231602.14572144 0 0 0 0 254580158.54911041 43984777.739236355 0 43984777.739236355 -307764022.51488304 0 0 0 0 1488157615.9057159 252293133.34412336 0 252293133.34412336 -274764871.43015146 0 0 0 0 292160453.58988953 218464311.07945156 0 218464311.07945156 -601663111.68572998 0 0 0 0 382883909.17848206 -173564061.36278057 0 -173564061.36278057 -572780767.49978733 0 0 0 0 -184131704.82147217 -1182272723.7089691 0 -1182272723.7089691 -781102400.50675488 0 0 0 0 495585889.41673279 -956336878.41402245 0 -956336878.41402245 1042798961.2484188 0 0 0 0 -973074351.37596893 -366882692.49867916 0 -366882692.49867916 827191431.31521606 0 0 0 0 175748795.79421997 -71080820.669985533 0 -71080820.669985533 1282193197.6642671 0 0 0 0 513312603.32949829 -1078364794.1285291 0 -1078364794.1285291 759736542.34988308 0 0 0 0 4218666.3714618683 -3042326.7434347444 0 -3042326.7434347444 -436614.57675835892 0 0 0 0 1194827864.607069 -1863961424.5512023 0 -1863961424.5512023 3004551204.2810993 0 0 0 0 660838321.02268982 827974915.48267221 0 827974915.48267221 -1338953538.0914433 0 0 0 0 257710446.53134155 -914938321.87002516 0 -914938321.87002516 -604074286.38025177 0 0 0 0 670059053.30343628 -1606797176.6661947 0 -1606797176.6661947 497271847.79564214 0 0 0 0 907630499.38674927 -1318288271.5111363 0 -1318288271.5111363 -224405298.90223873 0 0 0 0 2226609294.3462677 253345878.36989987 0 253345878.36989987 -1532569422.7048516 0 0 0 0 1539700498.421051 -1716154129.7999845 0 -1716154129.7999845 -88880000.216491461 0 0 0 0 1640689942.7751465 -436942551.71468663 0 -436942551.71468663 441315744.67512089 0 0 0 0 1770392838.5671692 457257873.25014925 0 457257873.25014925 -1260776870.6938272 0 0 0 0 1806693071.8785782 -25116744.950308502 0 -25116744.950308502 501835707.71165693 0 0 0 0 611223063.29470825 -625502696.06142735 0 -625502696.06142735 1349582596.5911121 0 0 0 0 1907704405.0877705 654621462.34417558 0 654621462.34417558 483896403.203933 0 0 0 0 -169168486.91378784 -461737602.55211449 0 -461737602.55211449 -125617328.46294975 0 0 0 0 205864026.77656937 123570940.59603277 0 123570940.59603277 612512065.7458961 0 0 0 0 43556355.323791504 -734892743.31515121 0 -734892743.31515121 496779949.40492964 0 0 0 0 606971575.99947357 -240989619.4420239 0 -240989619.4420239 800255440.84165955 0 0 0 0 669487500.48055267 -385348377.39924258 0 -385348377.39924258 117294484.66761303 0 0 0 0 549124547.48252869 -326431986.15113753 0 -326431986.15113753 -321660689.87931895 0 0 0 0 238286398.86157227 -688659112.10644746 0 -688659112.10644746 166828291.58746725 0 0 0 0 162708983.32117462 -490424469.16040635 0 -490424469.16040635 -291637015.73169947 0 0 0 0 2145464475.9740601 -1501486540.2856631 0 -1501486540.2856631 1226084989.6890182 0 0 0 0 2757855.7070291713 -138943.47631488368 0 -138943.47631488368 -1208956.3427663194 0 0 0 0 1339227373.5337219 1605445850.8618197 0 1605445850.8618197 1356124144.9997888 0 0 0 0 2670232722.7478485 1858379856.2748742 0 1858379856.2748742 758390276.57395744 0 0 0 0 2144234055.6051178 976251898.85085166 0 976251898.85085166 448804689.1262722 0 0 0 0 3061346781.3718681 409620066.88513368 0 409620066.88513368 326084471.19534492 0 0 0 0 1202300919.0661621 144268138.29986072 0 144268138.29986072 445930369.61152804 0 0 0 0 1342472576.0204926 41270424.188054204 0 41270424.188054204 305666057.87915468 0 0 0 0 200098258.79589844 -409910977.21282017 0 -409910977.21282017 279096153.89643151 0 0 0 0 -485429035.30879211 226919822.98398271 0 226919822.98398271 -15477698.068962015 0 0 0 0 964688800.32821655 276754371.73707449 0 276754371.73707449 473409431.90636694 0 0 0 0 1105285391.3525772 450264997.02857906 0 450264997.02857906 -1353736.4785590172 0 0 0 0 1173964109.0197449 321693547.45074141 0 321693547.45074141 69267736.580205321 0 0 0 0 900479849.85723877 1092755398.7281299 0 1092755398.7281299 1345943071.6377113 0 0 0 0 1094871180.6911469 784570608.7414186 0 784570608.7414186 -170636871.13542318 0 0 0 0 438141551.60986328 -71394535.435162067 0 -71394535.435162067 -1285818858.709199 0 0 0 0 1134111186.1518707 862047760.96707249 0 862047760.96707249 -1103366353.5805635 0 0 0 0 3019687.8822423443 -912203.23599229753 0 -912203.23599229753 -2753850.2563766511 0 0 0 0 -276493883.17062664 -412211715.46859431 0 -412211715.46859431 -449254556.19561243 0 0 0 0 -170740730.94518709 463322094.74328601 0 463322094.74328601 -592589623.18456674 0 0 0 0 72337496.966491699 -12494611.493277073 0 -12494611.493277073 -51619503.003374577 0 0 0 0 51015523.828392029 81675822.647671103 0 81675822.647671103 -277207051.81087828 0 0 0 0 191440164.58037567 -338507533.32975 0 -338507533.32975 -307739810.11009419 0 0 0 0 414870686.64592361 -225001801.37794071 0 -225001801.37794071 -606202208.36572754 0 0 0 0 155118506.65524673 -857234424.98458183 0 -857234424.98458183 -722521056.29434896 0 0 0 0 377834699.40385437 -30629446.222789526 0 -30629446.222789526 -1405041702.5022783 0 0 0 0 58020965.016365051 161154342.26844054 0 161154342.26844054 -498986939.3965838 0 0 0 0 -28027679.102874756 74020608.765846729 0 74020608.765846729 -64777264.427666187 0 0 0 0 91226521.536392212 -24482425.526516914 0 -24482425.526516914 -190034928.98817742 0 0 0 0 83968936.571846008 -45570918.260002553 0 -45570918.260002553 -141534909.91977215 0 0 0 0 57943192.038955688 -141889808.44278312 0 -141889808.44278312 -269838299.49501467 0 0 0 0 -194864.49683380127 -91260392.398384392 0 -91260392.398384392 -52035029.64336586 0 0 0 0 2432256.7970542908 -243266058.37216443 0 -243266058.37216443 -121012289.0680325 0 0 0 0 23491839.819854736 -231188118.79549956 0 -231188118.79549956 -247410713.54300988 0 0 0 0 165060211.05305481 44913617.434419602 0 44913617.434419602 -5559403.5681807995 0 0 0 0 -130179348.16603088 -197640124.14286447 0 -197640124.14286447 -124797764.7213614 0 0 0 0 10823045.502552276 -808435.0973559171 0 -808435.0973559171 422835.91879082704 0 0 0 0 58164515.326293945 55088392.743628144 0 55088392.743628144 21779972.796084523 0 0 0 0 36228468.814453125 -26711883.88351205 0 -26711883.88351205 -6211483.1849107742 0 0 0 0 45978453.369873047 -11647877.695680857 0 -11647877.695680857 12603363.255216599 0 0 0 0 90812881.723800659 -59738161.837327659 0 -59738161.837327659 22622890.715693712 0 0 0 0 85129030.607343674 -55089813.355957694 0 -55089813.355957694 35890164.08988142 0 0 0 0 78288830.27154541 12471464.109834075 0 12471464.109834075 24320415.251639485 0 0 0 0 55741882.499511719 -212953997.24220657 0 -212953997.24220657 534769173.0690378 0 0 0 0 4622387.0334440172 2469051.534836296 0 2469051.534836296 -1681331.363962353 0 0 0 0 -633923.93789672852 -57100210.1683954 0 -57100210.1683954 252466502.5879755 0 0 0 0 -24316328.17868042 15919838.497592449 0 15919838.497592449 139307540.75303531 0 0 0 0 56801182.574066162 16388505.971263528 0 16388505.971263528 -98163801.276956692 0 0 0 0 76009012.997161865 -163388943.32519269 0 -163388943.32519269 90506343.346878469 0 0 0 0 101391523.30789185 -136360098.11197549 0 -136360098.11197549 46396161.42335701 0 0 0 0 273590842.43325806 -307033576.0634737 0 -307033576.0634737 -101319549.88425517 0 0 0 0 126137442.17446899 -273996914.98201275 0 -273996914.98201275 300194075.69233114 0 0 0 0 71538583.304702759 -19997818.528776407 0 -19997818.528776407 -33203234.334616303 0 0 0 0 217505400.14210892 -98553864.531583995 0 -98553864.531583995 -139216863.91780496 0 0 0 0 201479887.18484497 -134148205.83771789 0 -134148205.83771789 11698833.589804232 0 0 0 0 168797726.20707703 -94249333.704993814 0 -94249333.704993814 -35434948.766241074 0 0 0 0 148542922.66413879 -8352176.0016483068 0 -8352176.0016483068 15881544.302362502 0 0 0 0 129138608.1477356 -11432349.439632922 0 -11432349.439632922 22411628.435306072 0 0 0 0 177684125.58326721 -70226746.667721033 0 -70226746.667721033 20196528.971575737 0 0 0 0 219669357.44665527 -45734965.672898993 0 -45734965.672898993 2910349.8504303992 0 0 0 0 288925144.68505859 12743613.667386383 0 12743613.667386383 -7533159.7545209974 0 0 0 0 168170725.32634354 -83879529.054024518 0 -83879529.054024518 -5127533.5991458893 0 0 0 0 197522361.55473328 -23408656.294818789 0 -23408656.294818789 -17651669.44906047 0 0 0 0 101817638.8923645 -34151722.743613631 0 -34151722.743613631 16295998.063991189 0 0 0 0 176688323.36766052 -117175584.15668476 0 -117175584.15668476 72216212.318498462 0 0 0 0 188486590.68264771 -27228552.812467515 0 -27228552.812467515 73993236.005340308 0 0 0 0 1251616.2052566558 97309.808499351144 0 97309.808499351144 490237.69849235145 0 0 0 0 646818635.10847473 -11177508.180921376 0 -11177508.180921376 -30114732.120108992 0 0 0 0 307238598.00070953 7073037.2535703778 0 7073037.2535703778 27393390.141728342 0 0 0 0 -436357895.12565613 -114180129.07855406 0 -114180129.07855406 -32968476.530091852 0 0 0 0 -748563464.24063873 -137400325.67655584 0 -137400325.67655584 241161375.90435514 0 0 0 0 -222772462.36507797 -290746020.57072639 0 -290746020.57072639 162534898.30214012 0 0 0 0 -381373665.2570343 -323456899.87577391 0 -323456899.87577391 387527266.98098469 0 0 0 0 -309620269.26054382 -232256585.16565651 0 -232256585.16565651 -89870736.50220716 0 0 0 0 -65556742.130027771 -507871145.37815207 0 -507871145.37815207 127528599.83238339 0 0 0 0 -493331175.87569427 -354623766.8077445 0 -354623766.8077445 11114910.80861783 0 0 0 0 4674675.0154111329 -83580.533921863884 0 -83580.533921863884 891120.22415020503 0 0 0 0 213131317.31170654 -170784335.60269642 0 -170784335.60269642 -222438468.72673607 0 0 0 0 113011745.43849945 -95123522.394788265 0 -95123522.394788265 -276797281.18193054 0 0 0 0 83433368.609039307 -176869591.2016449 0 -176869591.2016449 -111971849.25309217 0 0 0 0 180712101.58198547 -151693855.4078083 0 -151693855.4078083 -111485748.27560043 0 0 0 0 90897860.205001831 -161105663.30792427 0 -161105663.30792427 -174990174.87604904 0 0 0 0 -44212093.652336121 -138287408.83280563 0 -138287408.83280563 -136630773.88416672 0 0 0 0 36436093.995758057 -188088230.43512535 0 -188088230.43512535 -168107166.60569906 0 0 0 0 -162141805.01255798 -282779787.72563887 0 -282779787.72563887 -135213042.28705597 0 0 0 0 21519098.85953781 -22289919.60310382 0 -22289919.60310382 11950121.06176419 0 0 0 0 -220940329.46640015 -95821009.89308694 0 -95821009.89308694 -10881572.420396209 0 0 0 0 -45075737.132751465 -254267273.5887413 0 -254267273.5887413 -87724212.49200058 0 0 0 0 -73807772.39553833 -194870934.78382111 0 -194870934.78382111 -202921532.77036285 0 0 0 0 7948949.5540008545 -198150264.38360405 0 -198150264.38360405 -111197200.56469727 0 0 0 0 544742900.72363281 -607105960.19853401 0 -607105960.19853401 507684448.96522236 0 0 0 0 -348730299.45565796 -161069543.55302429 0 -161069543.55302429 -33742469.762729645 0 0 0 0 253037190.15560913 354569072.70544612 0 354569072.70544612 -556576608.0197866 0 0 0 0 480843553.37963867 -668622459.81318426 0 -668622459.81318426 422915178.24817073 0 0 0 0 1512543843.6524353 -360419627.18781579 0 -360419627.18781579 -892393100.94610763 0 0 0 0 298487769.32983398 -178564679.71420902 0 -178564679.71420902 -60273516.655351281 0 0 0 0 70691149.663101196 -27433525.705996573 0 -27433525.705996573 -44420728.31098175 0 0 0 0 -235227447.46902466 130060012.08279926 0 130060012.08279926 -69113571.224473 0 0 0 0 -54932604.473251343 -40298463.16394043 0 -40298463.16394043 46166940.948295653 0 0 0 0 25908463.892150879 -57868961.521862328 0 -57868961.521862328 34539890.31855607 0 0 0 0 40971848.803039551 -89169185.195391893 0 -89169185.195391893 58837848.154666126 0 0 0 0 -60510761.119277954 -39848537.526970744 0 -39848537.526970744 52157587.188753188 0 0 0 0 -7043321.8544006348 -57871399.96578373 0 -57871399.96578373 94161433.473330259 0 0 0 0 49017806.137405396 -23525697.741616517 0 -23525697.741616517 45425392.803134173 0 0 0 0 -20933852.373439789 -17814074.110956442 0 -17814074.110956442 45508039.455303609 0 0 0 0 -13556904.954336107 -14194504.832023965 0 -14194504.832023965 7200401.4620187767 0 0 0 0 -61902896.687637329 -15507885.544696957 0 -15507885.544696957 17928536.968474485 0 0 0 0 -49143825.002586365 -54275913.045741543 0 -54275913.045741543 25660047.342904955 0 0 0 0 -42078909.216583252 -54910820.430316329 0 -54910820.430316329 -13378098.293432817 0 0 0 0 22253791.638727188 3346277.4781506062 0 3346277.4781506062 -277873665.63358688 0 0 0 0 11984931.690963745 -43975003.287979126 0 -43975003.287979126 -149867706.14340436 0 0 0 0 14226727.480067685 -20541699.568809785 0 -20541699.568809785 11374230.632985199 0 0 0 0 522531809.19927979 283635864.31193829 0 283635864.31193829 -151372480.98040962 0 0 0 0 60805090.36907959 -20208971.360898972 0 -20208971.360898972 145070912.42414093 0 0 0 0 1469320130.2498474 -36503223.7298069 0 -36503223.7298069 -86591985.028755188 0 0 0 0 -693829.1587626636 72382.423077441752 0 72382.423077441752 553117.4526346093 0 0 0 0 -742158048.69503784 -199575836.68334389 0 -199575836.68334389 299547361.61901283 0 0 0 0 322042523.02597046 -161681656.21795368 0 -161681656.21795368 -365477242.40440941 0 0 0 0 895405158.8949585 174667235.81790924 0 174667235.81790924 -721931036.53388023 0 0 0 0 981912072.09702301 1287332.9088864326 0 1287332.9088864326 -454982257.80478859 0 0 0 0 611320510.56497192 -583386837.27956963 0 -583386837.27956963 112745690.34590435 0 0 0 0 911216574.69898224 -36960710.60781765 0 -36960710.60781765 -439074147.01372147 0 0 0 0 4614917.6712495089 -3284561.2934788428 0 -3284561.2934788428 3259146.9375461563 0 0 0 0 766831778.74894714 -490417007.16861594 0 -490417007.16861594 -487788570.93743396 0 0 0 0 524943633.80641174 -130190389.87192953 0 -130190389.87192953 -778174628.08127618 0 0 0 0 -72266970.976837158 -59547925.508410454 0 -59547925.508410454 461883694.58038712 0 0 0 0 152811440.90719604 136526977.71831858 0 136526977.71831858 1414362784.2391243 0 0 0 0 992417080.55656433 708219920.65817142 0 708219920.65817142 382349941.87624645 0 0 0 0 -234345788.90930176 403064994.81442308 0 403064994.81442308 383098878.04368019 0 0 0 0 187128616.56194305 134070070.76001394 0 134070070.76001394 258203804.13959122 0 0 0 0 -53909707.877960205 65497802.373739243 0 65497802.373739243 435226699.42898369 0 0 0 0 -177945146.93934631 411716767.07294273 0 411716767.07294273 123987231.00772095 0 0 0 0 -214888253.44921875 39154783.461150169 0 39154783.461150169 220990001.87190676 0 0 0 0 19559.14907130599 -2911762.6344527006 0 -2911762.6344527006 930883.35115470085 0 0 0 0 -118966971.12945557 214134989.69560432 0 214134989.69560432 111310812.83281136 0 0 0 0 -130755641.71472168 147211093.26903582 0 147211093.26903582 -75732455.356269836 0 0 0 0 -224795452.05636597 -15151957.084186077 0 -15151957.084186077 -3674597.1304721832 0 0 0 0 -120620063.50408936 -75573216.370865822 0 -75573216.370865822 -15241840.624193341 0 0 0 0 -165072095.73986816 -116260781.01724625 0 -116260781.01724625 -13763927.206064224 0 0 0 0 -67836494.022518158 -110908195.73569965 0 -110908195.73569965 54581191.591675758 0 0 0 0 -253820054.12677002 11895700.597933769 0 11895700.597933769 -20858907.140814304 0 0 0 0 -405797084.11541748 2160797.3350632191 0 2160797.3350632191 -21409841.543753006 0 0 0 0 -310719799.8770752 -164217796.480506 0 -164217796.480506 -58044785.066025533 0 0 0 0 -223063000.94423676 -167041019.04189232 0 -167041019.04189232 -58011259.355173111 0 0 0 0 -137302778.79986572 -169456445.55129874 0 -169456445.55129874 -106169162.54813671 0 0 0 0 -165204309.47998047 -177365670.19793606 0 -177365670.19793606 -107943925.03170501 0 0 0 0 30459355.024807736 -6885309.1985832248 0 -6885309.1985832248 -4041722.7275216533 0 0 0 0 -134813282.81460571 -152878939.62272727 0 -152878939.62272727 -92530718.823712587 0 0 0 0 8777052.2954185754 -10979211.406902727 0 -10979211.406902727 -3979528.4119023439 0 0 0 0 -116078162.3890686 -123319354.31307316 0 -123319354.31307316 -49923613.10461235 0 0 0 0 -168325137.18902588 -178747640.94561291 0 -178747640.94561291 -91023683.93296051 0 0 0 0 151522486.64759827 45649559.010110855 0 45649559.010110855 -24424648.205876827 0 0 0 0 -97728238.001937866 -210799811.51059771 0 -210799811.51059771 99504501.43019104 0 0 0 0 -31268357.279388428 87795675.673774719 0 87795675.673774719 -13358953.654968321 0 0 0 0 -7325931.3729705811 -11882574.877049923 0 -11882574.877049923 -49441404.99771142 0 0 0 0 -21686604.427703857 -25320533.943898931 0 -25320533.943898931 97841105.64498651 0 0 0 0 -16297412.121367693 -13509425.740151484 0 -13509425.740151484 6281808.3062212542 0 0 0 0 40873550.125259399 -76746731.151407719 0 -76746731.151407719 31340386.553098679 0 0 0 0 22276795.08579874 -16491832.336591054 0 -16491832.336591054 -6394991.1031493079 0 0 0 0 12991894.251289368 -13126769.769965291 0 -13126769.769965291 -2223582.5555877686 0 0 0 0 5654665.7815208435 -6986922.2574759126 0 -6986922.2574759126 2666102.5311784744 0 0 0 0 1348605.3553466797 -18370583.110227704 0 -18370583.110227704 11897924.542341232 0 0 0 0 23017440.30847168 -19192834.432912827 0 -19192834.432912827 7696564.164765358 0 0 0 0 8988831.9098815918 -17541581.556780815 0 -17541581.556780815 8681554.9374699593 0 0 0 0 16531330.177627563 -14673115.659267664 0 -14673115.659267664 -10481111.907170773 0 0 0 0 35273096.254364014 -25032418.849298 0 -25032418.849298 -18805966.037781 0 0 0 0 27617714.873931885 -25964557.30004406 0 -25964557.30004406 383658.95970249176 0 0 0 0 25912276.719940186 -27793922.838372707 0 -27793922.838372707 10902473.429278374 0 0 0 0 52708453.431243896 -40230180.808991909 0 -40230180.808991909 -10770087.457600594 0 0 0 0 35190489.543792725 -24180916.72858429 0 -24180916.72858429 -21608434.898415804 0 0 0 0 96849583.888122559 -46751984.45078063 0 -46751984.45078063 -34626265.465629101 0 0 0 0 51070005.171112061 -10289187.396819353 0 -10289187.396819353 -57714751.914351225 0 0 0 0 53310189.909297943 -33446049.653384238 0 -33446049.653384238 4684106.089630127 0 0 0 0 71126975.04107666 32370.575999259949 0 32370.575999259949 -29663114.975790024 0 0 0 0 92217223.202545166 -41998098.267493248 0 -41998098.267493248 6013555.836359024 0 0 0 0 23037044.343261719 -25786530.535574913 0 -25786530.535574913 3481071.8890266418 0 0 0 0 53217686.207946777 -8413647.5670433044 0 -8413647.5670433044 33633528.649250984 0 0 0 0 43753180.970336914 -38473964.930305481 0 -38473964.930305481 42566390.281288147 0 0 0 0 20024252.033935547 -23697140.201687813 0 -23697140.201687813 19117492.629826546 0 0 0 0 44555778.649414062 -31600517.404268265 0 -31600517.404268265 10267231.39369297 0 0 0 0 48034302.392944336 -21063161.310910225 0 -21063161.310910225 3975805.2238769531 0 0 0 0 83610883.999725342 -35329975.782422066 0 -35329975.782422066 52471242.869607925 0 0 0 0 58025006.013000488 100019963.27005768 0 100019963.27005768 35240362.192935467 0 0 0 0 177254697.96984863 -85766014.145618439 0 -85766014.145618439 129867682.20889854 0 0 0 0 -110298193.83544922 65580470.398281097 0 65580470.398281097 312152155.50072098 0 0 0 0 459536685.4654541 -132723692.50263262 0 -132723692.50263262 57480881.134542465 0 0 0 0 -140661199.72597504 -126901862.55392194 0 -126901862.55392194 483776416.93161011 0 0 0 0 203975592.31076813 -291365122.38609672 0 -291365122.38609672 322659854.51655579 0 0 0 0 286744152.69042969 -4382451.4918489456 0 -4382451.4918489456 20829898.541755676 0 0 0 0 191529157.86181641 -31843044.85180378 0 -31843044.85180378 25104559.053079486 0 0 0 0 98928971.508453369 -61897921.919499397 0 -61897921.919499397 59251767.900425196 0 0 0 0 157221343.45550537 -111422555.49116898 0 -111422555.49116898 168741147.70787811 0 0 0 0 133142684.2180481 -21106979.924687386 0 -21106979.924687386 37513525.405078888 0 0 0 0 150065241.48181152 -47140434.195194721 0 -47140434.195194721 -22562225.383027077 0 0 0 0 180405171.79608154 -12079781.382540226 0 -12079781.382540226 -9946963.6739959717 0 0 0 0 101568547.8093605 5867132.7118715346 0 5867132.7118715346 -78287715.627423286 0 0 0 0 151194272.21304321 3622416.6898417473 0 3622416.6898417473 -118902662.33211756 0 0 0 0 275801880.17919922 35634525.899020195 0 35634525.899020195 -23758754.912899017 0 0 0 0 135164672.97099686 51739693.639500856 0 51739693.639500856 -16312432.867288589 0 0 0 0 37423289.329071045 46960867.647744656 0 46960867.647744656 72027519.534550667 0 0 0 0 127749316.82252502 142704644.94314456 0 142704644.94314456 109260912.26787663 0 0 0 0 78532656.725578308 48779835.194554925 0 48779835.194554925 -43957537.835401773 0 0 0 0 -310591245.70448303 -257149191.75068927 0 -257149191.75068927 142028704.16275215 0 0 0 0 11457619.307617188 -79992395.819205046 0 -79992395.819205046 135454862.08501482 0 0 0 0 20561422.847182736 -1479886.320255694 0 -1479886.320255694 -1946966.7743678112 0 0 0 0 3724755.3336354718 886139.84624275565 0 886139.84624275565 -807136.39780884841 0 0 0 0 357240093.5062027 156683977.04942948 0 156683977.04942948 51411108.065716743 0 0 0 0 -256452508.29864502 -229766030.58667803 0 -229766030.58667803 -197753901.47401869 0 0 0 0 -2404376.7690215856 -2055311.497691208 0 -2055311.497691208 974418.28325843031 0 0 0 0 -297206105.68041992 81712784.115545273 0 81712784.115545273 18615339.377814293 0 0 0 0 -717558986.10409546 -220960399.03085089 0 -220960399.03085089 104366468.88193607 0 0 0 0 -843188614.84539795 323561170.8438797 0 323561170.8438797 706134225.86913919 0 0 0 0 -753257757.52529144 55422337.680652007 0 55422337.680652007 519042949.13999498 0 0 0 0 -590539703.91762543 144830676.76800764 0 144830676.76800764 139692608.85167229 0 0 0 0 -356803560.43468475 -50408989.786904186 0 -50408989.786904186 130542394.04854757 0 0 0 0 56237439.887802124 -111180445.10987222 0 -111180445.10987222 27632037.315301418 0 0 0 0 387219613.81336975 -232328977.24245477 0 -232328977.24245477 99323117.623574525 0 0 0 0 82328873.472991943 -154550491.97758949 0 -154550491.97758949 217927834.63805163 0 0 0 0 110615186.96490479 8301068.5924035311 0 8301068.5924035311 58174745.30726397 0 0 0 0 -53150381.859191895 75007253.623483181 0 75007253.623483181 28035728.797582567 0 0 0 0 64531943.667385101 -94577721.471202254 0 -94577721.471202254 131913326.97964066 0 0 0 0 151491934.6468811 -19069965.231046081 0 -19069965.231046081 44320458.350262284 0 0 0 0 -61079423.690658569 -44748407.996667266 0 -44748407.996667266 83590879.056671023 0 0 0 0 113625713.94216919 -80744827.680137396 0 -80744827.680137396 -63766200.108210921 0 0 0 0 22052592.756973267 3994531.1810536385 0 3994531.1810536385 21682100.068546176 0 0 0 0 -7306950.438196063 -7708558.2509066202 0 -7708558.2509066202 3647783.8250287441 0 0 0 0 23936141.428238869 30308451.56672883 0 30308451.56672883 -46914907.015268326 0 0 0 0 39828137.535400391 -27326551.696018219 0 -27326551.696018219 27504030.79309845 0 0 0 0 51281697.246704102 -17119481.839969635 0 -17119481.839969635 -25038789.331851959 0 0 0 0 -5181262.1041564941 -33463260.682366371 0 -33463260.682366371 -19980765.516261578 0 0 0 0 17172777.944677062 -10081750.283126675 0 -10081750.283126675 -4230178.1805149391 0 0 0 0 34035996.100128174 -988551.59211921692 0 -988551.59211921692 -15792381.517940521 0 0 0 0 18208857.040939331 -19134995.055756569 0 -19134995.055756569 3352026.356698513 0 0 0 0 2623597.3376258612 -1010627.937750604 0 -1010627.937750604 -933382.55963216303 0 0 0 0 23764613.447273254 -12714044.554576278 0 -12714044.554576278 -15420951.652461529 0 0 0 0 14930975.285980225 -13938703.939666748 0 -13938703.939666748 -2127327.6960824132 0 0 0 0 21665700.196681976 -20140110.382822633 0 -20140110.382822633 -16157131.25460577 0 0 0 0 11522938.973510742 -268369.10277557373 0 -268369.10277557373 -20682676.123590231 0 0 0 0 34386277.322982788 17956598.554910421 0 17956598.554910421 -36330998.339202881 0 0 0 0 68758528.886688232 -55558280.032707214 0 -55558280.032707214 -13815889.473388672 0 0 0 0 14442515.275627919 -9697306.0201672912 0 -9697306.0201672912 -5342991.6542990804 0 0 0 0 56590796.804412842 -65706239.810090065 0 -65706239.810090065 15620451.462342262 0 0 0 0 17247921.701452479 -11097241.022555299 0 -11097241.022555299 -7716630.4928349033 0 0 0 0 59145787.606567383 -81356152.012517929 0 -81356152.012517929 41976173.253097534 0 0 0 0 -41629810.916717529 66582434.364768028 0 66582434.364768028 -95805695.176939011 0 0 0 0 1883835.6850322783 3317993.2247423418 0 3317993.2247423418 -3495496.918035259 0 0 0 0 -186141219.43595886 156643021.49015903 0 156643021.49015903 -59581459.700021744 0 0 0 0 -62275780.026077271 -1105622.9461941719 0 -1105622.9461941719 5814981.0928659439 0 0 0 0 -38268885.84715271 6565738.6864726543 0 6565738.6864726543 1662239.370016098 0 0 0 0 -329176914.05354691 7735216.017198801 0 7735216.017198801 235013228.77265263 0 0 0 0 17935043.672513962 -54418322.417128921 0 -54418322.417128921 -88331782.607191086 0 0 0 0 -259715702.72827148 -95906724.009437561 0 -95906724.009437561 -27121116.738510132 0 0 0 0 -375814236.93273926 178044643.01618767 0 178044643.01618767 131948512.91744566 0 0 0 0 -379400153.96357727 258521890.44794655 0 258521890.44794655 81207795.812582016 0 0 0 0 -170888932.77571416 83609808.654514909 0 83609808.654514909 -12409972.724544525 0 0 0 0 -161460218.27512455 303756995.2777499 0 303756995.2777499 -169632768.76006126 0 0 0 0 23575463.271409012 -11311706.269109709 0 -11311706.269109709 -6113339.6509235362 0 0 0 0 -45161246.716758728 125141306.38265896 0 125141306.38265896 -179923039.03720474 0 0 0 0 9045959.8192749023 -5934835.2323679924 0 -5934835.2323679924 -6732317.6528331339 0 0 0 0 11502022.230773926 -5553163.9241423607 0 -5553163.9241423607 -6876327.3903455734 0 0 0 0 21133914.841526031 -5156895.4758066386 0 -5156895.4758066386 -13809407.114464775 0 0 0 0 21681138.719322205 -5210444.6291832328 0 -5210444.6291832328 -23587049.140207291 0 0 0 0 18886128.576562323 -10843436.890458861 0 -10843436.890458861 -1229425.6584340711 0 0 0 0 651675.16836407036 833779.52530588931 0 833779.52530588931 -1519267.3413834132 0 0 0 0 -8312549.3607635498 19783074.77723074 0 19783074.77723074 -10104529.131013632 0 0 0 0 8188065.2417602539 -27678112.10430932 0 -27678112.10430932 45423308.631969452 0 0 0 0 33575392.056808472 -84326848.836160243 0 -84326848.836160243 -45600385.021726489 0 0 0 0 31986187.4830513 -8009130.6841750145 0 -8009130.6841750145 -43969731.478416443 0 0 0 0 32131010.626586445 -5764198.3217554539 0 -5764198.3217554539 -6875028.8844622774 0 0 0 0 -8199312.5965576172 20019080.289060593 0 20019080.289060593 6846824.1004104614 0 0 0 0 -9795227.4695396423 30128976.621174932 0 30128976.621174932 -29309684.842788696 0 0 0 0 32048505.005276792 -4513212.5347438343 0 -4513212.5347438343 -6969021.582445845 0 0 0 0 -18015403.13936615 -743752.40289497375 0 -743752.40289497375 2185983.9591178894 0 0 0 0 21212757.37022154 -2920215.4986594012 0 -2920215.4986594012 -5475079.0497090602 0 0 0 0 81252703.768539429 -29655821.977832317 0 -29655821.977832317 -66701630.049300671 0 0 0 0 21549724.301559448 -17168368.141800463 0 -17168368.141800463 -29895388.947482675 0 0 0 0 140348549.47471619 -15501171.191186666 0 -15501171.191186666 -64278579.003012359 0 0 0 0 14558264.791122437 -17657445.179525614 0 -17657445.179525614 -17172134.946950972 0 0 0 0 -26366127.311832905 -62862256.468378171 0 -62862256.468378171 -8542814.0124392509 0 0 0 0 20730298.789462276 -3741446.1724684685 0 -3741446.1724684685 -3660606.4366281643 0 0 0 0 50765602.057266235 40450221.047849655 0 40450221.047849655 -127627297.48679447 0 0 0 0 184997530.62971497 63883828.663421154 0 63883828.663421154 -64515497.981022447 0 0 0 0 218761.88483066112 -293565.22682079044 0 -293565.22682079044 -502333.62021613331 0 0 0 0 -105868925.64810181 40990031.640468955 0 40990031.640468955 103953799.71319667 0 0 0 0 39984463.714111328 42319532.83250761 0 42319532.83250761 28879326.030543804 0 0 0 0 -1861675.5587768555 -15503050.494003296 0 -15503050.494003296 -62022046.632533073 0 0 0 0 28389536.170822144 22279096.152766228 0 22279096.152766228 -25520760.316261292 0 0 0 0 -19716932.114610672 28103420.834529161 0 28103420.834529161 -23355671.354473114 0 0 0 0 -27042519.703361511 -22597916.55014801 0 -22597916.55014801 -25344428.414833069 0 0 0 0 26116685.097175598 65083660.878568649 0 65083660.878568649 -58011652.497833252 0 0 0 0 46316354.351037979 15648342.959634542 0 15648342.959634542 2951016.4236660004 0 0 0 0 22849031.385238647 -11612317.477474213 0 -11612317.477474213 -24775373.078814507 0 0 0 0 41011767.580154419 2933956.4533689022 0 2933956.4533689022 72661213.709262848 0 0 0 0 116447843.00966644 39257395.845505714 0 39257395.845505714 -17350193.262647629 0 0 0 0 102075864.65348816 -52842542.543629646 0 -52842542.543629646 11523762.49697113 0 0 0 0 12431680.522348996 -3295139.3841206785 0 -3295139.3841206785 1174378.7448044964 0 0 0 0 51421917.800617218 -43581188.961008549 0 -43581188.961008549 57343187.706777573 0 0 0 0 64897448.263969421 -36845714.967013359 0 -36845714.967013359 10717036.37376976 0 0 0 0 40474722.457885742 -19210108.158594608 0 -19210108.158594608 13259638.327319622 0 0 0 0 30590869.936836243 426095.96723151207 0 426095.96723151207 5680955.6856021881 0 0 0 0 10010257.79650116 -9747774.5340328217 0 -9747774.5340328217 1231731.8921709061 0 0 0 0 23003513.040571213 22829270.119453192 0 22829270.119453192 -23961173.210826874 0 0 0 0 38347400.349510193 10801057.659907341 0 10801057.659907341 -6228663.4066770077 0 0 0 0 24785335.451324463 13186017.613596916 0 13186017.613596916 -4415015.3656158447 0 0 0 0 33037927.716461182 12550434.362760544 0 12550434.362760544 -41361835.033349991 0 0 0 0 25046300.877159119 7745846.4255580902 0 7745846.4255580902 -3272434.4154205322 0 0 0 0 28058806.33966732 15763307.215700388 0 15763307.215700388 -17616651.576974869 0 0 0 0 26071206.232635498 18175608.143985748 0 18175608.143985748 -18334725.567955017 0 0 0 0 18069899.419578552 -1766271.3133506775 0 -1766271.3133506775 -33238740.072787285 0 0 0 0 2988202.9781188965 3567006.0852599144 0 3567006.0852599144 -10758248.485996485 0 0 0 0 17290996.1934793 12164690.537295759 0 12164690.537295759 -10011061.554613113 0 0 0 0 11148812.868222635 -251576.08695968706 0 -251576.08695968706 -3552306.6352309384 0 0 0 0 -16448333.07383728 -15665233.261584409 0 -15665233.261584409 1641647.6062534042 0 0 0 0 1125592.9214172661 -1178481.3363140272 0 -1178481.3363140272 -856001.80062980007 0 0 0 0 12922256.578033447 -9064601.0893114805 0 -9064601.0893114805 -26586589.734015703 0 0 0 0 10428271.587209061 4153231.413062443 0 4153231.413062443 -7310708.7953428254 0 0 0 0 13743729.805358052 -10194813.020009419 0 -10194813.020009419 -378188.09362921352 0 0 0 0 8818722.8349914551 11074926.483060718 0 11074926.483060718 -16145448.033859015 0 0 0 0 19325492.143205564 -2967376.321935636 0 -2967376.321935636 -4476897.2449452579 0 0 0 0 31386170.68119812 -2658916.6564292908 0 -2658916.6564292908 -52257671.83290863 0 0 0 0 20870399.403686523 45843597.051659584 0 45843597.051659584 -59279685.427128315 0 0 0 0 2752750.3746098839 4068071.1140691843 0 4068071.1140691843 -3416250.3653416163 0 0 0 0 47191013.680892944 -4120991.0913106203 0 -4120991.0913106203 -72097955.378077179 0 0 0 0 57991103.173959732 -22456348.800997734 0 -22456348.800997734 8128.9492034912109 0 0 0 0 54232494.757095337 -24475218.095177174 0 -24475218.095177174 1178069.5349693298 0 0 0 0 128379654.38375854 -66567644.157088459 0 -66567644.157088459 -20391262.621963143 0 0 0 0 54408579.186355591 33908710.342702091 0 33908710.342702091 -32925281.185034275 0 0 0 0 55978773.775424957 -21139879.394156456 0 -21139879.394156456 4048978.0325622559 0 0 0 0 49523747.597532384 -9400204.7005115785 0 -9400204.7005115785 -8457590.1726384554 0 0 0 0 36424140.109161377 12280993.155852497 0 12280993.155852497 -59166070.505395234 0 0 0 0 11143043.857933283 -2875175.0340261497 0 -2875175.0340261497 -2602315.6159992679 0 0 0 0 58843847.68069458 112814500.07789817 0 112814500.07789817 -141497064.79199469 0 0 0 0 61755686.152435303 -10017545.71566236 0 -10017545.71566236 -65881911.595927238 0 0 0 0 37621565.474709935 2880738.5257351883 0 2880738.5257351883 -9651205.4066960607 0 0 0 0 63677765.381355286 -25966523.200000763 0 -25966523.200000763 2409175.0065002441 0 0 0 0 59288401.389877319 -19978290.198291779 0 -19978290.198291779 1253832.1676330566 0 0 0 0 60544446.61769104 -36996847.722717285 0 -36996847.722717285 -9627118.9890956879 0 0 0 0 30850617.456215449 -9989928.3064778298 0 -9989928.3064778298 -9183466.855591815 0 0 0 0 17223399.664344788 13123840.018009186 0 13123840.018009186 -26750051.756830215 0 0 0 0 83026670.634216309 -13739210.185428619 0 -13739210.185428619 11244215.422153473 0 0 0 0 2142329.3440560848 3491335.0793329971 0 3491335.0793329971 -1975841.9253096534 0 0 0 0 14958176.115036011 -92023363.158923149 0 -92023363.158923149 -32244557.846747398 0 0 0 0 47971461.803009033 6505427.9043357372 0 6505427.9043357372 -78575349.659415483 0 0 0 0 59842004.993606567 -30373161.612121999 0 -30373161.612121999 -44152040.308333874 0 0 0 0 42139480.01064682 -15752899.937930405 0 -15752899.937930405 -51376455.688176155 0 0 0 0 46240209.776916504 -18342156.994304895 0 -18342156.994304895 -52137012.678201079 0 0 0 0 23647097.779544383 1751858.8719436601 0 1751858.8719436601 -6810782.4413246149 0 0 0 0 20197905.215003967 -5132044.4179645181 0 -5132044.4179645181 -35866343.047001123 0 0 0 0 -32201862.825931311 8520587.6606034636 0 8520587.6606034636 -33443592.863185406 0 0 0 0 23402492.14779143 -7872315.7562089926 0 -7872315.7562089926 -4606265.3447448062 0 0 0 0 139666255.81323242 29365760.417732239 0 29365760.417732239 -39625896.311683655 0 0 0 0 62825818.469284058 -115739717.48677635 0 -115739717.48677635 -78324047.105583668 0 0 0 0 65045684.854110718 -35988285.626978397 0 -35988285.626978397 17964098.642451286 0 0 0 0 61096187.582450867 -34355483.062820435 0 -34355483.062820435 22183490.187402725 0 0 0 0 138608716.88069153 -81024445.180615425 0 -81024445.180615425 -84950078.77778244 0 0 0 0 4036210.4245757964 -340484.95057317242 0 -340484.95057317242 -266825.30926828273 0 0 0 0 79345399.919975281 -44770779.069060206 0 -44770779.069060206 22589867.762508392 0 0 0 0 23466842.09782318 -3087828.2833649255 0 -3087828.2833649255 -6792080.1250471426 0 0 0 0 55585698.145366669 -25466760.667626381 0 -25466760.667626381 7534552.0933852196 0 0 0 0 64341626.846046448 -29369339.71632576 0 -29369339.71632576 8421661.8638224602 0 0 0 0 22961076.645473726 -4878102.7824152764 0 -4878102.7824152764 -8029539.13677953 0 0 0 0 62095971.877729416 -22310278.679836035 0 -22310278.679836035 1490883.5819282532 0 0 0 0 56690161.039073944 -22368551.23679924 0 -22368551.23679924 6177833.020195961 0 0 0 0 56179281.043269567 -10155471.629953997 0 -10155471.629953997 -19305861.759015128 0 0 0 0 56534866.165917635 -19798987.042829812 0 -19798987.042829812 -1894202.6027774811 0 0 0 0 -29190350.544994354 1040631.5172119141 0 1040631.5172119141 -18097959.368637085 0 0 0 0 342576325.73600769 164119350.19387817 0 164119350.19387817 134781657.31458616 0 0 0 0 15717052.531791687 185565571.18268967 0 185565571.18268967 458557076.70419312 0 0 0 0 157802386.28675461 188407855.0291214 0 188407855.0291214 -211064627.65664673 0 0 0 0 60724143.224578857 242375456.23272705 0 242375456.23272705 139119605.21235275 0 0 0 0 173286134.84056473 144802202.91820526 0 144802202.91820526 -542940134.01725769 0 0 0 0 -52005773.980613708 260652465.68613052 0 260652465.68613052 -225353022.21928406 0 0 0 0 52060810.567565523 -6647873.5249280985 0 -6647873.5249280985 -22185181.073148239 0 0 0 0 57790923.981319427 -20991151.421974182 0 -20991151.421974182 5019412.287624836 0 0 0 0 53044812.908895493 367958493.88607216 0 367958493.88607216 -449431903.88602448 0 0 0 0 37080283.094558716 156292898.74604797 0 156292898.74604797 -389473159.66490173 0 0 0 0 -2700488.6237030029 146985436.29988098 0 146985436.29988098 74062933.168106079 0 0 0 0 -5625576.0268859863 58994250.863105774 0 58994250.863105774 53951777.766929626 0 0 0 0 -64517394.933353424 181648582.59026146 0 181648582.59026146 -174649854.81962585 0 0 0 0 57476900.298350096 -23049773.219845295 0 -23049773.219845295 10390684.929332733 0 0 0 0 55416136.474663734 -25173324.964588404 0 -25173324.964588404 11696085.246088028 0 0 0 0 53366360.441657066 -24653909.961815834 0 -24653909.961815834 11797305.311826706 0 0 0 0 54117630.076087952 -23828908.22249794 0 -23828908.22249794 11280512.131466389 0 0 0 0 48651936.257199809 -4510311.0334028518 0 -4510311.0334028518 -25110089.262395918 0 0 0 0 -60009749.922759533 28758732.506211996 0 28758732.506211996 53069914.730743408 0 0 0 0 -4111192.8554840088 25995064.445363998 0 25995064.445363998 -12790963.253292084 0 0 0 0 28020164.188194275 16186600.901245117 0 16186600.901245117 -66036011.105053902 0 0 0 0 15833714.998373985 22179514.557374954 0 22179514.557374954 -33997645.943778992 0 0 0 0 -402642.41441809386 6523481.3286764417 0 6523481.3286764417 -5482805.1923515005 0 0 0 0 -97537753.499359131 14962606.279754639 0 14962606.279754639 236016167.48605347 0 0 0 0 -30945332.343566895 -6710745.9477310181 0 -6710745.9477310181 185725003.09811401 0 0 0 0 3951227.5761860386 3989842.4747438692 0 3989842.4747438692 -2756557.3197539328 0 0 0 0 1601739.3072967529 -16873497.411973953 0 -16873497.411973953 -44996501.174243927 0 0 0 0 35169549.655445099 -35388321.514117241 0 -35388321.514117241 -36144304.897918701 0 0 0 0 -17377636.144851685 -36487158.948547363 0 -36487158.948547363 -7290150.8432846069 0 0 0 0 221943783.53309441 -106060912.80594158 0 -106060912.80594158 116046647.2234726 0 0 0 0 -28644683.447532654 -15752289.737434387 0 -15752289.737434387 -18553942.960578918 0 0 0 0 2100391.3787919767 -1657274.1806944152 0 -1657274.1806944152 -10890853.397698708 0 0 0 0 261530409.35584259 -86425392.914075851 0 -86425392.914075851 79779577.845218658 0 0 0 0 413091253.64565277 -156814137.14763641 0 -156814137.14763641 70733225.004119873 0 0 0 0 217026442.17837524 -63429234.261901855 0 -63429234.261901855 -153583602.03979492 0 0 0 0 233774979.372962 -198322506.00659466 0 -198322506.00659466 119202794.47613525 0 0 0 0 408316531.29309082 -67210840.200698853 0 -67210840.200698853 -102095598.87031555 0 0 0 0 5287.4149310588837 -90848.422978766263 0 -90848.422978766263 -210178.50892021786 0 0 0 0 81753628.948074341 -179340561.69032288 0 -179340561.69032288 382455329.0100708 0 0 0 0 1399425.3312197216 1994001.7475803848 0 1994001.7475803848 -1285881.8675481379 0 0 0 0 232249559.38735962 -45910018.544433594 0 -45910018.544433594 -7208977.9052658081 0 0 0 0 330397919.06472778 234001508.41609955 0 234001508.41609955 228113332.85675049 0 0 0 0 42363731.30191803 19200475.105183601 0 19200475.105183601 -20667613.776182652 0 0 0 0 62729157.538383484 -29990144.068382978 0 -29990144.068382978 28935480.675033092 0 0 0 0 68854799.804908752 -35410329.761628866 0 -35410329.761628866 -89210192.625179768 0 0 0 0 215656167.57782745 119717719.75087243 0 119717719.75087243 -126270140.56917062 0 0 0 0 1456126.6712939776 798758.76190507412 0 798758.76190507412 -23465.58510460984 0 0 0 0 14837381.093235016 -79971054.365072012 0 -79971054.365072012 43111944.453520536 0 0 0 0 55885090.753421783 74530521.659656167 0 74530521.659656167 -18877705.687350273 0 0 0 0 40791278.742824554 19157703.621642351 0 19157703.621642351 5087509.0811796188 0 0 0 0 27117685.357200623 18117140.957268715 0 18117140.957268715 8936989.8467001915 0 0 0 0 31897497.531511307 2876881.5194454193 0 2876881.5194454193 8836471.7728624344 0 0 0 0 57253262.123889923 -1119868.5486810207 0 -1119868.5486810207 5696273.2958965302 0 0 0 0 67824340.308898926 -10213187.650792122 0 -10213187.650792122 10292545.815252781 0 0 0 0 79946777.804855347 -31636060.068716884 0 -31636060.068716884 10874382.179039273 0 0 0 0 28015542.689364642 -11242206.445998218 0 -11242206.445998218 5861085.4762454238 0 0 0 0 18501401.879308153 2438712.2574878773 0 2438712.2574878773 -6919936.8648173977 0 0 0 0 43208685.187648252 -1120849.3522285409 0 -1120849.3522285409 -28131358.939721879 0 0 0 0 27695089.190647125 -7444797.6594390869 0 -7444797.6594390869 201936.85326004028 0 0 0 0 49978198.531320572 -24329512.566626072 0 -24329512.566626072 18645764.662126541 0 0 0 0 49916530.369682312 -26567497.592085361 0 -26567497.592085361 19126327.832596183 0 0 0 0 65969119.274780273 2509356.7742909193 0 2509356.7742909193 -9279770.169968605 0 0 0 0 30384159.948995214 -13017866.609329622 0 -13017866.609329622 8987741.4344258364 0 0 0 0 22035611.908145905 -7582964.7390136719 0 -7582964.7390136719 1885447.480173111 0 0 0 0 6020682.1290985448 10500981.120707106 0 10500981.120707106 -13389883.044951472 0 0 0 0 13535915.409095764 1490267.7743592262 0 1490267.7743592262 -1015513.4192447662 0 0 0 0 12221021.09274292 5307466.0804491043 0 5307466.0804491043 -12767301.212368011 0 0 0 0 -79605174.121490479 69493445.576370239 0 69493445.576370239 -107110827.81487274 0 0 0 0 57993780.259334929 -11458766.52482084 0 -11458766.52482084 -13605405.872865871 0 0 0 0 -3969990.7055777386 3341780.5833736733 0 3341780.5833736733 -2551963.1337568648 0 0 0 0 -46774917.641907215 141766830.99156284 0 141766830.99156284 -107504261.95233154 0 0 0 0 -8599655.0433349609 113798287.86680603 0 113798287.86680603 -180119993.57312012 0 0 0 0 -42861793.836761475 55020762.556938171 0 55020762.556938171 -23078275.662498474 0 0 0 0 -6802933.657910049 16805110.236468576 0 16805110.236468576 -10775748.24523519 0 0 0 0 -34688170.059356689 31752182.681610107 0 31752182.681610107 -21355313.355300903 0 0 0 0 2530892.6461181641 24535236.81955719 0 24535236.81955719 -29454764.617240906 0 0 0 0 11134247.617851257 338064.63138771057 0 338064.63138771057 -8321944.579267025 0 0 0 0 15888679.689748488 3821017.6520072408 0 3821017.6520072408 -10676568.452457726 0 0 0 0 19512225.753845215 -668164.8233757019 0 -668164.8233757019 -14277494.243305206 0 0 0 0 1148833.1372790616 11259601.182239138 0 11259601.182239138 -15690859.573277626 0 0 0 0 330978.88847351074 5663880.4796524048 0 5663880.4796524048 -7135128.3039169312 0 0 0 0 11054714.128683656 -1378483.642183023 0 -1378483.642183023 -4134450.5427392405 0 0 0 0 38620652.555150457 -2413403.4170937873 0 -2413403.4170937873 -17718764.117698736 0 0 0 0 14313451.268108368 15161011.567721367 0 15161011.567721367 -21996744.391456604 0 0 0 0 -578749.66306847334 2132314.9780733883 0 2132314.9780733883 -1578055.5041168095 0 0 0 0 -5755985.0018844604 -4040201.3613433838 0 -4040201.3613433838 -8665121.4698028564 0 0 0 0 24844635.375511169 23651093.100390434 0 23651093.100390434 -26630638.956967831 0 0 0 0 55407643.368400574 -62204377.151000261 0 -62204377.151000261 10250303.731040001 0 0 0 0 57927816.588020802 -31948898.430076718 0 -31948898.430076718 69933827.019805908 0 0 0 0 25350537.359360069 -875823.99078150839 0 -875823.99078150839 -5180832.0423031067 0 0 0 0 41112686.741382599 -84028750.481130689 0 -84028750.481130689 10972827.531280816 0 0 0 0 5874479.1092834473 -33000318.124429464 0 -33000318.124429464 -21140674.438284636 0 0 0 0 55074731.805978775 -52140951.005607367 0 -52140951.005607367 -13800102.355820417 0 0 0 0 732430.29738357104 499200.75593204238 0 499200.75593204238 505162.71154228644 0 0 0 0 89797792.169124603 -4298230.1336263418 0 -4298230.1336263418 15854137.551332593 0 0 0 0 42064989.844106473 -718618.55785932159 0 -718618.55785932159 -18535741.227097571 0 0 0 0 61543500.914070129 20861565.735198975 0 20861565.735198975 -21435748.091850281 0 0 0 0 32116757.444495238 -9177047.9684377145 0 -9177047.9684377145 -4679134.169077632 0 0 0 0 -547518267.58171749 -327036047.43735498 0 -327036047.43735498 140804299.8846668 0 0 0 0 1243424713.0787754 77020105.439429998 0 77020105.439429998 -95095823.226333499 0 0 0 0 -380214217.67719841 434823814.33223546 0 434823814.33223546 1347936120.1833742 0 0 0 0 1152074239.9495993 -439355267.33599132 0 -439355267.33599132 -770086272.80509925 0 0 0 0 18682237.315727234 21796377.471287608 0 21796377.471287608 -4693933.2850797176 0 0 0 0 -27786259.499404907 -91822730.173169136 0 -91822730.173169136 -1661928.7950837836 0 0 0 0 -104385003.97814941 -59586768.38672179 0 -59586768.38672179 22515320.994613647 0 0 0 0 1166575.4350611283 436492.84617052414 0 436492.84617052414 -6495.3838835381903 0 0 0 0 50504688.131248474 24658657.385020018 0 24658657.385020018 -23882053.378437042 0 0 0 0 9026416.135269165 -19412420.167203426 0 -19412420.167203426 -28378838.544497967 0 0 0 0 -38886155.374862671 -11405833.351996422 0 -11405833.351996422 -19315959.373007536 0 0 0 0 57791324.768167496 -44507476.996382713 0 -44507476.996382713 -36602008.456917763 0 0 0 0 24927094.668295328 -5894749.6697188225 0 -5894749.6697188225 -3742148.2317418694 0 0 0 0 32501635.541091919 -20228058.949916363 0 -20228058.949916363 6662404.4378185272 0 0 0 0 50515503.871855259 -5170621.3337288797 0 -5170621.3337288797 -23442755.317997932 0 0 0 0 66394429.823289394 -472204803.13681316 0 -472204803.13681316 -504732167.21564293 0 0 0 0 13904566.502502441 -6009481.3907361031 0 -6009481.3907361031 3183150.4926633835 0 0 0 0 30355682.929599762 -31789157.243172884 0 -31789157.243172884 -1823584.8838224411 0 0 0 0 22990149.134418488 -11329805.90806675 0 -11329805.90806675 -10089265.4208498 0 0 0 0 46722732.654977798 -6262917.9459130764 0 -6262917.9459130764 -13312597.681265831 0 0 0 0 14720350.564819336 -5633450.940120697 0 -5633450.940120697 -7116106.9652709961 0 0 0 0 -892684.83016872033 -1908384.7988128513 0 -1908384.7988128513 67701.160765057663 0 0 0 0 27588884.796424866 -12396198.760494709 0 -12396198.760494709 4203144.5081892014 0 0 0 0 3995455.4423898002 254770.82616623491 0 254770.82616623491 -244399.75638681697 0 0 0 0 3929887.4222903326 350708.97254866734 0 350708.97254866734 227754.43873670092 0 0 0 0 -19523148.691483498 -26954195.906864405 0 -26954195.906864405 1041227.2099399567 0 0 0 0 -568302.43431091309 -15934273.165723801 0 -15934273.165723801 -4711459.8738772869 0 0 0 0 8899168.1348762512 -6386149.4878466129 0 -6386149.4878466129 -14120028.417921305 0 0 0 0 18028150.406945866 1530481.0063363677 0 1530481.0063363677 -3123814.539299855 0 0 0 0 95046961.090074062 55526079.0488199 0 55526079.0488199 -13379020.298925877 0 0 0 0 12396270.805412292 -831291.26896762848 0 -831291.26896762848 -15567453.056660414 0 0 0 0 13128619.482147217 -1956154.7738041878 0 -1956154.7738041878 -16646979.04766798 0 0 0 0 10351413.587990284 -42523275.513524294 0 -42523275.513524294 -29545107.746372133 0 0 0 0 17710482.146120504 -3581197.2585471175 0 -3581197.2585471175 -2360655.4864158239 0 0 0 0 19172479.661588974 4038046.4642446227 0 4038046.4642446227 -3153026.1766693909 0 0 0 0 12032447.585723877 -2299559.1617994308 0 -2299559.1617994308 -15558303.194611549 0 0 0 0 -77780406.821794987 182825954.84525585 0 182825954.84525585 -120477841.12874413 0 0 0 0 23366901.80963099 -5192747.683580243 0 -5192747.683580243 -7706660.5852894913 0 0 0 0 14645518.73178504 -1887033.4311394757 0 -1887033.4311394757 -4160196.9911052128 0 0 0 0 -110769586.7662425 120202107.21915281 0 120202107.21915281 -226584170.88726044 0 0 0 0 -100335457.01485233 112868637.07821864 0 112868637.07821864 -238582532.35978794 0 0 0 0 -76095872.586400986 151939701.72947472 0 151939701.72947472 -375254192.81046832 0 0 0 0 -67600072.457258224 198269853.95040512 0 198269853.95040512 -195220297.78468478 0 0 0 0 -2636986.9867303371 -44259632.00712502 0 -44259632.00712502 52183943.252753735 0 0 0 0 3168524.8609436476 -581681.97898850346 0 -581681.97898850346 56681.913321431028 0 0 0 0 245551933.56923914 28937497.424428299 0 28937497.424428299 9952504.4955913574 0 0 0 0 189932645.02131391 266521725.49840802 0 266521725.49840802 289495160.63195848 0 0 0 0 -446170499.8669107 483160614.24583364 0 483160614.24583364 288803610.96647638 0 0 0 0 181674797.220963 -133754820.29179686 0 -133754820.29179686 -236437840.85312021 0 0 0 0 -184195790.96901512 215280173.03200763 0 215280173.03200763 232115988.21713305 0 0 0 0 -82026273.854694605 728552597.26622212 0 728552597.26622212 -89568734.767384768 0 0 0 0 718364803.35451996 531847619.55179447 0 531847619.55179447 -193584050.70443964 0 0 0 0 610831629.79589796 -792140868.68928134 0 -792140868.68928134 489658276.3537097 0 0 0 0 3319348.3665462728 1254501.4023167919 0 1254501.4023167919 254164.76074995665 0 0 0 0 137972374.03100967 -372587099.5144828 0 -372587099.5144828 225885242.07967013 0 0 0 0 9149299.9267006014 2626567.1351194559 0 2626567.1351194559 4651.8388064813334 0 0 0 0 433558614.22668648 -39769025.421011724 0 -39769025.421011724 -369722298.55883276 0 0 0 0 -72339970.023691177 781180780.46278381 0 781180780.46278381 -1093436785.1811366 0 0 0 0 -417787876.05356979 161996549.87043294 0 161996549.87043294 154019483.67482007 0 0 0 0 722480134.09552097 330491905.07210022 0 330491905.07210022 -1594401581.348351 0 0 0 0 337391877.99310303 475058636.27510375 0 475058636.27510375 745959721.62060261 0 0 0 0 161867537.02767277 114689497.92163089 0 114689497.92163089 67297845.422941923 0 0 0 0 -267749221.99413872 120626492.51983911 0 120626492.51983911 568473533.73286819 0 0 0 0 -236307088.58515167 383533593.05066895 0 383533593.05066895 369390890.31099641 0 0 0 0 4886267399.7620277 -467205883.61603546 0 -467205883.61603546 -1001831131.6116756 0 0 0 0 1548649462.1809499 -2406177011.7533798 0 -2406177011.7533798 660303914.450912 0 0 0 0 458117789.53565407 548535070.99175406 0 548535070.99175406 -26442329.593281705 0 0 0 0 1325700642.132894 -518617279.57448149 0 -518617279.57448149 -83669291.896620989 0 0 0 0 3375149408.9419746 1042570907.7523543 0 1042570907.7523543 320935713.22787428 0 0 0 0 5368145370.0904179 -132706085.87853362 0 -132706085.87853362 -921079329.50050139 0 0 0 0 3271585082.5959148 -759662184.71525168 0 -759662184.71525168 -970968119.51410162 0 0 0 0 6612565639.6483135 984111901.30362856 0 984111901.30362856 -160007133.45930213 0 0 0 0 4524008744.3152885 1482828321.2119923 0 1482828321.2119923 -258500741.44828004 0 0 0 0 3683652.3577469047 -27203.260750602931 0 -27203.260750602931 998747.12396199105 0 0 0 0 4261104596.0044441 -35274661.643658102 0 -35274661.643658102 -34694033.045531452 0 0 0 0 2649362753.6595745 1956837005.731606 0 1956837005.731606 1100105213.1672397 0 0 0 0 783466240.75900078 166612816.13204479 0 166612816.13204479 201452387.22593558 0 0 0 0 -16566147.969070196 -543811440.68857718 0 -543811440.68857718 -31566560.991301537 0 0 0 0 -93337868.327152252 685798211.83758736 0 685798211.83758736 983155566.61357403 0 0 0 0 -35428904.05007267 -439679780.23513818 0 -439679780.23513818 101029535.48372126 0 0 0 0 -134377599.34051752 466131554.52375638 0 466131554.52375638 394169227.93514836 0 0 0 0 -233702484.84143448 110761150.47246253 0 110761150.47246253 250737420.45855856 0 0 0 0 3172349042.2597561 1729161112.9075997 0 1729161112.9075997 806852834.79092503 0 0 0 0 1654854351.6551552 -204388891.11103767 0 -204388891.11103767 -86836461.727151215 0 0 0 0 85548884.517665863 284747959.3489151 0 284747959.3489151 728854479.34026241 0 0 0 0 6607545288.4944 2709091009.6595664 0 2709091009.6595664 -284185738.17884469 0 0 0 0 4452648740.7465363 1287157195.9932005 0 1287157195.9932005 -377493540.47135472 0 0 0 0 -23247952.048271179 73702327.798552752 0 73702327.798552752 170151788.4491353 0 0 0 0 -31691834.864832878 36084029.69003129 0 36084029.69003129 102913031.7849443 0 0 0 0 427847.33732652664 -29468475.180364549 0 -29468475.180364549 384199573.85996509 0 0 0 0 24700072.161255836 29242569.037698269 0 29242569.037698269 423152215.41123724 0 0 0 0 199977864.9793396 -133257013.3080709 0 -133257013.3080709 520890219.68616199 0 0 0 0 618005394.45043612 345818778.56899571 0 345818778.56899571 746620779.90898228 0 0 0 0 10880023.78408432 -300188227.02934122 0 -300188227.02934122 569120545.09448802 0 0 0 0 236095339.62593651 -183181674.6403048 0 -183181674.6403048 -132508058.6763525 0 0 0 0 195853661.05989838 -187468371.93414164 0 -187468371.93414164 144507189.51545525 0 0 0 0 54559798.432890892 36511154.168483973 0 36511154.168483973 19466758.343099594 0 0 0 0 294681670.7563324 -47972006.983342648 0 -47972006.983342648 -158441258.88310099 0 0 0 0 -153468202.28251648 39542173.299185276 0 39542173.299185276 -63679701.837644577 0 0 0 0 4992148.2960068518 -5161746.8194288742 0 -5161746.8194288742 -2943798.8377637877 0 0 0 0 155047042.62042427 105178984.37844324 0 105178984.37844324 -188754035.10742462 0 0 0 0 11816964.267592333 -1619689.0510484991 0 -1619689.0510484991 219778.16411033558 0 0 0 0 552827146.59321594 240626241.814785 0 240626241.814785 -394586725.96611023 0 0 0 0 353563347.95461655 -94696321.800779343 0 -94696321.800779343 -755140312.66653824 0 0 0 0 352979474.4381752 -110972142.53234482 0 -110972142.53234482 -100486990.71696806 0 0 0 0 -438229640.78133392 -129111020.67613602 0 -129111020.67613602 -9288790.4456092119 0 0 0 0 -302070411.61835861 171470779.30741519 0 171470779.30741519 -114894702.24078155 0 0 0 0 1080930.8482349589 -1894161.5329554884 0 -1894161.5329554884 -388038.44104893075 0 0 0 0 3031580.2595596854 17742.819011589978 0 17742.819011589978 -1844741.4343251237 0 0 0 0 -437887201.82050323 -121945117.60964751 0 -121945117.60964751 17759755.529910803 0 0 0 0 33545147.750244141 -20105751.482568741 0 -20105751.482568741 18925221.458128929 0 0 0 0 71760869.560932159 -10392177.713351727 0 -10392177.713351727 -15916300.38800478 0 0 0 0 -40306024.012054443 -11043829.321960926 0 -11043829.321960926 18428908.024880201 0 0 0 0 9662489.543744402 -11414067.062261295 0 -11414067.062261295 -4539910.0839004777 0 0 0 0 18425386.149373807 -459813.30594408279 0 -459813.30594408279 -3545638.4188537574 0 0 0 0 4475909.9500427246 4060094.8458175659 0 4060094.8458175659 -22563581.308712006 0 0 0 0 18427730.377986088 5160845.2930697296 0 5160845.2930697296 2729894.5642165951 0 0 0 0 27292747.257071495 -74388818.437966824 0 -74388818.437966824 -119867396.33679509 0 0 0 0 32329602.127723694 9294722.9334182739 0 9294722.9334182739 -68449851.065307617 0 0 0 0 20953714.281899448 12221536.483239168 0 12221536.483239168 -1848752.6810284406 0 0 0 0 -62162321.979340553 36245493.665139198 0 36245493.665139198 32274104.900668144 0 0 0 0 89539179.580965519 -54302421.623164892 0 -54302421.623164892 60544293.133633614 0 0 0 0 18456716.441064425 -3046220.5163527862 0 -3046220.5163527862 -2096445.0928147179 0 0 0 0 10524741.484016418 -30848836.430921555 0 -30848836.430921555 16604991.147898197 0 0 0 0 24360066.163352966 51097809.608052254 0 51097809.608052254 -235151988.55627918 0 0 0 0 89129114.515762329 7007208.1767463684 0 7007208.1767463684 -6981799.4081897736 0 0 0 0 3630667.5614089966 4592058.249537468 0 4592058.249537468 -27887101.97252965 0 0 0 0 14293186.826436434 -6200531.7415464856 0 -6200531.7415464856 -2705503.902419962 0 0 0 0 26592435.251045346 -4591831.8059396222 0 -4591831.8059396222 3723829.143328758 0 0 0 0 45737614.86428833 -12515200.036594391 0 -12515200.036594391 -45862813.949270248 0 0 0 0 266853483.45188141 170444426.35536623 0 170444426.35536623 -493245224.03335345 0 0 0 0 83418062.25310421 -137015083.76247114 0 -137015083.76247114 -452467562.67409611 0 0 0 0 149568735.16606903 335479517.77011466 0 335479517.77011466 99287351.529333353 0 0 0 0 91836883.896194458 34469603.292516708 0 34469603.292516708 -173719006.12901449 0 0 0 0 156872093.74942017 88718687.737569809 0 88718687.737569809 -226498958.25625038 0 0 0 0 77475365.560745239 27531122.698276043 0 27531122.698276043 31316273.178325653 0 0 0 0 -141099364.65802765 148305714.28435183 0 148305714.28435183 29452599.602025986 0 0 0 0 4695830.1278837137 -451147.30653856322 0 -451147.30653856322 2435420.5852125571 0 0 0 0 3219773320.0749722 3479110691.0603418 0 3479110691.0603418 2740226535.5580244 0 0 0 0 335979345.28933334 -873036101.17168462 0 -873036101.17168462 1129614328.1597643 0 0 0 0 9284397.2232124209 -5231112.3777133152 0 -5231112.3777133152 3943540.3159019668 0 0 0 0 956136415.83795547 -315380809.47642207 0 -315380809.47642207 -307880933.73016679 0 0 0 0 -91909026.94701767 -210593967.09788585 0 -210593967.09788585 -322684774.56470633 0 0 0 0 335979345.28913116 -3827323.6796446443 0 -3827323.6796446443 -2408314.8899492025 0 0 0 0 13216391.774198841 -3775764.0838704165 0 -3775764.0838704165 4720368.5383090843 0 0 0 0 6602071016.8099976 431041338.74685794 0 431041338.74685794 -564259373.79613686 0 0 0 0 6607233841.917942 427051977.19066811 0 427051977.19066811 -562654186.40354812 0 0 0 0 6247613.3349661715 -670729.69542132691 0 -670729.69542132691 4222888.2731930986 0 0 0 0 -257228913.74234009 -1237371337.1272769 0 -1237371337.1272769 1384322717.2751906 0 0 0 0 226857111.137784 532611041.10846412 0 532611041.10846412 -36162055.049448013 0 0 0 0 797928467.80038452 -575589274.32511151 0 -575589274.32511151 661313949.13640594 0 0 0 0 826455058.216362 -468504930.08634949 0 -468504930.08634949 968954040.12353063 0 0 0 0 6605575719.6427231 -1718731751.7624304 0 -1718731751.7624304 -417158324.81403226 0 0 0 0 2491566469.4316483 -2555583261.442461 0 -2555583261.442461 1641774088.0210724 0 0 0 0 -264445.78313841671 -706806.57594919892 0 -706806.57594919892 95310.701543488525 0 0 0 0 212004542.34526062 113586802.55025983 0 113586802.55025983 -290459009.18917525 0 0 0 0 -60916873.664421082 103281361.62882423 0 103281361.62882423 501186546.6640501 0 0 0 0 104454281.15111923 208865300.14263189 0 208865300.14263189 327249650.50154757 0 0 0 0 922604761.47866821 -658928866.61627138 0 -658928866.61627138 689214495.88423848 0 0 0 0 -312188635.69153595 10464299.41607058 0 10464299.41607058 191949158.59727597 0 0 0 0 -86529307.437698364 173305537.42400062 0 173305537.42400062 127458944.70463896 0 0 0 0 7384193.0162358582 -7872037.243557144 0 -7872037.243557144 7325844.0654093344 0 0 0 0 -189701267.60971451 -118176994.89390314 0 -118176994.89390314 -42021830.584039211 0 0 0 0 -14536445.515136719 2982315.7616112232 0 2982315.7616112232 8433069.893553257 0 0 0 0 33259529.165481567 47070562.978198051 0 47070562.978198051 25307319.031285107 0 0 0 0 3515029.7386646271 187360066.14020956 0 187360066.14020956 -94323659.100538254 0 0 0 0 -136344255.54187775 88405244.734718204 0 88405244.734718204 -13450094.089448452 0 0 0 0 -837806.30007890612 -882023.55639908579 0 -882023.55639908579 386382.51330788305 0 0 0 0 -2708742.4840698242 10684080.671535492 0 10684080.671535492 -51356373.98292923 0 0 0 0 -16421345.063980103 625442.5499484539 0 625442.5499484539 10388761.679328918 0 0 0 0 1076781.9604135379 -3011796.6542389407 0 -3011796.6542389407 1573640.2783007901 0 0 0 0 16245706.680399485 -7710202.0830908809 0 -7710202.0830908809 3596418.4550458817 0 0 0 0 12813221.526138306 -4442539.2914123535 0 -4442539.2914123535 -3885139.3284845352 0 0 0 0 -3079600.7010478973 -10464434.558826596 0 -10464434.558826596 -1827277.2167282104 0 0 0 0 -177787.20993706584 3586800.383389743 0 3586800.383389743 -1806910.0014287706 0 0 0 0 -16445449.778463364 -15347652.7961431 0 -15347652.7961431 2451778.2783823013 0 0 0 0 -11341476.757507324 9992529.4091725349 0 9992529.4091725349 22352401.506609201 0 0 0 0 -53039.007885493338 -114684.29291009065 0 -114684.29291009065 214457.31209040398 0 0 0 0 400113213.71151733 -18567330.626811981 0 -18567330.626811981 -961208555.02857208 0 0 0 0 63099170.676879883 -337374127.30561256 0 -337374127.30561256 -915633034.95164371 0 0 0 0 134584649.00741577 121328857.35885048 0 121328857.35885048 -468547724.17027545 0 0 0 0 274741399.36126709 174530715.16009998 0 174530715.16009998 -577267111.07213593 0 0 0 0 -30919277.044006348 -6458122.1748580933 0 -6458122.1748580933 -557920990.454072 0 0 0 0 161066908.16381836 321590310.44247818 0 321590310.44247818 -267030297.28274345 0 0 0 0 131876714.11462402 123267963.85206985 0 123267963.85206985 -315066080.78378296 0 0 0 0 139761864.66833115 100255541.70098257 0 100255541.70098257 -565160216.77199554 0 0 0 0 92986563.893936157 210471466.20693588 0 210471466.20693588 -402764982.44810867 0 0 0 0 93071818.555541992 205312825.68626976 0 205312825.68626976 -133786265.97514153 0 0 0 0 35848504.12121582 39450137.316432953 0 39450137.316432953 -123320690.50865555 0 0 0 0 96495946.465362549 -15984177.295175552 0 -15984177.295175552 -383696840.06623077 0 0 0 0 22101224.672331229 -3238966.0561189093 0 -3238966.0561189093 -6615563.7693406977 0 0 0 0 64531347.567642212 -32527556.988126755 0 -32527556.988126755 -154257006.41361237 0 0 0 0 17783848.110626966 -2875845.9934679456 0 -2875845.9934679456 -2818925.3875234313 0 0 0 0 8046729.4374389648 -2722930.3401288986 0 -2722930.3401288986 -4103165.2069442868 0 0 0 0 7936570.5423812866 -2995388.6082057953 0 -2995388.6082057953 -4494816.3434448242 0 0 0 0 14188470.263610352 571361.7590155974 0 571361.7590155974 -4633534.6902013486 0 0 0 0 4766428.6492004395 -5223781.2507853508 0 -5223781.2507853508 -4758856.9095621109 0 0 0 0 -66066.080810546875 -8295700.4495391846 0 -8295700.4495391846 -16964344.371846914 0 0 0 0 6330604.6288757324 1515125.8654756546 0 1515125.8654756546 -18186424.083181381 0 0 0 0 -17320452.065475464 -13829183.148277283 0 -13829183.148277283 -565036286.48738098 0 0 0 0 -2453488.6718139648 -193839798.72436905 0 -193839798.72436905 -522579893.52321625 0 0 0 0 -51012316.528823853 87494964.337966919 0 87494964.337966919 -78808287.735031128 0 0 0 0 4663901.3534310348 -1770186.8639689162 0 -1770186.8639689162 -2991853.0867823642 0 0 0 0 4384254.2580099106 -23985433.995337754 0 -23985433.995337754 -44958406.590293884 0 0 0 0 3894265.5839734077 -6089822.6984289959 0 -6089822.6984289959 -16407633.13865757 0 0 0 0 6982508.2861938477 -47833.316774368286 0 -47833.316774368286 -7838637.109395206 0 0 0 0 9785464.6807422191 3129680.7261161394 0 3129680.7261161394 -5099200.823865898 0 0 0 0 19135129.241134711 -1168333.5255483715 0 -1168333.5255483715 -1099604.5942612335 0 0 0 0 449270.65085882321 -118541.61002672836 0 -118541.61002672836 -211740.87124041189 0 0 0 0 -18231050.457954407 14792899.347325802 0 14792899.347325802 20289933.158525467 0 0 0 0 -13945243.49521637 11118235.581387997 0 11118235.581387997 -15962687.704744339 0 0 0 0 5877542.6036987305 -4797569.2948915958 0 -4797569.2948915958 -6694412.3642148972 0 0 0 0 9174999.214314837 4451328.7399365455 0 4451328.7399365455 -5429720.3010851247 0 0 0 0 3321132.1323558092 -3426838.8981711986 0 -3426838.8981711986 -3191587.3611114332 0 0 0 0 4108980.1184997559 -750809.03658556938 0 -750809.03658556938 -13033148.249721527 0 0 0 0 17265372.271230914 -906600.2382753212 0 -906600.2382753212 -3494249.6451840103 0 0 0 0 13171087.763281167 -2689275.4822153533 0 -2689275.4822153533 -3324047.8422727711 0 0 0 0 -2216155.6052246094 39992218.27243042 0 39992218.27243042 -35083689.327697277 0 0 0 0 -7452420.6388015747 44489200.284335136 0 44489200.284335136 -1834291.0872421265 0 0 0 0 7694849.1969136447 -4905852.3566817744 0 -4905852.3566817744 -2444262.9260345045 0 0 0 0 6064140.9840545654 -3143549.4271783829 0 -3143549.4271783829 -4194188.9651966095 0 0 0 0 4262040.8215332031 520281.22750473022 0 520281.22750473022 -11146926.213541031 0 0 0 0 4196744.5446894169 1790170.5246707005 0 1790170.5246707005 -5641718.2567555076 0 0 0 0 7235346.3177185059 -3446772.7940578461 0 -3446772.7940578461 -5889460.0017738342 0 0 0 0 5278142.3005153835 -1658693.284760667 0 -1658693.284760667 -5292942.5988241415 0 0 0 0 7303968.0233325958 -3945410.0002461672 0 -3945410.0002461672 -4149363.476354599 0 0 0 0 5020112.3461517617 -4027258.4766621292 0 -4027258.4766621292 -932534.21342773875 0 0 0 0 3947938.3143310547 -2911601.7306518555 0 -2911601.7306518555 -6024721.9189023972 0 0 0 0 4386561.5965576172 -5357974.6490635872 0 -5357974.6490635872 -5370101.0238027573 0 0 0 0 2484836.4439697266 -5819450.5984554291 0 -5819450.5984554291 -16440238.995672226 0 0 0 0 20807185.669225074 -3247004.0030034669 0 -3247004.0030034669 -4290620.0500206901 0 0 0 0 17890000.160688043 -1223387.3384127505 0 -1223387.3384127505 -3794822.9350730167 0 0 0 0 9087087.7407989502 -4768046.625698328 0 -4768046.625698328 -4013905.5707015991 0 0 0 0 6241883.8519897461 -2132601.1670694351 0 -2132601.1670694351 -9077091.3673841953 0 0 0 0 16674441.928795226 1650934.1422628984 0 1650934.1422628984 -6031021.072169628 0 0 0 0 9105713.9448922388 650530.06951044872 0 650530.06951044872 -4576868.9831420016 0 0 0 0 3945181.195693478 -1200327.201648267 0 -1200327.201648267 -3012915.6908972231 0 0 0 0 7063392.8699619696 -5619226.5776951564 0 -5619226.5776951564 -1951585.4743212911 0 0 0 0 6903728.1897888184 -5756003.6588659286 0 -5756003.6588659286 -3228934.9276013374 0 0 0 0 6653093.5160598755 -5505781.8479614258 0 -5505781.8479614258 -3301654.7343382835 0 0 0 0 7755796.3844909668 -3590988.9836190939 0 -3590988.9836190939 -3711300.2689600587 0 0 0 0 6266151.4031339772 -4559919.8421214344 0 -4559919.8421214344 -3634811.1884569288 0 0 0 0 21639749.979444772 -3351259.8253778368 0 -3351259.8253778368 -3005713.9779595034 0 0 0 0 6739762.4040527344 -2894673.0321068764 0 -2894673.0321068764 -5438464.0161545277 0 0 0 0 8166613.9568099976 -5086297.4491403103 0 -5086297.4491403103 -3903965.1985816956 0 0 0 0 13151665.677071236 -1198913.9536681175 0 -1198913.9536681175 -2450481.3567093145 0 0 0 0 15564568.915532529 -7968056.0829806048 0 -7968056.0829806048 -3965082.0686872173 0 0 0 0 11522696.183006547 -7819132.4434256032 0 -7819132.4434256032 774099.33368736925 0 0 0 0 19487901.932437897 -15461830.84427309 0 -15461830.84427309 -5472847.2655003071 0 0 0 0 7517273.6514391862 -5536208.3955853907 0 -5536208.3955853907 463000.92580724903 0 0 0 0 8889734.9138167277 -36444.106479659677 0 -36444.106479659677 -3656428.411026245 0 0 0 0 20476266.051574707 -6935720.6515827179 0 -6935720.6515827179 2586416.7929382324 0 0 0 0 12599233.746301651 -1156907.0997118354 0 -1156907.0997118354 -1243929.5905079842 0 0 0 0 9191649.5604764819 2354625.1478753481 0 2354625.1478753481 -2973007.1077306774 0 0 0 0 51409433.407791138 -28393449.819499016 0 -28393449.819499016 -15571508.084528893 0 0 0 0 13885525.102909259 -6332095.5190991443 0 -6332095.5190991443 417518.14685695095 0 0 0 0 14887776.023543544 -2510783.8748896234 0 -2510783.8748896234 -2426493.0941051459 0 0 0 0 15188805.037111282 -4802772.2772846632 0 -4802772.2772846632 -6316827.5243600756 0 0 0 0 19432372.733307526 -8146470.7441382892 0 -8146470.7441382892 -5362072.4617998321 0 0 0 0 16059705.236690521 -7598916.8461585045 0 -7598916.8461585045 -6192139.3988661021 0 0 0 0 3864579.9857788086 -311395.72545814514 0 -311395.72545814514 -12446722.034223557 0 0 0 0 10176839.575575918 -4654734.8171340004 0 -4654734.8171340004 -4383763.599621552 0 0 0 0 17631558.301427841 -790677.84412974119 0 -790677.84412974119 -8934482.0065128803 0 0 0 0 19059723.297992244 -6198750.0965955257 0 -6198750.0965955257 -4748869.0226306506 0 0 0 0 7727988.2827371061 -3277947.9337838236 0 -3277947.9337838236 -3984951.3063441804 0 0 0 0 3580779.6268806458 3734528.3882331848 0 3734528.3882331848 -28084543.502792835 0 0 0 0 3651471.7620544434 -82633859.278238297 0 -82633859.278238297 -143789489.39930153 0 0 0 0 59489109.791381836 29852784.083259583 0 29852784.083259583 -95965793.276806831 0 0 0 0 12286513.260025024 -4463397.8806414604 0 -4463397.8806414604 -3144458.916633606 0 0 0 0 7965077.1330809649 -6649695.011815168 0 -6649695.011815168 -740293.33593755169 0 0 0 0 22719262.585034776 -3948326.0421164064 0 -3948326.0421164064 -812177.53209119721 0 0 0 0 -1496822.6465454102 -24456483.834665298 0 -24456483.834665298 48642857.808916092 0 0 0 0 -23949516.819000244 24727144.130413055 0 24727144.130413055 -10912635.168370247 0 0 0 0 4451132.0951391086 -275821.41555382311 0 -275821.41555382311 -2868661.2608280871 0 0 0 0 158620987.22566986 -702205.92585515976 0 -702205.92585515976 -124767409.96740723 0 0 0 0 187834293.47477722 -221214485.86365795 0 -221214485.86365795 4485051.7709941864 0 0 0 0 -97930693.391151428 275331812.04008329 0 275331812.04008329 -62363378.703620911 0 0 0 0 4146561.5098939687 -1754629.6601595301 0 -1754629.6601595301 -699230.4617116116 0 0 0 0 11263882.545227051 -205704926.09838486 0 -205704926.09838486 44494878.5744721 0 0 0 0 -42168568.812484741 -3003317.0475082397 0 -3003317.0475082397 130956512.40466213 0 0 0 0 305698373.47921371 20181693.488807201 0 20181693.488807201 -56145501.13086319 0 0 0 0 130364417.14822388 114432266.63195419 0 114432266.63195419 48495961.453995705 0 0 0 0 5957413.3195953369 24878688.499765873 0 24878688.499765873 -15253214.218360901 0 0 0 0 115173495.76992798 44199037.894300461 0 44199037.894300461 -100814393.4505558 0 0 0 0 69044149.164886475 1481895.8153438568 0 1481895.8153438568 -57525068.525152206 0 0 0 0 -41362585.855911255 64107116.014662743 0 64107116.014662743 342824902.24233532 0 0 0 0 -47403081.242126465 27187007.953138351 0 27187007.953138351 367564444.65818167 0 0 0 0 -29317323.327316284 29556873.903670788 0 29556873.903670788 176668619.46141815 0 0 0 0 -19030455.112442017 104438404.76247978 0 104438404.76247978 252882318.60713482 0 0 0 0 -48626241.572692871 19771924.513731003 0 19771924.513731003 197800296.46090746 0 0 0 0 -92458.919639587402 42931248.214746475 0 42931248.214746475 106135333.53577042 0 0 0 0 -31909876.807294846 60763192.080843687 0 60763192.080843687 167431146.85274124 0 0 0 0 -20941641.96786499 129261018.04984474 0 129261018.04984474 234867017.9330349 0 0 0 0 -1263756.246383667 202853241.37743568 0 202853241.37743568 216190142.83349657 0 0 0 0 -329002.64232635498 142170011.52737045 0 142170011.52737045 234499263.19029427 0 0 0 0 -8939440.4938964844 222447946.34376335 0 222447946.34376335 320198188.84220028 0 0 0 0 -66339645.991035461 152408503.89977455 0 152408503.89977455 431311896.19797707 0 0 0 0 -64704154.690162659 145864905.48591995 0 145864905.48591995 302273895.64019394 0 0 0 0 -3136429.4149780273 194661126.7972374 0 194661126.7972374 369992199.39628124 0 0 0 0 -19745355.309265137 160715628.73834038 0 160715628.73834038 470335882.1967144 0 0 0 0 200102895.40499878 229090985.63795662 0 229090985.63795662 476438176.54229546 0 0 0 0 658846448.60267639 288167353.97426033 0 288167353.97426033 340481996.62442303 0 0 0 0 444940651.68637085 247585750.93168831 0 247585750.93168831 585500049.35223007 0 0 0 0 194562927.50767899 209517015.35124516 0 209517015.35124516 607528123.62943649 0 0 0 0 122467107.0556488 195870276.15785122 0 195870276.15785122 751952783.24472904 0 0 0 0 114060100.84199524 -140453753.64566612 0 -140453753.64566612 587373040.43291235 0 0 0 0 293213545.13658905 30467664.488222599 0 30467664.488222599 471766231.31353569 0 0 0 0 -26806361.221420288 -84531362.182853222 0 -84531362.182853222 434140296.89048833 0 0 0 0 -17425418.496013641 110398785.10401344 0 110398785.10401344 405972402.69837952 0 0 0 0 1013848.4702606201 41495914.07691288 0 41495914.07691288 578082132.2752862 0 0 0 0 -13468901.599010468 -56518952.627906799 0 -56518952.627906799 173577775.18650055 0 0 0 0 63539472.109039307 10344989.514187336 0 10344989.514187336 367430329.98487473 0 0 0 0 118601639.97941589 -244628361.84102106 0 -244628361.84102106 146131304.67479372 0 0 0 0 88283943.498185158 -90044708.049160004 0 -90044708.049160004 485192575.72958565 0 0 0 0 93276066.880661011 -159672834.70121431 0 -159672834.70121431 -204723925.74199247 0 0 0 0 88480151.727676392 -125064003.94082391 0 -125064003.94082391 -130780995.95343494 0 0 0 0 52782900.690254211 -32507191.125041246 0 -32507191.125041246 -3595197.6785433292 0 0 0 0 25743092.43655014 -84813009.973971128 0 -84813009.973971128 -84311235.897010803 0 0 0 0 -8660897.5229034424 -82113907.946620941 0 -82113907.946620941 91649979.843432426 0 0 0 0 8793228.6714019775 -9230672.235326767 0 -9230672.235326767 116376248.52358532 0 0 0 0 -33734843.466125488 -36225161.987138271 0 -36225161.987138271 160188633.85326385 0 0 0 0 -33288919.161140442 -15924480.786670208 0 -15924480.786670208 95309087.891496658 0 0 0 0 -20439928.455734253 -22556628.634854317 0 -22556628.634854317 35611861.884624958 0 0 0 0 -6454560.0375137329 -16778344.633211613 0 -16778344.633211613 33678658.326128006 0 0 0 0 62242.633689880371 12020669.489903927 0 12020669.489903927 7362096.2017440796 0 0 0 0 -15805049.020577431 -60314325.197068721 0 -60314325.197068721 -35071510.944440842 0 0 0 0 -13918900.08543396 -28287998.644765854 0 -28287998.644765854 -114202863.60902143 0 0 0 0 -14883552.201004028 -98531533.406782389 0 -98531533.406782389 -122576962.01736146 0 0 0 0 23655461.305252075 -74364786.750437975 0 -74364786.750437975 -211550211.36529148 0 0 0 0 3791907852.6559601 -1767802285.2609797 0 -1767802285.2609797 1007268509.0082769 0 0 0 0 -10628838.523345947 -49808113.814811707 0 -49808113.814811707 -82241675.282463074 0 0 0 0 3164850.9637451172 -15424041.146704674 0 -15424041.146704674 -95520938.106933355 0 0 0 0 -6318573.208404541 -9573866.227107048 0 -9573866.227107048 -148560364.69403839 0 0 0 0 -41143236.893371582 -13055465.317470551 0 -13055465.317470551 -146962327.82552648 0 0 0 0 -3253155410.9562378 2110399810.902262 0 2110399810.902262 1654723504.51858 0 0 0 0 64914888.758247375 -4779068.4868226051 0 -4779068.4868226051 -274246038.34021187 0 0 0 0 17756987.634190895 557804.4390017502 0 557804.4390017502 -2519280.1099432381 0 0 0 0 26618730.338241577 -97924543.872681379 0 -97924543.872681379 -269873381.61278248 0 0 0 0 4983674.2866378352 3123948.3083028602 0 3123948.3083028602 -64492.939724610857 0 0 0 0 -80986646.69519043 -64866661.793782711 0 -64866661.793782711 -132817313.23549271 0 0 0 0 -28780597.494110107 -67574142.690113425 0 -67574142.690113425 -135321822.27556801 0 0 0 0 -2167976.0258789062 -8280757.0477552414 0 -8280757.0477552414 -98027232.938169479 0 0 0 0 -17098715.467788696 -38545675.732287407 0 -38545675.732287407 -58136173.393977165 0 0 0 0 -4150312.8622131348 46768979.175080299 0 46768979.175080299 -54338441.530537605 0 0 0 0 -2414433.0453080535 -63257307.303403497 0 -63257307.303403497 -167171944.73465347 0 0 0 0 11627935.069778442 4282375.5440454483 0 4282375.5440454483 24804062.741027832 0 0 0 0 -11754045.629245758 -30232683.748555362 0 -30232683.748555362 1137537.5346889496 0 0 0 0 -20087909.445257187 27005431.975537658 0 27005431.975537658 9501606.1119365692 0 0 0 0 13962806.929016113 -8939333.3199224472 0 -8939333.3199224472 28046490.269062042 0 0 0 0 -27015400.739654541 -21722244.362073898 0 -21722244.362073898 21655727.984481335 0 0 0 0 2024139.1336212158 27424946.586215019 0 27424946.586215019 44835359.649223804 0 0 0 0 -8921249.089222908 14289809.247246265 0 14289809.247246265 -46033842.926721573 0 0 0 0 344417136.1824646 1279597273.6858897 0 1279597273.6858897 942045452.47325563 0 0 0 0 14173249.45069547 3821683.6872920613 0 3821683.6872920613 -589493.0126958912 0 0 0 0 658538588.94909668 79331949.248547554 0 79331949.248547554 -502808181.47003222 0 0 0 0 373036801.01119995 507198137.70283794 0 507198137.70283794 960845952.58701038 0 0 0 0 26520602.979995728 64195859.793877602 0 64195859.793877602 -223421115.36929131 0 0 0 0 -34933468.324356079 -44054904.297987938 0 -44054904.297987938 125733614.13659096 0 0 0 0 95827647.53868103 -136513258.83441544 0 -136513258.83441544 103347341.31900644 0 0 0 0 99578575.385993958 -124455691.34204721 0 -124455691.34204721 130667919.5685215 0 0 0 0 -146781643.99884033 49082962.106852055 0 49082962.106852055 73299637.452733994 0 0 0 0 593422265.26160049 -392709469.39200926 0 -392709469.39200926 75678393.561880112 0 0 0 0 155540770.68791199 -307655459.01081491 0 -307655459.01081491 129488851.30060291 0 0 0 0 1176099949.0704956 -201116445.17392111 0 -201116445.17392111 -107047953.13708305 0 0 0 0 6677693.5138502121 1288716.2129714517 0 1288716.2129714517 -1546942.9784188885 0 0 0 0 424823152.38675499 -47367335.414429903 0 -47367335.414429903 -45712186.73654747 0 0 0 0 340735657.44128418 -218087629.20953655 0 -218087629.20953655 103954864.85656404 0 0 0 0 149981558.62558174 -87155688.149008274 0 -87155688.149008274 84370379.124769211 0 0 0 0 150343264.26284218 -84755985.995305538 0 -84755985.995305538 100160949.82327271 0 0 0 0 23702905.451507568 -103501471.47253227 0 -103501471.47253227 139419284.04975295 0 0 0 0 244909977.39048004 -88549499.46620369 0 -88549499.46620369 73421477.736927509 0 0 0 0 171755325.94443512 -40503200.70367527 0 -40503200.70367527 70194697.704498291 0 0 0 0 432558807.83259583 -20893378.661101341 0 -20893378.661101341 -18979531.923125267 0 0 0 0 277143057.53143406 26832092.394708276 0 26832092.394708276 17305018.554208755 0 0 0 0 55774571.748138428 50806912.672782898 0 50806912.672782898 138856012.374403 0 0 0 0 -5533837.154050827 7936603.5009794235 0 7936603.5009794235 110567665.10948753 0 0 0 0 15448107.006546021 56839832.603150368 0 56839832.603150368 133130583.31433296 0 0 0 0 -29529831.097793579 9806000.788684845 0 9806000.788684845 113505678.46344376 0 0 0 0 -24031241.947715759 22220946.193686962 0 22220946.193686962 104048681.292202 0 0 0 0 -17437772.290267944 -29919190.301296711 0 -29919190.301296711 98056357.682308197 0 0 0 0 55929352.389205933 -9182815.857711792 0 -9182815.857711792 102135551.67160416 0 0 0 0 15460614.676818848 -21193841.633172035 0 -21193841.633172035 125323166.18107605 0 0 0 0 96609565.864765167 -4680152.3401381969 0 -4680152.3401381969 118535322.8613205 0 0 0 0 75754247.634284973 -56129331.906244278 0 -56129331.906244278 110022232.39152145 0 0 0 0 158381352.16734314 -49403414.63376236 0 -49403414.63376236 108069342.81606007 0 0 0 0 125427679.91784668 -16104228.671631813 0 -16104228.671631813 89795430.882522583 0 0 0 0 133783597.50273132 -2167051.3828372955 0 -2167051.3828372955 111872222.11946392 0 0 0 0 87450187.395271301 74498430.025580406 0 74498430.025580406 139224549.53054428 0 0 0 0 30492461.302055359 55221823.982339859 0 55221823.982339859 140598226.14572906 0 0 0 0 52572557.562324524 120377083.07623768 0 120377083.07623768 197506810.67559719 0 0 0 0 94224384.550628662 165102175.62651443 0 165102175.62651443 152745243.28181458 0 0 0 0 196052953.97241211 94447390.878606796 0 94447390.878606796 123187349.25299454 0 0 0 0 160641965.03514099 200034657.49025345 0 200034657.49025345 127928249.49974251 0 0 0 0 211992087.26623917 8692360.4160914421 0 8692360.4160914421 84777114.133451462 0 0 0 0 170465303.63629913 66763773.728973389 0 66763773.728973389 94659181.883384705 0 0 0 0 248596606.29685974 112122535.58919907 0 112122535.58919907 149132156.30947685 0 0 0 0 434092846.2640934 121785160.94586086 0 121785160.94586086 85247412.179447174 0 0 0 0 277174614.03834534 61080562.463212967 0 61080562.463212967 -1837828.0534434319 0 0 0 0 361660858.32380676 296183944.97366524 0 296183944.97366524 390925717.34082031 0 0 0 0 355686750.01087952 185465614.78554821 0 185465614.78554821 126861646.83264542 0 0 0 0 309471921.02111053 219304000.51211655 0 219304000.51211655 106079216.92188263 0 0 0 0 289606989.06317139 73498767.824388504 0 73498767.824388504 80292637.822946548 0 0 0 0 184089029.05571365 36733321.763442039 0 36733321.763442039 41377083.054414749 0 0 0 0 192466327.27610397 37130840.092772484 0 37130840.092772484 31443677.106212616 0 0 0 0 174418156.7232933 -33787481.549927711 0 -33787481.549927711 41467644.111001968 0 0 0 0 147315346.46815491 -22959624.992730141 0 -22959624.992730141 70129425.214744464 0 0 0 0 190552042.43725967 -62451885.041571617 0 -62451885.041571617 -152887407.81604004 0 0 0 0 7914288.7384338379 -253308.15608024597 0 -253308.15608024597 38694873.306547403 0 0 0 0 72374141.163017273 -69455262.323729515 0 -69455262.323729515 -163198887.04085159 0 0 0 0 34647840.03339386 -13694327.469954491 0 -13694327.469954491 -27559840.526576996 0 0 0 0 -173263830.34792709 -196408184.77926826 0 -196408184.77926826 -112426309.17450142 0 0 0 0 1782309.0925758928 -150270.09794280119 0 -150270.09794280119 -1297253.6242842842 0 0 0 0 546263043.70186615 258559173.27820683 0 258559173.27820683 148192789.57643509 0 0 0 0 625373781.61907959 343328117.27662086 0 343328117.27662086 183585352.46573019 0 0 0 0 -37762626.597503662 -162460218.91226959 0 -162460218.91226959 -131916243.75242233 0 0 0 0 3868297.411890354 -73589.661922318861 0 -73589.661922318861 -2538099.8526660837 0 0 0 0 580514767.28622055 295463514.96186924 0 295463514.96186924 65714567.489635468 0 0 0 0 117734.92991502257 -161681.10380513966 0 -161681.10380513966 437835.05323222466 0 0 0 0 682631852.14103699 398226311.78444672 0 398226311.78444672 167331573.98810387 0 0 0 0 612021246.35113525 242057715.91492653 0 242057715.91492653 156210052.48661709 0 0 0 0 765344041.63127899 526651581.77950668 0 526651581.77950668 210403378.29020882 0 0 0 0 333502620.67399597 119518873.61299491 0 119518873.61299491 88610601.114982605 0 0 0 0 192795540.16188812 149150601.02266693 0 149150601.02266693 160539480.56180954 0 0 0 0 404550.72364534508 733090.35618001223 0 733090.35618001223 1037963.4338872992 0 0 0 0 -8312362.2357282639 145643654.17989898 0 145643654.17989898 83291390.338834763 0 0 0 0 -2040097.4074392244 6449579.4257002752 0 6449579.4257002752 -2881064.4634571718 0 0 0 0 -598674.66313934326 18164075.92137146 0 18164075.92137146 -48238954.787080288 0 0 0 0 -1153759.562538147 103674651.58079052 0 103674651.58079052 195470961.54014397 0 0 0 0 35469767.462057114 69583727.567516804 0 69583727.567516804 -539713313.33218384 0 0 0 0 -6358230.216468811 53701998.032696724 0 53701998.032696724 -17559863.551467896 0 0 0 0 23507560.635650635 75301582.178001404 0 75301582.178001404 -31244386.520529747 0 0 0 0 -104888591.99943352 23152861.196023643 0 23152861.196023643 118422562.95965195 0 0 0 0 8640876.6038742065 313489383.76204014 0 313489383.76204014 272119735.91582108 0 0 0 0 254762758.44081879 341749512.76451349 0 341749512.76451349 150371297.48382568 0 0 0 0 48109884.306434631 258056245.42346573 0 258056245.42346573 -148432101.80043983 0 0 0 0 -139349089.2698288 356587260.62189102 0 356587260.62189102 203643971.01919937 0 0 0 0 -36187158.993095398 280459551.65096664 0 280459551.65096664 273507214.4455452 0 0 0 0 -27064513.581840515 283253070.77100754 0 283253070.77100754 239163962.92065239 0 0 0 0 -60808695.219633102 219940919.29042447 0 219940919.29042447 400364364.89598083 0 0 0 0 -59047533.822072268 273842749.49928641 0 273842749.49928641 271592065.73142624 0 0 0 0 20974390.087089539 357586874.14397621 0 357586874.14397621 174752164.36505175 0 0 0 0 117785311.46656799 215535175.49160004 0 215535175.49160004 183569509.01998901 0 0 0 0 174567682.93507385 251777151.62751961 0 251777151.62751961 163571327.20864487 0 0 0 0 333559101.56428623 228984908.29467189 0 228984908.29467189 334228459.72024918 0 0 0 0 316803931.84373665 148053977.95642018 0 148053977.95642018 285883463.90933228 0 0 0 0 52401235.525421143 92996207.813620567 0 92996207.813620567 300868083.98333931 0 0 0 0 -149631579.13632202 330651837.45062256 0 330651837.45062256 332155811.82404613 0 0 0 0 -349668572.4753952 245181449.06825161 0 245181449.06825161 288790421.37793481 0 0 0 0 -133392593.21990204 435758772.25517797 0 435758772.25517797 -185740052.731287 0 0 0 0 249604079.66308975 -423327780.38904142 0 -423327780.38904142 -174453050.42993164 0 0 0 0 1265854068.123497 60347914.780849457 0 60347914.780849457 -499123105.12561131 0 0 0 0 -1128971.4756403044 1868316.9112892547 0 1868316.9112892547 -761659.55490626954 0 0 0 0 -518945071.02795029 40212167.248710632 0 40212167.248710632 598755801.54340363 0 0 0 0 -368077205.53517914 -102077237.24619675 0 -102077237.24619675 129547070.07143116 0 0 0 0 -37510437.930160522 546920452.40665913 0 546920452.40665913 300443722.52022266 0 0 0 0 2955333982.5558014 663293194.27163315 0 663293194.27163315 86487027.291873097 0 0 0 0 1498228810.3059731 -575186409.99180365 0 -575186409.99180365 692883934.95146751 0 0 0 0 1196130449.9746971 128861677.79847264 0 128861677.79847264 133731006.99152184 0 0 0 0 861022.43108074367 -3958293.7639479674 0 -3958293.7639479674 24204989.904428519 0 0 0 0 1931621874.1817894 385376260.92872381 0 385376260.92872381 -160485025.36625862 0 0 0 0 -423752.23255432211 -59136.000253904611 0 -59136.000253904611 8527771.9906103108 0 0 0 0 861561703.55774689 748691326.19933271 0 748691326.19933271 79107277.643131256 0 0 0 0 -393062005.48532867 -893316706.42183685 0 -893316706.42183685 -806454322.914217 0 0 0 0 -919087341.24479675 -40694408.78519249 0 -40694408.78519249 -5622177.8382034302 0 0 0 0 6056802.2222622456 -14210552.470551338 0 -14210552.470551338 20726754.238848936 0 0 0 0 -856063371.86919856 -992075955.91439819 0 -992075955.91439819 -699644750.77754211 0 0 0 0 229742354.5316925 -130981928.76771927 0 -130981928.76771927 -265325603.84949875 0 0 0 0 4817317.871303387 -11886041.22038739 0 -11886041.22038739 39013323.025045782 0 0 0 0 85076858.527748108 269688960.93315506 0 269688960.93315506 -43400651.110774994 0 0 0 0 -248839710.73155642 -285659464.64044952 0 -285659464.64044952 -314550602.94023132 0 0 0 0 -381195621.11025429 -239037162.74648476 0 -239037162.74648476 -17854.796409606934 0 0 0 0 -16304234.71087265 55156944.927864075 0 55156944.927864075 180321030.2401123 0 0 0 0 1227391457.2412567 -4337337.9942030907 0 -4337337.9942030907 -216134331.42071342 0 0 0 0 1290563122.2663689 108919503.40006447 0 108919503.40006447 -69832826.856681824 0 0 0 0 975538379.78549194 48757883.271701813 0 48757883.271701813 -58210745.224214077 0 0 0 0 1123699038.9664993 207480599.3530283 0 207480599.3530283 -51166347.618265152 0 0 0 0 1119751852.5365448 132186279.06770897 0 132186279.06770897 -48080212.196277618 0 0 0 0 1120866932.7985458 123604455.00403976 0 123604455.00403976 3110116.4151325226 0 0 0 0 229490258.3825531 68125767.470092773 0 68125767.470092773 640324012.29850769 0 0 0 0 252194348.84121704 -3242480.007850647 0 -3242480.007850647 326924672.83680725 0 0 0 0 605833617.5014267 -174274068.94933319 0 -174274068.94933319 275842384.96131897 0 0 0 0 319900958.03941345 -162155490.4315567 0 -162155490.4315567 491733142.82891846 0 0 0 0 511970328.2405014 -172608204.65485573 0 -172608204.65485573 288914751.93592834 0 0 0 0 499203145.79078293 -124375558.00379944 0 -124375558.00379944 112558236.81738281 0 0 0 0 405300852.74899292 -48156585.229324341 0 -48156585.229324341 339565570.34148788 0 0 0 0 413317314.14644623 -194470164.81174469 0 -194470164.81174469 160543470.53422165 0 0 0 0 489961525.81291962 -202095396.39436722 0 -202095396.39436722 45791000.558746338 0 0 0 0 646129851.68091583 -277544736.0690155 0 -277544736.0690155 155229534.07763672 0 0 0 0 565200918.75820923 -162486491.27813721 0 -162486491.27813721 48540373.860183716 0 0 0 0 614806779.12548065 -85457437.446998596 0 -85457437.446998596 5082754.6810846329 0 0 0 0 821211635.24305725 -79813100.529670715 0 -79813100.529670715 3880461.0712394714 0 0 0 0 975396900.30286789 -218869562.33322144 0 -218869562.33322144 127750792.7483139 0 0 0 0 740529597.04613495 -373445084.24978638 0 -373445084.24978638 458588645.70977783 0 0 0 0 1121078586.3959885 -46991698.846298218 0 -46991698.846298218 222541401.35939789 0 0 0 0 983775831.16675806 449942029.12178457 0 449942029.12178457 233194580.43215942 0 0 0 0 1786485102.2708206 470458187.68276215 0 470458187.68276215 210419817.78378868 0 0 0 0 415028030.68169403 176536948.27346802 0 176536948.27346802 123400590.31642914 0 0 0 0 414947524.38184166 175229678.32348251 0 175229678.32348251 102215566.71260834 0 0 0 0 -641046788.33538246 -353662386.07938385 0 -353662386.07938385 -220021104.86035919 0 0 0 0 -886617441.680336 -579084169.28878784 0 -579084169.28878784 -157138133.99839783 0 0 0 0 -442136412.76205158 -622974973.35633659 0 -622974973.35633659 -329092358.71531677 0 0 0 0 -285167048.41290092 -304344449.52833557 0 -304344449.52833557 -30422687.026451111 0 0 0 0 47989489.57013607 -325474365.99933624 0 -325474365.99933624 -162069823.87575531 0 0 0 0 529725484.89392853 4981351.0502090454 0 4981351.0502090454 -268811254.1911087 0 0 0 0 25179093.517360926 -825422808.74130011 0 -825422808.74130011 -1331522609.3342896 0 0 0 0 14458200.060295507 -10024569.76240691 0 -10024569.76240691 -7865280.4663249403 0 0 0 0 -1450801045.6522179 -2238273013.5610504 0 -2238273013.5610504 -1717301965.4924126 0 0 0 0 -451041.06400530506 -4996152.2411087714 0 -4996152.2411087714 9820317.7112699002 0 0 0 0 -878447428.85791016 -660035200.48509407 0 -660035200.48509407 474433240.49988556 0 0 0 0 -2127349178.436348 -2181625699.8786392 0 -2181625699.8786392 470002796.70677185 0 0 0 0 3996672443.8407211 -831204749.20301819 0 -831204749.20301819 -2939111162.5449371 0 0 0 0 1801473346.5037003 -439632635.0627327 0 -439632635.0627327 355740572.28460693 0 0 0 0 985802171.56343079 -530966069.97268677 0 -530966069.97268677 1650845920.6860352 0 0 0 0 987040232.8280704 -266965941.53118348 0 -266965941.53118348 359616650.07269287 0 0 0 0 462373513.63572693 -196972340.02258301 0 -196972340.02258301 558833383.28958511 0 0 0 0 691582906.29841232 577227733.88892746 0 577227733.88892746 1074091772.7222595 0 0 0 0 1980518272.4958649 1837093000.3235474 0 1837093000.3235474 2209660604.9299049 0 0 0 0 1213194263.3181801 153528490.87689972 0 153528490.87689972 -1315981973.9286804 0 0 0 0 13509223.529940955 -22427913.970985223 0 -22427913.970985223 -465984.5789665021 0 0 0 0 -3644862.9237442017 -1840133.6194839478 0 -1840133.6194839478 -1170855358.7783775 0 0 0 0 744759216.10982132 243511795.46628571 0 243511795.46628571 -1421099436.7188644 0 0 0 0 160783025.27488708 -398797868.35659027 0 -398797868.35659027 -930776997.93785858 0 0 0 0 14493531.13343811 293481924.43597412 0 293481924.43597412 -120032471.4306488 0 0 0 0 251166976.7170105 81320395.138900757 0 81320395.138900757 -76628361.670028687 0 0 0 0 651469252.49047089 286748333.86319733 0 286748333.86319733 -332640030.38072968 0 0 0 0 476420524.6466732 -163074091.78969574 0 -163074091.78969574 463094899.00323486 0 0 0 0 46753540.856956482 -45490996.018264771 0 -45490996.018264771 677423692.71209717 0 0 0 0 187139078.50872421 -70948091.964813232 0 -70948091.964813232 559563401.78294373 0 0 0 0 118555244.73576355 199448654.39170837 0 199448654.39170837 191035050.8624115 0 0 0 0 50429446.732830048 -19145817.499925613 0 -19145817.499925613 -5196101.9923324585 0 0 0 0 50697441.337505341 -21657620.37171936 0 -21657620.37171936 2401054.0432376862 0 0 0 0 208395888.17497253 -7415213.6682128906 0 -7415213.6682128906 -446181646.34557724 0 0 0 0 156989564.97434902 -212281090.52035618 0 -212281090.52035618 -6526755.8402252197 0 0 0 0 69684620.713481903 -171856362.44993591 0 -171856362.44993591 198172659.09339905 0 0 0 0 63597621.181362152 -84031435.193943024 0 -84031435.193943024 37781383.767684937 0 0 0 0 118437272.53860474 -50589660.990409851 0 -50589660.990409851 -7951720.5117594004 0 0 0 0 67242385.613560706 -19510859.510469321 0 -19510859.510469321 -18976297.511173226 0 0 0 0 46701636.836608887 -23754641.080162048 0 -23754641.080162048 -9876783.7689857483 0 0 0 0 -21664116.775314331 -286119816.25913239 0 -286119816.25913239 189919919.07597232 0 0 0 0 -503443795.93429565 106878191.38842392 0 106878191.38842392 127711835.55217171 0 0 0 0 6308452.9415809214 -4954444.4910193644 0 -4954444.4910193644 -2362445.2008271869 0 0 0 0 34542281.901860975 -55124132.978085101 0 -55124132.978085101 37717814.410847165 0 0 0 0 -94863909.164246082 -269767707.46955872 0 -269767707.46955872 189272245.28894806 0 0 0 0 85645727.438584939 -24621909.639178362 0 -24621909.639178362 -11488397.026596697 0 0 0 0 304921072.23319244 -5492284.2014579773 0 -5492284.2014579773 -186022434.96802521 0 0 0 0 150202745.7589016 -13885363.291038513 0 -13885363.291038513 93089382.400314331 0 0 0 0 15018400.820831299 84065966.11730957 0 84065966.11730957 93296889.106872559 0 0 0 0 204614242.72415161 -107328559.48081875 0 -107328559.48081875 77644639.97842741 0 0 0 0 -4401991.4267272949 90826373.605204105 0 90826373.605204105 -64709530.350829124 0 0 0 0 464676268.62854004 -90376548.641084671 0 -90376548.641084671 -187632511.37993622 0 0 0 0 258785425.23785973 75771116.92592299 0 75771116.92592299 -278262595.62876701 0 0 0 0 255264982.11913109 95588013.219026178 0 95588013.219026178 -105279665.87580204 0 0 0 0 8493657.7445681691 -4060559.3164388575 0 -4060559.3164388575 -3152791.0414006668 0 0 0 0 86599802.757476807 -309449193.8219986 0 -309449193.8219986 659342992.72246075 0 0 0 0 169681214.190979 -216344204.118752 0 -216344204.118752 161916397.841537 0 0 0 0 -236868240.90689087 -74748126.964955568 0 -74748126.964955568 508799800.57873458 0 0 0 0 -235941133.20767212 -418518913.72902393 0 -418518913.72902393 1078892036.5977917 0 0 0 0 -930658.49293521047 723181.86055504531 0 723181.86055504531 6225635.199453745 0 0 0 0 1091045554.427124 -355154292.94675565 0 -355154292.94675565 -1673624688.4236245 0 0 0 0 -385398339.03927612 101789094.67143726 0 101789094.67143726 1654681677.4655137 0 0 0 0 1176814696.1613159 2687959486.144783 0 2687959486.144783 834029379.9586544 0 0 0 0 733780174.22698975 650578005.86935663 0 650578005.86935663 -1356004477.7028589 0 0 0 0 358777459.75579834 575542301.41902924 0 575542301.41902924 514854183.75696266 0 0 0 0 -181945992.75994873 126796986.23756409 0 126796986.23756409 51046500.874360085 0 0 0 0 76026675.288925171 -82107559.006597519 0 -82107559.006597519 -6291023.9232225418 0 0 0 0 -13943640.020753138 -3155728.9431962147 0 -3155728.9431962147 9634465.5507788099 0 0 0 0 469821635.21278787 -377934959.76762509 0 -377934959.76762509 -1169291118.9375553 0 0 0 0 39333346.468048096 -24270675.909231186 0 -24270675.909231186 2859246.5939865112 0 0 0 0 75665747.580229074 -42431756.819031045 0 -42431756.819031045 4937234.155758407 0 0 0 0 32597156.11592865 -29734403.807823181 0 -29734403.807823181 -1556457.557510376 0 0 0 0 39173425.506702863 -23477315.507053114 0 -23477315.507053114 9990983.5202148221 0 0 0 0 164831891.91477585 -64138454.789350182 0 -64138454.789350182 -360423218.65370369 0 0 0 0 5599993.0615844727 -64863245.772526264 0 -64863245.772526264 -18719553.674218178 0 0 0 0 12140192.514715921 -6636470.320705492 0 -6636470.320705492 -3655608.0225253156 0 0 0 0 -535738690.91867828 421079281.91794109 0 421079281.91794109 4197101750.356039 0 0 0 0 46523438.445289612 -23731893.561010361 0 -23731893.561010361 10943410.50737381 0 0 0 0 47396134.759026103 -10952010.008324884 0 -10952010.008324884 -5556039.6629839251 0 0 0 0 2094491.2479836643 -3665121.6419477798 0 -3665121.6419477798 -890071.0962316636 0 0 0 0 46186539.531734467 -25631999.371562958 0 -25631999.371562958 2429883.9212608337 0 0 0 0 2141759452.6441345 1681521581.5613804 0 1681521581.5613804 1912322339.9106789 0 0 0 0 2524557810.0174313 550885803.0796051 0 550885803.0796051 225869628.33890533 0 0 0 0 1281569059.1668243 2792100383.3255897 0 2792100383.3255897 290589452.75882912 0 0 0 0 541612797.64585876 -461635483.34894753 0 -461635483.34894753 3164187667.0698214 0 0 0 0 624946518.77852631 -24877031.928341866 0 -24877031.928341866 582828396.52128983 0 0 0 0 264811725.41804504 -172407272.17615032 0 -172407272.17615032 1265667144.0796366 0 0 0 0 947715088.83580017 676255582.80832672 0 676255582.80832672 920604354.7414608 0 0 0 0 950589926.15981567 442989921.87842441 0 442989921.87842441 658565037.86465073 0 0 0 0 1293900704.4083405 298687634.23753548 0 298687634.23753548 -52811891.384886146 0 0 0 0 466567755.26617432 329705170.07547188 0 329705170.07547188 670998560.79161835 0 0 0 0 886497504.23955536 585376908.16628122 0 585376908.16628122 573254854.2686882 0 0 0 0 1730516991.263916 720419805.86961269 0 720419805.86961269 333103496.13836288 0 0 0 0 1139859147.1936646 235608968.56286812 0 235608968.56286812 -135022874.41185713 0 0 0 0 1596569211.5074463 -90036586.389372826 0 -90036586.389372826 -152668167.44151306 0 0 0 0 15164035.705999017 -26839160.060747858 0 -26839160.060747858 47739459.084930018 0 0 0 0 112539904.20893097 -457025327.28150606 0 -457025327.28150606 396330669.16759872 0 0 0 0 57614409.920710176 -26322600.731007375 0 -26322600.731007375 265367.97143333592 0 0 0 0 124887732.04759598 75535181.870323181 0 75535181.870323181 143085174.21658325 0 0 0 0 -25591440.837268829 -73876801.479171753 0 -73876801.479171753 245960417.70330048 0 0 0 0 34236111.705745697 79854611.046093941 0 79854611.046093941 -98356758.648303986 0 0 0 0 28581991.906193711 -11832025.856378132 0 -11832025.856378132 -12748136.7955293 0 0 0 0 -81306136.92124939 15269253.679983616 0 15269253.679983616 9339844.6519656181 0 0 0 0 10269308.40240851 -2450187.4063889179 0 -2450187.4063889179 5593988.090474789 0 0 0 0 641500270.86427307 786423393.50682545 0 786423393.50682545 691931571.87831306 0 0 0 0 781848027.59698486 1351789885.0237961 0 1351789885.0237961 1641805385.8518734 0 0 0 0 1476836756.5661507 -444202358.59134912 0 -444202358.59134912 182102189.43720055 0 0 0 0 2362299983.6290588 1149722361.8690352 0 1149722361.8690352 -359807467.81839561 0 0 0 0 2045751452.7833557 -315899517.73145568 0 -315899517.73145568 -72879629.247582793 0 0 0 0 2941835367.8168182 888134340.06319261 0 888134340.06319261 -811645434.66986775 0 0 0 0 -292081392.41695404 -529731147.08798969 0 -529731147.08798969 393787683.15486336 0 0 0 0 582810586.62034607 1065431060.6066827 0 1065431060.6066827 1218581726.9975798 0 0 0 0 -203220441.69276428 232320628.51573253 0 232320628.51573253 978677799.6484108 0 0 0 0 2062847130.2452545 1788275619.2012007 0 1788275619.2012007 1430272436.9425526 0 0 0 0 2706047970.6932831 1383382578.1219196 0 1383382578.1219196 377923151.79765034 0 0 0 0 2756075777.1446228 -679947773.72705078 0 -679947773.72705078 -549615.19623279572 0 0 0 0 2688169.7085327432 1099525.0095588146 0 1099525.0095588146 420147.16592582269 0 0 0 0 1418449971.9834595 814257050.96229935 0 814257050.96229935 -40431962.320386887 0 0 0 0 2235536.4388235621 -2706502.437942639 0 -2706502.437942639 -3330636.008568156 0 0 0 0 -1180895297.4148817 709603904.11110091 0 709603904.11110091 -266920520.08739281 0 0 0 0 2631553062.8536453 -1096932070.1723943 0 -1096932070.1723943 20518880.93289566 0 0 0 0 1001213150.2290344 875087232.25554371 0 875087232.25554371 -1320373834.1330614 0 0 0 0 2427792975.8700199 1920029628.3774443 0 1920029628.3774443 -990802431.47657967 0 0 0 0 590970651.16492462 -200547197.97412777 0 -200547197.97412777 -322334083.94878197 0 0 0 0 487479053.26802063 -401763980.96817493 0 -401763980.96817493 527984677.08697355 0 0 0 0 -5533618.8494033813 238400725.88863677 0 238400725.88863677 -270039675.81487864 0 0 0 0 157555144.34836578 238598617.38034731 0 238598617.38034731 -491354570.78770912 0 0 0 0 7982570.6432593316 2652229.5686689019 0 2652229.5686689019 -803916.58733178978 0 0 0 0 6284579.8461608887 43010.727885246277 0 43010.727885246277 -3613222.2299385071 0 0 0 0 8150091.2374954224 596220.70491838455 0 596220.70491838455 -5525693.3967609406 0 0 0 0 12508372.548194177 -300595.03264109604 0 -300595.03264109604 -4209560.8411923442 0 0 0 0 9971292.5346984863 -745054.67255926132 0 -745054.67255926132 -6638986.8521442413 0 0 0 0 318758565.21391296 369023742.97912025 0 369023742.97912025 271092984.71107483 0 0 0 0 12839373.136917114 -3720130.0931863785 0 -3720130.0931863785 -4060037.9281819761 0 0 0 0 9468619.746835392 -4652320.5101152733 0 -4652320.5101152733 -5810672.0228177281 0 0 0 0 7683131.0135682123 -5608907.4276764728 0 -5608907.4276764728 -1251810.6543045044 0 0 0 0 750575226.05152225 -56244151.414947152 0 -56244151.414947152 57292862.591588974 0 0 0 0 7941254.9452362061 1083564.4993376732 0 1083564.4993376732 -3709526.6947479248 0 0 0 0 1135601704.0858612 567770818.97881889 0 567770818.97881889 -43547235.897559166 0 0 0 0 1715862922.8211517 559254017.24047184 0 559254017.24047184 -147735364.53535175 0 0 0 0 1702602228.0454292 439600093.93876314 0 439600093.93876314 -335919196.23778915 0 0 0 0 1777197951.1438599 138756438.67659092 0 138756438.67659092 -284038659.17248154 0 0 0 0 1124991851.5069766 393196029.22496259 0 393196029.22496259 378830510.77478409 0 0 0 0 1007954115.7860565 37589976.648557186 0 37589976.648557186 239990214.27735329 0 0 0 0 1587329177.9676819 85252016.336377144 0 85252016.336377144 -423923628.0491848 0 0 0 0 1295028431.9268799 -518153663.07205391 0 -518153663.07205391 -489437323.8130722 0 0 0 0 1762770900.6022491 80109786.27135849 0 80109786.27135849 -473419897.85263824 0 0 0 0 2724693769.1846313 143613378.29084206 0 143613378.29084206 -681957961.99449921 0 0 0 0 2125466817.0754089 -250255087.3941946 0 -250255087.3941946 -248465892.13734436 0 0 0 0 2347904889.1770172 989370685.98744965 0 989370685.98744965 -175014909.83540726 0 0 0 0 2115803143.1614914 -182871405.00880241 0 -182871405.00880241 -685032740.00224304 0 0 0 0 803781616.12902832 -314676979.31998062 0 -314676979.31998062 554316747.02490997 0 0 0 0 821000617.84591675 40294588.484560013 0 40294588.484560013 -158677926.67716312 0 0 0 0 1752445343.6080017 497005257.5255928 0 497005257.5255928 -396305862.96396255 0 0 0 0 860495749.24014282 433923820.25056839 0 433923820.25056839 150878773.7096774 0 0 0 0 1504452602.4991226 760269638.15919304 0 760269638.15919304 152473995.3708992 0 0 0 0 -297009786.01599121 580994476.51519775 0 580994476.51519775 921845911.77764893 0 0 0 0 9205086.3851094246 3837841.1996579021 0 3837841.1996579021 -6491427.0701012174 0 0 0 0 734626740.42474365 273248999.41417694 0 273248999.41417694 91782048.610660553 0 0 0 0 3524719248.9504395 2805632879.7079773 0 2805632879.7079773 1672285998.0519218 0 0 0 0 1178331638.666748 1859931215.3168869 0 1859931215.3168869 1291928931.9252853 0 0 0 0 1146711168.9669037 1981793892.6117163 0 1981793892.6117163 3416002135.0405045 0 0 0 0 2736504399.5447388 845223606.86880875 0 845223606.86880875 -132246465.70691681 0 0 0 0 322618.74177621305 304282.87338173017 0 304282.87338173017 -348738.56511072442 0 0 0 0 2782874881.1263733 -2052724464.9768429 0 -2052724464.9768429 461316566.50240135 0 0 0 0 4446258.0875862911 -463920.36954386532 0 -463920.36954386532 -1324321.091606875 0 0 0 0 3055052481.2585144 -1397746414.7608833 0 -1397746414.7608833 752709741.67922211 0 0 0 0 5130378410.8585205 150656808.01028824 0 150656808.01028824 -196274691.93662643 0 0 0 0 4971011074.1260071 1996460847.7435722 0 1996460847.7435722 426197354.86397552 0 0 0 0 -646619454.05606079 -547788266.63028526 0 -547788266.63028526 2676050538.9405499 0 0 0 0 -48656.548780687153 1391470.0121175572 0 1391470.0121175572 5803752.4493936934 0 0 0 0 2596525430.2434998 478547695.44810772 0 478547695.44810772 -975721313.97470045 0 0 0 0 4129953325.8936195 488487650.82909536 0 488487650.82909536 -1026295379.0205574 0 0 0 0 5169661.6418628208 786960.58655218035 0 786960.58655218035 -3253781.9202126209 0 0 0 0 9334382.5897369385 -25825.097846984863 0 -25825.097846984863 -1961321.2752685547 0 0 0 0 957201458.07732391 12353031.715440273 0 12353031.715440273 5417766.9497909546 0 0 0 0 48105644.640640259 37931562.801395416 0 37931562.801395416 63659414.758758545 0 0 0 0 54302520.264266968 7775572.0663251877 0 7775572.0663251877 -1165768.9852137566 0 0 0 0 65089574.387542725 42808242.588225365 0 42808242.588225365 31051269.98886776 0 0 0 0 5741263.3319874881 -3460322.6643323228 0 -3460322.6643323228 -3207149.9531207504 0 0 0 0 8728411.2902526855 -388186.37620639801 0 -388186.37620639801 -1923486.1208763123 0 0 0 0 180740389.30195618 -137202175.22055435 0 -137202175.22055435 -291087574.48711109 0 0 0 0 45196022.184410095 49080353.376568437 0 49080353.376568437 439593249.25203896 0 0 0 0 -113363457.96844482 -482378291.53043175 0 -482378291.53043175 -157855814.46414232 0 0 0 0 19131361.114867672 3347986.8747833632 0 3347986.8747833632 -9812330.3916395865 0 0 0 0 -66078171.172851562 -202108550.87113345 0 -202108550.87113345 -189855348.99506474 0 0 0 0 -38903515.870819092 -149155802.18601322 0 -149155802.18601322 -728292481.32546377 0 0 0 0 318900308.65362549 -337769287.79461479 0 -337769287.79461479 -142050754.27888727 0 0 0 0 237156144.21032715 -69315702.841213226 0 -69315702.841213226 -360697824.26200688 0 0 0 0 264029936.38748169 -111781841.99823999 0 -111781841.99823999 -294819973.70909309 0 0 0 0 309172993.27983809 -81516278.45679763 0 -81516278.45679763 -280162325.84882736 0 0 0 0 673773769.98802185 -694917467.99402571 0 -694917467.99402571 350723671.54981518 0 0 0 0 7476862.547317192 603119.79453881877 0 603119.79453881877 -590415.91136568121 0 0 0 0 417904102.42657471 1028431045.8985975 0 1028431045.8985975 494933499.86762112 0 0 0 0 -25807625.033813477 -262057405.16581702 0 -262057405.16581702 1040165865.0978174 0 0 0 0 -500417398.27074432 2159804904.8113322 0 2159804904.8113322 1638948830.6781139 0 0 0 0 -1399109.1182933636 2858917.6881561056 0 2858917.6881561056 14500397.124814797 0 0 0 0 1168778725.4887695 -326209572.92784476 0 -326209572.92784476 -658312482.23882484 0 0 0 0 680416229.34160614 291615079.47220814 0 291615079.47220814 -856063640.61166286 0 0 0 0 -167524539.37846756 -513375160.74837244 0 -513375160.74837244 495915346.5230751 0 0 0 0 294266779.48522949 425266172.14011765 0 425266172.14011765 -48935421.800673485 0 0 0 0 550252597.78570557 -414824252.98753834 0 -414824252.98753834 -146139982.88684464 0 0 0 0 -983510011.36743164 329822924.41846466 0 329822924.41846466 231270427.5360527 0 0 0 0 -175453477.08267975 -851755512.12956238 0 -851755512.12956238 -284475457.4744339 0 0 0 0 879186724.17303467 -59485219.904863358 0 -59485219.904863358 -186420570.30501652 0 0 0 0 830193663.27102661 28915452.89872551 0 28915452.89872551 -1088255037.7546463 0 0 0 0 -925055539.09011841 1305974089.0632 0 1305974089.0632 1064741090.6744976 0 0 0 0 -956090093.54837799 -273486407.86373043 0 -273486407.86373043 290067218.84538841 0 0 0 0 -948522.4734486565 3188517.3577667512 0 3188517.3577667512 14494230.853009488 0 0 0 0 -311471277.1257019 -201947782.56854677 0 -201947782.56854677 260116663.35690928 0 0 0 0 19723124.98425293 -82282277.026155472 0 -82282277.026155472 50966063.678453445 0 0 0 0 -32242582.436378479 14412812.920743942 0 14412812.920743942 -271565963.14114952 0 0 0 0 544580967.31158447 -1068725070.5927718 0 -1068725070.5927718 -400156305.57505822 0 0 0 0 1396874402.0763512 628946452.69520235 0 628946452.69520235 -5481760.6591920853 0 0 0 0 -166590142.43510437 20129864.523424149 0 20129864.523424149 -120518107.92879963 0 0 0 0 16662438.785345078 884901143.2891562 0 884901143.2891562 513347315.29073334 0 0 0 0 1364442471.053421 -489158711.25610447 0 -489158711.25610447 -497844312.06187534 0 0 0 0 367508.34377489984 3033504.2498285249 0 3033504.2498285249 2944266.3315766463 0 0 0 0 494541686.75299072 967644289.39675808 0 967644289.39675808 338700022.81655312 0 0 0 0 820247892.35403442 -753256156.14083147 0 -753256156.14083147 143464490.97956848 0 0 0 0 802873718.32575226 -34526440.16642189 0 -34526440.16642189 -111873522.22954178 0 0 0 0 1570605721.7055359 186654636.62239504 0 186654636.62239504 -514323338.15894699 0 0 0 0 397914821.01571655 -261651341.54506063 0 -261651341.54506063 -220005495.64799118 0 0 0 0 -267346843.0271759 315568432.76497364 0 315568432.76497364 -301049928.2522831 0 0 0 0 2607553.8455935717 6785573.4294552952 0 6785573.4294552952 5675106.110164254 0 0 0 0 -581138932.56900024 589573567.32244873 0 589573567.32244873 -437163334.119452 0 0 0 0 517160721.77199554 323639404.20209897 0 323639404.20209897 -1033032001.8879337 0 0 0 0 -222223137.83206177 1134775670.421319 0 1134775670.421319 -1239040079.0714359 0 0 0 0 -419485215.38779449 -64394252.448726892 0 -64394252.448726892 279359831.37952805 0 0 0 0 -291400375.92495728 101783028.74156189 0 101783028.74156189 -549329083.13535786 0 0 0 0 32349830.35577774 951124244.24669814 0 951124244.24669814 -1156332294.6314774 0 0 0 0 4403528.5381424278 7528686.9546401352 0 7528686.9546401352 5691764.4817214804 0 0 0 0 117235384.68677711 734629333.3382225 0 734629333.3382225 181352915.01009369 0 0 0 0 503930136.31455994 873133899.58104706 0 873133899.58104706 416192547.25288391 0 0 0 0 723705482.56999207 757692107.95232582 0 757692107.95232582 228123152.35832214 0 0 0 0 518075485.26345825 661866112.80682182 0 661866112.80682182 194552930.45301628 0 0 0 0 1608235197.0686188 86345402.235799789 0 86345402.235799789 -129408704.55472708 0 0 0 0 652491370.19042969 553499897.14663315 0 553499897.14663315 270748498.57200623 0 0 0 0 352434677.61068726 -161723781.63817024 0 -161723781.63817024 -322751050.71421385 0 0 0 0 742514274.20773315 131769085.02438068 0 131769085.02438068 -125181538.93446922 0 0 0 0 963685190.44348145 -140841845.87848473 0 -140841845.87848473 -413632808.24404812 0 0 0 0 144870635.28555298 429715065.96992308 0 429715065.96992308 -686851300.85312653 0 0 0 0 1595824135.0379486 -1004730654.4644585 0 -1004730654.4644585 110491217.12564707 0 0 0 0 -42634.654493585229 -881203.123611141 0 -881203.123611141 2181361.4344146848 0 0 0 0 273892057.47015381 1122274459.5889053 0 1122274459.5889053 452773251.24176025 0 0 0 0 1089468983.589798 1524468486.4204788 0 1524468486.4204788 227554794.16615677 0 0 0 0 -1983741933.7901611 -417917239.97050476 0 -417917239.97050476 -547183134.87203217 0 0 0 0 465565.3942038978 28910.020407810807 0 28910.020407810807 -469876.60502115637 0 0 0 0 274955718.62179756 140231591.25515318 0 140231591.25515318 -361066160.06086349 0 0 0 0 278103284.10777283 -6609340.3885221481 0 -6609340.3885221481 137940261.6349144 0 0 0 0 80729347.042922974 63849966.317997456 0 63849966.317997456 58687218.736646652 0 0 0 0 3110363.6504424885 2434401.9763066173 0 2434401.9763066173 -802760.58151094988 0 0 0 0 11865330.125823975 -4494952.8308787346 0 -4494952.8308787346 880002.72872161865 0 0 0 0 3083884.2331679706 -3756753.8009487465 0 -3756753.8009487465 140231.58735577203 0 0 0 0 324213879.76757574 108141360.88074991 0 108141360.88074991 -108344742.27624893 0 0 0 0 2633691318.1053772 320479876.46597385 0 320479876.46597385 -325970279.75217819 0 0 0 0 1287099376.0278015 -1083140910.2642517 0 -1083140910.2642517 787226066.8895359 0 0 0 0 275504033.65722656 -66303620.304383278 0 -66303620.304383278 -102183408.71293259 0 0 0 0 -692992282.60678101 1168621326.489769 0 1168621326.489769 2129737562.4277916 0 0 0 0 282972635.40784454 -659637910.06726456 0 -659637910.06726456 50518203.000652313 0 0 0 0 2495129.6752952188 3574188.5555088613 0 3574188.5555088613 2660497.743931246 0 0 0 0 2819805217.9512177 -709530075.81713486 0 -709530075.81713486 -1582330504.9458923 0 0 0 0 2638980158.4634857 -1615825053.2580261 0 -1615825053.2580261 -1114331629.4921989 0 0 0 0 3221800180.1217651 195423995.05707932 0 195423995.05707932 -387266323.42494011 0 0 0 0 2129108342.3300896 -248721898.48533916 0 -248721898.48533916 -258547115.03508759 0 0 0 0 1630002073.0851898 1316895234.7745075 0 1316895234.7745075 43944039.231018066 0 0 0 0 -39580563.972473145 1396315277.7695465 0 1396315277.7695465 318559518.14987373 0 0 0 0 330999167.2219696 879709825.52051163 0 879709825.52051163 42516582.938819885 0 0 0 0 277173924.31855774 775892710.50904274 0 775892710.50904274 381730425.08604431 0 0 0 0 635351931.13237 642346779.40865517 0 642346779.40865517 224954903.91251373 0 0 0 0 628127460.82157898 178205030.99822235 0 178205030.99822235 -105075431.47941208 0 0 0 0 310255010.38406372 55178558.356266022 0 55178558.356266022 -120265242.9166069 0 0 0 0 99290632.756134033 92034674.381443024 0 92034674.381443024 119522056.51801682 0 0 0 0 331298728.98548889 -75954520.437736988 0 -75954520.437736988 220604173.37352371 0 0 0 0 -723209087.38569546 329067779.72622645 0 329067779.72622645 -145537642.02829742 0 0 0 0 333155300.22967529 -1122665348.2477884 0 -1122665348.2477884 544317866.47637939 0 0 0 0 784480.99478308856 -886017.70899792016 0 -886017.70899792016 2067150.7238607425 0 0 0 0 -1064091426.7389526 109616556.90768242 0 109616556.90768242 571447045.17918777 0 0 0 0 852255876.35641479 -134014242.53383255 0 -134014242.53383255 -226403068.43361473 0 0 0 0 479889907.49347305 378896505.84183359 0 378896505.84183359 28928303.527202606 0 0 0 0 -115127072.92028809 -336033064.53362274 0 -336033064.53362274 392561767.16553497 0 0 0 0 -34023402.973236084 27992308.80291748 0 27992308.80291748 -37318033.97895813 0 0 0 0 9255191.2609482538 -3162273.4476220608 0 -3162273.4476220608 -3475315.5807304997 0 0 0 0 -233821602.10313368 -157412660.23012251 0 -157412660.23012251 123858859.31808472 0 0 0 0 92992825.446487427 74534142.15209198 0 74534142.15209198 -84047578.277648926 0 0 0 0 118510924.85629272 78063053.339647293 0 78063053.339647293 -105807703.17887592 0 0 0 0 129067991.73840332 20303388.91714859 0 20303388.91714859 -94026553.048141479 0 0 0 0 97427657.217224121 50560274.560630798 0 50560274.560630798 -120689751.519207 0 0 0 0 442250206.71557617 79818546.123947144 0 79818546.123947144 -220440081.78878641 0 0 0 0 171713587.07845306 99312387.702802658 0 99312387.702802658 -204239920.99356842 0 0 0 0 -229002808.3054657 93848562.077628136 0 93848562.077628136 159987058.91124916 0 0 0 0 2634695.5961546488 -1543575.1002456918 0 -1543575.1002456918 -906228.26720634289 0 0 0 0 109423034.61863708 98496686.085439682 0 98496686.085439682 -80669870.822166204 0 0 0 0 -269070268.00556946 158361072.12788963 0 158361072.12788963 41407892.23069191 0 0 0 0 73881566.860553741 106994278.83467674 0 106994278.83467674 -191566891.28491974 0 0 0 0 144484527.96772766 22557852.528213501 0 22557852.528213501 -99583491.255241394 0 0 0 0 20020177.922103882 -55577385.524784088 0 -55577385.524784088 -148632956.16653061 0 0 0 0 129066270.51350403 19478381.963829041 0 19478381.963829041 -75048838.388004303 0 0 0 0 153988273.72981262 -24331493.820960999 0 -24331493.820960999 -163746304.11572552 0 0 0 0 240089904.68353271 33762949.738994598 0 33762949.738994598 -186142079.35145855 0 0 0 0 176846285.17402649 47012457.39947319 0 47012457.39947319 -232072130.22682953 0 0 0 0 192481382.02532196 -32499857.712036133 0 -32499857.712036133 -269328991.42939758 0 0 0 0 319597915.22081757 -103149164.5824976 0 -103149164.5824976 -74129559.502046585 0 0 0 0 -14473669.691178322 6608039.3286505938 0 6608039.3286505938 -1302897.7678585052 0 0 0 0 -16904638.610351562 24036896.172719955 0 24036896.172719955 -9401542.5192718506 0 0 0 0 38117398.176391602 62196417.087402344 0 62196417.087402344 -238165941.369596 0 0 0 0 -34000008.870529175 -47081619.213955879 0 -47081619.213955879 27948150.19852066 0 0 0 0 143162294.17449951 144159125.91316223 0 144159125.91316223 122670044.3039465 0 0 0 0 304159.93539375067 1274911.6968983277 0 1274911.6968983277 326580.68487931881 0 0 0 0 127023036.41551208 -100580771.11879921 0 -100580771.11879921 91485301.132238388 0 0 0 0 273683356.88616943 197860429.98111629 0 197860429.98111629 58984115.970916748 0 0 0 0 336400754.82420349 161609920.18892527 0 161609920.18892527 27745366.614412308 0 0 0 0 212496386.13446045 66508716.954992294 0 66508716.954992294 45057469.091053009 0 0 0 0 -967810.70252238214 202024.41544735618 0 202024.41544735618 1143478.9586834218 0 0 0 0 -51001136.212936401 211432052.26689434 0 211432052.26689434 8078529.8903045654 0 0 0 0 105807277.15805054 92560068.648020744 0 92560068.648020744 -278428510.50918388 0 0 0 0 -286142984.03274536 163354442.97777176 0 163354442.97777176 106103772.98421288 0 0 0 0 108607672.86118317 147115621.13116837 0 147115621.13116837 293437471.62750435 0 0 0 0 242968245.62623596 -68757609.539598465 0 -68757609.539598465 -40148890.093095779 0 0 0 0 52945242.340805054 70767809.203411102 0 70767809.203411102 123685015.02924681 0 0 0 0 43773526.696037292 46941826.755898476 0 46941826.755898476 81088598.350765228 0 0 0 0 67229546.042831421 57060133.82439065 0 57060133.82439065 51740222.52977562 0 0 0 0 71525075.098686218 44262161.913492203 0 44262161.913492203 81010544.011657715 0 0 0 0 23398621.41784668 29540212.350432396 0 29540212.350432396 51011489.90772824 0 0 0 0 62493496.222183228 67701574.818117142 0 67701574.818117142 44419262.358454347 0 0 0 0 115375166.7472229 65454355.750514984 0 65454355.750514984 44444554.473365426 0 0 0 0 97024023.027450562 107227270.70427394 0 107227270.70427394 42531240.490308762 0 0 0 0 179647115.61808777 108740259.38198471 0 108740259.38198471 11717068.049376488 0 0 0 0 152998514.03718567 210318387.34163213 0 210318387.34163213 416442.41716194153 0 0 0 0 70418442.997009277 211961247.06931686 0 211961247.06931686 49024677.789522648 0 0 0 0 87591053.632461548 201416305.06905556 0 201416305.06905556 52360746.106430054 0 0 0 0 85807241.629867554 180610467.15379262 0 180610467.15379262 124674642.08374596 0 0 0 0 45537618.626693726 112399588.34165287 0 112399588.34165287 54706331.032102585 0 0 0 0 69264029.673110962 88317665.315472603 0 88317665.315472603 79148835.590205193 0 0 0 0 23191044.094718933 42816466.635046244 0 42816466.635046244 129218787.42427921 0 0 0 0 56188156.991081238 70347484.957389832 0 70347484.957389832 72102519.760383606 0 0 0 0 31614299.719268799 76327889.091129303 0 76327889.091129303 137830565.40768003 0 0 0 0 -139485875.2177887 147022409.71584797 0 147022409.71584797 121206119.33666778 0 0 0 0 62654628.53717804 342803516.4662354 0 342803516.4662354 209198449.50909042 0 0 0 0 -511189878.79252625 319238483.69902825 0 319238483.69902825 259726395.10076523 0 0 0 0 24495610.91127564 -2677350.6479349928 0 -2677350.6479349928 -2655376.2778144474 0 0 0 0 33851921.218383789 5500392.2922897339 0 5500392.2922897339 9722966.394487381 0 0 0 0 37821514.372955322 -80243433.078558803 0 -80243433.078558803 -197499411.65629402 0 0 0 0 -234664877.91975021 -33595960.700288534 0 -33595960.700288534 106655116.25094891 0 0 0 0 958263.61014412344 -1115171.9275912642 0 -1115171.9275912642 -649668.18340063794 0 0 0 0 112270346.80085754 20382937.506818891 0 20382937.506818891 -388779250.14753652 0 0 0 0 13258288.581570067 -876148.17655046843 0 -876148.17655046843 -1035340.8235488159 0 0 0 0 -17173979.28427887 -19007544.17709583 0 -19007544.17709583 -130891842.78907873 0 0 0 0 6488465.1481628418 4084284.9055566788 0 4084284.9055566788 -11586164.287089348 0 0 0 0 60369098.154098511 64118440.704329729 0 64118440.704329729 54954353.646659851 0 0 0 0 50108211.279022217 47970358.449227333 0 47970358.449227333 49413050.863463402 0 0 0 0 13503891.918436714 3995517.657895118 0 3995517.657895118 -4903659.3683725568 0 0 0 0 104186569.66914368 -178093940.628088 0 -178093940.628088 465619647.44836473 0 0 0 0 -45912.332839883864 1051022.3487727642 0 1051022.3487727642 494554.38167673955 0 0 0 0 219093405.40429306 -245657440.26707351 0 -245657440.26707351 262027731.71306419 0 0 0 0 -27366695.725608826 13238185.612012148 0 13238185.612012148 134061644.65054703 0 0 0 0 58029026.397964478 83023905.310716152 0 83023905.310716152 17153297.049654245 0 0 0 0 5451570.5678405762 36055911.794613838 0 36055911.794613838 -45246703.587924913 0 0 0 0 35550747.903320312 106486957.74379492 0 106486957.74379492 185653170.82439327 0 0 0 0 3231945.9120100513 1446621.2522209212 0 1446621.2522209212 -2260668.0511855497 0 0 0 0 -47218840.32649231 109120324.79186821 0 109120324.79186821 111559479.42250633 0 0 0 0 153915087.85327148 -36196381.241436005 0 -36196381.241436005 163668805.1192131 0 0 0 0 -15289453.989543915 -106630272.08804548 0 -106630272.08804548 236824452.18326759 0 0 0 0 514427904.08908081 -356425746.42878056 0 -356425746.42878056 322734689.69618285 0 0 0 0 327770982.34210205 -343118372.92924881 0 -343118372.92924881 342918564.00957489 0 0 0 0 1102472816.907196 -342401102.29542923 0 -342401102.29542923 120747721.31388378 0 0 0 0 617883027.21950531 -126303429.68032789 0 -126303429.68032789 39424106.388801575 0 0 0 0 692491700.06111145 -151207390.30647278 0 -151207390.30647278 32913055.239698172 0 0 0 0 405655836.77619934 703138435.37397957 0 703138435.37397957 90345072.956888914 0 0 0 0 23263335.414566595 -2057494.0018736105 0 -2057494.0018736105 -1970119.7702246157 0 0 0 0 1211932622.8202934 206574605.60071337 0 206574605.60071337 -71934421.426020622 0 0 0 0 150413039.98021698 286921777.47382998 0 286921777.47382998 60951786.391958237 0 0 0 0 583521366.77293396 353392903.98122215 0 353392903.98122215 -103637696.65958786 0 0 0 0 254205051.87033081 62241311.74887085 0 62241311.74887085 116754016.64180195 0 0 0 0 499578789.68530273 -110413613.00963593 0 -110413613.00963593 90149677.345680237 0 0 0 0 326334278.53568268 67500918.783141136 0 67500918.783141136 35696709.246058464 0 0 0 0 141629930.97146606 133943721.34970379 0 133943721.34970379 15675930.668739796 0 0 0 0 209861507.40740967 267767570.63051605 0 267767570.63051605 66354454.199816704 0 0 0 0 147072815.43335724 101358462.65027213 0 101358462.65027213 -44433474.109823227 0 0 0 0 84773036.01789856 103935205.2511425 0 103935205.2511425 -40453112.318612099 0 0 0 0 263059935.483284 -3995047.2800617218 0 -3995047.2800617218 -70302037.715602875 0 0 0 0 75107136.900115967 10715635.406206131 0 10715635.406206131 -67619110.981983185 0 0 0 0 156884147.37744141 -42524768.668723583 0 -42524768.668723583 -154236473.98785591 0 0 0 0 423592433.4172821 -84720573.738981247 0 -84720573.738981247 82997308.138706207 0 0 0 0 148295399.62678528 30519828.169831276 0 30519828.169831276 60180396.521850586 0 0 0 0 217252488.47216034 -155050078.80364561 0 -155050078.80364561 -11382160.963615417 0 0 0 0 123135526.64818192 -70138250.768375635 0 -70138250.768375635 -110585030.34757233 0 0 0 0 56067607.595855713 55758531.154819489 0 55758531.154819489 225535682.325284 0 0 0 0 -7442227.560754776 -315154644.78303707 0 -315154644.78303707 -165940854.52078629 0 0 0 0 34605895.99559021 -53748807.210002899 0 -53748807.210002899 -67566595.272836685 0 0 0 0 27145870.04586792 -168527597.02469444 0 -168527597.02469444 -125189543.62188721 0 0 0 0 -117439089.9601059 -75059155.586447716 0 -75059155.586447716 -147339111.51219559 0 0 0 0 3479765.9515380859 -274762.16609287262 0 -274762.16609287262 -2169613.3350634575 0 0 0 0 -2141436.7362518311 -131895803.22022486 0 -131895803.22022486 -194299176.92200279 0 0 0 0 3841574.7209592313 571425.94217035361 0 571425.94217035361 -2357533.1568309218 0 0 0 0 1599675.6714693643 -688121.13497811928 0 -688121.13497811928 -2502988.8286554497 0 0 0 0 -34356300.609344482 -107207222.00726891 0 -107207222.00726891 -148294512.56425798 0 0 0 0 1944695.5246353149 540780.8960313797 0 540780.8960313797 -2153232.6864089966 0 0 0 0 66820994.483577728 -8906761.6191930771 0 -8906761.6191930771 -8343714.647315979 0 0 0 0 1526327.3577270508 714571.64433479309 0 714571.64433479309 -1948983.772397995 0 0 0 0 1645713.2003173828 483832.26889801025 0 483832.26889801025 -1732457.9265727997 0 0 0 0 1778848.0810920764 -1174117.6162587516 0 -1174117.6162587516 -2020489.930068031 0 0 0 0 7787574.7873916626 27075187.409953356 0 27075187.409953356 -109720513.09352875 0 0 0 0 118382691.32740784 -19154260.597441673 0 -19154260.597441673 -137003914.73017883 0 0 0 0 42810495.257595062 1619384.571015358 0 1619384.571015358 -139125738.18930435 0 0 0 0 3230734.9106206074 2040768.6133579165 0 2040768.6133579165 -2872463.2263469445 0 0 0 0 976848.81286621094 2570869.1622161865 0 2570869.1622161865 -2742274.1785736084 0 0 0 0 32923777.186813354 -24053441.43424511 0 -24053441.43424511 -160355097.35882378 0 0 0 0 1010222.5408630371 2844417.0145797729 0 2844417.0145797729 -3079541.3322181702 0 0 0 0 1239480.88346342 2664817.781072062 0 2664817.781072062 342634.47460391745 0 0 0 0 -31244096.49005127 -29262802.909063339 0 -29262802.909063339 -28605983.534440994 0 0 0 0 5199286.2527618408 60946271.599709511 0 60946271.599709511 -134915607.65726852 0 0 0 0 -1030306.7018477917 146477.49558042921 0 146477.49558042921 1296812.7277568951 0 0 0 0 23916990.516540527 -5607835.7743148804 0 -5607835.7743148804 -233337230.60564804 0 0 0 0 1225416.7613522783 1307215.8129246719 0 1307215.8129246719 -1461031.1638292558 0 0 0 0 -27395154.657714844 -21410401.767974854 0 -21410401.767974854 -111007667.61454773 0 0 0 0 1426674.724029541 60419919.937210083 0 60419919.937210083 -167852636.95962334 0 0 0 0 9534158.7031860352 22400775.485649109 0 22400775.485649109 -179389878.94008636 0 0 0 0 5527527.9895172119 -2013308.4962921143 0 -2013308.4962921143 -4682596.9977645874 0 0 0 0 914339.29456159472 1872886.4014214091 0 1872886.4014214091 -236668.7827397068 0 0 0 0 713956.61533355713 25280594.868117332 0 25280594.868117332 -135067683.86562347 0 0 0 0 -16201786.334625244 33809142.373134613 0 33809142.373134613 -45356744.733181 0 0 0 0 -2283725.1097488403 -3909294.0709218979 0 -3909294.0709218979 -78815718.420001984 0 0 0 0 -23100487.88621521 13641458.721341133 0 13641458.721341133 91429764.143951416 0 0 0 0 1541361.0091660172 2169770.1748345247 0 2169770.1748345247 709521.71393855102 0 0 0 0 -610236.81729181856 9486.6221617776901 0 9486.6221617776901 1346879.1692074053 0 0 0 0 -26923819.782562256 73627887.610128403 0 73627887.610128403 -84250102.525636673 0 0 0 0 -23291951.163833618 93647558.974349976 0 93647558.974349976 -62704442.477005005 0 0 0 0 -8143547.0004577637 100474052.76040268 0 100474052.76040268 -117223841.68827438 0 0 0 0 -1920567.1914367676 102658041.15500069 0 102658041.15500069 -116637561.98474884 0 0 0 0 -3059193.9953155518 95087999.3266325 0 95087999.3266325 -123484929.96678925 0 0 0 0 10626285.431289673 100094219.12731934 0 100094219.12731934 -149683979.75317001 0 0 0 0 -1799932.5085144043 67442342.914196014 0 67442342.914196014 -102819426.87649918 0 0 0 0 5821510.6962127686 96480229.904033661 0 96480229.904033661 -150532472.82162571 0 0 0 0 5703677.0454101562 99516513.544254303 0 99516513.544254303 -121665856.82540131 0 0 0 0 18848130.898468018 79805881.44867897 0 79805881.44867897 -146597611.6880188 0 0 0 0 1824624.8103179932 771757.46001434326 0 771757.46001434326 -2380249.7736358643 0 0 0 0 5062557.8651428223 5151139.4983978271 0 5151139.4983978271 -11742603.143390656 0 0 0 0 177172.3785893172 1888124.1993610323 0 1888124.1993610323 -189765.55227050371 0 0 0 0 -4864978.903717041 137724.07577896118 0 137724.07577896118 8653868.3730735779 0 0 0 0 9028848.0089263916 -3120531.8989715576 0 -3120531.8989715576 -6025963.9886474609 0 0 0 0 -41541429.415870667 41855781.00087595 0 41855781.00087595 -23542272.900680542 0 0 0 0 4089938.2430114746 -10095339.484764099 0 -10095339.484764099 5189185.4791431427 0 0 0 0 -551284.52714272588 46587.435799585655 0 46587.435799585655 769946.26869977266 0 0 0 0 -67304314.414382935 137362720.81905746 0 137362720.81905746 -105305948.50458527 0 0 0 0 -128172427.77761841 91200386.801095963 0 91200386.801095963 -16417920.724112511 0 0 0 0 -34231183.36126709 -10349688.559839249 0 -10349688.559839249 -10818069.407276154 0 0 0 0 87438422.940414429 73670112.351719856 0 73670112.351719856 36742295.983947754 0 0 0 0 -19924378.552597046 9227840.2914524078 0 9227840.2914524078 13860079.428627014 0 0 0 0 1289456.614009846 -1298917.0511607192 0 -1298917.0511607192 -2491841.3412184566 0 0 0 0 122444514.56703186 58046214.105173111 0 58046214.105173111 40349477.225639343 0 0 0 0 171899454.93924713 11480079.515786171 0 11480079.515786171 -159077605.88780212 0 0 0 0 618572.83911582269 -828488.41191983595 0 -828488.41191983595 -1088335.1549491789 0 0 0 0 -162880352.7051239 222590090.97841263 0 222590090.97841263 -174623948.14131927 0 0 0 0 -291145790.88990784 84731962.113239288 0 84731962.113239288 -42425497.18413353 0 0 0 0 53722772.810836792 -6401707.2580547333 0 -6401707.2580547333 -195521624.87628937 0 0 0 0 172128110.99775696 106358118.06235695 0 106358118.06235695 -285356816.95088196 0 0 0 0 33057245.035919189 193240411.53529739 0 193240411.53529739 -229552159.57760239 0 0 0 0 2579283.3165283203 59585161.859527588 0 59585161.859527588 28652290.105464935 0 0 0 0 38082406.583087921 110335933.86304283 0 110335933.86304283 -94358767.710155487 0 0 0 0 96789515.300704956 98205218.989896774 0 98205218.989896774 -99074807.327354431 0 0 0 0 -96887730.134056091 155515048.84340763 0 155515048.84340763 -58494981.437400818 0 0 0 0 -64922040.005809784 -6811921.5749008656 0 -6811921.5749008656 -10832765.837768555 0 0 0 0 156916006.6629715 60555127.748867035 0 60555127.748867035 -1538272.819896698 0 0 0 0 40697372.732841492 76673703.087713242 0 76673703.087713242 127955497.6530304 0 0 0 0 41647795.627655029 62135831.209083557 0 62135831.209083557 26065252.008319855 0 0 0 0 156462914.32615662 357666010.73264599 0 357666010.73264599 -119371240.92932129 0 0 0 0 5613628.620513916 -172395933.44030571 0 -172395933.44030571 148573682.35433197 0 0 0 0 573655883.08192444 -838363113.40753269 0 -838363113.40753269 928273987.66108704 0 0 0 0 6751900.0149034187 2864945.6107787453 0 2864945.6107787453 772113.32081668451 0 0 0 0 129902177.78262329 54054516.70892334 0 54054516.70892334 15191380.862609863 0 0 0 0 171173763.89224243 -4112920.6890182495 0 -4112920.6890182495 57862173.358955383 0 0 0 0 -848403.64952996373 -734921.8674460873 0 -734921.8674460873 1301289.2893765345 0 0 0 0 -39813354.884887695 1616173.3048725128 0 1616173.3048725128 139752726.85514832 0 0 0 0 200035551.96377563 -95867353.323917389 0 -95867353.323917389 44017960.736985207 0 0 0 0 53947746.630569458 21345390.704666138 0 21345390.704666138 -11756022.869181633 0 0 0 0 -1208994.7364700772 -1071144.6190440468 0 -1071144.6190440468 1804249.625224907 0 0 0 0 109191423.73141479 110492730.11158752 0 110492730.11158752 -91990960.408359528 0 0 0 0 248242299.02613831 -200243660.30453682 0 -200243660.30453682 115336693.80211639 0 0 0 0 630994497.07118225 33287993.03890419 0 33287993.03890419 -318407855.46774292 0 0 0 0 151737808.49342346 -47455277.147620201 0 -47455277.147620201 -90988981.619754791 0 0 0 0 24074272.515472412 141473955.44939804 0 141473955.44939804 -274587199.26447964 0 0 0 0 34821878.584945679 27232207.331424713 0 27232207.331424713 -46270134.107358932 0 0 0 0 -2546687.5468006134 114072925.70141649 0 114072925.70141649 -123212865.60200882 0 0 0 0 -8444195.3796844482 134365260.88954353 0 134365260.88954353 -124226823.55897522 0 0 0 0 2254197.2723236084 120239759.21055603 0 120239759.21055603 -116949688.98262596 0 0 0 0 8544347.0822296143 117824126.59402847 0 117824126.59402847 -138275249.23232269 0 0 0 0 292912973.49704742 -96277358.566589355 0 -96277358.566589355 -55346874.6248703 0 0 0 0 -692198.57211435959 -654261.87013633549 0 -654261.87013633549 847057.98492804915 0 0 0 0 238846329.83737183 -353388.06073665619 0 -353388.06073665619 -94601512.332901001 0 0 0 0 126386248.57174683 -8235295.8489642143 0 -8235295.8489642143 -48221679.904937744 0 0 0 0 78228390.761810303 4384448.6142196655 0 4384448.6142196655 -10793976.924346924 0 0 0 0 128373583.03591919 -22978898.45434761 0 -22978898.45434761 -19980568.843788147 0 0 0 0 109704957.55254364 -32912019.994406223 0 -32912019.994406223 -4824475.5777359009 0 0 0 0 100907372.91406631 -3153473.9756851196 0 -3153473.9756851196 -8679881.6184310913 0 0 0 0 53759653.716522217 -17055116.74281311 0 -17055116.74281311 -1061428.2109260559 0 0 0 0 130280132.32043457 -19335278.431735992 0 -19335278.431735992 -10039076.191197395 0 0 0 0 161996836.02084351 -39791490.835166931 0 -39791490.835166931 -6439773.9737472534 0 0 0 0 172019138.3671875 -78265251.085866928 0 -78265251.085866928 13888453.256458282 0 0 0 0 174109289.10475159 -16290789.067327499 0 -16290789.067327499 -28756709.013463974 0 0 0 0 111036893.9871521 -30501466.310527802 0 -30501466.310527802 -41713752.529315948 0 0 0 0 121554743.50774097 60139351.52007854 0 60139351.52007854 -45199001.759548187 0 0 0 0 81494175.680282593 33118419.951021194 0 33118419.951021194 13151971.916465759 0 0 0 0 181263224.55011749 -60999341.325060844 0 -60999341.325060844 -26242054.513847351 0 0 0 0 21210383.874084473 22240844.633308411 0 22240844.633308411 12601124.971391678 0 0 0 0 4219457.514051538 -955202.10978897661 0 -955202.10978897661 231125.78761934489 0 0 0 0 81499185.670169353 -15003579.57022059 0 -15003579.57022059 -129453598.70478058 0 0 0 0 -12785466.288459778 -803723.48717689514 0 -803723.48717689514 39841687.046665192 0 0 0 0 20385086.453505706 -3879187.6789729521 0 -3879187.6789729521 -6976677.5499843433 0 0 0 0 83937434.051986694 84307021.40499115 0 84307021.40499115 48230159.63494873 0 0 0 0 26423474.894553062 5061776.1532396004 0 5061776.1532396004 -11072986.378605179 0 0 0 0 36578249.129516602 4575867.8838443756 0 4575867.8838443756 -11386865.630313873 0 0 0 0 78759890.085586548 43737052.529663086 0 43737052.529663086 -64953254.134830475 0 0 0 0 21493135.153035566 10583841.120465063 0 10583841.120465063 -5220984.0608321037 0 0 0 0 87008912.834968567 -22351470.920852661 0 -22351470.920852661 -36605071.802215576 0 0 0 0 15608513.883963533 -1478250.1638162732 0 -1478250.1638162732 -1031589.6390466392 0 0 0 0 34319664.610702515 -18302587.664575577 0 -18302587.664575577 49760143.697967529 0 0 0 0 25484137.432325557 7716471.5120912185 0 7716471.5120912185 -6759064.4035768583 0 0 0 0 13996268.292373657 10268411.274414062 0 10268411.274414062 -9627862.5844306946 0 0 0 0 20851891.544433594 11790115.371934414 0 11790115.371934414 -14580727.812072754 0 0 0 0 68950942.628240585 -9395992.973755002 0 -9395992.973755002 -8426768.3295898438 0 0 0 0 20463703.007171631 11128670.871994972 0 11128670.871994972 -5099414.6934890747 0 0 0 0 102687834.8311615 -75639681.977212906 0 -75639681.977212906 66477973.661979675 0 0 0 0 142290640.83370972 -78562882.811283112 0 -78562882.811283112 -24229078.519142151 0 0 0 0 146244352.61054993 -56157032.922218323 0 -56157032.922218323 -23390454.112514496 0 0 0 0 82973974.088806152 -36504523.841560364 0 -36504523.841560364 4482627.8088378906 0 0 0 0 21229730.365203857 14467407.964702606 0 14467407.964702606 4158364.5132846832 0 0 0 0 72318292.555419922 -1910731.5679626465 0 -1910731.5679626465 -17269425.515506744 0 0 0 0 45875486.459152222 -20215141.507732391 0 -20215141.507732391 19258896.40656662 0 0 0 0 63360047.562408447 -18011239.95343399 0 -18011239.95343399 2636434.961145401 0 0 0 0 53007524.455551147 32350751.0091362 0 32350751.0091362 -13915427.049749374 0 0 0 0 24308340.16139695 8673745.1271385141 0 8673745.1271385141 -6592132.99291295 0 0 0 0 13254869.916870117 7594091.8073234558 0 7594091.8073234558 -14390908.790437698 0 0 0 0 31577267.543121055 -1921020.7570261434 0 -1921020.7570261434 -8577283.1861780323 0 0 0 0 21512853.4854801 14975278.358803272 0 14975278.358803272 -7348560.3400561102 0 0 0 0 71881425.487182617 51445527.892234802 0 51445527.892234802 94015150.154647827 0 0 0 0 69726450.03843689 -58953005.369480133 0 -58953005.369480133 182102299.29714489 0 0 0 0 34866422.930314578 4392582.9148317985 0 4392582.9148317985 -10271333.729237022 0 0 0 0 10711838.066033356 7758173.1865176782 0 7758173.1865176782 -3993335.1898591127 0 0 0 0 26899216.166809082 15808263.812877655 0 15808263.812877655 71678276.435627699 0 0 0 0 60719005.571289062 -10861248.388916016 0 -10861248.388916016 54813528.335632324 0 0 0 0 1621019.7596086487 1412734.5621028282 0 1412734.5621028282 -677586.14534987696 0 0 0 0 20833249.108513206 12799645.606846046 0 12799645.606846046 -2125113.2016081139 0 0 0 0 23647458.60736084 6094911.1350059509 0 6094911.1350059509 -5274882.1693744659 0 0 0 0 79249331.479888916 26210228.914360046 0 26210228.914360046 11798360.10748291 0 0 0 0 20760533.069763184 8609077.9709377289 0 8609077.9709377289 -20960354.896348953 0 0 0 0 31182911.603124946 16596652.211838465 0 16596652.211838465 -3652906.5380076561 0 0 0 0 26503907.465087891 9042520.0129585266 0 9042520.0129585266 -8024596.0271873474 0 0 0 0 37658929.379182979 10049315.682928503 0 10049315.682928503 -17039418.966154657 0 0 0 0 20772310.372619629 8852496.8496856689 0 8852496.8496856689 -21764801.011314392 0 0 0 0 18479543.219894409 7237950.3634281158 0 7237950.3634281158 -15406606.960876465 0 0 0 0 42855645.940587536 3035825.2854232118 0 3035825.2854232118 -11757237.969616715 0 0 0 0 81824161.964599609 25515992.930860773 0 25515992.930860773 -85910532.770699978 0 0 0 0 30146003.082443237 54483776.775217272 0 54483776.775217272 50372307.351917386 0 0 0 0 25229361.313766479 11192993.385922909 0 11192993.385922909 -4045316.9232292175 0 0 0 0 28664482.08972168 6956156.1547193527 0 6956156.1547193527 -2319335.9280595779 0 0 0 0 19758226.371013287 23250594.063650608 0 23250594.063650608 14230578.409628574 0 0 0 0 27912937.443098992 18013353.749034114 0 18013353.749034114 7186533.2757386435 0 0 0 0 43434656.505722046 6582036.7695140839 0 6582036.7695140839 -12168334.987388611 0 0 0 0 21826775.079354804 9354071.77541361 0 9354071.77541361 -12522324.420009907 0 0 0 0 71501593.871627808 41305677.132358551 0 41305677.132358551 -69906433.317520142 0 0 0 0 21856125.893371582 1960443.4927902222 0 1960443.4927902222 -3829033.8469581604 0 0 0 0 23162448.610425577 5689217.9319905192 0 5689217.9319905192 -12102067.05859698 0 0 0 0 93115.29168573019 3839489.9122142643 0 3839489.9122142643 -52046.210812032223 0 0 0 0 22316356.87902832 7017298.6371154785 0 7017298.6371154785 -13428909.681051254 0 0 0 0 18006969.595275879 10105660.212638855 0 10105660.212638855 -16025050.995361328 0 0 0 0 14713161.461322889 7238874.9726498947 0 7238874.9726498947 -11222921.108058723 0 0 0 0 15217702.436943054 3516909.8245835304 0 3516909.8245835304 -7782632.9780235291 0 0 0 0 127384563.76263428 126142432.93835945 0 126142432.93835945 1032269.6993000805 0 0 0 0 123240999.88931274 -96781904.929889008 0 -96781904.929889008 -26413213.287047207 0 0 0 0 23160184.977694288 6135132.1348292083 0 6135132.1348292083 -20118707.551770233 0 0 0 0 12858494.164367676 9561923.8015327454 0 9561923.8015327454 -8730503.2036056519 0 0 0 0 81743959.410583496 -38406965.307115406 0 -38406965.307115406 -106161152.25999439 0 0 0 0 21745958.519104004 14283211.335571289 0 14283211.335571289 -3506932.3766174316 0 0 0 0 21126138.595502287 12947665.741559356 0 12947665.741559356 -1669093.0571328923 0 0 0 0 17093369.66984652 11589691.236015573 0 11589691.236015573 -12782940.747299168 0 0 0 0 28664400.412659213 11261043.853500284 0 11261043.853500284 -35497106.872517355 0 0 0 0 34659449.134443641 -4320270.0430199504 0 -4320270.0430199504 29423827.599578857 0 0 0 0 21910793.528930664 14504961.415603638 0 14504961.415603638 -3236593.022064209 0 0 0 0 15657919.088342622 15228100.954091914 0 15228100.954091914 -19463819.733828291 0 0 0 0 151121122.87440491 16545526.13347993 0 16545526.13347993 -140950473.59411949 0 0 0 0 18649462.296676975 9350753.2192073464 0 9350753.2192073464 -42125012.720856227 0 0 0 0 4267139.1698981244 9904201.5276391134 0 9904201.5276391134 101156.61352413578 0 0 0 0 -101778260.32587433 -21210931.298297655 0 -21210931.298297655 24885648.226574063 0 0 0 0 125106089.06323242 3307477.2669664919 0 3307477.2669664919 58732775.976650774 0 0 0 0 90474706.030090332 55155600.713883825 0 55155600.713883825 -181047390.09809428 0 0 0 0 85406157.788299561 150353188.9178389 0 150353188.9178389 102094211.72922882 0 0 0 0 175387690.78707886 118726062.16854918 0 118726062.16854918 -145766901.78770429 0 0 0 0 173917245.80755615 74013822.362285271 0 74013822.362285271 -72123563.920012996 0 0 0 0 185138981.46476746 168323771.69376865 0 168323771.69376865 -60928541.607580528 0 0 0 0 176609446.14770508 53096392.412760429 0 53096392.412760429 37275844.154509604 0 0 0 0 86242657.595703125 138417305.13787398 0 138417305.13787398 -27919810.131173611 0 0 0 0 40448875.742767334 30621917.050228387 0 30621917.050228387 4117362.0442805886 0 0 0 0 -31563375.7293396 -53590889.015193939 0 -53590889.015193939 -67785735.8555336 0 0 0 0 15752962.234747879 6145458.7943626046 0 6145458.7943626046 191799.9489237112 0 0 0 0 19939956.021755405 4111601.6123367995 0 4111601.6123367995 -11509271.085956242 0 0 0 0 16844828.753082275 14020847.662030697 0 14020847.662030697 -3207428.3627281189 0 0 0 0 44501202.213411406 10583771.371065237 0 10583771.371065237 -10385300.760492092 0 0 0 0 9195647.1054077148 15020440.637704849 0 15020440.637704849 -1764102.3190612793 0 0 0 0 15910771.903656848 21626918.71432896 0 21626918.71432896 2917150.6853087777 0 0 0 0 30757313.851089478 22779788.697793506 0 22779788.697793506 16069639.037061363 0 0 0 0 16689444.571395203 23022388.461973783 0 23022388.461973783 14969326.597903097 0 0 0 0 49877096.774871826 24431381.568301633 0 24431381.568301633 -510691.64013621956 0 0 0 0 42865467.205444336 22938467.354447573 0 22938467.354447573 -773969.3649770841 0 0 0 0 37694311.53616333 124048045.32082434 0 124048045.32082434 115533123.59382063 0 0 0 0 4728341.4733279198 12288785.455393737 0 12288785.455393737 1660581.0826979165 0 0 0 0 -118263014.99951172 86822243.451509386 0 86822243.451509386 5701528.2584710941 0 0 0 0 42990303.148101807 31134978.647856414 0 31134978.647856414 -3660034.9712519646 0 0 0 0 84494066.757843018 36663010.640792608 0 36663010.640792608 29062039.435982704 0 0 0 0 5153554.4355163574 -1850398.8565467596 0 -1850398.8565467596 46473966.992721021 0 0 0 0 -521317284.46292114 -124189722.51788592 0 -124189722.51788592 10958126.408061504 0 0 0 0 5054186.7445571199 249326.65484275669 0 249326.65484275669 -2633933.1102911676 0 0 0 0 -160408391.57899475 -124562967.33868027 0 -124562967.33868027 939477.13388442993 0 0 0 0 -34730069.948242188 -41130613.785297394 0 -41130613.785297394 -20099679.988552094 0 0 0 0 -91537170.063171387 -51084707.282423973 0 -51084707.282423973 5185470.7407274246 0 0 0 0 -67055425.199462891 -78837131.815278053 0 -78837131.815278053 -62558980.185775757 0 0 0 0 18240278.860931396 -101918409.58908844 0 -101918409.58908844 -160956189.05245972 0 0 0 0 -54747983.611213684 -120749269.40239644 0 -120749269.40239644 474956.22690105438 0 0 0 0 -13885400.55078125 -38843452.380959511 0 -38843452.380959511 -93061457.729728699 0 0 0 0 127502374.75036621 -74060347.132135391 0 -74060347.132135391 -69696969.374455124 0 0 0 0 -77479931.190582275 -99768487.150342941 0 -99768487.150342941 -70118155.32705754 0 0 0 0 187830796.13659668 106995521.54542351 0 106995521.54542351 -206601174.61502457 0 0 0 0 141732896.72970581 -87585478.878144741 0 -87585478.878144741 -63092808.15634346 0 0 0 0 462650371.08135986 -29384326.939738274 0 -29384326.939738274 -94506214.513926506 0 0 0 0 234418946.24014282 -194460885.40511179 0 -194460885.40511179 -146297662.94627666 0 0 0 0 299114807.86959839 -22328185.63751781 0 -22328185.63751781 -22329717.705652237 0 0 0 0 609754326.7557373 -41199820.560966015 0 -41199820.560966015 -76861307.072075844 0 0 0 0 659470880.47790527 166245405.88216591 0 166245405.88216591 33747538.668137074 0 0 0 0 700495674.62353516 83777679.517278671 0 83777679.517278671 -81652142.666648865 0 0 0 0 691522767.17510986 112425251.20835686 0 112425251.20835686 -104606264.22122431 0 0 0 0 816595705.36767578 179224269.28301525 0 179224269.28301525 -167781458.8880806 0 0 0 0 566861341.9979248 289231404.89349365 0 289231404.89349365 -26604943.187387466 0 0 0 0 563801430.96343994 108397675.98697948 0 108397675.98697948 -124682128.22268867 0 0 0 0 452557334.06219482 115946919.54433441 0 115946919.54433441 -56061073.237761497 0 0 0 0 833432320.78804207 446492212.61610192 0 446492212.61610192 -89368484.316068649 0 0 0 0 -358488403.06430054 13942017.25931263 0 13942017.25931263 88494403.278606415 0 0 0 0 1228141.416109398 -1772960.9138309881 0 -1772960.9138309881 -949731.42061328702 0 0 0 0 -124724572.64361572 42214627.501393318 0 42214627.501393318 -16669057.565360069 0 0 0 0 -85253749.499511719 38343916.988129139 0 38343916.988129139 -24936353.736651897 0 0 0 0 -148234801.1920166 41843509.893528938 0 41843509.893528938 -12691336.270280838 0 0 0 0 -217770224.76074219 -44507453.74546814 0 -44507453.74546814 -12188024.611527443 0 0 0 0 -128617569.39385986 -41112777.695846558 0 -41112777.695846558 -49032222.374524653 0 0 0 0 -242988299.90434265 55956420.993779421 0 55956420.993779421 17088760.656652451 0 0 0 0 -152162859.08209229 108633504.26261616 0 108633504.26261616 18557278.836751938 0 0 0 0 -297049950.49858093 190005691.17219496 0 190005691.17219496 182728515.30213928 0 0 0 0 -164435856.4621582 103881969.67029953 0 103881969.67029953 19601017.081150055 0 0 0 0 -283387382.32757568 141783505.89757347 0 141783505.89757347 42910660.786678314 0 0 0 0 502270945.18621826 524739609.45105171 0 524739609.45105171 186847347.53749466 0 0 0 0 168902135.97485352 368708594.14318848 0 368708594.14318848 362008566.00175667 0 0 0 0 366965624.49423218 132274575.636765 0 132274575.636765 -70971898.123374939 0 0 0 0 345918883.91760254 12565389.699323654 0 12565389.699323654 -153176189.7192831 0 0 0 0 332642610.53234863 208925450.53321266 0 208925450.53321266 80906080.568099976 0 0 0 0 557127335.12963867 236744625.26864624 0 236744625.26864624 -85393617.18239212 0 0 0 0 343771435.93592834 153203613.45080328 0 153203613.45080328 -30903794.769454956 0 0 0 0 147993099.09471893 -54010612.552923203 0 -54010612.552923203 -2441008.3325920105 0 0 0 0 69334387.439056039 16002475.914270442 0 16002475.914270442 -6272596.3869119529 0 0 0 0 290735724.8812561 -105370600.62708426 0 -105370600.62708426 -371312043.46983528 0 0 0 0 37727471.610900879 -90748503.463878632 0 -90748503.463878632 9283621.212703228 0 0 0 0 42749169.970458984 12342223.767147064 0 12342223.767147064 56105913.756267548 0 0 0 0 59137848.786727905 162110731.00935531 0 162110731.00935531 -64980682.721866608 0 0 0 0 -18647620.850097656 129249264.87040329 0 129249264.87040329 217443558.95194244 0 0 0 0 19618587.052597046 35988195.675506592 0 35988195.675506592 96057898.529685974 0 0 0 0 30762364.745025635 12477024.295765877 0 12477024.295765877 74467263.816848755 0 0 0 0 28263563.860683441 2061379.4090323448 0 2061379.4090323448 145032228.81150818 0 0 0 0 109725369.24429321 97468682.729768753 0 97468682.729768753 46372347.737228394 0 0 0 0 77784726.436828613 43534717.601028442 0 43534717.601028442 153780230.89659691 0 0 0 0 75457141.811279297 59003734.939697266 0 59003734.939697266 29690543.237285614 0 0 0 0 12971734.816589147 19216128.373470414 0 19216128.373470414 7998768.1109747179 0 0 0 0 83854240.826690674 71341940.774879456 0 71341940.774879456 52523918.564071655 0 0 0 0 79297269.932952881 50620660.370346069 0 50620660.370346069 41414079.512840271 0 0 0 0 75366404.620628357 48487335.388483047 0 48487335.388483047 2909617.239692688 0 0 0 0 111056232.15786743 57218503.967571259 0 57218503.967571259 -36886286.972419739 0 0 0 0 115277577.22810364 78469087.690378189 0 78469087.690378189 -19350898.398212433 0 0 0 0 71566917.94318521 20196757.967233934 0 20196757.967233934 -7280639.2721241619 0 0 0 0 938191625.59127808 443464123.59752464 0 443464123.59752464 379171891.0026474 0 0 0 0 1182420296.7019348 215289629.93775177 0 215289629.93775177 -29112282.721162319 0 0 0 0 1832521316.3588409 217012983.40836334 0 217012983.40836334 -268252473.61470032 0 0 0 0 1360990965.7297516 450221684.83502388 0 450221684.83502388 224148090.35916901 0 0 0 0 1357201150.9216919 392680828.01762009 0 392680828.01762009 221721669.75999904 0 0 0 0 2150459399.7293091 1201245886.0409012 0 1201245886.0409012 1000242781.279171 0 0 0 0 666989791.33422852 162967451.14396286 0 162967451.14396286 344087831.0049305 0 0 0 0 1007715608.1728058 634877377.63947105 0 634877377.63947105 981564851.74056244 0 0 0 0 822914809.97523499 -294594840.56307888 0 -294594840.56307888 892539561.88319397 0 0 0 0 661081501.49398804 12783498.545755386 0 12783498.545755386 316680427.41644287 0 0 0 0 1314152191.6129761 169576594.7718792 0 169576594.7718792 300178460.34961987 0 0 0 0 969389572.7746048 -341050230.62841892 0 -341050230.62841892 471927464.64143753 0 0 0 0 1849921114.8009033 -744299301.84268761 0 -744299301.84268761 1859001313.406311 0 0 0 0 441615182.40328979 1060176619.7595901 0 1060176619.7595901 1823381530.660862 0 0 0 0 4376606.7429830879 2179478.951501145 0 2179478.951501145 992188.72872749669 0 0 0 0 2533498422.9566956 776903792.43322086 0 776903792.43322086 264298524.12994385 0 0 0 0 150623850.57741928 251659836.0922823 0 251659836.0922823 329168960.6547699 0 0 0 0 48681179.699966431 83744332.992893219 0 83744332.992893219 251581275.83270264 0 0 0 0 1126355019.9628296 -927761230.10475159 0 -927761230.10475159 477274875.53994274 0 0 0 0 2787504084.107357 -23435835.47439909 0 -23435835.47439909 -157917714.18340683 0 0 0 0 1309817792.0845184 -272350309.16668129 0 -272350309.16668129 -178490092.88623834 0 0 0 0 416255308.65422058 -293948251.46941376 0 -293948251.46941376 244125791.24119186 0 0 0 0 1100046267.1127319 -35927205.573978424 0 -35927205.573978424 -101316915.2133255 0 0 0 0 70095619.229217529 -40843558.669197083 0 -40843558.669197083 57405412.623603821 0 0 0 0 125780417.59112549 21743852.298965454 0 21743852.298965454 71303944.588959694 0 0 0 0 192126714.23171997 -150365335.45993042 0 -150365335.45993042 115351750.80357933 0 0 0 0 -125294972.71917725 31024353.347625732 0 31024353.347625732 60139983.0337677 0 0 0 0 114415927.70993042 -15520377.621219635 0 -15520377.621219635 -87044743.328392029 0 0 0 0 18797243.34765625 -27524880.913444519 0 -27524880.913444519 -27346568.548583984 0 0 0 0 5529437.2476352751 -5975026.6693751216 0 -5975026.6693751216 5718194.3101162054 0 0 0 0 -117740506.43883324 -54655877.959596872 0 -54655877.959596872 22068020.033103943 0 0 0 0 20834555.185788468 -2699891.7430533012 0 -2699891.7430533012 157648.11777408514 0 0 0 0 -63516064.593017578 22919336.104858398 0 22919336.104858398 2907650.7821578979 0 0 0 0 -14953353.207519531 15659850.19203186 0 15659850.19203186 -29189085.80264473 0 0 0 0 167537386.94784546 57424679.408123016 0 57424679.408123016 -138170580.20892811 0 0 0 0 -60902335.736740112 39288545.957426071 0 39288545.957426071 88574644.871665955 0 0 0 0 12476363.044671476 3373460.8128701709 0 3373460.8128701709 1630993.5307685845 0 0 0 0 218794900.50479126 283770025.53875732 0 283770025.53875732 228745408.25129986 0 0 0 0 279315204.95586777 377221585.36038256 0 377221585.36038256 32122108.614578247 0 0 0 0 222481662.80984497 556308594.57020569 0 556308594.57020569 622081333.27560616 0 0 0 0 298367372.23175049 288960393.89369202 0 288960393.89369202 136352601.89304352 0 0 0 0 264253740.05322266 250256199.44204712 0 250256199.44204712 30788505.057243347 0 0 0 0 168152597.56298828 42041326.314857483 0 42041326.314857483 -107266604.39854813 0 0 0 0 43605220.571533203 -24735779.000492096 0 -24735779.000492096 -94472611.444721222 0 0 0 0 -4615640.0939941406 32837908.138980865 0 32837908.138980865 55894519.786880493 0 0 0 0 199034656.21586609 53769489.970176697 0 53769489.970176697 -199962610.05005646 0 0 0 0 170657569.14299011 -37345873.912359238 0 -37345873.912359238 -99282829.556015015 0 0 0 0 23077493.558624268 -31676367.360614777 0 -31676367.360614777 -27029928.40114212 0 0 0 0 35916622.765151978 -45112203.09485817 0 -45112203.09485817 17837345.930801392 0 0 0 0 26982950.240782168 -18595433.792193837 0 -18595433.792193837 3558310.9270423949 0 0 0 0 -86331874.634506226 -202110569.32427979 0 -202110569.32427979 -272389295.1485405 0 0 0 0 4479095.616059728 -3530789.4993342645 0 -3530789.4993342645 -2772332.9648574181 0 0 0 0 -52135600.127258301 -68338816.186218262 0 -68338816.186218262 27891878.121101379 0 0 0 0 -8110709.624786377 -123574771.96439362 0 -123574771.96439362 -133284972.11573029 0 0 0 0 154208006.61703491 159884949.80587769 0 159884949.80587769 -171977382.73704529 0 0 0 0 31576343.882080078 24470462.437309265 0 24470462.437309265 -92398981.554206848 0 0 0 0 7372621.1756208427 -2130367.5012052357 0 -2130367.5012052357 -3057479.7504844442 0 0 0 0 128396645.35607147 -198032135.77883625 0 -198032135.77883625 -386113610.10688019 0 0 0 0 315391256.61772919 58645967.65223074 0 58645967.65223074 -237661781.26091766 0 0 0 0 102925594.84484863 -65787366.646360397 0 -65787366.646360397 -70473410.72379303 0 0 0 0 104262894.30097961 -61363544.705467224 0 -61363544.705467224 -397630974.70800018 0 0 0 0 236343783.73608398 -317793790.8069725 0 -317793790.8069725 -60375029.224193573 0 0 0 0 33639072.729766846 -16767861.514072418 0 -16767861.514072418 2199275.3818588257 0 0 0 0 64842181.43182373 13402097.166389465 0 13402097.166389465 -9773466.9492721558 0 0 0 0 34369377.802575335 14601063.343350021 0 14601063.343350021 -8400260.6493769921 0 0 0 0 46367700.850021362 89934428.010568619 0 89934428.010568619 -66907643.720489502 0 0 0 0 46031584.466674805 7676998.8551940918 0 7676998.8551940918 17343656.141616821 0 0 0 0 70707444.182189941 -11806084.359375 0 -11806084.359375 -4571227.1010742188 0 0 0 0 72496390.780487061 -14891244.309432983 0 -14891244.309432983 -763614.11777496338 0 0 0 0 70627137.96270752 -18901198.122932434 0 -18901198.122932434 18035922.876609802 0 0 0 0 93997338.272338867 -25980007.856750488 0 -25980007.856750488 -9323600.4131546021 0 0 0 0 86371466.539489746 -35062856.63961792 0 -35062856.63961792 32486278.393066406 0 0 0 0 1514844.4018448442 -4565266.9354488645 0 -4565266.9354488645 -373210.43240959942 0 0 0 0 69140370.956176758 27470574.910446167 0 27470574.910446167 15577724.282447815 0 0 0 0 34180903.573730469 9832941.0654144287 0 9832941.0654144287 34609390.020965576 0 0 0 0 52416517.014831543 -50699955.785556793 0 -50699955.785556793 11309061.961425781 0 0 0 0 28734749.278393306 -14184567.546181768 0 -14184567.546181768 1383314.4788921736 0 0 0 0 143729673.86566162 21505694.763412476 0 21505694.763412476 -5841670.1590881348 0 0 0 0 -2116414.3632853925 -200702.2723107487 0 -200702.2723107487 1476796.9936179742 0 0 0 0 122697791.76501465 -19346363.104476929 0 -19346363.104476929 793379.74096679688 0 0 0 0 105069729.87585449 18897170.003448486 0 18897170.003448486 10712237.735900879 0 0 0 0 69171487.47088623 -376113.74192810059 0 -376113.74192810059 29482416.917526245 0 0 0 0 81648567.512634277 -11807166.762390137 0 -11807166.762390137 3259925.3514404297 0 0 0 0 88854109.140380859 -27596508.488803864 0 -27596508.488803864 21776858.796661377 0 0 0 0 89108132.996902466 -14478126.103878021 0 -14478126.103878021 2189121.1156005859 0 0 0 0 85858177.578369141 -22908444.337379456 0 -22908444.337379456 -11024050.20085144 0 0 0 0 86569402.130722046 -23676894.203102112 0 -23676894.203102112 -44125867.593093872 0 0 0 0 31739560.287744522 -57430647.654790878 0 -57430647.654790878 -24120933.607406616 0 0 0 0 17663505.117272504 -7563967.60254623 0 -7563967.60254623 -2133806.6727007516 0 0 0 0 86199564.449279785 -12381797.993667603 0 -12381797.993667603 -24501933.108757019 0 0 0 0 82381481.431274414 -24446027.637023926 0 -24446027.637023926 -23416640.857452393 0 0 0 0 76827033.738769531 -13366098.188446045 0 -13366098.188446045 -28055191.182186127 0 0 0 0 28674319.548858643 -14228026.754524231 0 -14228026.754524231 -8096041.2885284424 0 0 0 0 62071840.813354492 14813585.078475952 0 14813585.078475952 -3301798.2661361694 0 0 0 0 64929700.444641113 -30212665.726081848 0 -30212665.726081848 -42188336.807861328 0 0 0 0 76858068.270690918 -79716068.800941467 0 -79716068.800941467 -38889605.868652344 0 0 0 0 77394157.466552734 -28234558.66558075 0 -28234558.66558075 -42785491.670608521 0 0 0 0 65307498.096984863 -44340081.526252747 0 -44340081.526252747 -62499591.634796143 0 0 0 0 100795224.95916748 -13786439.876586914 0 -13786439.876586914 -73856761.947597668 0 0 0 0 88993325.869033813 -16921973.191076279 0 -16921973.191076279 -45814923.767211914 0 0 0 0 85028386.841125488 -26809702.674339294 0 -26809702.674339294 -65951253.586120605 0 0 0 0 80748085.706390381 170624.72833251953 0 170624.72833251953 -32667748.499137878 0 0 0 0 101279156.04150391 -1865250.6932563782 0 -1865250.6932563782 -65340843.098526001 0 0 0 0 79981566.14151001 -1483022.4711036682 0 -1483022.4711036682 -2819324.6594161987 0 0 0 0 83552293.951660156 -20834393.182167053 0 -20834393.182167053 -11475903.627849579 0 0 0 0 82362844.433349609 -17275776.510322571 0 -17275776.510322571 -21406121.09161377 0 0 0 0 130784643.81518555 12908861.618499756 0 12908861.618499756 -87298470.640792847 0 0 0 0 167812884.31268311 15331048.773468018 0 15331048.773468018 -93668351.800834656 0 0 0 0 139385566.65066528 42548446.119522095 0 42548446.119522095 -41864486.052581787 0 0 0 0 80765517.563061535 32448027.474324662 0 32448027.474324662 -12040101.752716064 0 0 0 0 127414210.04937744 17610062.272384644 0 17610062.272384644 -86764092.120010376 0 0 0 0 117487131.11303711 40588877.654067993 0 40588877.654067993 -99280790.879627228 0 0 0 0 66998912.879852295 42627178.228824615 0 42627178.228824615 -38531218.911697388 0 0 0 0 128339813.52122498 13896064.844270706 0 13896064.844270706 -84337196.593811035 0 0 0 0 112314970.92773438 7022032.2292785645 0 7022032.2292785645 -64495590.109025002 0 0 0 0 114776089.49200439 -4608208.7808990479 0 -4608208.7808990479 -73860516.783615127 0 0 0 0 116296788.0425415 -10526799.471450806 0 -10526799.471450806 -88422602.41506958 0 0 0 0 116331238.18487549 -12707533.932983398 0 -12707533.932983398 -134516864.76039124 0 0 0 0 96468451.461013794 -96791941.012466431 0 -96791941.012466431 -27047489.512054443 0 0 0 0 101106748.86016846 -48905574.074821472 0 -48905574.074821472 -82545874.884735107 0 0 0 0 112292210.72314453 -70821332.449127197 0 -70821332.449127197 -49077902.853858948 0 0 0 0 99235253.64050293 4701706.3394393921 0 4701706.3394393921 -73486951.736450195 0 0 0 0 92715255.40838623 19885584.061462402 0 19885584.061462402 -95813330.882965088 0 0 0 0 134781110.70959473 4610877.7401580811 0 4610877.7401580811 -104552269.09178162 0 0 0 0 138342819.53274536 -32747757.479972839 0 -32747757.479972839 -94605496.300933838 0 0 0 0 126159353.58276367 -7298949.156578064 0 -7298949.156578064 -70981709.541824341 0 0 0 0 55058097.635253906 -21409881.258232117 0 -21409881.258232117 -47472937.67376709 0 0 0 0 228552346.80828857 41274102.769325256 0 41274102.769325256 -70246756.856918335 0 0 0 0 576863091.27175903 447373534.15797424 0 447373534.15797424 104690861.9497757 0 0 0 0 190902352.82556152 112751570.3914566 0 112751570.3914566 15559456.724136353 0 0 0 0 150369261.54440308 54591799.600997925 0 54591799.600997925 -51330726.851135254 0 0 0 0 102402131.34259033 72479975.656593323 0 72479975.656593323 55195406.037658691 0 0 0 0 4659494.1778839231 319626.83861022443 0 319626.83861022443 -9094980.3373359777 0 0 0 0 16104145.789266407 -16776287.938389692 0 -16776287.938389692 -44612234.203445435 0 0 0 0 139652106.96569824 124236856.40164185 0 124236856.40164185 63819977.973861694 0 0 0 0 20849273.201632753 -5979627.4534095377 0 -5979627.4534095377 -11925111.552078903 0 0 0 0 84411531.03314209 -6734589.5635299683 0 -6734589.5635299683 -133782701.96754456 0 0 0 0 -20993329.838592529 13574901.149230957 0 13574901.149230957 -41451242.82177496 0 0 0 0 69883095.911641523 -5121800.959522387 0 -5121800.959522387 -100140750.88395691 0 0 0 0 73281519.769165039 34135319.044879913 0 34135319.044879913 -122818660.75508118 0 0 0 0 61641510.147613525 4448427.479801178 0 4448427.479801178 -48588234.625808716 0 0 0 0 112614843.37966919 -58964616.13217926 0 -58964616.13217926 -82904513.937181473 0 0 0 0 313709478.77099609 -438471224.85825348 0 -438471224.85825348 -430397559.5113678 0 0 0 0 317636421.50427246 -294437280.92015076 0 -294437280.92015076 123486357.67505264 0 0 0 0 -49419841.876831055 -44739382.144348145 0 -44739382.144348145 21487908.573459625 0 0 0 0 571928857.2456665 292555259.80477142 0 292555259.80477142 473305064.50251007 0 0 0 0 1464419.3372058421 82386.639079302549 0 82386.639079302549 -2785163.3824994639 0 0 0 0 214839779.2802124 -187700784.14130783 0 -187700784.14130783 -418765.04678344727 0 0 0 0 341049683.27972412 -271912458.69223595 0 -271912458.69223595 -70432763.291915894 0 0 0 0 -984275764.81262207 -838072829.72634125 0 -838072829.72634125 -7113155.4180603027 0 0 0 0 446362329.87316895 403053316.2258606 0 403053316.2258606 383573684.92875671 0 0 0 0 666698802.87649536 1067893472.1386032 0 1067893472.1386032 439259783.75974274 0 0 0 0 2970964.4538176209 -315753.60795026273 0 -315753.60795026273 -5723588.8399579078 0 0 0 0 114926203.20027161 -843107178.49554634 0 -843107178.49554634 -888934832.28553009 0 0 0 0 2583801403.5575256 346476166.47434616 0 346476166.47434616 -1630869759.1012726 0 0 0 0 4397027.4592353255 -3685965.5949746966 0 -3685965.5949746966 -776414.93457427248 0 0 0 0 65809549.663269043 -280804598.92271042 0 -280804598.92271042 504926298.27066803 0 0 0 0 377123642.519104 -775485091.20488739 0 -775485091.20488739 340740649.51312447 0 0 0 0 -613493289.55293465 -366953128.11611938 0 -366953128.11611938 135292003.74443054 0 0 0 0 131315193.16946411 981434271.50978088 0 981434271.50978088 695754163.92593575 0 0 0 0 -713555273.85054779 -933787040.43635845 0 -933787040.43635845 -810180139.30444336 0 0 0 0 -1603923979.5908813 -612687608.57402039 0 -612687608.57402039 2208852169.8351517 0 0 0 0 4259175.7789592147 -8813277.5779789835 0 -8813277.5779789835 11972821.222373612 0 0 0 0 102870472.80958557 -71037787.619255066 0 -71037787.619255066 -74130327.422348022 0 0 0 0 1387681.6407737732 16847963.523350239 0 16847963.523350239 15282680.178764343 0 0 0 0 152354459.08776093 -264814685.47048378 0 -264814685.47048378 -430214371.25036621 0 0 0 0 -254418556.23886108 130013723.84268951 0 130013723.84268951 -177485197.58834839 0 0 0 0 -2620972.4590900242 -578003.83025251329 0 -578003.83025251329 939064.52752231807 0 0 0 0 -61252775.239349365 -3890843.7580795288 0 -3890843.7580795288 43625426.875534058 0 0 0 0 11945539.425224304 17879569.942016602 0 17879569.942016602 2765318.3896942139 0 0 0 0 13754589.291316591 -7845020.3133631721 0 -7845020.3133631721 1820763.6915410161 0 0 0 0 57147344.768371582 -217219108.36283493 0 -217219108.36283493 -12297683.686920166 0 0 0 0 5387772.261425823 -4794487.8740768284 0 -4794487.8740768284 3872137.0013617165 0 0 0 0 6405871.0367889404 -36693506.23365593 0 -36693506.23365593 -19904853.437339783 0 0 0 0 22313941.007015228 613349.73503160477 0 613349.73503160477 77491884.598831177 0 0 0 0 556700089.03059864 -8810366.6653156877 0 -8810366.6653156877 -69215439.812099457 0 0 0 0 320719697.2792511 123371139.57965851 0 123371139.57965851 -55159928.835723877 0 0 0 0 1049173590.9971924 7697201.0820388794 0 7697201.0820388794 -125318380.6272049 0 0 0 0 559102278.64459229 -66981215.652637482 0 -66981215.652637482 -25325268.459403992 0 0 0 0 1293714835.3439941 179975863.31155968 0 179975863.31155968 -177594953.91846466 0 0 0 0 1369291172.5216675 403704402.44818115 0 403704402.44818115 57756962.547931671 0 0 0 0 862810438.72009277 127371253.52698708 0 127371253.52698708 -59713171.672750473 0 0 0 0 -4201754.5880317688 -26111233.68007803 0 -26111233.68007803 -35657953.15259552 0 0 0 0 852271474.21643066 85126676.38658905 0 85126676.38658905 -92287820.372936249 0 0 0 0 4244943.6279459372 -3137258.4602978677 0 -3137258.4602978677 2169312.0665041097 0 0 0 0 -5984926.7400512695 44539883.228816986 0 44539883.228816986 20460341.912403107 0 0 0 0 1231619.9903748557 -5180696.0505486876 0 -5180696.0505486876 9196977.9725298956 0 0 0 0 48647374.322967529 -34326469.207038879 0 -34326469.207038879 66376061.092254639 0 0 0 0 2182170566.3692017 6176388.6157989502 0 6176388.6157989502 -141937886.08465958 0 0 0 0 30067488.17424202 -132966769.30585098 0 -132966769.30585098 190470536.75614166 0 0 0 0 2573756746.5953979 628051865.03394508 0 628051865.03394508 4414939.3867988586 0 0 0 0 1781200.458129406 -1060847.242326811 0 -1060847.242326811 636926.42321962118 0 0 0 0 -21923559.602945328 -56341329.921677351 0 -56341329.921677351 151367912.06549835 0 0 0 0 1208938674.996254 168117780.97240067 0 168117780.97240067 -9612656.4899368286 0 0 0 0 1764495321.0370789 448770011.71900558 0 448770011.71900558 166312982.77742577 0 0 0 0 1507273079.9022522 -265184743.79726601 0 -265184743.79726601 493784415.86322784 0 0 0 0 901685323.33262634 -3938467.0591125488 0 -3938467.0591125488 42067801.966337204 0 0 0 0 1182357963.555542 -140247316.33663177 0 -140247316.33663177 114371850.37378693 0 0 0 0 1075370998.9736023 -40709758.812465668 0 -40709758.812465668 -87618631.756594896 0 0 0 0 978281438.11425781 116394851.25691795 0 116394851.25691795 -97390055.306144714 0 0 0 0 1384398429.8302002 45619033.546913147 0 45619033.546913147 -272958442.75016785 0 0 0 0 1686931937.1297073 -21946154.074949265 0 -21946154.074949265 -257953643.36283875 0 0 0 0 1424019675.7123108 80768125.765499115 0 80768125.765499115 -309790411.83372307 0 0 0 0 1403817776.4532089 53641207.505823135 0 53641207.505823135 -275583718.45005035 0 0 0 0 1090872420.3735046 259031703.48829269 0 259031703.48829269 -25309176.007602215 0 0 0 0 1448147055.6797333 160994531.35192394 0 160994531.35192394 -221564938.71347046 0 0 0 0 1065669221.3241272 137184413.91452026 0 137184413.91452026 -53480796.27230072 0 0 0 0 1302766648.9560089 108775858.87570763 0 108775858.87570763 -221934418.3914566 0 0 0 0 2346382890.7470398 -941150223.30043221 0 -941150223.30043221 -72222117.752441406 0 0 0 0 1587683662.9550476 -874399023.2311573 0 -874399023.2311573 272325701.92453194 0 0 0 0 539167980.46286011 -255523018.74032402 0 -255523018.74032402 -103555648.41904831 0 0 0 0 1763432457.86026 -101351840.28003311 0 -101351840.28003311 -272535044.83880043 0 0 0 0 795517719.20743561 159601358.72250509 0 159601358.72250509 54579233.003475189 0 0 0 0 21756783.042516991 553271.02747374307 0 553271.02747374307 -6146673.4917198829 0 0 0 0 705660566.95789623 238391793.0529995 0 238391793.0529995 -550418414.61379242 0 0 0 0 2675823920.6195297 -1925769257.5888233 0 -1925769257.5888233 826609110.67638779 0 0 0 0 582862266.92169189 -858280478.85497665 0 -858280478.85497665 324754954.58263016 0 0 0 0 408189282.9669342 1911517221.7231026 0 1911517221.7231026 -653240330.67168427 0 0 0 0 9294840.9478721172 -299076.40391076636 0 -299076.40391076636 -2515905.4765880145 0 0 0 0 867907210.74139404 718153804.04402542 0 718153804.04402542 -483534362.98063469 0 0 0 0 2018766038.0834093 1156530349.4470456 0 1156530349.4470456 -381461435.46855927 0 0 0 0 1034424843.6668396 166146512.29331684 0 166146512.29331684 258861840.25527191 0 0 0 0 1716890965.5108948 -25227233.193252563 0 -25227233.193252563 240790364.99755096 0 0 0 0 -525407049.33175659 204605422.78655624 0 204605422.78655624 434768624.15243149 0 0 0 0 530442852.84065247 -989279496.19423103 0 -989279496.19423103 -517897444.28695679 0 0 0 0 1387707586.4860687 906550372.9950676 0 906550372.9950676 -2231108184.5383911 0 0 0 0 -36122.750898361206 -1714994.3647425473 0 -1714994.3647425473 3879112.7291193604 0 0 0 0 1810592658.666748 -54441523.337295532 0 -54441523.337295532 -95659190.885173798 0 0 0 0 -368596922.96133423 -34546337.287605286 0 -34546337.287605286 46349161.440073013 0 0 0 0 -172955994.10279846 84362756.936672211 0 84362756.936672211 -82374906.92943573 0 0 0 0 -463438205.68730164 -436062998.07640457 0 -436062998.07640457 -399034093.42990875 0 0 0 0 -292505437.91558838 -764710970.87963867 0 -764710970.87963867 178293468.6934824 0 0 0 0 26215137.778965831 2210398.7425442487 0 2210398.7425442487 -8870056.2761156168 0 0 0 0 24563447.900421143 -371186759.61059952 0 -371186759.61059952 -1178408623.3928146 0 0 0 0 -204765376.25152588 314892670.8250103 0 314892670.8250103 115095478.05194092 0 0 0 0 783026430.87268066 116955096.25532532 0 116955096.25532532 20146723.188231468 0 0 0 0 4123717.9726587906 10093108.173009217 0 10093108.173009217 -4534724.8794399407 0 0 0 0 -183537710.85488129 340335923.66896176 0 340335923.66896176 -223301793.73603821 0 0 0 0 -606605377.02600098 135331010.95801163 0 135331010.95801163 88465967.260484695 0 0 0 0 122921879.50978088 238178686.41799188 0 238178686.41799188 78551290.655258179 0 0 0 0 15910668.600355968 2029561.3345766626 0 2029561.3345766626 -6122199.1181817614 0 0 0 0 4482999.5885314941 50330931.513797283 0 50330931.513797283 272624333.08705568 0 0 0 0 290574824.00546265 650206070.6755724 0 650206070.6755724 1578310019.1661301 0 0 0 0 6119257.4899659008 -39995.052196320146 0 -39995.052196320146 -2324757.688938166 0 0 0 0 422274809.38521194 -284390530.32977843 0 -284390530.32977843 89822685.572971344 0 0 0 0 369805523.17840576 -108487421.42707825 0 -108487421.42707825 27808324.753837585 0 0 0 0 -234020625.52848816 -457863186.43129539 0 -457863186.43129539 -398170017.95764923 0 0 0 0 3392555.4377462044 7975881.2623624206 0 7975881.2623624206 -1737257.7318453435 0 0 0 0 292487285.14849854 -76680797.39484024 0 -76680797.39484024 14835462.757505417 0 0 0 0 -1012914665.9670258 -979148326.37668991 0 -979148326.37668991 -711446111.01898193 0 0 0 0 -195055.65789260715 3648211.3264549002 0 3648211.3264549002 408773.14219161868 0 0 0 0 -244769763.95179749 99893432.305679321 0 99893432.305679321 -1109563513.0613403 0 0 0 0 647095676.27058411 -891212837.40646553 0 -891212837.40646553 -462262173.13638306 0 0 0 0 789922876.4526062 -266460035.60984039 0 -266460035.60984039 -1358950634.0103874 0 0 0 0 763231944.79597473 377213281.09794331 0 377213281.09794331 -585493438.63019562 0 0 0 0 612352950.69515991 122995110.24684238 0 122995110.24684238 -460379216.01973343 0 0 0 0 693159571.91473389 -51210965.420518875 0 -51210965.420518875 -124902536.8574028 0 0 0 0 649625596.34524536 136272918.28982162 0 136272918.28982162 -471637391.55107498 0 0 0 0 476059680.69329834 -22314107.198596954 0 -22314107.198596954 -459070892.30442667 0 0 0 0 763517913.26119232 -264159822.2433176 0 -264159822.2433176 -409130277.65397644 0 0 0 0 352731252.78431702 -33355450.176036835 0 -33355450.176036835 -133540939.35814667 0 0 0 0 38979732.842391968 199000870.03750038 0 199000870.03750038 -165321203.94598389 0 0 0 0 553752817.08241272 268356996.40525532 0 268356996.40525532 -159597744.02827454 0 0 0 0 -640132624.08865356 512995229.29540634 0 512995229.29540634 -78556544.398164749 0 0 0 0 638891336.02288055 847665372.09605885 0 847665372.09605885 -327052874.32926369 0 0 0 0 1480469098.7801208 -309040632.85217667 0 -309040632.85217667 -273517864.02402592 0 0 0 0 2032535784.8069153 683809241.6914854 0 683809241.6914854 -334963008.90547752 0 0 0 0 1675917096.2216187 -1020808058.1048222 0 -1020808058.1048222 501408459.97085762 0 0 0 0 -1784864439.1461487 218439872.38186932 0 218439872.38186932 1560759482.7425461 0 0 0 0 1319658971.6098022 -786975437.6124711 0 -786975437.6124711 -224328292.00507927 0 0 0 0 2149242012.2061691 1047470322.1029204 0 1047470322.1029204 -73781868.575719833 0 0 0 0 904042714.08926392 305530526.44962263 0 305530526.44962263 -506796528.11023521 0 0 0 0 496460246.12367249 242524676.54397792 0 242524676.54397792 -387913530.68209839 0 0 0 0 -1399714239.6498566 -486043501.83540654 0 -486043501.83540654 27773469.360870838 0 0 0 0 -767376710.8921814 -137977261.82609749 0 -137977261.82609749 -238378148.43054819 0 0 0 0 529178025.83258438 146638258.79708728 0 146638258.79708728 -448621746.85366273 0 0 0 0 -714836183.56214905 653095511.05802548 0 653095511.05802548 -887782.65423392958 0 0 0 0 -1573416333.5113373 263162119.33604032 0 263162119.33604032 219483851.99317315 0 0 0 0 556111536.15097046 835491948.61051071 0 835491948.61051071 1683809.7765291585 0 0 0 0 232134623.69944763 91441157.246781588 0 91441157.246781588 -410195676.37473845 0 0 0 0 783612828.2432251 386600770.91895819 0 386600770.91895819 -487755954.19495291 0 0 0 0 1149647671.2600632 -658300914.48278713 0 -658300914.48278713 252153215.52385879 0 0 0 0 2756737.9944366217 12815.615536518395 0 12815.615536518395 -1463682.7401323216 0 0 0 0 1694215893.653656 137303540.79347736 0 137303540.79347736 -543421207.22960699 0 0 0 0 2297665.6659545898 1125143.9489453584 0 1125143.9489453584 -4179.5316156250137 0 0 0 0 2729912.2700805664 938410.0666500947 0 938410.0666500947 -991577.53827891662 0 0 0 0 236672890.35671997 -39911541.840363979 0 -39911541.840363979 -118857361.80920506 0 0 0 0 541124392.08813477 7669868.5316267014 0 7669868.5316267014 -114597228.40180421 0 0 0 0 224086100.6473999 224365288.68067527 0 224365288.68067527 32130217.969041824 0 0 0 0 821976135.22229004 330537917.24171448 0 330537917.24171448 -417751354.28056812 0 0 0 0 969636486.59454346 568944489.81334257 0 568944489.81334257 -290300267.29799891 0 0 0 0 100555955.2579422 99447948.841966391 0 99447948.841966391 101602821.35851097 0 0 0 0 141741885.58592224 655414351.88226986 0 655414351.88226986 398380427.75125694 0 0 0 0 -269033484.36320496 34600531.894684315 0 34600531.894684315 44089392.863851547 0 0 0 0 -138585.59501898289 1043214.6016267389 0 1043214.6016267389 397971.20754321013 0 0 0 0 672328877.08029175 353835577.57474184 0 353835577.57474184 -10129894.924927235 0 0 0 0 -169897310.63284302 327759057.86735535 0 327759057.86735535 -178997247.6333313 0 0 0 0 -166247338.20335388 284739632.64806294 0 284739632.64806294 301112304.62731171 0 0 0 0 488551697.97009277 48938011.585536957 0 48938011.585536957 -6769392.99883461 0 0 0 0 928608186.16186523 -68263768.169698715 0 -68263768.169698715 424502325.88711166 0 0 0 0 769501871.94949341 583192760.92262697 0 583192760.92262697 510105134.16753006 0 0 0 0 -458802929.81115723 -439729756.96253586 0 -439729756.96253586 -366897910.3298049 0 0 0 0 -376938568.0145874 165043095.57117081 0 165043095.57117081 623659663.03011703 0 0 0 0 -1448674491.7061157 279465628.04522085 0 279465628.04522085 892062594.64289856 0 0 0 0 -285017997.6784668 -227789459.01253128 0 -227789459.01253128 242618187.20957375 0 0 0 0 76880877.572967529 500073961.15745163 0 500073961.15745163 703876480.51410294 0 0 0 0 313995404.15081787 -200108226.25105381 0 -200108226.25105381 343735525.79354715 0 0 0 0 -341340635.60731506 776340044.86113095 0 776340044.86113095 -109892155.21444702 0 0 0 0 471882220.8550415 149495596.79086995 0 149495596.79086995 262728911.89279556 0 0 0 0 -1632841474.5963745 -637066569.50698805 0 -637066569.50698805 607598425.7871027 0 0 0 0 386386.90220354497 2586331.0242088139 0 2586331.0242088139 673823.55013899971 0 0 0 0 220888.63000624627 3767521.4644157887 0 3767521.4644157887 -501962.15439101029 0 0 0 0 881986825.21963501 462820278.90459251 0 462820278.90459251 -247762487.83248138 0 0 0 0 -4305010.1466064453 -34833966.544925094 0 -34833966.544925094 22359308.356429577 0 0 0 0 243990630.76633453 -10670999.926482737 0 -10670999.926482737 -2046474.4954485893 0 0 0 0 4393016.9889760613 1672207.8223702908 0 1672207.8223702908 -759478.3981974551 0 0 0 0 3990130.6938934326 2109872.9232608397 0 2109872.9232608397 -688368.71803734859 0 0 0 0 3746955.0687866211 1727249.2630494654 0 1727249.2630494654 -1138050.0720646181 0 0 0 0 3368818.4649047852 1737892.1848131432 0 1737892.1848131432 1734.4970903382859 0 0 0 0 479065861.13196182 -1105932240.3859468 0 -1105932240.3859468 1031366411.1496565 0 0 0 0 2950125.8815458268 2353017.0672873706 0 2353017.0672873706 1130389.2931897258 0 0 0 0 553261115.02294922 -606763136.37754941 0 -606763136.37754941 334411403.40609753 0 0 0 0 15892415.171325684 810714946.51677012 0 810714946.51677012 -534895008.67834175 0 0 0 0 5966742.9313019812 767549.06215346605 0 767549.06215346605 -1627272.685728126 0 0 0 0 -944677884.96398926 -955436181.42025805 0 -955436181.42025805 -139265098.21486047 0 0 0 0 -199734436.49978638 290165086.37249547 0 290165086.37249547 1815240456.464016 0 0 0 0 6797975639.7070312 -1236168876.5706701 0 -1236168876.5706701 -1103626156.6630354 0 0 0 0 -590209147.86453247 791276294.83318305 0 791276294.83318305 -33314322.783784717 0 0 0 0 2899709098.6534424 359923022.64731807 0 359923022.64731807 -236110655.90179104 0 0 0 0 1249994990.881897 131603464.61291914 0 131603464.61291914 -1693068.3366455401 0 0 0 0 1090084008.765625 600079396.13112342 0 600079396.13112342 168839195.3671183 0 0 0 0 10416106.118682861 249283910.48729733 0 249283910.48729733 -123897492.08392927 0 0 0 0 188389932.52627563 116749168.72132878 0 116749168.72132878 -33341185.550886445 0 0 0 0 532798328.80352783 965079992.78304243 0 965079992.78304243 -40535613.723141596 0 0 0 0 -203140730.90484619 65659430.295299858 0 65659430.295299858 -245481251.27282608 0 0 0 0 -12089220.02935791 189210066.29967692 0 189210066.29967692 -415522200.67081392 0 0 0 0 6739979160.3046875 -2034022286.8087444 0 -2034022286.8087444 -139115223.30523872 0 0 0 0 5189068.487032108 3999180.9650603086 0 3999180.9650603086 1335756.0273354694 0 0 0 0 3713532.2723837942 137868.35914943367 0 137868.35914943367 -1231848.046346985 0 0 0 0 736161135.31289673 446060697.61677504 0 446060697.61677504 699311649.8163681 0 0 0 0 6314899356.425293 -719841563.35476303 0 -719841563.35476303 -924897628.72002792 0 0 0 0 2393547711.9061279 1116798692.1679897 0 1116798692.1679897 497424304.34538794 0 0 0 0 4793471919.6960449 -1648749374.4362469 0 -1648749374.4362469 1930982325.8400764 0 0 0 0 3488471369.1654053 -2225909847.7954578 0 -2225909847.7954578 1736367036.5098047 0 0 0 0 4879807184.7554626 -549191263.05624104 0 -549191263.05624104 -145371490.14874649 0 0 0 0 1975584835.0444336 -150124557.72550774 0 -150124557.72550774 -5111584.4423317909 0 0 0 0 1981908189.999939 -134587769.27020168 0 -134587769.27020168 30139245.599243164 0 0 0 0 3068330225.921936 -1308501196.6143284 0 -1308501196.6143284 85262015.700263977 0 0 0 0 -142616586.94821167 286019762.27811056 0 286019762.27811056 -287513721.02053058 0 0 0 0 2991073234.8349304 -1276130610.9505396 0 -1276130610.9505396 192108978.99371338 0 0 0 0 12166882.620692387 10596399.441127174 0 10596399.441127174 5811705.2748725545 0 0 0 0 -338812940.90204239 -188326666.98791927 0 -188326666.98791927 -52744714.025400162 0 0 0 0 -316778758.48925781 -163121480.93401575 0 -163121480.93401575 -76996224.250917435 0 0 0 0 2220855.5392554924 -2130135.4709358886 0 -2130135.4709358886 2313936.8044420509 0 0 0 0 955850468.3834486 629779394.46197677 0 629779394.46197677 207777039.30122805 0 0 0 0 953078976.09783936 346316896.41806257 0 346316896.41806257 142086506.91861701 0 0 0 0 -330201885.8314209 -141885247.32684708 0 -141885247.32684708 -109798503.3210144 0 0 0 0 719964086.77386475 542198525.17809439 0 542198525.17809439 217300168.81281975 0 0 0 0 668240244.39440918 497058868.74909723 0 497058868.74909723 233675137.67258716 0 0 0 0 503589114.01934814 420065465.46410227 0 420065465.46410227 250743493.14825863 0 0 0 0 515980831.91226196 405795548.8129527 0 405795548.8129527 209180830.48297536 0 0 0 0 322557506.35339355 376093004.28960633 0 376093004.28960633 294508236.04162025 0 0 0 0 295330885.14896774 167686069.42159775 0 167686069.42159775 138970411.0749324 0 0 0 0 194259227.51794434 270158109.91342366 0 270158109.91342366 293792461.39632303 0 0 0 0 553737438.35424805 268369423.68595031 0 268369423.68595031 230271532.00825334 0 0 0 0 595499448.68908691 377064914.43361592 0 377064914.43361592 207050663.24679518 0 0 0 0 529486334.52819824 308732254.58195275 0 308732254.58195275 319542683.53591275 0 0 0 0 452768243.8583374 384190695.2215575 0 384190695.2215575 316054403.47793365 0 0 0 0 619236734.81958008 393433085.80764949 0 393433085.80764949 190546408.81687224 0 0 0 0 431418472.19973755 259700851.84132022 0 259700851.84132022 193641994.47871017 0 0 0 0 356713872.11346436 304577662.21357536 0 304577662.21357536 226301139.04718661 0 0 0 0 -133631810.43074799 -42839460.444743156 0 -42839460.444743156 77592595.412935257 0 0 0 0 -148618236.49198914 -27218408.790367603 0 -27218408.790367603 63544109.725250244 0 0 0 0 2126395.6542476714 -2909627.1552230865 0 -2909627.1552230865 6786335.3649163349 0 0 0 0 692206566.36062622 242413813.43946582 0 242413813.43946582 288401946.8736341 0 0 0 0 -346350726.03826904 -121534935.50084305 0 -121534935.50084305 -99931097.197166443 0 0 0 0 -256400502.45617676 -162935473.85199738 0 -162935473.85199738 -107117885.61577511 0 0 0 0 278427.98449070752 336726.18161245808 0 336726.18161245808 -351532.57731063897 0 0 0 0 -284246587.81915283 -107393776.56840801 0 -107393776.56840801 -125653854.16693115 0 0 0 0 101820578.16540527 117282558.97877502 0 117282558.97877502 151449379.36973953 0 0 0 0 -57149238.136535645 72282006.206813812 0 72282006.206813812 139010108.79473305 0 0 0 0 -2845073.183013916 9623692.1484165192 0 9623692.1484165192 96965734.282295227 0 0 0 0 2319101.7838134766 57893809.382452011 0 57893809.382452011 154914334.98736191 0 0 0 0 2494521.4935460985 2825213.5623068102 0 2825213.5623068102 -1079794.2761551035 0 0 0 0 13905024.718505859 31061645.344566345 0 31061645.344566345 67731037.180713654 0 0 0 0 -5261000.3790283203 33392342.818946838 0 33392342.818946838 133729653.10696793 0 0 0 0 9519209.1400146484 33436236.058037758 0 33436236.058037758 104218246.07160187 0 0 0 0 11689721.156494141 36754943.542720795 0 36754943.542720795 105005628.38750839 0 0 0 0 7893259.9169921875 36266408.094024658 0 36266408.094024658 105305639.46799469 0 0 0 0 32665918.874694824 44913216.346660614 0 44913216.346660614 93617747.224021912 0 0 0 0 32613507.960266113 42476198.382196426 0 42476198.382196426 72799911.774730682 0 0 0 0 11754673.845092773 33928167.810375214 0 33928167.810375214 103975860.96187592 0 0 0 0 27608822.13659668 65899730.181817055 0 65899730.181817055 129354023.76702118 0 0 0 0 -4511725.5662536621 16540348.014456749 0 16540348.014456749 140086415.2256813 0 0 0 0 29894201.960449219 46885540.523943901 0 46885540.523943901 102902683.48725319 0 0 0 0 31864424.352416992 54995053.997058868 0 54995053.997058868 104971715.60503006 0 0 0 0 39777647.405273438 44282686.438877106 0 44282686.438877106 78414138.01943779 0 0 0 0 39636738.81036377 56540133.061611176 0 56540133.061611176 86142417.835409164 0 0 0 0 46931794.704345703 59974964.699934006 0 59974964.699934006 101911073.68776417 0 0 0 0 45995162.077799797 41229672.683588535 0 41229672.683588535 104830766.86424255 0 0 0 0 -6725161.5774841309 -8550473.1285233498 0 -8550473.1285233498 10267007.334466934 0 0 0 0 2886429.5076293945 19927263.406416178 0 19927263.406416178 406731.73475837708 0 0 0 0 -7591388.657043457 -4553553.7662963867 0 -4553553.7662963867 18343978.099858284 0 0 0 0 -3216030.5793457031 -3732905.0038032532 0 -3732905.0038032532 11395416.976560593 0 0 0 0 495714.40519969165 -2577955.5853753984 0 -2577955.5853753984 -1191692.0362621024 0 0 0 0 -267176829.00744629 -272981609.33308887 0 -272981609.33308887 24378545.902431488 0 0 0 0 -240386276.77911377 -16927929.596486449 0 -16927929.596486449 -147627079.48966181 0 0 0 0 1312330.7614223361 -1009329.6497022212 0 -1009329.6497022212 -32364.43403381377 0 0 0 0 -3468778.7617797852 -8261223.2688603401 0 -8261223.2688603401 -1576331.8260440826 0 0 0 0 -33096462.554199219 -6555280.7106957436 0 -6555280.7106957436 -1668837.7727946937 0 0 0 0 -21893337.220825195 12421365.177858829 0 12421365.177858829 -1817479.1433839798 0 0 0 0 -39836512.53717041 24657584.150988102 0 24657584.150988102 -9670161.4735641479 0 0 0 0 -29516904.022003174 16113773.033179045 0 16113773.033179045 -14715676.726582527 0 0 0 0 -39864562.774353027 22140227.16733098 0 22140227.16733098 -12745787.458910942 0 0 0 0 -48896710.674194336 28392353.658700943 0 28392353.658700943 -16691250.153400421 0 0 0 0 -57946582.187805176 13442538.717432737 0 13442538.717432737 -19327053.678076744 0 0 0 0 -53608402.724395752 9539204.5425238609 0 9539204.5425238609 -16031803.840122223 0 0 0 0 -63639242.155639648 -16917323.314272404 0 -16917323.314272404 -49063281.964463398 0 0 0 0 -40053021.550369263 -3156355.1117746234 0 -3156355.1117746234 -42380745.527888298 0 0 0 0 -112010367.18927002 1456582.057094574 0 1456582.057094574 -24031275.124089718 0 0 0 0 -57557080.746826172 13247178.630396307 0 13247178.630396307 -22231357.683595181 0 0 0 0 -78130012.174926758 25886007.663114548 0 25886007.663114548 -16725092.581104994 0 0 0 0 -93645090.52947998 40220792.483939469 0 40220792.483939469 -21090250.822293758 0 0 0 0 -57379138.619995117 37787253.724000692 0 37787253.724000692 -24121005.526874065 0 0 0 0 -38509354.772277832 3715069.8339930773 0 3715069.8339930773 -18687553.567137718 0 0 0 0 1258886132.0412006 778306010.7336973 0 778306010.7336973 150690350.26419115 0 0 0 0 -389538975.43115234 178109995.1877985 0 178109995.1877985 544386914.49095917 0 0 0 0 1759199.5726189464 -3171146.2495140582 0 -3171146.2495140582 -1538644.9658923619 0 0 0 0 495677490.30712891 -275520619.43337393 0 -275520619.43337393 -173178810.3189193 0 0 0 0 526910476.20498657 -52602647.95741272 0 -52602647.95741272 517896068.23536491 0 0 0 0 714785372.51953125 627096330.98822975 0 627096330.98822975 737886839.26142216 0 0 0 0 567878815.69818115 219889166.15381169 0 219889166.15381169 157925830.15120578 0 0 0 0 459836275.97106934 -55713172.505599022 0 -55713172.505599022 -301896219.17775154 0 0 0 0 148447689.16229248 -69113509.646874905 0 -69113509.646874905 -61143813.82673192 0 0 0 0 339896318.26099491 247911636.71362913 0 247911636.71362913 -6179001.7905673981 0 0 0 0 747267266.02642822 231789649.53962809 0 231789649.53962809 -119608716.86764657 0 0 0 0 876391153.74829102 577712025.21136713 0 577712025.21136713 213876024.85490525 0 0 0 0 785535852.87599945 306806581.87566233 0 306806581.87566233 -73771755.426937103 0 0 0 0 1298367192.8898849 377280316.30358106 0 377280316.30358106 -28585559.626976967 0 0 0 0 959618062.16699219 309951926.64618862 0 309951926.64618862 162005458.14240092 0 0 0 0 523580907.20294189 447498939.98804295 0 447498939.98804295 126737900.51871085 0 0 0 0 435949536.10275269 366465901.93890923 0 366465901.93890923 340586313.51938504 0 0 0 0 616272032.01947021 508798327.82658935 0 508798327.82658935 300385290.29790717 0 0 0 0 1029375859.013855 159618552.34913731 0 159618552.34913731 333862254.53997922 0 0 0 0 685766299.66687012 573306362.28104997 0 573306362.28104997 489232481.93218964 0 0 0 0 838577183.30224609 276418829.65684837 0 276418829.65684837 537155908.39472473 0 0 0 0 34460590.797241211 204299686.32654655 0 204299686.32654655 227419249.06795627 0 0 0 0 150196327.00669098 144560930.39936727 0 144560930.39936727 -49431556.384496093 0 0 0 0 105534516.03759766 268390200.76794761 0 268390200.76794761 245638518.28592846 0 0 0 0 394835857.43888855 453840213.05076206 0 453840213.05076206 155016509.15962338 0 0 0 0 333697163.67443848 156266647.40851599 0 156266647.40851599 -10202119.325679779 0 0 0 0 -368315645.46313477 -68544852.683662385 0 -68544852.683662385 -15127685.084984303 0 0 0 0 42914293.61000061 41855329.692445159 0 41855329.692445159 -491563182.66849518 0 0 0 0 -116695807.61306763 410199839.42641091 0 410199839.42641091 -143233375.91614079 0 0 0 0 335014411.3656702 109020019.84486148 0 109020019.84486148 -695147111.09410524 0 0 0 0 -114126586.07553101 -416011555.3710475 0 -416011555.3710475 -448880018.80877972 0 0 0 0 59589388.65586853 -128165906.55776551 0 -128165906.55776551 -460896342.99744642 0 0 0 0 90382581.980194092 -115740674.27067602 0 -115740674.27067602 -483999816.17959708 0 0 0 0 51174752.627502441 -213303608.35767847 0 -213303608.35767847 -596159001.93123305 0 0 0 0 -21608794.687408447 188978065.66667342 0 188978065.66667342 -138806620.43646908 0 0 0 0 4824062.2378216833 1766274.8070752099 0 1766274.8070752099 -159574.3818576854 0 0 0 0 87087394.567138672 -123861561.02975623 0 -123861561.02975623 -138997273.43008739 0 0 0 0 -163014398.83833313 -87529130.136693612 0 -87529130.136693612 -31654906.636249382 0 0 0 0 -28455234.863388062 -200867062.14989218 0 -200867062.14989218 -181992760.70133081 0 0 0 0 -19036229.926483154 121372608.42781678 0 121372608.42781678 -215333284.07423967 0 0 0 0 23896184.21527195 -13183908.934038015 0 -13183908.934038015 48500533.236222804 0 0 0 0 307758122.3605957 18090123.987074938 0 18090123.987074938 -108087929.47502181 0 0 0 0 8565974.6522014476 8858855.3338122666 0 8858855.3338122666 -30478716.347059172 0 0 0 0 224530942.86343384 63863946.866798021 0 63863946.866798021 -83784189.432189599 0 0 0 0 160916152.95147705 51333616.311726943 0 51333616.311726943 -407212710.15468967 0 0 0 0 161483947.0836792 28918981.718169674 0 28918981.718169674 -68006797.023795635 0 0 0 0 172072677.46398926 -104441710.86858903 0 -104441710.86858903 -76209503.77956368 0 0 0 0 152098813.77272034 -53192416.122561634 0 -53192416.122561634 -8054023.0892049074 0 0 0 0 3547329.4745954764 7865408.4369076714 0 7865408.4369076714 -18529569.021301456 0 0 0 0 234990037.25282472 -54217214.877704896 0 -54217214.877704896 -39934804.766294166 0 0 0 0 109953194.31591797 -64653426.404374771 0 -64653426.404374771 5017868.232390672 0 0 0 0 153694988.32728577 -47582369.872128651 0 -47582369.872128651 8287578.8198618442 0 0 0 0 94093951.470046997 -13563208.791743308 0 -13563208.791743308 56065965.780501306 0 0 0 0 976791.78934287757 5797219.6483828202 0 5797219.6483828202 -8541413.1013242695 0 0 0 0 245415057.66000366 130405153.14331722 0 130405153.14331722 156964399.59258914 0 0 0 0 30770850.957702637 151667665.85374135 0 151667665.85374135 207442984.01298544 0 0 0 0 84418544.403144836 -22354659.046074975 0 -22354659.046074975 59959808.903352946 0 0 0 0 -15538929.187438965 18746881.260553554 0 18746881.260553554 43350505.823321253 0 0 0 0 171367733.384552 74648184.184560716 0 74648184.184560716 131017701.22554904 0 0 0 0 86947709.742996216 -34426258.873919398 0 -34426258.873919398 96837795.379144192 0 0 0 0 234575337.37411499 64865935.817051589 0 64865935.817051589 74389294.0967246 0 0 0 0 303781015.90081787 176789235.4763689 0 176789235.4763689 158301648.20669168 0 0 0 0 100580978.21429443 101196349.32580709 0 101196349.32580709 190749389.61170483 0 0 0 0 300402858.63720703 172956157.04390347 0 172956157.04390347 174634301.29793346 0 0 0 0 387853375.19235229 250899255.25867426 0 250899255.25867426 176259784.2672534 0 0 0 0 179002463.74702454 121909967.63430816 0 121909967.63430816 178097541.36730325 0 0 0 0 322461823.67889404 130689556.8997567 0 130689556.8997567 113801023.74587798 0 0 0 0 377797015.07336426 193795353.60873985 0 193795353.60873985 127024822.54225357 0 0 0 0 283446197.66433716 133775625.95276691 0 133775625.95276691 170826841.05445844 0 0 0 0 586587352.89715576 189729184.55832446 0 189729184.55832446 132955261.22372496 0 0 0 0 460563275.0509491 272921908.98947263 0 272921908.98947263 149625900.2454834 0 0 0 0 577479352.80191231 381633358.24473596 0 381633358.24473596 256418796.54966021 0 0 0 0 408287259.59539795 161498750.52516073 0 161498750.52516073 149733115.0404737 0 0 0 0 187468719.57502747 10987668.142383933 0 10987668.142383933 -32483081.238183618 0 0 0 0 171991872.62435913 58369008.396592736 0 58369008.396592736 136600707.82247078 0 0 0 0 299127717.96432495 114325345.12332574 0 114325345.12332574 13476194.448103964 0 0 0 0 -148698.0747212093 3507173.7380250096 0 3507173.7380250096 -2927969.9195905519 0 0 0 0 116909652.33479309 55372067.506699115 0 55372067.506699115 79166825.713191807 0 0 0 0 265648192.76861572 54545929.293671474 0 54545929.293671474 -22541955.585698903 0 0 0 0 261775103.0610218 140378348.53013369 0 140378348.53013369 112221422.74747014 0 0 0 0 329333394.12438965 162978501.03031743 0 162978501.03031743 39805152.043393344 0 0 0 0 364675596.04660034 195565296.2687462 0 195565296.2687462 54726328.760813087 0 0 0 0 362645406.76599121 129062004.54785609 0 129062004.54785609 32895219.341106843 0 0 0 0 339218583.26542664 157093205.46730945 0 157093205.46730945 -1729.5895005389757 0 0 0 0 -553408.85351629567 2085193.1653325483 0 2085193.1653325483 -637883.20730024867 0 0 0 0 472159126.04315186 265933701.87940508 0 265933701.87940508 93786589.809230506 0 0 0 0 440532174.72245789 229847218.10250807 0 229847218.10250807 69897831.146169662 0 0 0 0 2002431.2330934778 4044880.5892755389 0 4044880.5892755389 3092712.0056454418 0 0 0 0 14936704.947570801 15273537.174500596 0 15273537.174500596 5800957.9002751652 0 0 0 0 447729005.42536545 -14960087.183592334 0 -14960087.183592334 12352405.773454905 0 0 0 0 103615.99828283489 57414.637763429433 0 57414.637763429433 705441.14937087987 0 0 0 0 397645695.16342163 173599906.75180164 0 173599906.75180164 206637587.08291709 0 0 0 0 396809870.66168213 186211850.60070777 0 186211850.60070777 71790097.578839302 0 0 0 0 350859899.93756104 210788121.33736548 0 210788121.33736548 98233838.293653399 0 0 0 0 398823733.78297424 191680341.29176536 0 191680341.29176536 207441.02692830504 0 0 0 0 455521398.92663574 235168702.62669963 0 235168702.62669963 33487957.938977178 0 0 0 0 430346180.22961426 206322577.48642287 0 206322577.48642287 34648217.69671762 0 0 0 0 2486140.9323217049 2619880.1064930335 0 2619880.1064930335 1830783.1506654022 0 0 0 0 22926076.195632935 16689502.21791655 0 16689502.21791655 3821.2383030934507 0 0 0 0 465384240.50662231 253332556.62678003 0 253332556.62678003 52515018.186365306 0 0 0 0 13006968.624969482 14025031.232485693 0 14025031.232485693 6360979.9987804368 0 0 0 0 12725516.548217773 12848352.227781847 0 12848352.227781847 5355631.57222642 0 0 0 0 5193379.708770752 20969276.466248706 0 20969276.466248706 14223.409441767399 0 0 0 0 -8180709.6507110596 11900264.915909253 0 11900264.915909253 9272339.3006045744 0 0 0 0 7939143.3926849365 13558515.413174402 0 13558515.413174402 9252401.8224454299 0 0 0 0 6306567.3592071533 15447575.562217504 0 15447575.562217504 11159162.844933107 0 0 0 0 14282115.616394043 14201376.991721421 0 14201376.991721421 5194696.9432583805 0 0 0 0 -35377722.304260254 22953864.375350952 0 22953864.375350952 45926774.77798748 0 0 0 0 1876327.5494638681 7612326.8956532627 0 7612326.8956532627 -3832840.9798114426 0 0 0 0 444015345.94854736 271293812.8540383 0 271293812.8540383 165428747.48681015 0 0 0 0 561627.90893637389 -2527291.7610468045 0 -2527291.7610468045 13064283.048176978 0 0 0 0 -37615243.24131012 -27465984.655970097 0 -27465984.655970097 15505793.260852814 0 0 0 0 19357360.964195251 8346965.1070182323 0 8346965.1070182323 -771674.35135650635 0 0 0 0 10004336.173000336 52536051.859207392 0 52536051.859207392 42896387.911094666 0 0 0 0 -22996765.492431641 34175973.816783905 0 34175973.816783905 68660802.216336727 0 0 0 0 413774912.47813416 237548543.46475619 0 237548543.46475619 164494495.06292844 0 0 0 0 597957132.69766235 273809385.67327344 0 273809385.67327344 142335823.82088232 0 0 0 0 11397757.088588715 13645348.076255798 0 13645348.076255798 51119921.490329742 0 0 0 0 53810393.161697388 61197609.061388493 0 61197609.061388493 64828420.588638306 0 0 0 0 559578.76855696738 1718834.965192385 0 1718834.965192385 612455.60151253268 0 0 0 0 19647434.404052734 34278812.9634552 0 34278812.9634552 69596438.960170746 0 0 0 0 26177096.892272949 41452737.494195938 0 41452737.494195938 43675717.59618187 0 0 0 0 8156663.9437202215 6567046.5667362437 0 6567046.5667362437 -5958112.1066853274 0 0 0 0 49996402.891967773 48860383.876741409 0 48860383.876741409 45725244.527786255 0 0 0 0 19696760.507385254 30781358.294036865 0 30781358.294036865 44828911.371994019 0 0 0 0 8100218.4687194824 11092029.364864338 0 11092029.364864338 12379389.085204743 0 0 0 0 2558851.4988747239 5741078.4835697636 0 5741078.4835697636 5177229.3002829906 0 0 0 0 6861479.9798278809 9015489.3455367088 0 9015489.3455367088 3871267.87241745 0 0 0 0 9659478.8221130371 7129833.3257851601 0 7129833.3257851601 5119485.6950726509 0 0 0 0 11316653.84046936 8962896.8114233017 0 8962896.8114233017 6692479.5278306007 0 0 0 0 3147118.3574161157 4872992.1545528173 0 4872992.1545528173 6021739.9627930801 0 0 0 0 2433124.3889770508 6746907.2936526127 0 6746907.2936526127 7893534.0071787974 0 0 0 0 4204461.5512084961 6257221.8677723557 0 6257221.8677723557 7764099.8061807901 0 0 0 0 -3111547.0651168823 1826200.269733625 0 1826200.269733625 5224110.5539219342 0 0 0 0 9882380.1464729197 6686220.1063734815 0 6686220.1063734815 2092099.1346892945 0 0 0 0 467040.02504526079 1371759.9572176225 0 1371759.9572176225 2530208.1992102903 0 0 0 0 2236050.7960205078 1765843.9452652591 0 1765843.9452652591 3415.0279652286849 0 0 0 0 9423755.229675293 8311075.7034759521 0 8311075.7034759521 10090193.134754181 0 0 0 0 7661590.1229048371 4833740.1496085133 0 4833740.1496085133 1065498.1418800007 0 0 0 0 3232754.4168777466 2236522.3508014474 0 2236522.3508014474 -2255825.7845615898 0 0 0 0 3084271.5770263672 -950916.10728822078 0 -950916.10728822078 27156.51041491051 0 0 0 0 8132478.3360454738 3453779.6599365007 0 3453779.6599365007 493180.65854619769 0 0 0 0 18674155.405639648 12330241.525301574 0 12330241.525301574 3113161.9617347163 0 0 0 0 -1413684.4605102539 -896725.95022197615 0 -896725.95022197615 4583.6776665917832 0 0 0 0 19146.338659882545 6224.4657150842249 0 6224.4657150842249 -602.96984786761902 0 0 0 0 18655348.276733398 11449054.540500719 0 11449054.540500719 4464625.5930247903 0 0 0 0 10293853.293945312 12175156.745907784 0 12175156.745907784 5645494.1906738281 0 0 0 0 9082896.4647827148 10174463.091486931 0 10174463.091486931 2645053.4202435017 0 0 0 0 10218850.193145752 8229810.6199007034 0 8229810.6199007034 5910293.8685102463 0 0 0 0 7872937.3937988281 9773332.3700141907 0 9773332.3700141907 5234763.0834915638 0 0 0 0 17921080.930053711 4430339.6291732052 0 4430339.6291732052 3662.5410510474521 0 0 0 0 22355097.556060791 5933939.5459970208 0 5933939.5459970208 493502.63392584084 0 0 0 0 7028935.2985839844 817133.03111957014 0 817133.03111957014 -3988894.2312181033 0 0 0 0 -9698562.479675293 -4424084.7748909164 0 -4424084.7748909164 6927757.7420069557 0 0 0 0 13850.460949540138 -455.35814475268126 0 -455.35814475268126 1486.3047684090625 0 0 0 0 14034699.986633301 8170603.2653847747 0 8170603.2653847747 6062460.7591305384 0 0 0 0 4569090.7222290039 5985937.2175639896 0 5985937.2175639896 5782718.9079312878 0 0 0 0 9568975.5312957764 9856967.4619250298 0 9856967.4619250298 5684916.1730747223 0 0 0 0 9268818.3897531629 3628860.725636337 0 3628860.725636337 355136.23781525367 0 0 0 0 15866669.121246338 2321455.769446373 0 2321455.769446373 -8317223.4954288006 0 0 0 0 2503682.2555274963 4932029.76220119 0 4932029.76220119 -6234860.7862892151 0 0 0 0 28761223.848632812 8167602.4639127944 0 8167602.4639127944 -2978842.2774068685 0 0 0 0 11539815.528415963 6383638.2028535455 0 6383638.2028535455 179490.34292353704 0 0 0 0 3392503.9174957275 1681145.5159368515 0 1681145.5159368515 5295140.8522777557 0 0 0 0 18103170.977294922 4822663.1722893715 0 4822663.1722893715 -2771984.7653756142 0 0 0 0 31101419.196289062 14285890.679785252 0 14285890.679785252 -73699.486611366272 0 0 0 0 1152129.5940451846 227273.39202096313 0 227273.39202096313 56594.880171590485 0 0 0 0 9731169.0417480469 11250459.630086422 0 11250459.630086422 92165.550804138184 0 0 0 0 3426237.1970846169 1258960.4148070887 0 1258960.4148070887 438651.70403780183 0 0 0 0 5240185.7666473389 6855478.7694464922 0 6855478.7694464922 3851315.3365097046 0 0 0 0 -9913705.1583709717 6074215.2178659439 0 6074215.2178659439 4610968.8048477173 0 0 0 0 7169013.3411477506 6271441.1141607314 0 6271441.1141607314 6421018.1513447119 0 0 0 0 -9399890.4071612358 36542816.53618218 0 36542816.53618218 -21684710.600563049 0 0 0 0 7368829.9925537109 8685503.1294221878 0 8685503.1294221878 3405512.8827867508 0 0 0 0 6203872.0432434082 10410054.245147705 0 10410054.245147705 7515992.1410946846 0 0 0 0 1670869.4324874878 6414637.1946077347 0 6414637.1946077347 4264252.0947990417 0 0 0 0 7179682.2429046631 7929357.2283906937 0 7929357.2283906937 3341521.3744525909 0 0 0 0 7178771.512878418 7917744.9067363739 0 7917744.9067363739 3392118.2678854465 0 0 0 0 8065692.715423584 8706496.4846405983 0 8706496.4846405983 3340812.4171538353 0 0 0 0 8407653.9640350342 8319083.1156253815 0 8319083.1156253815 928559.6902551651 0 0 0 0 8270938.3171065301 7449524.5577317625 0 7449524.5577317625 -2529005.9033856355 0 0 0 0 44299101.775024414 57321903.523298264 0 57321903.523298264 58082317.296769619 0 0 0 0 9863261.1231613159 57433480.162742615 0 57433480.162742615 108591465.76949692 0 0 0 0 2807974.6388015151 3392143.3811331913 0 3392143.3811331913 -2252510.6288748151 0 0 0 0 -16832451.061065674 28420727.420871258 0 28420727.420871258 17500560.29161644 0 0 0 0 56775637.893249512 78165343.83570528 0 78165343.83570528 96978204.346398354 0 0 0 0 21815451.515029907 76871330.819798946 0 76871330.819798946 165644389.09082079 0 0 0 0 11052309.741333008 120498903.95001578 0 120498903.95001578 244057154.10864639 0 0 0 0 74458675.513366699 133168632.28307438 0 133168632.28307438 136606556.1042648 0 0 0 0 47954522.774993896 79400358.03275013 0 79400358.03275013 67873334.331535339 0 0 0 0 51959681.647464752 35649078.763287663 0 35649078.763287663 136830810.76256752 0 0 0 0 12770316.945800781 69831349.783330917 0 69831349.783330917 143910283.9739418 0 0 0 0 15673403.711303711 39564989.528877258 0 39564989.528877258 101286221.72342682 0 0 0 0 38029793.661682129 25681900.135028839 0 25681900.135028839 26954037.782424927 0 0 0 0 -6475946.3669433594 42854026.05765152 0 42854026.05765152 21555741.284202576 0 0 0 0 8015402.9158325195 7832735.2681360245 0 7832735.2681360245 3189321.5376214981 0 0 0 0 32865060.266014099 16164923.249478579 0 16164923.249478579 48719431.005037308 0 0 0 0 10154277.531961069 5003509.4357428066 0 5003509.4357428066 -2536308.2284566248 0 0 0 0 34691427.107543945 30038778.347984314 0 30038778.347984314 27069816.373996735 0 0 0 0 913984.77346654236 26390.87892382592 0 26390.87892382592 -809275.69067731127 0 0 0 0 8924376.3496398926 5499436.3352622986 0 5499436.3352622986 4321885.0507564545 0 0 0 0 3167010.3110351562 740663.11702537537 0 740663.11702537537 -1487621.7486038208 0 0 0 0 3609191.6536941528 15126391.982117653 0 15126391.982117653 -3310221.938741684 0 0 0 0 2403206.5964200795 3003989.9337355494 0 3003989.9337355494 2905759.1773340609 0 0 0 0 5201408.6778905988 1806744.1397338882 0 1806744.1397338882 935845.6299182009 0 0 0 0 39994985.73236084 -7561874.5771636963 0 -7561874.5771636963 -7245748.7265033722 0 0 0 0 7828562.4548249096 3929252.8508202769 0 3929252.8508202769 -3033368.0710192602 0 0 0 0 -64147322.827148438 12966622.839424133 0 12966622.839424133 19012953.671600342 0 0 0 0 -56328377.948112488 68673080.633362591 0 68673080.633362591 -13816096.422187805 0 0 0 0 -58665141.947937012 43763358.32436657 0 43763358.32436657 -20604926.033445835 0 0 0 0 -78227353.308052063 43957363.700107336 0 43957363.700107336 -12931180.594585419 0 0 0 0 1926958.8092913479 2008758.78237091 0 2008758.78237091 -1011634.7030811734 0 0 0 0 -74456193.912322998 35228505.527715564 0 35228505.527715564 1072307.8973255157 0 0 0 0 4727392.1500797719 -977622.62971261144 0 -977622.62971261144 -1631964.621786945 0 0 0 0 90136702.918663025 77571651.379881859 0 77571651.379881859 65601727.479347229 0 0 0 0 63905247.290222168 31906321.655601501 0 31906321.655601501 8644135.3809204102 0 0 0 0 89518092.341888428 76567020.064036369 0 76567020.064036369 76992187.82242012 0 0 0 0 54862928.692749023 75447960.798749924 0 75447960.798749924 87765640.734516144 0 0 0 0 96300787.811004639 85539292.692774296 0 85539292.692774296 60941599.501213074 0 0 0 0 247795923.76844788 110338257.6254518 0 110338257.6254518 -96347886.299839497 0 0 0 0 96748595.580444336 83707714.01761651 0 83707714.01761651 44452828.724582672 0 0 0 0 138498218.69888306 4641241.2440265417 0 4641241.2440265417 1427357.6836458445 0 0 0 0 92114630.754516602 98672840.197336137 0 98672840.197336137 -70083977.749566078 0 0 0 0 1778261.4043719321 -1073090.9707022384 0 -1073090.9707022384 -930565.38652137737 0 0 0 0 -324153859.14724731 25027259.522970676 0 25027259.522970676 42460607.47545398 0 0 0 0 -121745786.3491441 82226543.059859529 0 82226543.059859529 3438953.6873950958 0 0 0 0 -121360428.09570312 16932949.523217678 0 16932949.523217678 -5992361.7132387161 0 0 0 0 65740398.533233643 46290019.646540403 0 46290019.646540403 -174073030.08841777 0 0 0 0 -193331960.59991455 164053681.21857655 0 164053681.21857655 -20018218.864002228 0 0 0 0 60155028.036010742 69198183.864331722 0 69198183.864331722 -59134481.875299931 0 0 0 0 61130722.023895264 162090861.74333787 0 162090861.74333787 -101081115.22180891 0 0 0 0 92177977.011230469 86082713.145831585 0 86082713.145831585 -56888070.197590351 0 0 0 0 27493207.861083984 72444897.304327965 0 72444897.304327965 -43503049.891102791 0 0 0 0 59262814.529216766 77011965.996849939 0 77011965.996849939 -57453560.359875083 0 0 0 0 24400673.164031982 60100546.089741707 0 60100546.089741707 -64425563.732118607 0 0 0 0 20772282.645568848 73940015.965051651 0 73940015.965051651 -50125582.722382069 0 0 0 0 313893.09973144531 70800638.105829716 0 70800638.105829716 -46308532.091885805 0 0 0 0 28141496.802856445 80405225.182711363 0 80405225.182711363 -47531638.172941685 0 0 0 0 -743493.18682861328 75532562.062343359 0 75532562.062343359 -39653202.989192247 0 0 0 0 -38446695.945922852 80041624.474491119 0 80041624.474491119 -36799901.104609489 0 0 0 0 -34096134.186828613 63683298.833285809 0 63683298.833285809 -28278677.379662514 0 0 0 0 -65547318.572723389 58241855.901950106 0 58241855.901950106 -24454516.581599921 0 0 0 0 -26039325.809143066 51182515.643172741 0 51182515.643172741 -24753986.659459829 0 0 0 0 -35617677.960941315 48759875.812426418 0 48759875.812426418 -25069811.038599491 0 0 0 0 223892.21954345703 60141666.736803532 0 60141666.736803532 -37984792.831874371 0 0 0 0 -25518228.195282936 67616925.014994487 0 67616925.014994487 -40034970.010438919 0 0 0 0 5855287.4887237549 60793255.378636122 0 60793255.378636122 -61380029.208338737 0 0 0 0 -17353083.821044922 40717315.792685509 0 40717315.792685509 -23002088.38803196 0 0 0 0 -16875802.13236618 36437474.639800906 0 36437474.639800906 -24757438.171094894 0 0 0 0 -3492215.3424987793 12801768.547663212 0 12801768.547663212 2684700.2786040306 0 0 0 0 9553918.1621780396 26031526.709800005 0 26031526.709800005 -52342575.916872025 0 0 0 0 43414528.651367188 23119317.1121068 0 23119317.1121068 -133960533.63123155 0 0 0 0 1532809.0882349759 1873643.140302863 0 1873643.140302863 -1401351.0487275783 0 0 0 0 75768886.675674438 75232426.125722408 0 75232426.125722408 -99166865.186160088 0 0 0 0 127924244.90797424 10795310.638591766 0 10795310.638591766 -10872797.356309891 0 0 0 0 183224123.10777283 -6841049.8618941903 0 -6841049.8618941903 -21455169.615528584 0 0 0 0 150840598.10273743 33888419.807786465 0 33888419.807786465 -14716384.675778091 0 0 0 0 209719205.12995911 65981460.333272457 0 65981460.333272457 -12865186.738256395 0 0 0 0 104373436.3544426 58367042.436646372 0 58367042.436646372 114667147.72935295 0 0 0 0 -1026958.6278402209 -3203994.1096057445 0 -3203994.1096057445 952214.0262389041 0 0 0 0 32866782.364700317 33248887.863585711 0 33248887.863585711 11094060.519495726 0 0 0 0 96815050.36227417 19509793.348751545 0 19509793.348751545 -5423614.7082486153 0 0 0 0 20066580.056915283 -2142041.880433321 0 -2142041.880433321 56367873.73048687 0 0 0 0 189400191.61244202 29061801.645792723 0 29061801.645792723 -90828099.255896091 0 0 0 0 1606818.6091594696 12628421.602751359 0 12628421.602751359 12686700.848777771 0 0 0 0 6492286.1852416992 76060821.636547565 0 76060821.636547565 -49857615.001637459 0 0 0 0 -1010420.0135021098 -3111981.1208627075 0 -3111981.1208627075 964517.60248265229 0 0 0 0 120677945.88443947 24891366.719535887 0 24891366.719535887 -3737458.3885054588 0 0 0 0 -35554045.771331787 68540318.835999489 0 68540318.835999489 9304772.7016168833 0 0 0 0 17885261.830078125 52975801.052869797 0 52975801.052869797 -22635654.054933548 0 0 0 0 -35672382.528106689 66986883.98826313 0 66986883.98826313 -10568347.017305374 0 0 0 0 -46718673.86920166 44370366.486623764 0 44370366.486623764 -20480456.853421211 0 0 0 0 -41843203.62727356 55966409.462117195 0 55966409.462117195 -4499631.1687431335 0 0 0 0 -549082.57709623873 -1658849.230348438 0 -1658849.230348438 546055.81012575235 0 0 0 0 -122180367.65116882 76349966.268205643 0 76349966.268205643 -3282019.1668014526 0 0 0 0 194687793.94593811 12098593.91418457 0 12098593.91418457 -9148788.2992801666 0 0 0 0 188966208.8324585 9671232.5639381409 0 9671232.5639381409 -10009797.837104559 0 0 0 0 1966353.7968226075 50806.941208586097 0 50806.941208586097 -689537.59585767146 0 0 0 0 194866712.24763107 -1883823.1485717297 0 -1883823.1485717297 -5163581.0266819 0 0 0 0 167481759.84751892 -3806462.3829903603 0 -3806462.3829903603 -4984398.8474292755 0 0 0 0 -8544052.4532623291 -22196593.005123138 0 -22196593.005123138 38943954.571013927 0 0 0 0 -141051.92262197286 -1235427.3125466853 0 -1235427.3125466853 -1726534.2751703057 0 0 0 0 180248849.74460602 17848835.386801958 0 17848835.386801958 -5167791.9528083801 0 0 0 0 30652876.689910889 42087431.251915932 0 42087431.251915932 2562757.0541350842 0 0 0 0 31251084.346284762 4740944.7046382558 0 4740944.7046382558 -4942285.0498088188 0 0 0 0 137743209.35095215 7814623.7916126251 0 7814623.7916126251 -141046496.16059113 0 0 0 0 16263183.523040771 -74927363.594465256 0 -74927363.594465256 4763560.0299730301 0 0 0 0 -24942418.00177002 36884061.650468826 0 36884061.650468826 -980662.76682281494 0 0 0 0 -19004808.762969971 78775673.645610809 0 78775673.645610809 -29138049.951982498 0 0 0 0 41930013.697738647 56601846.506905556 0 56601846.506905556 -24268543.497088432 0 0 0 0 18659039.099274635 39843953.888519496 0 39843953.888519496 -36312915.016204834 0 0 0 0 15073148.619499117 8053117.9652730599 0 8053117.9652730599 2479958.2790540056 0 0 0 0 19428853.071395874 20609450.016139984 0 20609450.016139984 1657934.0525426865 0 0 0 0 18598850.320220947 4832397.8351711649 0 4832397.8351711649 814858.87958402978 0 0 0 0 42473233.981842041 -24495643.584241182 0 -24495643.584241182 -22669355.963666592 0 0 0 0 28203084.230913341 7419939.1681209672 0 7419939.1681209672 -2748014.9537325841 0 0 0 0 7423623.1915604174 -488544.97804541141 0 -488544.97804541141 -5046813.0247924672 0 0 0 0 52998539.807876587 9580070.207044661 0 9580070.207044661 -5337085.5863148738 0 0 0 0 57627250.277191162 -21466514.788949266 0 -21466514.788949266 -22369942.440765079 0 0 0 0 19285350.274841309 9276241.3903221712 0 9276241.3903221712 -1932376.6832534634 0 0 0 0 19745666.306213379 5200866.9330960978 0 5200866.9330960978 -6362.822788578188 0 0 0 0 20869967.630432129 4577620.526946486 0 4577620.526946486 290762.62434123922 0 0 0 0 27867114.458679199 3839139.7103098845 0 3839139.7103098845 -9062436.1451931186 0 0 0 0 34211488.756408691 8066060.5475530643 0 8066060.5475530643 -33972409.642046057 0 0 0 0 18917417.520446777 2268703.7693931852 0 2268703.7693931852 -12030428.519569289 0 0 0 0 66403011.243469238 -1610510.8882884167 0 -1610510.8882884167 9940.4420886605876 0 0 0 0 29119510.6121521 12172548.264079228 0 12172548.264079228 3665430.6563741779 0 0 0 0 57971378.515249252 9812860.7619404942 0 9812860.7619404942 -10705416.211586203 0 0 0 0 30044295.501373291 7406664.2432172485 0 7406664.2432172485 -9771176.9092110246 0 0 0 0 28683119.833961487 6912502.9526971634 0 6912502.9526971634 -4970.3805447284185 0 0 0 0 32342534.437988281 3813994.5180421849 0 3813994.5180421849 -6893427.526000279 0 0 0 0 29097307.634895325 7220999.7537924247 0 7220999.7537924247 -8510925.5979110673 0 0 0 0 31149212.936248779 5798562.2569922749 0 5798562.2569922749 -12051397.145196486 0 0 0 0 48538022.719955444 -19290157.690091774 0 -19290157.690091774 -9479630.859907601 0 0 0 0 8780689.3685703427 -127319.04774543643 0 -127319.04774543643 -3196051.2736446825 0 0 0 0 29773945.725616455 8055764.086395368 0 8055764.086395368 -9208096.5750691872 0 0 0 0 34781754.658279419 7861447.7686815886 0 7861447.7686815886 -9509691.5719348658 0 0 0 0 39563557.488189697 -6913568.7991602663 0 -6913568.7991602663 -1776131.1816488709 0 0 0 0 45691486.074752808 -2407430.0231180703 0 -2407430.0231180703 -11821.596558581181 0 0 0 0 40847238.899108887 -3414870.068238189 0 -3414870.068238189 -140053.92658378836 0 0 0 0 32882271.040588379 -3932779.4182063919 0 -3932779.4182063919 -1229.0098756702082 0 0 0 0 40817454.734360337 -10591935.777430687 0 -10591935.777430687 535098.18652977794 0 0 0 0 666204.85369905829 502559.53591775894 0 502559.53591775894 -1766756.4988934617 0 0 0 0 15180346.03515625 14086358.293455562 0 14086358.293455562 -4422159.4924723916 0 0 0 0 39109125.80380249 -15724142.97931754 0 -15724142.97931754 -8587596.5262216181 0 0 0 0 46197735.473266602 -9901994.6242160536 0 -9901994.6242160536 -18350417.369044431 0 0 0 0 43117078.626220703 21187.449404753745 0 21187.449404753745 -26710944.183288217 0 0 0 0 31145738.965118408 -9790927.6882413011 0 -9790927.6882413011 4204749.7737893406 0 0 0 0 24359716.470484823 -5351486.2063758299 0 -5351486.2063758299 -6224340.9013281837 0 0 0 0 22245969.166763306 -17769014.471219555 0 -17769014.471219555 -4641614.6204295857 0 0 0 0 31146737.18347168 -11559923.072876874 0 -11559923.072876874 -23881420.657560725 0 0 0 0 31268909.868103027 -7205962.164429687 0 -7205962.164429687 -9895791.8779457416 0 0 0 0 41856985.731536865 -8900763.4027598184 0 -8900763.4027598184 -23515895.375451699 0 0 0 0 28859337.695678711 9147401.6330697313 0 9147401.6330697313 -25754357.001755081 0 0 0 0 -72370.951539352536 665340.66777212266 0 665340.66777212266 -556911.26926372957 0 0 0 0 39313149.901306152 -951698.8323796764 0 -951698.8323796764 -26482047.148040906 0 0 0 0 22498463.53326416 4604721.5260730758 0 4604721.5260730758 -21932630.168116525 0 0 0 0 21322788.365574479 -10896382.397708863 0 -10896382.397708863 -13558657.575296082 0 0 0 0 51730488.479293823 -209537.29341983795 0 -209537.29341983795 -51810416.915905952 0 0 0 0 12222348.596115112 24125658.90537262 0 24125658.90537262 -30102468.960214376 0 0 0 0 34213917.7864151 9826345.3118790686 0 9826345.3118790686 -16794338.760729313 0 0 0 0 50535013.56741333 -35130450.704583406 0 -35130450.704583406 -18339713.470164835 0 0 0 0 7135345.1001076549 -1663630.1190657988 0 -1663630.1190657988 -4483077.8519099168 0 0 0 0 33025781.580230713 -1806400.8903946877 0 -1806400.8903946877 -8237602.3660235405 0 0 0 0 25578452.879074097 6934122.5456049442 0 6934122.5456049442 -15400653.74417448 0 0 0 0 22481691.54119873 3129734.1667121649 0 3129734.1667121649 -14398176.368347164 0 0 0 0 13305148.728027344 -615427.21959209442 0 -615427.21959209442 -14070190.352903306 0 0 0 0 -8309720.4503326416 -21989757.927884102 0 -21989757.927884102 -11591280.346558571 0 0 0 0 12012341.977905273 521589.27819848061 0 521589.27819848061 -14938243.661461353 0 0 0 0 9632129.7695596367 -11265002.955887236 0 -11265002.955887236 -10440823.400632344 0 0 0 0 9665118.7489624023 -15116473.542311668 0 -15116473.542311668 -26233192.614097595 0 0 0 0 33881156.423932299 1655271.3572273031 0 1655271.3572273031 -7527721.3999067275 0 0 0 0 21730930.135513306 -69845086.532439232 0 -69845086.532439232 -74765194.518751144 0 0 0 0 16398899.710601322 -11074302.471943326 0 -11074302.471943326 -15405674.974927682 0 0 0 0 23102028.18166329 -5992360.4519828726 0 -5992360.4519828726 -5569872.7842947925 0 0 0 0 25769397.194458008 1543598.2393264174 0 1543598.2393264174 -24529257.877148092 0 0 0 0 470418.26198634505 742388.25078698434 0 742388.25078698434 -659989.88709411747 0 0 0 0 -1825292794.9358063 -1359211220.3246107 0 -1359211220.3246107 -1084697670.9041748 0 0 0 0 249302315.02246094 231510633.46050167 0 231510633.46050167 -313451370.98270369 0 0 0 0 -3620621830.4184799 -785038159.99398243 0 -785038159.99398243 -54147234.358097076 0 0 0 0 -5045617.0595316887 -3493539.8976927847 0 -3493539.8976927847 3838537.8034259458 0 0 0 0 -21922755.11391449 16163385.053733788 0 16163385.053733788 14665469.911086217 0 0 0 0 8877336.3013305664 -48225178.466504298 0 -48225178.466504298 66882.332573357562 0 0 0 0 299641547.96087646 92407953.140575409 0 92407953.140575409 36084448.763715744 0 0 0 0 271742035.15655518 76505868.979432106 0 76505868.979432106 32510133.760219574 0 0 0 0 295251212.75688171 97039077.225946426 0 97039077.225946426 34303453.939245224 0 0 0 0 -6031885.9824253917 -8746107.7769828439 0 -8746107.7769828439 -636935.70032665587 0 0 0 0 -2285978.7533569336 -3075485.0042343438 0 -3075485.0042343438 10917385.080522597 0 0 0 0 -3649567.2088928223 -18328760.606915891 0 -18328760.606915891 24262961.720836252 0 0 0 0 458979.08126831055 -1715953.4023450124 0 -1715953.4023450124 10523.815836516962 0 0 0 0 1017664.7763824761 -1959822.4847315028 0 -1959822.4847315028 2905903.1354949605 0 0 0 0 11114969.508666992 -8183431.5155196795 0 -8183431.5155196795 1308017.639986855 0 0 0 0 10813690.542236328 -8450639.4567259084 0 -8450639.4567259084 1975874.8718796624 0 0 0 0 1217998.9339904785 501563.79951943178 0 501563.79951943178 1606451.8486360628 0 0 0 0 8099143.6154785156 -14694735.114848558 0 -14694735.114848558 7171397.470679434 0 0 0 0 385382.14491517842 -2612981.2048861757 0 -2612981.2048861757 4745340.5846156823 0 0 0 0 -1064343.3110382259 -6887083.3876847513 0 -6887083.3876847513 -4890677.7599854413 0 0 0 0 8127321.7527361065 -7077824.8636528403 0 -7077824.8636528403 -1564901.2302698819 0 0 0 0 -3415413.5905151367 -30642259.561908722 0 -30642259.561908722 -10213845.905172348 0 0 0 0 16642425.048675537 -14403852.090898514 0 -14403852.090898514 -51715969.031497955 0 0 0 0 3337172.3532104492 -16036714.007328033 0 -16036714.007328033 -23631626.895225525 0 0 0 0 1136852.2607727051 -3958554.8121681213 0 -3958554.8121681213 -4687022.8161935806 0 0 0 0 2920059.2866487503 -7925234.8723514248 0 -7925234.8723514248 -4160587.5981347766 0 0 0 0 23376767.877576634 5514034.9032113263 0 5514034.9032113263 -7012970.6186759844 0 0 0 0 26140183.784210205 -44155069.436591148 0 -44155069.436591148 -123827848.52179146 0 0 0 0 25555022.048949033 2788357.1490689358 0 2788357.1490689358 -4149018.9516110742 0 0 0 0 24268859.105148315 -10589646.896056652 0 -10589646.896056652 -36610791.583709717 0 0 0 0 2441681.8013305664 -3442819.7223930359 0 -3442819.7223930359 -42903992.365036011 0 0 0 0 3491100.9125976562 -18056686.841941833 0 -18056686.841941833 -65635001.679592133 0 0 0 0 21354131.844055176 -29189808.143901825 0 -29189808.143901825 -52316271.173557281 0 0 0 0 3452653.27176404 -2070633.6472703144 0 -2070633.6472703144 -75241168.997066498 0 0 0 0 26035215.877197266 -19110672.401893616 0 -19110672.401893616 -49068149.919275284 0 0 0 0 -74140.217051059008 -667944.34550200403 0 -667944.34550200403 1612780.3983039819 0 0 0 0 28958449.359619141 -35678194.302505493 0 -35678194.302505493 27678626.486968994 0 0 0 0 15572930.875127524 -9658071.6331232116 0 -9658071.6331232116 -12132239.143900655 0 0 0 0 -272973903.13964844 -97946323.741760254 0 -97946323.741760254 -20801405.634613037 0 0 0 0 28535839.102172852 -8346922.570766449 0 -8346922.570766449 -42734734.88942337 0 0 0 0 6858552.6757573485 -3295047.311452087 0 -3295047.311452087 -3894402.0207982231 0 0 0 0 -6979054.360534668 -42075615.145793915 0 -42075615.145793915 -24601257.450061798 0 0 0 0 -15126577.62197876 -4841929.740447998 0 -4841929.740447998 -8956800.4305114746 0 0 0 0 -28486377.042510986 -31196563.471702576 0 -31196563.471702576 -3930456.3064460754 0 0 0 0 3267713.9135730863 -2891737.9553482002 0 -2891737.9553482002 -2711046.3494785004 0 0 0 0 -16785250.761901855 -63945784.46869278 0 -63945784.46869278 -60060108.399111748 0 0 0 0 -25720611.875236511 -53627534.243022919 0 -53627534.243022919 -15933929.146724701 0 0 0 0 28489816.472923338 2050211.419001855 0 2050211.419001855 -3133713.1898065088 0 0 0 0 51726551.340484619 -57996258.976825714 0 -57996258.976825714 -188166043.918993 0 0 0 0 -21721988.304655075 14050216.582308173 0 14050216.582308173 30529085.945493698 0 0 0 0 18112732.7371521 446861.81420493126 0 446861.81420493126 -13765042.579319954 0 0 0 0 17531095.43309021 1124271.2077400684 0 1124271.2077400684 -9939170.3850164413 0 0 0 0 20786649.907440186 1381187.831053257 0 1381187.831053257 -15065966.046832085 0 0 0 0 21624090.962028503 -3487071.5805271268 0 -3487071.5805271268 -27281336.568838596 0 0 0 0 21087560.631912231 -6541712.2903828621 0 -6541712.2903828621 -11590707.094573975 0 0 0 0 17048933.459213257 -701771.25606775284 0 -701771.25606775284 -13663066.562212944 0 0 0 0 12949866.815795898 -50438.166612148285 0 -50438.166612148285 -8439909.4119272232 0 0 0 0 10441801.335205078 -5496535.3666834831 0 -5496535.3666834831 -2170818.7884653211 0 0 0 0 30255441.854537964 -24705741.432629943 0 -24705741.432629943 -6648917.7892403603 0 0 0 0 60108934.502426147 18019808.357766628 0 18019808.357766628 -37301235.963980198 0 0 0 0 2034984.7128810436 983542.65260511637 0 983542.65260511637 -556601.5484201673 0 0 0 0 85033202.882598877 17242917.647104979 0 17242917.647104979 -3460195.4464159012 0 0 0 0 59020867.841423035 58664302.833292961 0 58664302.833292961 41996908.976719856 0 0 0 0 25260610.889190674 -1362387.311578989 0 -1362387.311578989 -1092453.3478879929 0 0 0 0 52853013.432937622 19461468.98432374 0 19461468.98432374 -20131004.701700211 0 0 0 0 11678446.429197267 2772483.7674050424 0 2772483.7674050424 -1341604.8073253497 0 0 0 0 8167904.6686706543 5355554.27135849 0 5355554.27135849 -7020310.9579660892 0 0 0 0 6573015.8478546143 2574669.8392152786 0 2574669.8392152786 -1939690.2599401474 0 0 0 0 35048549.70413208 3157907.8075208664 0 3157907.8075208664 -47775501.462845802 0 0 0 0 -454601.76034545898 7337848.0050520897 0 7337848.0050520897 -21480046.846184731 0 0 0 0 10869578.842227042 6095437.7207169011 0 6095437.7207169011 -30779.088146650989 0 0 0 0 11141434.576339722 3084467.3091939092 0 3084467.3091939092 -3499418.0494394302 0 0 0 0 34180318.124694824 30963274.871028423 0 30963274.871028423 -41233653.777228355 0 0 0 0 10455506.221069336 1736765.1844539642 0 1736765.1844539642 -5930937.9295227528 0 0 0 0 -5330084.8012695312 23693974.057552338 0 23693974.057552338 -24562141.063495636 0 0 0 0 35865238.731262207 16162710.174878597 0 16162710.174878597 -23191686.298230648 0 0 0 0 17890295.970001221 10766037.0699296 0 10766037.0699296 24298727.68317318 0 0 0 0 18503833.683151245 300168.02751028538 0 300168.02751028538 -9513707.3085136414 0 0 0 0 14058739.709518433 34713431.99080205 0 34713431.99080205 1972354.1480779648 0 0 0 0 16992821.306243896 2896094.3889799118 0 2896094.3889799118 -7593231.0126667023 0 0 0 0 7982071.3189993203 3733683.8145008013 0 3733683.8145008013 -2786275.2660010112 0 0 0 0 16446552.632175982 -375582.21100205369 0 -375582.21100205369 -727711.31271523866 0 0 0 0 10411971.597067915 676816.17932908237 0 676816.17932908237 -2076601.3234742396 0 0 0 0 21205044.335514069 1786689.7328101993 0 1786689.7328101993 8273765.6561069489 0 0 0 0 850468.08079528809 -22189489.519327164 0 -22189489.519327164 112285247.01277924 0 0 0 0 80876659.240356445 -17841649.405158997 0 -17841649.405158997 -107352222.36587524 0 0 0 0 762860.23459926434 47495.480592407286 0 47495.480592407286 -5966.3500284766778 0 0 0 0 55663.974131077528 -612956.90136450436 0 -612956.90136450436 -127238.95587978151 0 0 0 0 9543023.6494903564 10991601.50914669 0 10991601.50914669 -7208033.0334775448 0 0 0 0 -4399271.5494384766 -25058438.002759933 0 -25058438.002759933 9261604.4580168724 0 0 0 0 10583071.049724162 3242016.1517056674 0 3242016.1517056674 -2464519.1208028626 0 0 0 0 14661774.332946777 3727090.757891655 0 3727090.757891655 -8652528.3960771561 0 0 0 0 13163625.342755854 1271439.2676645331 0 1271439.2676645331 107048.93841846939 0 0 0 0 15509484.862823486 -46272.313570976257 0 -46272.313570976257 -3102246.782957077 0 0 0 0 16137169.781463623 29081741.778085232 0 29081741.778085232 -37684835.926881194 0 0 0 0 48905381.50012207 567736.19350481033 0 567736.19350481033 -23889515.079885483 0 0 0 0 66412863.723815918 3978147.3157815933 0 3978147.3157815933 -40785327.96948272 0 0 0 0 10404642.343109131 10147483.010062218 0 10147483.010062218 -17121862.03835845 0 0 0 0 -15549857.305847168 -3114136.1586449146 0 -3114136.1586449146 -12651067.876554012 0 0 0 0 13504362.700317383 -2323184.231180191 0 -2323184.231180191 -16493265.084439278 0 0 0 0 11246496.033538759 -2325681.2412047312 0 -2325681.2412047312 -10732622.093362192 0 0 0 0 41994102.161193848 5334636.9635272026 0 5334636.9635272026 -26542321.919178009 0 0 0 0 6819310.8913574219 7539152.5139325857 0 7539152.5139325857 -13575161.330472946 0 0 0 0 40617249.449279785 947972.27834844589 0 947972.27834844589 -11637679.732202888 0 0 0 0 48387350.061767578 13849617.817731142 0 13849617.817731142 -15316032.23465538 0 0 0 0 42187045.003192902 2413366.986266017 0 2413366.986266017 -16797314.520334244 0 0 0 0 48217940.874206543 21815544.262305737 0 21815544.262305737 -29955151.302129328 0 0 0 0 39833027.732513428 30578472.076447964 0 30578472.076447964 8184902.1067996025 0 0 0 0 28305221.139129639 958856.42670106888 0 958856.42670106888 41524361.88267231 0 0 0 0 52009440.998931885 -21448217.387959003 0 -21448217.387959003 13020923.764911175 0 0 0 0 28449749.761579514 -1011814.2940647155 0 -1011814.2940647155 -4662874.5359716415 0 0 0 0 44645200.631500244 -5438885.8762512207 0 -5438885.8762512207 -32271307.536602974 0 0 0 0 42956943.596191406 -8863011.145029068 0 -8863011.145029068 -17722202.889264524 0 0 0 0 35824393.833892822 -11884724.993411064 0 -11884724.993411064 10036232.045937538 0 0 0 0 14511314.44152832 -24941315.031758308 0 -24941315.031758308 11495873.314787149 0 0 0 0 40945456.352661133 -45868990.750695944 0 -45868990.750695944 3586967.0378341675 0 0 0 0 82809340.870178223 -31198191.043095112 0 -31198191.043095112 -21628043.460895061 0 0 0 0 2443137.6896159649 976800.08184748143 0 976800.08184748143 -545531.82583461143 0 0 0 0 -8817172.3349151611 -7558320.6408020258 0 -7558320.6408020258 -2550465.705165863 0 0 0 0 -1055289.7443351746 -42916662.556030333 0 -42916662.556030333 3603792.9579057693 0 0 0 0 -1696503.7611694336 173205263.86465931 0 173205263.86465931 -72474897.030727386 0 0 0 0 19792142.498657227 -16084198.423975945 0 -16084198.423975945 -4708652.00517416 0 0 0 0 21602035.820343018 -1120270.5837788582 0 -1120270.5837788582 2225550.6664409637 0 0 0 0 22670378.477386475 -23529580.882989883 0 -23529580.882989883 5521693.5531263351 0 0 0 0 17537790.116027832 -4579373.4248371124 0 -4579373.4248371124 -36403744.949304581 0 0 0 0 38172547.332397461 -1602902.7795748711 0 -1602902.7795748711 -27455906.971113205 0 0 0 0 9832058.7825317383 -4533930.3531217575 0 -4533930.3531217575 -27376067.860765979 0 0 0 0 8090450.6028269231 3214291.3647581711 0 3214291.3647581711 -1941362.9967983193 0 0 0 0 16028518.507507324 -21795920.093039513 0 -21795920.093039513 -37452305.146548688 0 0 0 0 28183679.367523193 30256476.645951271 0 30256476.645951271 3569230.7016506195 0 0 0 0 12606880.432414919 -1990171.5093861623 0 -1990171.5093861623 -4114804.1116744792 0 0 0 0 3773390.9549560547 -4610253.8054714203 0 -4610253.8054714203 -7473738.1120495796 0 0 0 0 7254953.4488218725 -175748.04147959501 0 -175748.04147959501 -3495283.2090859883 0 0 0 0 1890757.3740844727 -4625428.7586541176 0 -4625428.7586541176 -10954211.821737766 0 0 0 0 10273994.921228521 2265027.4887758642 0 2265027.4887758642 -3759928.7795808432 0 0 0 0 -13231901.989379883 -23331973.041951716 0 -23331973.041951716 -12908354.427162766 0 0 0 0 -4452837.2945556641 -6191698.1202151775 0 -6191698.1202151775 13280611.911058426 0 0 0 0 15310630.408080757 -3055757.6058724821 0 -3055757.6058724821 -6727145.5722276662 0 0 0 0 45119790.024536133 -4630988.3771295547 0 -4630988.3771295547 53231299.045643806 0 0 0 0 -23140917.131858826 -11788644.937868431 0 -11788644.937868431 7529738.5590385199 0 0 0 0 -7750564.9616699219 -9080547.2727612257 0 -9080547.2727612257 -20311694.504701793 0 0 0 0 -398613.74143496156 -350233.71329991147 0 -350233.71329991147 55695.390903331572 0 0 0 0 -1752562.3650939614 -7660289.5955942404 0 -7660289.5955942404 445565.60784847784 0 0 0 0 22778769.094665527 1320011.8378121853 0 1320011.8378121853 -4765573.4617602825 0 0 0 0 6043833.6343078613 -13025072.749813795 0 -13025072.749813795 5491161.6683443785 0 0 0 0 855487.45368681848 1063714.7266573496 0 1063714.7266573496 -69129.252518781723 0 0 0 0 3412705.529586792 3562810.3085352182 0 3562810.3085352182 -373270.94744873047 0 0 0 0 9986094.9295806885 -40272372.385337353 0 -40272372.385337353 -12951898.792982101 0 0 0 0 102365034.79058838 -94134703.033689499 0 -94134703.033689499 82041871.913677216 0 0 0 0 12756187.117593795 -2801621.0349013358 0 -2801621.0349013358 -8206609.8935004044 0 0 0 0 43705799.843688965 25326216.304122925 0 25326216.304122925 -12353729.364637792 0 0 0 0 195169632.75306702 -55207868.725674629 0 -55207868.725674629 14970835.496586084 0 0 0 0 21757574.314971924 683132.02420413494 0 683132.02420413494 6981337.0693092346 0 0 0 0 41571031.70123291 77134069.656506777 0 77134069.656506777 130208012.10711479 0 0 0 0 -164086.08228445053 1664958.089890454 0 1664958.089890454 506786.44889646 0 0 0 0 74277062.801368713 55042833.361153245 0 55042833.361153245 37008286.919114113 0 0 0 0 76173416.779781342 59794514.797385454 0 59794514.797385454 36203982.691082001 0 0 0 0 24170074.162628174 49639416.150301933 0 49639416.150301933 71598821.800003529 0 0 0 0 47111289.820495605 41730222.507023811 0 41730222.507023811 32438162.181347847 0 0 0 0 12050464.251960754 14651832.809203863 0 14651832.809203863 26755492.228033066 0 0 0 0 -14563663.697418213 1144224.0508713722 0 1144224.0508713722 53163745.593303919 0 0 0 0 21956144.859710693 2998726.5364329815 0 2998726.5364329815 -8517642.0638790131 0 0 0 0 7038528.0986633301 7060725.4109797478 0 7060725.4109797478 15840314.516526222 0 0 0 0 3736256.8930130005 -7561635.8297080994 0 -7561635.8297080994 -2211880.2986564636 0 0 0 0 20219038.286987305 16658174.775701523 0 16658174.775701523 17146573.367665052 0 0 0 0 7285716.0337371826 -909849.15790069103 0 -909849.15790069103 -9782218.7175178528 0 0 0 0 10454656.023629367 1657660.5782985985 0 1657660.5782985985 -4355239.1027439265 0 0 0 0 2709253.3124268726 391744.43520507962 0 391744.43520507962 -1437292.8282969019 0 0 0 0 8513367.9505615234 -8285342.3372385502 0 -8285342.3372385502 -15529126.371451378 0 0 0 0 7740709.1760253906 1480630.4746923447 0 1480630.4746923447 -3475999.4930782318 0 0 0 0 1117968.6187744141 -2450258.3409781456 0 -2450258.3409781456 10787581.175168991 0 0 0 0 14604645.873657227 6539409.5001487732 0 6539409.5001487732 12523675.751087666 0 0 0 0 10479470.544708252 -3350374.0480098724 0 -3350374.0480098724 9180280.0149211884 0 0 0 0 25183263.299407959 -8701252.6547002792 0 -8701252.6547002792 -1202319.5810947418 0 0 0 0 8325684.4590101242 -12122984.423047513 0 -12122984.423047513 385238.64208984375 0 0 0 0 25653496.679107666 3808718.575214386 0 3808718.575214386 12007959.208621025 0 0 0 0 25547369.422195435 5569949.5326135159 0 5569949.5326135159 -478709.42349433899 0 0 0 0 24100663.903488159 12382513.102649689 0 12382513.102649689 17175328.498374939 0 0 0 0 18977651.100067139 5240256.6482043266 0 5240256.6482043266 13024520.75161171 0 0 0 0 21543377.494979858 10576894.475103378 0 10576894.475103378 17390596.873958588 0 0 0 0 24950771.079406738 13225817.799758911 0 13225817.799758911 16240417.029471397 0 0 0 0 22108370.134094238 14947381.666513443 0 14947381.666513443 21399349.307627678 0 0 0 0 14111060.548217773 4963287.9251670837 0 4963287.9251670837 14710946.805932999 0 0 0 0 11229311.624359131 14148365.942937851 0 14148365.942937851 21843047.587039948 0 0 0 0 28574381.040496826 23042894.461139679 0 23042894.461139679 26353711.695226192 0 0 0 0 15540554.000427246 13044960.531233788 0 13044960.531233788 24989960.782886505 0 0 0 0 17962841.829467773 24523598.210786819 0 24523598.210786819 37572650.248044968 0 0 0 0 35916832.147323608 21836792.064024925 0 21836792.064024925 22044121.304725647 0 0 0 0 36990486.070923805 33673424.528383911 0 33673424.528383911 26026196.493581772 0 0 0 0 32386935.374664307 23486512.466379166 0 23486512.466379166 25918554.342674255 0 0 0 0 27488248.598052979 13231766.834481239 0 13231766.834481239 15703300.852622986 0 0 0 0 22907282.053024292 12338774.881371021 0 12338774.881371021 19270724.406005859 0 0 0 0 25472180.879821777 17632677.606376648 0 17632677.606376648 23402411.925695419 0 0 0 0 33099642.063079834 17175245.156734467 0 17175245.156734467 21786459.522792816 0 0 0 0 35828105.083374023 18671188.014484406 0 18671188.014484406 23170672.722101212 0 0 0 0 28894479.535232544 19864388.631843567 0 19864388.631843567 25255561.88859272 0 0 0 0 48117623.715595245 24869903.622873306 0 24869903.622873306 17238134.785488129 0 0 0 0 47814415.601623535 25220948.975767136 0 25220948.975767136 22176940.861585617 0 0 0 0 61629928.875461578 23898031.559633493 0 23898031.559633493 -8200190.9061412811 0 0 0 0 70893489.197753906 25810414.64507103 0 25810414.64507103 15256351.519290924 0 0 0 0 5746541.9872865826 3322446.9031842053 0 3322446.9031842053 1180989.7281072307 0 0 0 0 52828718.761749268 34411059.038477421 0 34411059.038477421 7561060.4993228912 0 0 0 0 69372228.663803101 48076388.325112343 0 48076388.325112343 7148755.1754083633 0 0 0 0 81532707.12651062 40584996.840020418 0 40584996.840020418 4345976.6182613373 0 0 0 0 78546389.047359467 59211368.163763642 0 59211368.163763642 18564177.650896072 0 0 0 0 68768515.818725586 47114072.583384514 0 47114072.583384514 8489216.9057722092 0 0 0 0 70256567.997436523 35287456.401977539 0 35287456.401977539 18549032.36746788 0 0 0 0 51066281.789581299 52330845.69024086 0 52330845.69024086 34062442.009317398 0 0 0 0 18361423.291275024 5699153.8285655975 0 5699153.8285655975 1411666.2910380363 0 0 0 0 19209439.201248169 4110353.7187048197 0 4110353.7187048197 -3481488.4787311554 0 0 0 0 14640917.12121582 28763466.378012657 0 28763466.378012657 19178028.182527542 0 0 0 0 8575552.1484222412 7465361.6268391609 0 7465361.6268391609 6961850.596613884 0 0 0 0 21484049.020599365 7474178.7962443233 0 7474178.7962443233 -3282269.5939617157 0 0 0 0 21691307.394176483 6800634.7159200907 0 6800634.7159200907 -15453066.607955933 0 0 0 0 31307714.05871582 6251237.5489392281 0 6251237.5489392281 -45048693.320770264 0 0 0 0 25962526.795623779 12337719.527543068 0 12337719.527543068 -8291039.7563877106 0 0 0 0 29379705.046325684 41538682.381263733 0 41538682.381263733 -5835894.8687171936 0 0 0 0 37993120.600036621 36883254.826333523 0 36883254.826333523 -30049368.393138885 0 0 0 0 15375412.820171356 1937160.0193322897 0 1937160.0193322897 -2535286.5616588593 0 0 0 0 11720745.899459839 -6185291.7473154068 0 -6185291.7473154068 -16865455.06999588 0 0 0 0 10013377.20948449 427451.74767355621 0 427451.74767355621 -1197851.0755675053 0 0 0 0 15492585.151229858 1458177.6914954185 0 1458177.6914954185 -1397872.0063505173 0 0 0 0 57910261.496673584 18434546.175022125 0 18434546.175022125 -6310581.5958075523 0 0 0 0 38903025.306396484 -6845639.1408233643 0 -6845639.1408233643 3959845.0127725601 0 0 0 0 8916816.190612793 -10423514.069034576 0 -10423514.069034576 3741089.1021618843 0 0 0 0 62864280.005981445 -725512.54083061218 0 -725512.54083061218 -10012177.646024704 0 0 0 0 19582458.091026306 5565074.1106748581 0 5565074.1106748581 -4688062.6165828705 0 0 0 0 2496860.97004807 720779.19792002812 0 720779.19792002812 -1503323.1419424885 0 0 0 0 13529108.665924773 871594.55234485678 0 871594.55234485678 -3097924.6182842143 0 0 0 0 11429604.527114868 83534.816045761108 0 83534.816045761108 -772213.97073459625 0 0 0 0 10707197.166202545 3150093.0783771873 0 3150093.0783771873 -2293194.3372793198 0 0 0 0 8772782.4116593599 148801.21828358248 0 148801.21828358248 -3452657.4425006066 0 0 0 0 9248985.515756622 2628020.9808808044 0 2628020.9808808044 -2782232.0278610531 0 0 0 0 40758342.575683594 4570707.8340406418 0 4570707.8340406418 -5896525.7321491241 0 0 0 0 3359832.5526733398 -4231594.3559322357 0 -4231594.3559322357 -7706349.2492160797 0 0 0 0 7461307.8544921875 -17419.281215667725 0 -17419.281215667725 -10911649.782957077 0 0 0 0 8623743.654327035 3636564.3433847129 0 3636564.3433847129 -3526180.1270066779 0 0 0 0 18040527.75189209 21872841.47324276 0 21872841.47324276 1765929.5836668015 0 0 0 0 43270353.895782471 2018953.9432601929 0 2018953.9432601929 230705.83152770996 0 0 0 0 19246300.320159912 7532914.591094017 0 7532914.591094017 8773484.7980899811 0 0 0 0 14451683.025085449 -6804104.2184925079 0 -6804104.2184925079 -7580495.4963417053 0 0 0 0 22062545.366210938 7282607.3274059296 0 7282607.3274059296 1578106.3598394394 0 0 0 0 308722.29949951172 2045851.4981231689 0 2045851.4981231689 6463810.8025608063 0 0 0 0 13857009.916046143 2883692.8183841705 0 2883692.8183841705 7278637.2401599884 0 0 0 0 23266818.325073242 4576780.0988788605 0 4576780.0988788605 6272936.7929487228 0 0 0 0 24318176.201141357 9469994.1994838715 0 9469994.1994838715 7588236.6317796707 0 0 0 0 27343224.769317627 12401946.796239853 0 12401946.796239853 14138058.258880377 0 0 0 0 19620213.145172119 9378079.5199136734 0 9378079.5199136734 14566795.562206268 0 0 0 0 23510450.710617065 7550033.4991827011 0 7550033.4991827011 13811093.774539948 0 0 0 0 23249693.696990967 13481117.077082634 0 13481117.077082634 21370417.188390732 0 0 0 0 26013799.834716797 13921473.286780357 0 13921473.286780357 25292819.692352295 0 0 0 0 30489979.18913269 15411012.649901628 0 15411012.649901628 20979464.299091339 0 0 0 0 57258356.000320435 13389428.75573349 0 13389428.75573349 10751971.12110424 0 0 0 0 35165263.688156128 3573155.4707231522 0 3573155.4707231522 7253114.8923721313 0 0 0 0 36473817.989242554 4874162.1685428619 0 4874162.1685428619 8150690.1589317322 0 0 0 0 33360764.453582764 4070833.8549985886 0 4070833.8549985886 10627083.656240463 0 0 0 0 34101683.111175537 15661535.827275276 0 15661535.827275276 17702764.84034729 0 0 0 0 24890559.097808838 8879452.96783638 0 8879452.96783638 11675896.853630066 0 0 0 0 23877721.676198959 -2597002.7249820232 0 -2597002.7249820232 5961566.139125824 0 0 0 0 29326444.395217896 6159278.0839500427 0 6159278.0839500427 5549740.4051914215 0 0 0 0 5917187.7666795775 -3210163.0460269004 0 -3210163.0460269004 -286637.2793281246 0 0 0 0 12716726.263587952 5631276.3130184412 0 5631276.3130184412 62393.048517227173 0 0 0 0 13715851.323074907 3006724.1934203841 0 3006724.1934203841 -1065371.0083432095 0 0 0 0 32969430.279895782 2359803.1100058556 0 2359803.1100058556 8668459.8895492554 0 0 0 0 1944382.1382518858 -1936660.3358029276 0 -1936660.3358029276 -296282.4160492029 0 0 0 0 14111175.668731689 846390.30430221558 0 846390.30430221558 -2136014.9786408693 0 0 0 0 15133412.442565918 4576258.9844141006 0 4576258.9844141006 8935899.977016449 0 0 0 0 15253082.255706787 5537957.5558633804 0 5537957.5558633804 -2155418.9591239281 0 0 0 0 15827499.539793015 2789532.6110726595 0 2789532.6110726595 -841487.76810646057 0 0 0 0 4729858.9613647461 4833480.903801918 0 4833480.903801918 -32680591.874312401 0 0 0 0 69859714.502414703 -93142847.914299011 0 -93142847.914299011 60203978.19222641 0 0 0 0 25021047.131601505 7934874.2196330009 0 7934874.2196330009 -436550.37451945385 0 0 0 0 52435077.908985138 -49649142.412587404 0 -49649142.412587404 -46898541.226641655 0 0 0 0 15317587.008592051 -6563700.8606243711 0 -6563700.8606243711 -5673663.2856994886 0 0 0 0 38838572.737248063 -2592660.6070985347 0 -2592660.6070985347 -17729206.273120463 0 0 0 0 5194275.5815064907 18760958.772542506 0 18760958.772542506 60660489.607025146 0 0 0 0 5214688.4996337891 16429252.420038223 0 16429252.420038223 9657607.5877304077 0 0 0 0 23975939.799400136 5467600.2941348478 0 5467600.2941348478 1494563.1956302105 0 0 0 0 17507572.532211304 4028455.6711256504 0 4028455.6711256504 -11608174.993081093 0 0 0 0 74392364.777656555 35079939.425682545 0 35079939.425682545 20690616.45728302 0 0 0 0 6955648.4314422607 1088640.6612739563 0 1088640.6612739563 8856448.1355323792 0 0 0 0 22771816.398712158 -8890799.279258728 0 -8890799.279258728 105988422.16780853 0 0 0 0 3018459.4764480591 10329513.221352577 0 10329513.221352577 -14700796.779121429 0 0 0 0 3209260.977722168 12348344.105070829 0 12348344.105070829 -1608041.6875715256 0 0 0 0 451404.62039988488 -2268190.4892063844 0 -2268190.4892063844 -2655311.9505318692 0 0 0 0 29462546.421750911 7505641.5393640026 0 7505641.5393640026 -7431985.3248725338 0 0 0 0 78642343.193939209 88145148.661277771 0 88145148.661277771 -93655237.096237183 0 0 0 0 3248354.49269104 5981698.6235311031 0 5981698.6235311031 -24123366.801308632 0 0 0 0 19540808.691265032 11120016.184514696 0 11120016.184514696 -3444616.0428244956 0 0 0 0 3325248.8748203963 11722971.467015449 0 11722971.467015449 2289241.7335370788 0 0 0 0 -102553762.7890625 -33513036.85053587 0 -33513036.85053587 -27366568.473761559 0 0 0 0 30057319.774169922 -6017534.8714487553 0 -6017534.8714487553 -87853541.265409887 0 0 0 0 24748096.336840704 13656961.431519765 0 13656961.431519765 -771040.1962346565 0 0 0 0 143114.24270990491 -663864.29572809068 0 -663864.29572809068 -825305.24950655224 0 0 0 0 24329331.135345459 31657806.710701704 0 31657806.710701704 30079799.390431643 0 0 0 0 5604209.8385314941 6108070.2417290211 0 6108070.2417290211 -13137869.8554039 0 0 0 0 2277756.624206543 9224020.1226861477 0 9224020.1226861477 7977869.9863967896 0 0 0 0 31205386.134155273 21661474.474574089 0 21661474.474574089 32905562.986976624 0 0 0 0 44876691.824073792 5480505.9490966797 0 5480505.9490966797 11375875.401371002 0 0 0 0 125685301.77565002 20762174.981311083 0 20762174.981311083 -71616922.608825564 0 0 0 0 29336715.826644897 14462897.558288574 0 14462897.558288574 30103519.860736847 0 0 0 0 28713569.995788574 16687875.769348145 0 16687875.769348145 26155464.509595871 0 0 0 0 28208014.387809992 7246639.6714333203 0 7246639.6714333203 -3137770.5799709428 0 0 0 0 70151558.67048645 26111033.392551899 0 26111033.392551899 -3954744.4909265041 0 0 0 0 57235755.20280838 -9401356.1357592642 0 -9401356.1357592642 -8346359.4345421791 0 0 0 0 32440865.340432167 -594144.52224707603 0 -594144.52224707603 -5073955.2522530556 0 0 0 0 31907456.289810181 12500644.121474504 0 12500644.121474504 -8796558.2973606586 0 0 0 0 34794695.202939034 14262475.616247147 0 14262475.616247147 -11601440.413400173 0 0 0 0 13298721.718417704 6726766.4577359725 0 6726766.4577359725 -4260252.9996976117 0 0 0 0 25217503.893127441 12571098.425503254 0 12571098.425503254 -14365506.028014183 0 0 0 0 20850242.516952515 11107279.891025901 0 11107279.891025901 -10339472.675719738 0 0 0 0 23517785.175509453 9167288.4812116548 0 9167288.4812116548 -4404327.6419822518 0 0 0 0 -229962424.96589661 127066588.15393734 0 127066588.15393734 16537751.795936584 0 0 0 0 -40063569.827392578 6884213.639995575 0 6884213.639995575 -201039458.46585011 0 0 0 0 -5747726.6188735962 29284839.391808152 0 29284839.391808152 34866633.451539874 0 0 0 0 -1344215.9031028897 3020129.5052025947 0 3020129.5052025947 527569.93733865768 0 0 0 0 17516193.109294891 21100368.224508166 0 21100368.224508166 -10190187.058004379 0 0 0 0 10015776.363937378 11140491.026396394 0 11140491.026396394 -9438026.4767739773 0 0 0 0 27328671.360351562 26378931.619330406 0 26378931.619330406 3028400.2828630805 0 0 0 0 355436615.73719788 244392137.62966824 0 244392137.62966824 -257939842.53888512 0 0 0 0 422960180.78483582 155898996.50099528 0 155898996.50099528 -9188302.0166931152 0 0 0 0 497080067.86273193 -202065034.99545002 0 -202065034.99545002 -4747174.5977945328 0 0 0 0 -320352132.26530457 -188291252.69887757 0 -188291252.69887757 362658815.86900902 0 0 0 0 -321141333.45423889 12294459.239970922 0 12294459.239970922 232456246.88004112 0 0 0 0 -54155986.546264648 -543704541.25903988 0 -543704541.25903988 512165405.27865076 0 0 0 0 116490846.76927185 -108218494.94499922 0 -108218494.94499922 26596438.33846283 0 0 0 0 82772018.633758545 14042159.177426577 0 14042159.177426577 -45119765.547466278 0 0 0 0 -7725451.2443847656 -27932333.166452885 0 -27932333.166452885 7308982.7309293747 0 0 0 0 -4923592.0147247314 8624108.8861603737 0 8624108.8861603737 -39049888.51750946 0 0 0 0 -83888182.063842773 32491331.450849771 0 32491331.450849771 -31275387.678619385 0 0 0 0 19513747.500488281 15579573.11177516 0 15579573.11177516 -35038475.688727856 0 0 0 0 9020474.3955841064 -5378563.162412405 0 -5378563.162412405 -46865748.483142734 0 0 0 0 102310612.52796936 49058344.281260371 0 49058344.281260371 -45043734.009043694 0 0 0 0 65604980.319992065 -12612028.920965672 0 -12612028.920965672 -49661978.968691051 0 0 0 0 160103815.56318665 79961865.406727552 0 79961865.406727552 -20439632.639295578 0 0 0 0 181995865.07881165 -21633199.148899078 0 -21633199.148899078 -49167586.701021194 0 0 0 0 120720608.28983307 -46725483.720699847 0 -46725483.720699847 -33517393.377182007 0 0 0 0 151129892.96324158 70443343.547794819 0 70443343.547794819 -10032812.405923843 0 0 0 0 161604272.06500244 122729699.78539896 0 122729699.78539896 26966832.996651173 0 0 0 0 161808747.520401 72384750.365469933 0 72384750.365469933 -36575887.920283318 0 0 0 0 95745637.384689331 86937762.02276063 0 86937762.02276063 7670818.9775385857 0 0 0 0 110902596.45436096 62058546.9090904 0 62058546.9090904 -39700159.067691326 0 0 0 0 92052240.862213135 52200289.519767523 0 52200289.519767523 -34644060.031023502 0 0 0 0 109662765.73551941 59072872.379251957 0 59072872.379251957 -8363473.3090900565 0 0 0 0 78918990.444225311 63699277.594459236 0 63699277.594459236 -8401165.2569570541 0 0 0 0 67304746.911392212 49633541.211050034 0 49633541.211050034 28007900.156049967 0 0 0 0 11188564.282337189 -1790890.6011627018 0 -1790890.6011627018 -15994291.46850872 0 0 0 0 41923165.550384521 24025781.836667061 0 24025781.836667061 -75701170.110539675 0 0 0 0 217245.11164855957 65842965.844140768 0 65842965.844140768 67702216.25259614 0 0 0 0 96094085.474411011 152526159.27816606 0 152526159.27816606 62365204.881128073 0 0 0 0 4473688.5103999414 -1864640.7069390519 0 -1864640.7069390519 -1392117.9581722496 0 0 0 0 112109488.58670807 25833777.824213028 0 25833777.824213028 -29273509.033069611 0 0 0 0 30569046.40007782 -1700326.8744668961 0 -1700326.8744668961 -3392097.4492874146 0 0 0 0 53257600.091638602 11519770.831515161 0 11519770.831515161 -9679509.6377070751 0 0 0 0 98297629.237586975 -810727.48119926453 0 -810727.48119926453 -50226777.328260422 0 0 0 0 25244774.646263838 3295655.8003634959 0 3295655.8003634959 -10892816.56452119 0 0 0 0 31598613.454650387 1210123.1637538965 0 1210123.1637538965 -5538186.0955458749 0 0 0 0 48002784.287521362 16135454.128223419 0 16135454.128223419 14393835.669364929 0 0 0 0 30584656.760040283 10761628.25134635 0 10761628.25134635 -15444800.726524711 0 0 0 0 36247206.560791016 17620796.957145691 0 17620796.957145691 23212878.785814643 0 0 0 0 4490578.2642822266 -685514.19778871536 0 -685514.19778871536 3353315.0869634151 0 0 0 0 18923538.16897583 -17434388.926485538 0 -17434388.926485538 -6887410.7455257177 0 0 0 0 24689669.981506348 1004310.4647276402 0 1004310.4647276402 2509474.6158233881 0 0 0 0 13461426.974365234 12468365.558734417 0 12468365.558734417 -1911140.7449576855 0 0 0 0 37511206.840286255 12966436.228099227 0 12966436.228099227 -2885342.9711457491 0 0 0 0 26593115.495185852 2934359.7440043688 0 2934359.7440043688 -3850016.711063385 0 0 0 0 18595267.574952401 -1815901.9767198153 0 -1815901.9767198153 -11665176.175248111 0 0 0 0 26050701.221038818 1545951.9845903218 0 1545951.9845903218 -5121058.3100304604 0 0 0 0 27331875.421951294 4004725.5960755348 0 4004725.5960755348 -8980198.6162655354 0 0 0 0 23424625.317398071 -2141541.2328432798 0 -2141541.2328432798 -4681834.3863642216 0 0 0 0 19955158.249099731 4715364.9464709759 0 4715364.9464709759 -7789742.9578707218 0 0 0 0 28240323.381217957 3260583.577657938 0 3260583.577657938 -13265781.026688576 0 0 0 0 16965928.416796301 -3169304.6246208474 0 -3169304.6246208474 -11133985.738287037 0 0 0 0 35891955.849784851 -6309667.6724853516 0 -6309667.6724853516 -27116502.882646561 0 0 0 0 30580989.237747192 6552941.0143215656 0 6552941.0143215656 -8654388.2809156179 0 0 0 0 111159640.00377655 35982133.222776413 0 35982133.222776413 -21061384.09614563 0 0 0 0 150529632.02179718 -13141923.648497581 0 -13141923.648497581 -80961851.271366119 0 0 0 0 30930482.72804451 -6657507.2888822556 0 -6657507.2888822556 19531290.375076294 0 0 0 0 86176841.928920746 36871730.637661934 0 36871730.637661934 59771175.778434753 0 0 0 0 260016317.11891174 143184222.67570305 0 143184222.67570305 11057466.030437469 0 0 0 0 3367805.3385457993 1614285.3075634316 0 1614285.3075634316 204792.18745598756 0 0 0 0 -82634214.553253174 -314308104.84388256 0 -314308104.84388256 -218830968.90063858 0 0 0 0 -20797047.101783752 -17849825.41256237 0 -17849825.41256237 -54036673.831487656 0 0 0 0 264380342.20861816 103668773.11965561 0 103668773.11965561 -82121879.202894211 0 0 0 0 206383021.5644989 102470440.22033691 0 102470440.22033691 -81384788.985877991 0 0 0 0 118355656.54293346 87641966.120494127 0 87641966.120494127 -17750910.468143463 0 0 0 0 157255861.6917572 62405322.364730835 0 62405322.364730835 -84893014.279267788 0 0 0 0 39224201.639778137 -47219350.700284958 0 -47219350.700284958 -55521666.014266968 0 0 0 0 101113109.49523163 -10622522.382339478 0 -10622522.382339478 -155376481.18917847 0 0 0 0 11358075.213899978 5968340.7869893312 0 5968340.7869893312 1355251.1098585874 0 0 0 0 156498864.56013489 79716771.434194565 0 79716771.434194565 16808563.245397568 0 0 0 0 -84646893.473487854 -170796660.36564636 0 -170796660.36564636 -139566170.56776249 0 0 0 0 -22870944.596214294 -10958462.51065588 0 -10958462.51065588 -46790752.371612549 0 0 0 0 60316364.375534058 -30161189.580091476 0 -30161189.580091476 -104850778.87638855 0 0 0 0 -10148745.326217651 -88832265.333360672 0 -88832265.333360672 -86366280.519653797 0 0 0 0 26062741.589249834 13240151.483422209 0 13240151.483422209 3085246.6290287152 0 0 0 0 99643615.987174988 44072360.216056824 0 44072360.216056824 -12397876.253347397 0 0 0 0 37309409.941810608 27042388.728000641 0 27042388.728000641 30502728.304661751 0 0 0 0 9838171.2758636475 -25159443.58707428 0 -25159443.58707428 -33325957.836733818 0 0 0 0 150683698.74957657 78013274.310793877 0 78013274.310793877 11036242.328422546 0 0 0 0 71725455.80897522 -38599751.729167938 0 -38599751.729167938 -54824235.241401672 0 0 0 0 43980668.943031311 -7702785.9209194183 0 -7702785.9209194183 -81446586.287485123 0 0 0 0 132870994.40138245 47603305.59663868 0 47603305.59663868 -172478.46598052979 0 0 0 0 50739880.347724915 -42679935.000404358 0 -42679935.000404358 -38199495.330871582 0 0 0 0 131465766.96130371 45236681.396671295 0 45236681.396671295 -12926391.189476013 0 0 0 0 195391437.82447815 39931211.381958008 0 39931211.381958008 -14855795.481372833 0 0 0 0 179816211.63957214 58968881.552410126 0 58968881.552410126 22963513.473020554 0 0 0 0 207056698.55345154 123787049.73834229 0 123787049.73834229 44581955.571043015 0 0 0 0 177445481.54115295 120064900.60588074 0 120064900.60588074 80199512.289871216 0 0 0 0 269422761.01512146 134644203.21907806 0 134644203.21907806 110850754.70946503 0 0 0 0 -4913136.5980682373 -1171114.0991983414 0 -1171114.0991983414 31239374.888439178 0 0 0 0 278852238.32421875 151712174.81995392 0 151712174.81995392 61765251.724472046 0 0 0 0 233739183.37332153 139587639.08852386 0 139587639.08852386 205422670.39139557 0 0 0 0 233438294.03479004 170991530.69156647 0 170991530.69156647 138003157.21096039 0 0 0 0 240609561.04838753 96466403.220425367 0 96466403.220425367 49613536.132789612 0 0 0 0 295241975.20451355 307299154.65023613 0 307299154.65023613 206026541.35124931 0 0 0 0 173721755.65083313 33129751.397109985 0 33129751.397109985 -27455559.34330368 0 0 0 0 191349182.42234802 112171143.40454292 0 112171143.40454292 62441465.123504639 0 0 0 0 344826155.07855225 258332484.45708656 0 258332484.45708656 92025707.992456913 0 0 0 0 154044686.29667664 122882673.84971046 0 122882673.84971046 74038385.58767128 0 0 0 0 215559343.37789917 134049772.67702866 0 134049772.67702866 13099125.488395691 0 0 0 0 302707704.28903198 122387424.70919228 0 122387424.70919228 -29761372.040462494 0 0 0 0 389765562.01815796 129598042.99465179 0 129598042.99465179 -481219290.73557281 0 0 0 0 299490294.49568176 238144872.4911232 0 238144872.4911232 -62572997.885566711 0 0 0 0 11461994.252105713 68248027.26956749 0 68248027.26956749 -75313323.261817932 0 0 0 0 -276611451.91990662 -291637033.70559311 0 -291637033.70559311 -215492242.99188995 0 0 0 0 1271791.5938492939 366521.95536460727 0 366521.95536460727 -1067251.1975966264 0 0 0 0 1560778.7519513443 154024.94578207284 0 154024.94578207284 -288667.74916943535 0 0 0 0 29303392.351623535 -122267414.62190628 0 -122267414.62190628 -452981123.33260345 0 0 0 0 113843217.06168699 16591604.38961482 0 16591604.38961482 64037169.367916107 0 0 0 0 120769376.91282654 -42297115.29151535 0 -42297115.29151535 -223423221.42724991 0 0 0 0 -66263213.873306274 -58375190.174030304 0 -58375190.174030304 -164565065.58849335 0 0 0 0 -220713702.02238083 -49739568.731363773 0 -49739568.731363773 -34265152.059127808 0 0 0 0 291933988.76661682 124904207.46047783 0 124904207.46047783 -121678239.72768784 0 0 0 0 207544858.42333984 -223458668.35065842 0 -223458668.35065842 41301497.323774576 0 0 0 0 -346634.8376739379 -1237026.0494953617 0 -1237026.0494953617 340371.36103605852 0 0 0 0 -134549627.74483871 190447459.48677063 0 190447459.48677063 -123333079.30498505 0 0 0 0 548247523.97240448 -179017794.61231613 0 -179017794.61231613 -142551815.4527359 0 0 0 0 52288320.10823822 14961145.391970634 0 14961145.391970634 -13536000.294960022 0 0 0 0 3266603.7876439653 1887397.5438389294 0 1887397.5438389294 -2377968.5755353235 0 0 0 0 37420817.911346436 -197211436.73108673 0 -197211436.73108673 -26082510.460443497 0 0 0 0 4591785.9777537845 531503.41275995597 0 531503.41275995597 -517435.2424823083 0 0 0 0 243502670.98648071 200774733.43695402 0 200774733.43695402 119808249.41805267 0 0 0 0 95941402.839080811 -36137338.759820938 0 -36137338.759820938 -141870945.22915268 0 0 0 0 113060270.58907318 -21166450.020723343 0 -21166450.020723343 -77069353.598197937 0 0 0 0 177777323.51475525 52360798.038923264 0 52360798.038923264 -130409849.53921318 0 0 0 0 135886633.96088409 36723052.910877228 0 36723052.910877228 -133707230.52921295 0 0 0 0 77417193.174194336 3326963.5342159271 0 3326963.5342159271 -83401952.702892393 0 0 0 0 43231102.606536865 19986990.699134827 0 19986990.699134827 -83683427.590297639 0 0 0 0 -73496807.162765503 82633658.012887955 0 82633658.012887955 -108625183.04747391 0 0 0 0 115328026.2448349 67483018.552202225 0 67483018.552202225 -177742019.48246765 0 0 0 0 102710729.46368408 80881613.564846039 0 80881613.564846039 -173818125.17455959 0 0 0 0 79219922.263290405 75120078.647548676 0 75120078.647548676 -105333129.22266197 0 0 0 0 91656184.027603149 59288352.42814827 0 59288352.42814827 -161226095.47589111 0 0 0 0 88560589.635261536 62458671.379699707 0 62458671.379699707 -110776484.95448303 0 0 0 0 39040407.555755615 51667985.754346848 0 51667985.754346848 -84890122.017009735 0 0 0 0 79331647.232877731 64847395.045979857 0 64847395.045979857 -80579605.446578979 0 0 0 0 125854373.54771423 -22867934.915805817 0 -22867934.915805817 27557367.662979126 0 0 0 0 83291182.250422478 21222268.337340355 0 21222268.337340355 -20501460.28427887 0 0 0 0 23230588.471923828 58074815.251827717 0 58074815.251827717 39603928.946548462 0 0 0 0 48793964.262954712 61158091.733146667 0 61158091.733146667 40418262.86541748 0 0 0 0 56301247.370254517 46515704.163574219 0 46515704.163574219 4984632.079574585 0 0 0 0 58561967.546157837 62166186.253002167 0 62166186.253002167 -992056.80750274658 0 0 0 0 48342.879216551781 -2161087.2555911876 0 -2161087.2555911876 -1009477.0561689921 0 0 0 0 160694351.82304382 101470088.36038208 0 101470088.36038208 94835405.566989899 0 0 0 0 186197078.41833496 166530101.31616974 0 166530101.31616974 151417802.64875031 0 0 0 0 191367874.26295853 73235372.767259598 0 73235372.767259598 -33459203.612556458 0 0 0 0 107453696.39610291 111737979.37059784 0 111737979.37059784 -74938931.937862396 0 0 0 0 43790997.925750732 85113216.204498291 0 85113216.204498291 -34394434.396704674 0 0 0 0 103901608.69828796 121423691.66271591 0 121423691.66271591 -235034741.59652328 0 0 0 0 13308370.696522109 8791813.5937231742 0 8791813.5937231742 -570462.93716084026 0 0 0 0 -19385135.141387939 702263.21702957153 0 702263.21702957153 -15749430.343383789 0 0 0 0 -24821730.47164917 -39242114.4633255 0 -39242114.4633255 22935527.791099548 0 0 0 0 305747620.68400574 80597954.314098358 0 80597954.314098358 -25080048.805679321 0 0 0 0 224870915.17814636 166116841.25172806 0 166116841.25172806 71757892.893100739 0 0 0 0 128386828.72858429 107334376.97617722 0 107334376.97617722 -69371813.087020874 0 0 0 0 141411022.54734802 31725822.570987701 0 31725822.570987701 106679437.05292702 0 0 0 0 176998410.32795715 -41745805.199509621 0 -41745805.199509621 -210799474.58992004 0 0 0 0 62963522.825709984 13216879.021885246 0 13216879.021885246 -7770940.5176613368 0 0 0 0 -7634630.5826416016 -25357248.234657288 0 -25357248.234657288 29450324.989761353 0 0 0 0 280340239.3990345 297081762.47721195 0 297081762.47721195 42788144.167892456 0 0 0 0 514189.93908544257 -919280.43913070858 0 -919280.43913070858 -796597.36277167499 0 0 0 0 -91237970.596603394 270114581.08924484 0 270114581.08924484 239443569.92939758 0 0 0 0 44786322.921188354 24265791.330825567 0 24265791.330825567 54536420.2706604 0 0 0 0 81161740.352264404 -29886572.722973824 0 -29886572.722973824 10671723.214298248 0 0 0 0 38052495.22644043 8155600.908718586 0 8155600.908718586 76638354.003099442 0 0 0 0 70187581.929473877 25291531.712947845 0 25291531.712947845 61217988.51638031 0 0 0 0 91411979.595504761 62578878.412496567 0 62578878.412496567 30807306.515060425 0 0 0 0 28879318.095116839 16569864.236924291 0 16569864.236924291 1295602.3129660543 0 0 0 0 69436350.886795044 93135835.172395706 0 93135835.172395706 81057276.24872303 0 0 0 0 192253379.93939209 75322426.327991486 0 75322426.327991486 -85266368.349842072 0 0 0 0 -25882154.52815181 33551501.904529601 0 33551501.904529601 1968275.3058929443 0 0 0 0 64573606.273790598 11821297.761432085 0 11821297.761432085 -9168409.8976166211 0 0 0 0 81512018.494689941 7254733.5820775032 0 7254733.5820775032 54185164.124264717 0 0 0 0 45321712.359405518 14376138.91394043 0 14376138.91394043 86855220.439738274 0 0 0 0 67782358.776594043 17120581.067745995 0 17120581.067745995 -6073570.4300792934 0 0 0 0 18301021.115114674 7989616.798316516 0 7989616.798316516 -158484.98627855815 0 0 0 0 -154217775.86877441 205242072.1697526 0 205242072.1697526 5084482.3084850311 0 0 0 0 53557668.806518555 156778332.43884373 0 156778332.43884373 14899481.024166107 0 0 0 0 113234776.95780945 84412542.130811691 0 84412542.130811691 -16697192.242828369 0 0 0 0 12624475.476623535 97252249.260371685 0 97252249.260371685 -26300803.664310455 0 0 0 0 -67640469.042510986 170830008.2805748 0 170830008.2805748 -15775158.666040421 0 0 0 0 -128360444.79498291 171911175.93310928 0 171911175.93310928 17845962.327243805 0 0 0 0 -376421.58142089844 78261181.346438408 0 78261181.346438408 -4578521.221616745 0 0 0 0 34640660.999847412 67538596.774766445 0 67538596.774766445 -11843224.744131088 0 0 0 0 52792712.116073608 72598021.663104773 0 72598021.663104773 -50114882.706186295 0 0 0 0 29365551.798858643 87168926.225558758 0 87168926.225558758 -37001318.631859779 0 0 0 0 4799331.1362915039 73767641.732329845 0 73767641.732329845 -38674579.429641247 0 0 0 0 37749465.585723877 61713590.048121929 0 61713590.048121929 -30210089.459501266 0 0 0 0 -3835757.6524047852 76192423.558807373 0 76192423.558807373 -39338893.460494995 0 0 0 0 19728413.576080322 98162935.987262249 0 98162935.987262249 -30160518.838947773 0 0 0 0 -43394149.794067383 95214680.542636871 0 95214680.542636871 -33896075.382328033 0 0 0 0 4270930.9363460541 80249521.779705167 0 80249521.779705167 -43274038.686576366 0 0 0 0 -89516481.448188782 69766415.274413735 0 69766415.274413735 -24576579.950757027 0 0 0 0 -52565239.440368652 69907983.65917778 0 69907983.65917778 -31940887.14385128 0 0 0 0 -117956512.29520416 90029289.381471276 0 90029289.381471276 -16589106.462060928 0 0 0 0 -105066054.07626343 77368229.951056957 0 77368229.951056957 -21245457.470933914 0 0 0 0 -63159191.053649902 123189712.44369316 0 123189712.44369316 -30207124.833279252 0 0 0 0 43027277.340270996 63342400.113609791 0 63342400.113609791 94941587.113121033 0 0 0 0 64860387.919708252 -7916883.1218323708 0 -7916883.1218323708 83358409.476187706 0 0 0 0 43083666.658798218 30289100.596471071 0 30289100.596471071 61193653.662853241 0 0 0 0 15578378.536773682 89919875.408836842 0 89919875.408836842 -14734265.158269644 0 0 0 0 54418447.359695435 77948245.511672378 0 77948245.511672378 -35075814.286187649 0 0 0 0 30192792.027641296 35732355.191637397 0 35732355.191637397 46022812.055867195 0 0 0 0 -112202880.96658325 109142640.82402682 0 109142640.82402682 20749469.905378819 0 0 0 0 -573773.24442848563 -1782063.6034916267 0 -1782063.6034916267 544447.58580078371 0 0 0 0 250906729.46037292 -7045465.4573693275 0 -7045465.4573693275 -30392563.414447308 0 0 0 0 62687571.968597412 11876931.898028016 0 11876931.898028016 78820320.999479294 0 0 0 0 188154631.72027588 91184892.484771729 0 91184892.484771729 120065412.97146702 0 0 0 0 214598144.13325882 -92321711.923112631 0 -92321711.923112631 45126122.703165054 0 0 0 0 61696274.596496582 -7756476.8524837494 0 -7756476.8524837494 201110263.19090843 0 0 0 0 32728122.722869873 -26053059.159550667 0 -26053059.159550667 131487541.90703201 0 0 0 0 46447589.51965332 183868.23070049286 0 183868.23070049286 8671938.7865371704 0 0 0 0 47286063.621963024 -45192599.555377744 0 -45192599.555377744 78803142.133548737 0 0 0 0 -41236138.059890747 11630357.92677331 0 11630357.92677331 57709098.977474213 0 0 0 0 11104128.02154541 -35167942.665639043 0 -35167942.665639043 52386517.928403854 0 0 0 0 83818897.424499512 -31911636.355947018 0 -31911636.355947018 132285024.05940008 0 0 0 0 83774235.43359375 -28466366.912265301 0 -28466366.912265301 40241230.991530418 0 0 0 0 210057979.65753174 94803621.244824409 0 94803621.244824409 48105983.246724129 0 0 0 0 198501408.21129608 -46907397.291027889 0 -46907397.291027889 56902779.64236927 0 0 0 0 70452729.423828125 1454400.078001976 0 1454400.078001976 41512250.58007431 0 0 0 0 74348408.844238281 -36442765.055091858 0 -36442765.055091858 80821884.803947449 0 0 0 0 65627295.299621582 13677322.792171478 0 13677322.792171478 -7369717.5151700974 0 0 0 0 119925260.33862305 65128659.59316349 0 65128659.59316349 19367090.98217392 0 0 0 0 120961272.27507019 -12061163.718607903 0 -12061163.718607903 4600196.5121679306 0 0 0 0 57139968.108292893 10738985.405728839 0 10738985.405728839 -8969712.5399208926 0 0 0 0 83722690.149620056 -2967632.3681588173 0 -2967632.3681588173 -41693501.307994843 0 0 0 0 86219596.070533752 -56778778.235155106 0 -56778778.235155106 -150384629.70174599 0 0 0 0 91090503.234832764 44708868.662302017 0 44708868.662302017 -11854520.13473177 0 0 0 0 60191241.941690385 14024201.799468361 0 14024201.799468361 -7042821.2279247278 0 0 0 0 25204285.116267048 9593738.8891672119 0 9593738.8891672119 2784092.0476497337 0 0 0 0 52478960.281494141 -16362481.583387375 0 -16362481.583387375 75237351.082035065 0 0 0 0 108044625.25600433 86863714.422062397 0 86863714.422062397 38872558.384914398 0 0 0 0 221427874.28728104 71684556.668119669 0 71684556.668119669 40114828.699314117 0 0 0 0 190139448.09487915 -35741150.607582092 0 -35741150.607582092 77297941.420103073 0 0 0 0 34477902.668701172 8725652.8858270645 0 8725652.8858270645 30512663.838840485 0 0 0 0 8109695.183916837 2674829.7822276726 0 2674829.7822276726 383989.67094278894 0 0 0 0 54626551.265716553 -27131508.382935286 0 -27131508.382935286 -13283310.43784523 0 0 0 0 3992229903.7479248 1061482573.2184407 0 1061482573.2184407 1593456646.5253882 0 0 0 0 11974100146.542999 578860066.14093161 0 578860066.14093161 2984540585.8815422 0 0 0 0 4558356.2723615319 -787057.76297075301 0 -787057.76297075301 807098.55112311943 0 0 0 0 11010181866.423035 2884845372.2518682 0 2884845372.2518682 -891172594.8478955 0 0 0 0 4800674966.3537292 2239559793.1607695 0 2239559793.1607695 453732941.54985851 0 0 0 0 6613380604.6200714 1819514413.5318851 0 1819514413.5318851 69848260.483607322 0 0 0 0 5550537190.1463165 1450101100.825815 0 1450101100.825815 571765336.10456848 0 0 0 0 5970994788.5481262 1947430336.6059904 0 1947430336.6059904 345182832.50696641 0 0 0 0 8866361.6884391606 -702781.19766420871 0 -702781.19766420871 596030.79819008149 0 0 0 0 6029145334.0934181 2293648212.6860123 0 2293648212.6860123 532680859.12155056 0 0 0 0 5579876113.8748779 1940924420.5697231 0 1940924420.5697231 628188501.39325094 0 0 0 0 5600446944.2128906 2281038370.5271907 0 2281038370.5271907 798170632.77987039 0 0 0 0 4047986087.6232147 1467478040.879802 0 1467478040.879802 -614888041.43301439 0 0 0 0 4100570788.3201771 1913981374.1661611 0 1913981374.1661611 -26429004.939388037 0 0 0 0 3875705232.7973328 1179254854.8030241 0 1179254854.8030241 -486117929.24158955 0 0 0 0 4142652819.2103882 1435641775.6974721 0 1435641775.6974721 -1020065000.1938157 0 0 0 0 3827404246.5077515 1365858697.2753918 0 1365858697.2753918 82637843.580700219 0 0 0 0 2148355956.357605 210468321.18719444 0 210468321.18719444 79554035.6518296 0 0 0 0 4218391068.8267517 -558064669.8270303 0 -558064669.8270303 -102205718.78458595 0 0 0 0 615045749.59902954 159145899.05721015 0 159145899.05721015 303932419.52362883 0 0 0 0 1582823855.5180054 -469787570.55819762 0 -469787570.55819762 392320958.001001 0 0 0 0 774550603.87304688 75486884.250265121 0 75486884.250265121 569603284.75840354 0 0 0 0 -179048683.8482666 349061351.95648885 0 349061351.95648885 420196869.16976357 0 0 0 0 579229182.48309326 -122461430.91872787 0 -122461430.91872787 427663419.25513506 0 0 0 0 -375431900.38267517 -438162728.04990435 0 -438162728.04990435 546868956.89686823 0 0 0 0 1195414988.9628143 -2351486378.3328018 0 -2351486378.3328018 -68289798.285100698 0 0 0 0 2573982262.0020142 -275364075.65493798 0 -275364075.65493798 134804744.08460796 0 0 0 0 5795426733.8266907 -2546156859.6022892 0 -2546156859.6022892 -408178810.13927317 0 0 0 0 1865040009.0553894 -1153621098.1627507 0 -1153621098.1627507 550491403.30968904 0 0 0 0 10217087006.747742 4381606591.4621506 0 4381606591.4621506 2948900142.7976303 0 0 0 0 8382063.612393856 -2702537.2972897403 0 -2702537.2972897403 878624.17405632487 0 0 0 0 4363387369.294342 3849731010.2297268 0 3849731010.2297268 3124902091.6775541 0 0 0 0 -4441085.246887207 -273013189.51186466 0 -273013189.51186466 -894471854.93349648 0 0 0 0 -122747745.03404999 564688465.12489772 0 564688465.12489772 -183976496.08365059 0 0 0 0 114849519.47393799 195875180.41161847 0 195875180.41161847 -201619429.17531157 0 0 0 0 179101614.58346558 451641483.56562233 0 451641483.56562233 -732630794.16277599 0 0 0 0 2154654450.5225754 1677145762.5338566 0 1677145762.5338566 1633430108.0656357 0 0 0 0 20135990.351796225 -7187041.8769455142 0 -7187041.8769455142 1671450.1457755095 0 0 0 0 1998912161.8076172 1881841810.7393639 0 1881841810.7393639 1618999380.9683628 0 0 0 0 3992870439.4920959 2571061588.9805341 0 2571061588.9805341 1261949730.5279891 0 0 0 0 4348251163.5402527 1040945517.5997763 0 1040945517.5997763 538097804.30620658 0 0 0 0 1989102850.2900314 2107358739.6137006 0 2107358739.6137006 2186635815.9898343 0 0 0 0 7845422658.8140869 1558506972.8926728 0 1558506972.8926728 602897045.97201657 0 0 0 0 5477481933.2489166 104237388.07917467 0 104237388.07917467 2147792112.9843788 0 0 0 0 6616939912.5887604 1091400228.4436548 0 1091400228.4436548 684594094.25772738 0 0 0 0 5509496694.0303421 240607230.88521078 0 240607230.88521078 656553599.77084661 0 0 0 0 4572808931.8795776 -476048378.33782327 0 -476048378.33782327 505391421.80192918 0 0 0 0 6599146619.3551941 -694846473.83876443 0 -694846473.83876443 -678933994.72566247 0 0 0 0 4778833014.062542 1044818654.5055802 0 1044818654.5055802 310268559.04026067 0 0 0 0 816932953.69954681 1229092950.2197437 0 1229092950.2197437 483814806.11405301 0 0 0 0 7056343.7836267203 970648.87346766517 0 970648.87346766517 -1878040.8679416911 0 0 0 0 2796881614.0404663 -2154324990.6977515 0 -2154324990.6977515 -1179394626.0858822 0 0 0 0 1957926177.0452805 273873291.44585848 0 273873291.44585848 597294.06655323633 0 0 0 0 6600156613.0968237 2390430398.1494589 0 2390430398.1494589 -572743816.18413949 0 0 0 0 5363561096.6358719 707293150.87601352 0 707293150.87601352 115402166.66652822 0 0 0 0 3841243.7985787392 1471805.1187570542 0 1471805.1187570542 -213970.73700202384 0 0 0 0 5533651155.9038086 -76836494.021570161 0 -76836494.021570161 -2771436503.1359162 0 0 0 0 5692683.1123777479 -70224.021831132472 0 -70224.021831132472 -774895.70163929265 0 0 0 0 5001570129.588562 3358809377.1576858 0 3358809377.1576858 111509136.08791757 0 0 0 0 691102462.14727783 -44032338.998466969 0 -44032338.998466969 -363937843.37715793 0 0 0 0 6049982219.6710167 -617385606.71244597 0 -617385606.71244597 -1463236197.688828 0 0 0 0 3310544522.2166748 638084993.57999516 0 638084993.57999516 -279146407.11471653 0 0 0 0 4097993645.32827 1778196552.7584281 0 1778196552.7584281 -377049831.99540627 0 0 0 0 1088077863.7935181 935922591.70695376 0 935922591.70695376 238752848.4935143 0 0 0 0 2649788764.4346008 2270871393.1552896 0 2270871393.1552896 -175728529.25937065 0 0 0 0 3320879870.178833 1937970336.1649375 0 1937970336.1649375 -339310887.14924794 0 0 0 0 3073901930.3372192 793003451.62831903 0 793003451.62831903 369460048.02235872 0 0 0 0 2886230193.5562439 1679048865.1591749 0 1679048865.1591749 603075522.48818302 0 0 0 0 2637888854.0492859 1698827126.887975 0 1698827126.887975 602614588.75207686 0 0 0 0 1156668372.8338928 1140123522.2743111 0 1140123522.2743111 1040351212.1963692 0 0 0 0 2555406891.4919395 1338023867.7024364 0 1338023867.7024364 269069728.21943462 0 0 0 0 27081692.487367645 -9950422.7097580284 0 -9950422.7097580284 1984123.1157218479 0 0 0 0 1213778767.8304749 1052859559.4734998 0 1052859559.4734998 358917872.32622731 0 0 0 0 1120275584.0800781 1372497630.3785682 0 1372497630.3785682 391629266.67675519 0 0 0 0 -3968010.4911193848 -119365971.95394433 0 -119365971.95394433 -132633963.54612255 0 0 0 0 119337763.14523315 30168582.719314575 0 30168582.719314575 -72348757.00075005 0 0 0 0 841090369.91004181 -236162467.75241208 0 -236162467.75241208 320187834.62381911 0 0 0 0 34972640.753268257 -10978408.435652267 0 -10978408.435652267 -268051.6009636675 0 0 0 0 91747128.444488525 -30844759.366453171 0 -30844759.366453171 -70657761.370283753 0 0 0 0 315161655.33001709 643471245.19527912 0 643471245.19527912 2112847594.2044377 0 0 0 0 2746357064.5797729 856131873.80602646 0 856131873.80602646 132979536.57888389 0 0 0 0 1303001739.001812 719499059.00931811 0 719499059.00931811 66735852.94321084 0 0 0 0 2773975151.5397339 -91194403.767107487 0 -91194403.767107487 -284552459.2694273 0 0 0 0 216670129.38870239 1579174575.9652586 0 1579174575.9652586 325888459.63588595 0 0 0 0 1692498.3866250366 1092871.3602728918 0 1092871.3602728918 1082485.3096368767 0 0 0 0 1360891774.5450745 1496142519.6672864 0 1496142519.6672864 139337332.48078251 0 0 0 0 1031331753.6092529 -57283394.843256414 0 -57283394.843256414 -83911010.159604207 0 0 0 0 2286162184.1437378 -165974233.48072433 0 -165974233.48072433 -128988074.09301949 0 0 0 0 1345376482.5657043 210078441.37648809 0 210078441.37648809 116864332.60153377 0 0 0 0 1352871650.8036499 432849950.09244263 0 432849950.09244263 -42049094.363084674 0 0 0 0 1493161163.2792053 150195151.47966704 0 150195151.47966704 -150880486.62842685 0 0 0 0 1188481441.2631378 278722168.35588586 0 278722168.35588586 -99358.513840783387 0 0 0 0 853464496.57748413 57837717.681743383 0 57837717.681743383 -112615567.4154802 0 0 0 0 295957750.73442078 147883345.74899054 0 147883345.74899054 85365989.858912349 0 0 0 0 800116512.24508667 210995628.38645366 0 210995628.38645366 -257923.37673105026 0 0 0 0 194959269.96466064 -86779251.85405688 0 -86779251.85405688 -535963.50394119369 0 0 0 0 64882256.057617188 -95384711.00064005 0 -95384711.00064005 251376505.58414003 0 0 0 0 15242771.708897229 1025086.1215693057 0 1025086.1215693057 285205.18334617908 0 0 0 0 1116228603.5606079 349252645.61067271 0 349252645.61067271 -66366846.176926255 0 0 0 0 77706709.670379639 -64043525.310708739 0 -64043525.310708739 83236475.103626698 0 0 0 0 18917031.222634248 811279.16555514187 0 811279.16555514187 530806.46468085248 0 0 0 0 374599918.8644104 406418443.14546728 0 406418443.14546728 126557141.50194156 0 0 0 0 40902626.874267578 3085724.8666093615 0 3085724.8666093615 -2914194.640985427 0 0 0 0 11103530.558029383 2823625.1809957325 0 2823625.1809957325 -2700347.7364037391 0 0 0 0 19904362.600128174 17376142.561462451 0 17376142.561462451 18715122.705311768 0 0 0 0 303709133.89511108 329365664.92553353 0 329365664.92553353 139312734.53812346 0 0 0 0 3211974.3726561815 814287.58875079453 0 814287.58875079453 -537432.62199249608 0 0 0 0 203786956.24407959 32470159.293171406 0 32470159.293171406 -32689725.074038982 0 0 0 0 155132392.42730713 40075523.94688344 0 40075523.94688344 26651688.148805618 0 0 0 0 180422769.22988892 5932447.0225877762 0 5932447.0225877762 -59480292.89791584 0 0 0 0 141574594.3046875 20070792.17672205 0 20070792.17672205 -1663111.4099283218 0 0 0 0 151044085.83697891 63134586.356792837 0 63134586.356792837 13278676.893076897 0 0 0 0 113687371.98303223 14711524.758140564 0 14711524.758140564 -14078488.563117981 0 0 0 0 115821816.72935295 -15793979.183591932 0 -15793979.183591932 -18876693.97882843 0 0 0 0 97428877.37878418 -35119068.9648242 0 -35119068.9648242 -38149814.770067215 0 0 0 0 70063127.621765137 -17070040.062066078 0 -17070040.062066078 -43257633.31401825 0 0 0 0 78742402.230773926 17513984.457919121 0 17513984.457919121 -5389654.0387334824 0 0 0 0 13887823.237121422 12295935.733991027 0 12295935.733991027 -3772174.7578017199 0 0 0 0 85465751.235778809 23251236.4056077 0 23251236.4056077 -3370796.2138066292 0 0 0 0 79247806.957214355 17796770.335608006 0 17796770.335608006 -6312058.6573171616 0 0 0 0 65741682.037231445 348332.64489936829 0 348332.64489936829 -9818502.5985667706 0 0 0 0 99148494.382293701 43424616.984653473 0 43424616.984653473 1302507.1123633385 0 0 0 0 105063042.09263611 5260323.6697485447 0 5260323.6697485447 -6057706.4232902527 0 0 0 0 68762579.236633301 -2331488.8018274307 0 -2331488.8018274307 -20472731.780859947 0 0 0 0 104102379.3815918 -7496160.6816596985 0 -7496160.6816596985 -72104436.196170807 0 0 0 0 43490440.660980225 32706637.866400719 0 32706637.866400719 87083580.71402359 0 0 0 0 5231700.2651185729 -109960.76130425185 0 -109960.76130425185 -139297.5856867563 0 0 0 0 125045507.16210938 58515803.712298393 0 58515803.712298393 -64574428.680622101 0 0 0 0 73796340.908477783 21732649.98520565 0 21732649.98520565 -14232174.20621109 0 0 0 0 99895573.416290283 56736993.767763615 0 56736993.767763615 32641105.722707748 0 0 0 0 4960206.9088449776 -1509753.6959594488 0 -1509753.6959594488 -2647136.8489048807 0 0 0 0 75183615.210144043 -45928541.696888924 0 -45928541.696888924 -25471545.210094452 0 0 0 0 49361275.610290527 29392049.081878662 0 29392049.081878662 34371550.434244871 0 0 0 0 36152753.075592041 -21516058.521864653 0 -21516058.521864653 -5069783.892906189 0 0 0 0 23309926.268079937 7754280.5590772172 0 7754280.5590772172 1301956.639508883 0 0 0 0 66241447.461715698 -1414262.2496256828 0 -1414262.2496256828 -5694883.1964645386 0 0 0 0 41650178.935829163 22816853.833705068 0 22816853.833705068 -34391301.47385025 0 0 0 0 14671903.826290954 9272456.8824556023 0 9272456.8824556023 1719889.1954278015 0 0 0 0 14142975.674804688 3533710.5330133438 0 3533710.5330133438 -2481904.5630779266 0 0 0 0 13372437.815124512 3372175.9770069122 0 3372175.9770069122 -1936773.7682986259 0 0 0 0 11149390.437805176 6208259.850540638 0 6208259.850540638 -3107881.4005851746 0 0 0 0 12214571.810331881 3594512.2762539461 0 3594512.2762539461 -609174.35280739795 0 0 0 0 14089476.361343384 3679742.2788637877 0 3679742.2788637877 -1558744.8315505981 0 0 0 0 13901028.019470215 2480622.4008402824 0 2480622.4008402824 2605099.306470871 0 0 0 0 32118496.19909668 39157228.091228962 0 39157228.091228962 -1802645.1454725266 0 0 0 0 18938232.736724854 1147922.2313098907 0 1147922.2313098907 2077013.1353569031 0 0 0 0 -21551338.453826904 44478047.342628717 0 44478047.342628717 21814353.75537014 0 0 0 0 10148351.379260542 8332735.1484606788 0 8332735.1484606788 2598163.7379560852 0 0 0 0 16893598.463912964 3420912.7185049057 0 3420912.7185049057 1667060.684223175 0 0 0 0 -56084.112023130059 -122498.24421352148 0 -122498.24421352148 62817.377376494464 0 0 0 0 23703201.132080078 5483108.7194309235 0 5483108.7194309235 -2692371.7034454346 0 0 0 0 -14845125.33442688 123370032.96480632 0 123370032.96480632 46588403.300170422 0 0 0 0 64918989.232147217 2165754.4216651917 0 2165754.4216651917 -28248355.18325901 0 0 0 0 23134759.116485596 81969456.376775622 0 81969456.376775622 -111096250.88362885 0 0 0 0 3323470.0561960712 1424471.9636544809 0 1424471.9636544809 42101.3950589546 0 0 0 0 11930217.308199327 13104576.662218072 0 13104576.662218072 -943290.48829110153 0 0 0 0 63638986.935588837 272353.71772515774 0 272353.71772515774 -4778696.9374160767 0 0 0 0 77378439.847063065 53921858.934735656 0 53921858.934735656 -1055130.7509098053 0 0 0 0 32911484.58013916 13688383.223860741 0 13688383.223860741 10802692.178648949 0 0 0 0 37803472.943143219 2589921.5154184978 0 2589921.5154184978 -7845475.5905999942 0 0 0 0 63647540.228271484 -782360.18064594269 0 -782360.18064594269 -1811043.6464204788 0 0 0 0 247081193.72824097 21304719.737549543 0 21304719.737549543 -175532046.48044872 0 0 0 0 39215832.934066772 107945860.16765404 0 107945860.16765404 113621054.06732273 0 0 0 0 8140980.8534965515 59624399.283287615 0 59624399.283287615 -92521960.464962959 0 0 0 0 2748458.141233027 6966539.0976364547 0 6966539.0976364547 -566241.29885805759 0 0 0 0 -35898619.638549805 50248849.672225952 0 50248849.672225952 -77484375.641819954 0 0 0 0 200659784.84942627 205123415.76229477 0 205123415.76229477 -301817274.47019577 0 0 0 0 119087315.11569214 415497621.80035329 0 415497621.80035329 -57270498.289649248 0 0 0 0 226059465.99680328 124910238.1043452 0 124910238.1043452 -94676906.363929749 0 0 0 0 184597920.02706909 77877930.392996788 0 77877930.392996788 -119564767.94375801 0 0 0 0 83632269.516784668 27661217.506134987 0 27661217.506134987 -78175705.104482889 0 0 0 0 130292402.61306763 86426475.497712374 0 86426475.497712374 -34487560.812190056 0 0 0 0 -25687119.65625 182858120.96069908 0 182858120.96069908 63813743.253900647 0 0 0 0 -13673592.728200912 270984920.01259351 0 270984920.01259351 175227930.08081341 0 0 0 0 79309264.781036377 219386039.41046429 0 219386039.41046429 125170228.81468999 0 0 0 0 131606919.92068481 9405775.496096015 0 9405775.496096015 -23761137.742209911 0 0 0 0 159134243.39962769 -142459674.78991699 0 -142459674.78991699 415898201.65474039 0 0 0 0 105788342.74368286 325656681.93372184 0 325656681.93372184 487359346.81162643 0 0 0 0 -288729559.31002808 143889953.45786279 0 143889953.45786279 208087663.02390134 0 0 0 0 -141326011.01591492 280142521.87129408 0 280142521.87129408 224497901.70673972 0 0 0 0 -595892.25070263818 267026.77409746498 0 267026.77409746498 412798.28030599793 0 0 0 0 -1527648.8633728027 6946134.9137105942 0 6946134.9137105942 -9398519.776306957 0 0 0 0 24088262.07333374 -18697414.733261585 0 -18697414.733261585 16257596.259768963 0 0 0 0 11733848.251395933 1494476.3785261512 0 1494476.3785261512 -790946.96178591531 0 0 0 0 7675358.1584584117 6074873.363690719 0 6074873.363690719 3162918.0577103179 0 0 0 0 20091138.93762207 3087476.2942762375 0 3087476.2942762375 -561559.56237244606 0 0 0 0 -49891159.811447144 -16361245.557250381 0 -16361245.557250381 49928794.666231632 0 0 0 0 23942234.895324707 4044566.3731288314 0 4044566.3731288314 444792.48511695862 0 0 0 0 19753002.289306641 -2600069.4706707001 0 -2600069.4706707001 856251.81099319458 0 0 0 0 17868491.097844169 1919477.3486677185 0 1919477.3486677185 1288738.8889672142 0 0 0 0 -33286550.714569092 7697358.8387329578 0 7697358.8387329578 152919573.28842831 0 0 0 0 -33220983.456619263 23277206.691448331 0 23277206.691448331 -1392120.2773928642 0 0 0 0 41991605.793792725 -25078756.409687519 0 -25078756.409687519 -41435174.989790916 0 0 0 0 32695545.329772949 -27125742.364071846 0 -27125742.364071846 -35267975.981915474 0 0 0 0 40641534.823516846 -4368332.2885246277 0 -4368332.2885246277 -36794237.40231055 0 0 0 0 32375683.99621582 3148530.0310077667 0 3148530.0310077667 -8143748.4864702225 0 0 0 0 7027212.2172000855 1797934.0421693325 0 1797934.0421693325 -707377.62458792608 0 0 0 0 30599049.632476807 -4229378.6854419708 0 -4229378.6854419708 -9403133.7507953644 0 0 0 0 22797228.228271484 2375765.5704517365 0 2375765.5704517365 -996323.17592906952 0 0 0 0 41026325.551971436 -16044496.013096333 0 -16044496.013096333 -9460523.3263082504 0 0 0 0 33754141.661834717 -6417063.3415384293 0 -6417063.3415384293 -19818243.358019352 0 0 0 0 5641833.3788452148 -20019026.477554321 0 -20019026.477554321 -9867827.1690654755 0 0 0 0 -19389149.852539062 -29698893.311270714 0 -29698893.311270714 11368875.205587387 0 0 0 0 2189040.1915756352 885706.53336878866 0 885706.53336878866 -299641.28361098049 0 0 0 0 25544259.70765686 6411018.8557903767 0 6411018.8557903767 -3991229.4868407249 0 0 0 0 22349792.960540771 -21822360.49983573 0 -21822360.49983573 3042067.6144212484 0 0 0 0 16275333.949798584 -41677342.221211433 0 -41677342.221211433 89213324.521244287 0 0 0 0 24453640.914962769 -48859636.389555454 0 -48859636.389555454 13368730.939012527 0 0 0 0 51730803.055633545 -50107150.459231377 0 -50107150.459231377 -23273139.759332657 0 0 0 0 47639905.470855713 -29430261.050885558 0 -29430261.050885558 -63628309.517719269 0 0 0 0 84494588.233581543 -102487088.45291042 0 -102487088.45291042 9241337.3584132195 0 0 0 0 160938482.20895386 -17173793.27066493 0 -17173793.27066493 -151470386.29493618 0 0 0 0 1937438.3080801517 -475220.27285567671 0 -475220.27285567671 -96847.564371351851 0 0 0 0 738560040.78082275 -504886173.60979319 0 -504886173.60979319 160838490.21715975 0 0 0 0 -390598432.11798096 57286479.539126396 0 57286479.539126396 416098833.86985207 0 0 0 0 938259725.82873726 855187982.61507678 0 855187982.61507678 -473987141.37420464 0 0 0 0 874662252.69464111 -389379284.96719313 0 -389379284.96719313 -262140277.79795265 0 0 0 0 -105105816.26602173 -168461134.9904809 0 -168461134.9904809 -179349542.00385809 0 0 0 0 259561597.22637939 49369976.630096436 0 49369976.630096436 -53983879.908928871 0 0 0 0 -83364532.021270752 67736417.175826073 0 67736417.175826073 185937322.18108177 0 0 0 0 30513027.451019287 88209914.722930431 0 88209914.722930431 -138272123.98846805 0 0 0 0 12537157.207824707 -15554398.910449982 0 -15554398.910449982 -35834184.553917885 0 0 0 0 -63762558.841972351 82839419.027072877 0 82839419.027072877 21776101.333320618 0 0 0 0 2682750.8383430243 -1654005.4112061635 0 -1654005.4112061635 -1837092.6311701783 0 0 0 0 -81837246.451171875 -4744892.0286769867 0 -4744892.0286769867 6230305.6509650946 0 0 0 0 -48395554.793861389 -103146387.02100122 0 -103146387.02100122 -66573659.272871017 0 0 0 0 29183024.680716708 3499415.6422444358 0 3499415.6422444358 -340815.15269335965 0 0 0 0 -78095702.691497803 -105134943.83977461 0 -105134943.83977461 136699833.96281707 0 0 0 0 258647171.34126282 -29485002.456295371 0 -29485002.456295371 -230275373.19033289 0 0 0 0 31965525.362650633 3163125.3317317711 0 3163125.3317317711 -2021024.2246160815 0 0 0 0 -20927485.392532349 164795086.07752419 0 164795086.07752419 -245688062.28108788 0 0 0 0 13820367.474700928 53322779.222572327 0 53322779.222572327 -6443258.6137905121 0 0 0 0 -21311.570121765137 45907351.906472206 0 45907351.906472206 48025390.357595444 0 0 0 0 5292588.7136077881 36789649.444314957 0 36789649.444314957 52965764.454397202 0 0 0 0 16998429.858901978 16660451.142834663 0 16660451.142834663 7357546.8591079712 0 0 0 0 16753195.831322134 5391195.615574196 0 5391195.615574196 6830991.3827296607 0 0 0 0 1574619.9606049657 4519304.959120376 0 4519304.959120376 1136924.9076933512 0 0 0 0 -21916806.870697021 -25275774.947255611 0 -25275774.947255611 -27379527.062535763 0 0 0 0 30581429.536743164 20300965.363622665 0 20300965.363622665 -24738251.173205376 0 0 0 0 3140633.225982856 651876.26900924742 0 651876.26900924742 -99987.175560893491 0 0 0 0 10985364.835286304 -5602883.4931767881 0 -5602883.4931767881 -7826983.5818999279 0 0 0 0 4154471.765838623 1243332.8170719147 0 1243332.8170719147 -1025894.667194128 0 0 0 0 12458136.154893456 -473151.89961562306 0 -473151.89961562306 -600101.56265057437 0 0 0 0 10012692.379943848 1655205.1560630798 0 1655205.1560630798 -1174978.8904547691 0 0 0 0 10887048.985428244 2887971.4119944572 0 2887971.4119944572 -1179284.080060845 0 0 0 0 28317102.975982666 2364783.0966653824 0 2364783.0966653824 6060768.1824398041 0 0 0 0 12301369.172177225 2532916.230038886 0 2532916.230038886 1696838.3315060455 0 0 0 0 5535531.8496889472 -595736.95551973581 0 -595736.95551973581 1721272.8025575066 0 0 0 0 7450451.9075317383 1820888.6388664246 0 1820888.6388664246 -164366.52125549316 0 0 0 0 3210300.2645263672 1460472.2563705444 0 1460472.2563705444 702679.25993347168 0 0 0 0 10409946.737582996 -579707.45446066558 0 -579707.45446066558 -453003.67611106951 0 0 0 0 3715275.0087890625 2726696.3437805176 0 2726696.3437805176 -3979381.8001098633 0 0 0 0 22981643.171812478 297244.22868386656 0 297244.22868386656 -725964.53437641915 0 0 0 0 6856324.2966308594 1403706.9554042816 0 1403706.9554042816 308184.52750015259 0 0 0 0 4889301.8426968753 3653279.5287973359 0 3653279.5287973359 5013848.308068593 0 0 0 0 6144542.298828125 2372762.5033445358 0 2372762.5033445358 299825.86545372009 0 0 0 0 17424778.073130026 3754929.289532844 0 3754929.289532844 -112437.68428928731 0 0 0 0 4386584.0803222656 2870924.7388801575 0 2870924.7388801575 -3966792.2287082672 0 0 0 0 22930891.978142507 -74132.982527926564 0 -74132.982527926564 -1087632.4870893797 0 0 0 0 3554950.8820800781 2302516.5850028992 0 2302516.5850028992 884159.02112960815 0 0 0 0 79016122.083679199 10299303.658010006 0 10299303.658010006 10802240.445853233 0 0 0 0 4114506.1515924372 -440424.95348501205 0 -440424.95348501205 82988.266940077767 0 0 0 0 51807696.602344513 -8254957.6288086772 0 -8254957.6288086772 10264954.454916954 0 0 0 0 7730687.5587872341 1671403.2272726521 0 1671403.2272726521 5833117.7886379873 0 0 0 0 6579531.2970275879 1019302.9007430077 0 1019302.9007430077 386120.51627135277 0 0 0 0 14141781.753290154 -3848450.8908462673 0 -3848450.8908462673 1645173.0969813326 0 0 0 0 9253324.5980682373 10607850.204019547 0 10607850.204019547 9275729.4603347778 0 0 0 0 3351818.9033050537 15026317.704868793 0 15026317.704868793 9565409.9519500732 0 0 0 0 7735564.9967956543 12697544.51547718 0 12697544.51547718 6439821.4412345886 0 0 0 0 5338293.0213470459 11823107.184555054 0 11823107.184555054 14558694.611953735 0 0 0 0 1092077.6343994141 -964388.78869533539 0 -964388.78869533539 17531387.218467712 0 0 0 0 -3970984.4102783203 1305044.952706337 0 1305044.952706337 28124000.568309784 0 0 0 0 10394921.242979571 -5246875.0399205014 0 -5246875.0399205014 7497423.058000857 0 0 0 0 2376058.3964233398 6423644.8236708641 0 6423644.8236708641 28165262.036766052 0 0 0 0 -28269205.804840088 -58246015.219455957 0 -58246015.219455957 -11536418.480851412 0 0 0 0 91549524.06439209 872997.5871784687 0 872997.5871784687 -11177574.983514547 0 0 0 0 584597.24933036417 1121406.3301745355 0 1121406.3301745355 761014.93371315859 0 0 0 0 131227244.8314209 -128324885.93702453 0 -128324885.93702453 -169107966.08790255 0 0 0 0 3448076.6734008789 -8353345.4409618378 0 -8353345.4409618378 8489146.1435112953 0 0 0 0 378464075.71801758 166128484.02118453 0 166128484.02118453 -196118581.35156333 0 0 0 0 12369207.031219482 -1534053.6800785065 0 -1534053.6800785065 426014.71957778931 0 0 0 0 3469679.3167724609 2226474.4864959717 0 2226474.4864959717 27404257.581336975 0 0 0 0 1281289.8164825439 -3803212.0728607178 0 -3803212.0728607178 12521575.151956558 0 0 0 0 592836.28142547607 -5658600.9424419403 0 -5658600.9424419403 12680439.656013489 0 0 0 0 32676632.0014534 45976797.465464123 0 45976797.465464123 -27548531.925869238 0 0 0 0 3467484.4524078369 -10462129.125034094 0 -10462129.125034094 4777005.2067775726 0 0 0 0 5056517.5462081283 -4859358.5218512639 0 -4859358.5218512639 690097.83575594157 0 0 0 0 -5223776.1630859375 -1111131.7953553994 0 -1111131.7953553994 8747.7440320916721 0 0 0 0 -190256499.7245636 -74389083.932743847 0 -74389083.932743847 738680512.96655953 0 0 0 0 8243759.7198786065 -6483915.1466353536 0 -6483915.1466353536 7101737.2819733983 0 0 0 0 170340646.38049316 140222426.72904572 0 140222426.72904572 -335716580.09300745 0 0 0 0 13288051.341898851 -8344596.7561164722 0 -8344596.7561164722 1974274.2462621534 0 0 0 0 462095236.96258545 -405181786.62561679 0 -405181786.62561679 7386571.5512604415 0 0 0 0 -25691222.205291875 -25188657.676760562 0 -25188657.676760562 23529921.68231887 0 0 0 0 -3552011.2509002686 -11213136.597434998 0 -11213136.597434998 18639787.986121178 0 0 0 0 -7923654285.8228302 -23110152762.899006 0 -23110152762.899006 -10574602872.238235 0 0 0 0 102811326569.35983 224971219058.85681 0 224971219058.85681 -76326489868.029343 0 0 0 0 -59570293.273260303 18398220.473155349 0 18398220.473155349 -9306741.3920536544 0 0 0 0 2475928.9857008904 -5870232.1221133769 0 -5870232.1221133769 -63885.477531755336 0 0 0 0 1023285.749206543 -10139136.733763695 0 -10139136.733763695 -1568594.6026933193 0 0 0 0 -5820294.5496711731 -59138023.923364766 0 -59138023.923364766 3670206.6705786004 0 0 0 0 -5321591.5223083496 -5378207.0095176697 0 -5378207.0095176697 29068704.075656891 0 0 0 0 -5309924.4954833984 -6038340.7387304306 0 -6038340.7387304306 19819337.167548418 0 0 0 0 -5044309.7193527222 -60132576.30656004 0 -60132576.30656004 108272776.01839828 0 0 0 0 -21064373.942581177 -8032135.5884740353 0 -8032135.5884740353 37241856.844894409 0 0 0 0 -4525750.4515228271 2481752.2019979954 0 2481752.2019979954 38238474.030498505 0 0 0 0 -504276.68002319336 15749420.989915848 0 15749420.989915848 24290700.93928051 0 0 0 0 -4229118.640914917 24536682.269194603 0 24536682.269194603 62427536.233572006 0 0 0 0 -53813098.925811768 57586493.397246361 0 57586493.397246361 46610998.613563538 0 0 0 0 -89422504.270477295 -5014398.617071867 0 -5014398.617071867 94040783.689401627 0 0 0 0 -1244776.376683034 952371.15843038261 0 952371.15843038261 3480238.042595664 0 0 0 0 83756561.613677979 -215426549.16712093 0 -215426549.16712093 302474306.87619615 0 0 0 0 -600312169.07263184 109817560.9869709 0 109817560.9869709 574927640.66714096 0 0 0 0 -864175455.61819458 536766600.24921894 0 536766600.24921894 283060706.21923447 0 0 0 0 995919953.38531494 -397275552.74403858 0 -397275552.74403858 -2010586364.824707 0 0 0 0 -843543380.56817627 1178763523.4674263 0 1178763523.4674263 -1821750961.1678507 0 0 0 0 -8106566.9370186999 2425689.338725552 0 2425689.338725552 24224573.092547663 0 0 0 0 -490121112.48181152 -19893286332.669109 0 -19893286332.669109 -29266083675.692642 0 0 0 0 138033584.35449219 4503251304.3164692 0 4503251304.3164692 -26554075243.248573 0 0 0 0 1076800659.9156799 -825214352.90931797 0 -825214352.90931797 -11150797712.320396 0 0 0 0 -1694543469.565979 -7317912674.8276501 0 -7317912674.8276501 -26325252.38521149 0 0 0 0 -1825943695.0912971 -10797198036.737286 0 -10797198036.737286 -7759645333.9128418 0 0 0 0 -1183520870.5899811 -13798681910.38558 0 -13798681910.38558 -14142394428.982864 0 0 0 0 -10037766717.900635 -17556081410.191273 0 -17556081410.191273 41920162.633636273 0 0 0 0 -3601291386.9808846 -3543483671.4213209 0 -3543483671.4213209 -1576827481.8031321 0 0 0 0 -2168223230.352356 -5063010290.2148485 0 -5063010290.2148485 7076338.5052237371 0 0 0 0 -1974334835.4223785 -6257928503.2626228 0 -6257928503.2626228 -3427456447.8302507 0 0 0 0 -54059905.725280762 -3479472236.7470684 0 -3479472236.7470684 -5248918593.3740387 0 0 0 0 862302556.32116699 -932454351.23257482 0 -932454351.23257482 -2509527681.385067 0 0 0 0 -85176644.037902832 -2105410272.9104319 0 -2105410272.9104319 -1011482521.6310539 0 0 0 0 29319.265960693359 -47712889.601646423 0 -47712889.601646423 -41555858.672832489 0 0 0 0 284783820.62884521 -1065636747.479353 0 -1065636747.479353 -2174574646.0274611 0 0 0 0 -634238207.12567139 681064162.92678356 0 681064162.92678356 -115532685.75121307 0 0 0 0 -653609402.08520508 430084842.80345345 0 430084842.80345345 -30425892.976211548 0 0 0 0 2343891.3252282441 -933300.61005986109 0 -933300.61005986109 -1081713.9192765132 0 0 0 0 363144126.75190735 7363385.9304456711 0 7363385.9304456711 -302137192.45365143 0 0 0 0 -138824107.00631714 -31750204.991437912 0 -31750204.991437912 61138656.961330414 0 0 0 0 20295172.886434555 4078521.5780906677 0 4078521.5780906677 -15653438.663266182 0 0 0 0 8611681.7098236084 6111835.7031042576 0 6111835.7031042576 -10332010.362602472 0 0 0 0 11074043.047027588 -2163436.8033294678 0 -2163436.8033294678 17162545.599890471 0 0 0 0 21930709.168548584 44885522.214388371 0 44885522.214388371 4914377.3699197769 0 0 0 0 31175594.17035149 1948217.6006556721 0 1948217.6006556721 -2759909.9268043879 0 0 0 0 28289228.319213867 20503590.846278191 0 20503590.846278191 -62880833.782880306 0 0 0 0 1132427017.7524109 -540863006.86541176 0 -540863006.86541176 -364509347.02408981 0 0 0 0 74464022.892883301 -45421967.484519482 0 -45421967.484519482 -110640498.76944876 0 0 0 0 32701910.192626387 2367158.3827232867 0 2367158.3827232867 -2564206.6866074274 0 0 0 0 -415149166.69699097 150415707.66413307 0 150415707.66413307 369522486.98677039 0 0 0 0 -34455077.959899902 18959431.945580006 0 18959431.945580006 100720857.56672335 0 0 0 0 3243061.9231951684 118736.59417615086 0 118736.59417615086 -1758865.5122151617 0 0 0 0 30245225.363311768 75078742.175494194 0 75078742.175494194 -17243453.551915407 0 0 0 0 23271986.782440186 7843104.8454146385 0 7843104.8454146385 -7632431.4752364159 0 0 0 0 31685418.852550507 9375449.6963651776 0 9375449.6963651776 -36509991.344651222 0 0 0 0 14829450.12154761 1239979.1221398842 0 1239979.1221398842 -457685.79688967089 0 0 0 0 181093894.98331451 -57036822.054072857 0 -57036822.054072857 12135866.58425951 0 0 0 0 13224990.737092316 -4828643.0325995721 0 -4828643.0325995721 -507459.86162699945 0 0 0 0 1599800.2508016974 -2352214.7690858245 0 -2352214.7690858245 -168398.87988825026 0 0 0 0 -181845165.53775024 72124423.209412098 0 72124423.209412098 -33661915.313860655 0 0 0 0 83567134.083648682 91855327.537023067 0 91855327.537023067 -69436847.136657745 0 0 0 0 15975739.873626709 -38970262.159461021 0 -38970262.159461021 -61600921.519750595 0 0 0 0 16818200.50567627 3343329.9479284286 0 3343329.9479284286 -18284645.26603312 0 0 0 0 27794818.783721924 14816092.816066742 0 14816092.816066742 -18329947.744849429 0 0 0 0 24901460.872924805 25435109.241254807 0 25435109.241254807 -5437457.895874083 0 0 0 0 4687524.94972229 22438764.992593765 0 22438764.992593765 25677266.539497375 0 0 0 0 9377955.0926208496 12610108.548946857 0 12610108.548946857 -5768032.3570515364 0 0 0 0 9057473.0361938477 1325502.9006052017 0 1325502.9006052017 -787776.42977237701 0 0 0 0 13639970.299226552 2258469.0601605978 0 2258469.0601605978 223723.9532547181 0 0 0 0 14327037.395597458 1763543.5143761635 0 1763543.5143761635 -7028204.4495382309 0 0 0 0 17643416.137496948 17646075.921910524 0 17646075.921910524 -26975320.45754528 0 0 0 0 13888758.283294678 -31261069.312363625 0 -31261069.312363625 15228381.122102737 0 0 0 0 1230649.3052902222 -9673050.3631350994 0 -9673050.3631350994 3967672.0529403687 0 0 0 0 20980999.926086426 -1714781.1866369247 0 -1714781.1866369247 -2665681.266494751 0 0 0 0 17052162.500930786 5454915.5553970337 0 5454915.5553970337 3345892.9576225281 0 0 0 0 24389313.686660767 759180.13216781616 0 759180.13216781616 -7355535.3640193939 0 0 0 0 1425771.9051955044 682218.7753152661 0 682218.7753152661 -803443.18655636162 0 0 0 0 11872822.235412598 -9035866.5893683434 0 -9035866.5893683434 -10568864.238188505 0 0 0 0 2626195.9083949327 1508240.5946902218 0 1508240.5946902218 13165.932006220333 0 0 0 0 7189934.4855194092 9352228.832382679 0 9352228.832382679 -3551005.0069303513 0 0 0 0 954137.71240702271 742210.79040085804 0 742210.79040085804 -91132.609349493287 0 0 0 0 9095713.770614624 56514723.574597836 0 56514723.574597836 105050233.39329815 0 0 0 0 -6833953.0574264526 1116510.9339699745 0 1116510.9339699745 25114950.279193878 0 0 0 0 31732014.87411499 -44064402.911733627 0 -44064402.911733627 77646262.750811577 0 0 0 0 108379079.4150238 -79604375.294489861 0 -79604375.294489861 37737962.910627365 0 0 0 0 251337875.17578125 6975614.8893299103 0 6975614.8893299103 -25302373.094503403 0 0 0 0 61766752.258117676 16371469.459788322 0 16371469.459788322 -21259932.011978149 0 0 0 0 113619484.27977753 -55047165.556396246 0 -55047165.556396246 -4293641.1065330505 0 0 0 0 54970972.271240234 -21237915.273693085 0 -21237915.273693085 -19311760.79535532 0 0 0 0 64703214.807983398 -26173750.369941711 0 -26173750.369941711 -21326360.653938293 0 0 0 0 57661625.68347168 12185968.479503632 0 12185968.479503632 -32603291.10994339 0 0 0 0 94359978.856285095 8921624.4144296646 0 8921624.4144296646 -26762903.306957245 0 0 0 0 51132904.408813477 6577323.3973236084 0 6577323.3973236084 -24203200.541290283 0 0 0 0 50487498.083679199 3669975.1316251755 0 3669975.1316251755 -32100870.399219513 0 0 0 0 30937949.281188965 -40691578.763780594 0 -40691578.763780594 20254938.531025648 0 0 0 0 49777576.549194336 -44399120.04485321 0 -44399120.04485321 23347725.392712593 0 0 0 0 39827647.4425354 -32742525.092134476 0 -32742525.092134476 12802549.434780121 0 0 0 0 60712402.858364105 -44156615.404892206 0 -44156615.404892206 3688734.8876228333 0 0 0 0 40850360.909088135 -28090676.816741943 0 -28090676.816741943 -8429372.699131012 0 0 0 0 41625637.663757324 -31819713.52035141 0 -31819713.52035141 -43281.648933410645 0 0 0 0 25886193.985870361 -20497823.03809166 0 -20497823.03809166 -7084014.0909080505 0 0 0 0 39178958.341293335 -12980500.402359009 0 -12980500.402359009 -22454900.520587921 0 0 0 0 59192637.961639404 -25554106.295736313 0 -25554106.295736313 -18828887.315668106 0 0 0 0 31924677.82409668 -4691116.7036724091 0 -4691116.7036724091 -15051056.976902008 0 0 0 0 42076006.624435425 -17832144.087042809 0 -17832144.087042809 -14407075.340526581 0 0 0 0 23572405.44744873 1820943.4574871063 0 1820943.4574871063 -49683020.922271729 0 0 0 0 28723807.113555908 10175739.359098434 0 10175739.359098434 -36136950.652671814 0 0 0 0 57122353.527099609 9550957.8769378662 0 9550957.8769378662 -40390685.364997864 0 0 0 0 41579814.633544922 16669461.895870209 0 16669461.895870209 -50983150.007209778 0 0 0 0 46648854.424560547 -3225315.7994346619 0 -3225315.7994346619 -35032969.961129189 0 0 0 0 70830251.671386719 -15101175.479169846 0 -15101175.479169846 -37274201.923484802 0 0 0 0 20508446.830444336 11079912.15526104 0 11079912.15526104 -29656930.650422096 0 0 0 0 54000928.090011597 -5904162.7798299789 0 -5904162.7798299789 -34661840.563415527 0 0 0 0 36803443.746398926 10658049.487422943 0 10658049.487422943 -58188377.778255463 0 0 0 0 27413643.055450439 25892198.76957798 0 25892198.76957798 -45340411.35052681 0 0 0 0 32763232.667510986 -278295.52973651886 0 -278295.52973651886 -13155263.486681938 0 0 0 0 41781979.033752441 36809993.926477432 0 36809993.926477432 3300149.6633038521 0 0 0 0 52319941.197292328 -12468170.598480105 0 -12468170.598480105 -5567050.0108165741 0 0 0 0 25426569.748579718 2703375.377949588 0 2703375.377949588 -503445.99064926058 0 0 0 0 37961917.044250488 -2918991.3781404495 0 -2918991.3781404495 -18702799.27122879 0 0 0 0 30783633.62121582 3644756.7371234894 0 3644756.7371234894 -19735836.624768734 0 0 0 0 25616815.024162561 3943124.1929674037 0 3943124.1929674037 1135407.931176242 0 0 0 0 20251754.281407744 1257365.1470280401 0 1257365.1470280401 -206599.97367536044 0 0 0 0 32377084.390731812 -456589.7325668335 0 -456589.7325668335 -9447688.1371383667 0 0 0 0 16389627.089050293 2874176.6695451736 0 2874176.6695451736 -2349400.9546070099 0 0 0 0 24501853.024284363 -13234336.137290239 0 -13234336.137290239 -3501046.0121192932 0 0 0 0 12999310.138061523 1040500.3865594864 0 1040500.3865594864 -11002632.203354836 0 0 0 0 18278288.720261738 -2315863.8364903517 0 -2315863.8364903517 2734091.4986357833 0 0 0 0 30330713.707275391 -4906750.3408966064 0 -4906750.3408966064 -12049709.034049034 0 0 0 0 32527014.581298828 -11999325.186728477 0 -11999325.186728477 -3359463.8271083832 0 0 0 0 33748491.123413086 -17401538.351554871 0 -17401538.351554871 5712240.667532444 0 0 0 0 26037322.215677261 -18903314.368004024 0 -18903314.368004024 6278779.7210597992 0 0 0 0 23695371.444488525 4616036.9347696304 0 4616036.9347696304 2787561.4789819717 0 0 0 0 17607037.769088417 2686296.6878773421 0 2686296.6878773421 -1414843.2574303974 0 0 0 0 27876275.529987335 4275253.8266379833 0 4275253.8266379833 2389861.9758911133 0 0 0 0 25602248.341491699 -1365644.3527441025 0 -1365644.3527441025 6068000.984416008 0 0 0 0 3812355.4610089883 -257169.74959447235 0 -257169.74959447235 -1418517.7564401887 0 0 0 0 16900860.987966835 885237.9221447669 0 885237.9221447669 2423622.7220078651 0 0 0 0 18696206.749053955 -1143901.830640316 0 -1143901.830640316 -5563896.2868251801 0 0 0 0 17937804.134933472 3046090.3303670883 0 3046090.3303670883 -836853.0840511322 0 0 0 0 15897045.340637207 2182180.8003563881 0 2182180.8003563881 -5386343.739235878 0 0 0 0 1478743.7378692627 11732355.321532726 0 11732355.321532726 6417256.6415328979 0 0 0 0 16239266.329986572 3919339.4921789169 0 3919339.4921789169 -13610250.816876411 0 0 0 0 13241926.620635986 -568996.69577074051 0 -568996.69577074051 -5947790.0308475494 0 0 0 0 18468183.023563065 -4068622.8428574428 0 -4068622.8428574428 -2730310.4314312283 0 0 0 0 54745690.870246887 -9365072.5731039047 0 -9365072.5731039047 -53662627.224477291 0 0 0 0 173685.85439194739 -900290.16655947035 0 -900290.16655947035 99553.2100168342 0 0 0 0 -5449764.4544067383 -46675552.231366158 0 -46675552.231366158 9421751.9359643161 0 0 0 0 19044495.273574829 -8308536.5079488754 0 -8308536.5079488754 -37984000.575556755 0 0 0 0 24690995.104266755 548666.44727912126 0 548666.44727912126 -1141906.2553282082 0 0 0 0 9950605.3237539232 3680491.967331971 0 3680491.967331971 -1619519.6105021106 0 0 0 0 9420482.0086975098 5594514.355963707 0 5594514.355963707 -33416910.550150871 0 0 0 0 18252135.226085208 -14601785.852660982 0 -14601785.852660982 -7943484.2937927376 0 0 0 0 31394839.646354675 452446.91677373648 0 452446.91677373648 -20326172.279126167 0 0 0 0 72466539.677032471 -14291829.59029901 0 -14291829.59029901 -15608226.725145221 0 0 0 0 17186243.563171387 -8971052.8030943871 0 -8971052.8030943871 590065.2245477438 0 0 0 0 4696552.0978648178 -1525362.0566402227 0 -1525362.0566402227 -704707.74670434115 0 0 0 0 70154142.185897827 -39752932.631912291 0 -39752932.631912291 13106610.596878529 0 0 0 0 57505883.881965637 -1438909.0104147792 0 -1438909.0104147792 13125744.093972623 0 0 0 0 39662436.356246948 -17452859.464798242 0 -17452859.464798242 -23062786.5233199 0 0 0 0 32686215.699947357 -26260187.679782748 0 -26260187.679782748 -20589364.733051538 0 0 0 0 13269509.640692484 -3798946.015757991 0 -3798946.015757991 -4577101.7066240637 0 0 0 0 28197007.33965683 14416303.505558789 0 14416303.505558789 -34661177.101213336 0 0 0 0 39590222.621047974 -24217285.838525772 0 -24217285.838525772 -337536.68051862717 0 0 0 0 66963391.075897217 15272110.407436848 0 15272110.407436848 -66942868.683354378 0 0 0 0 24587564.977554694 -2053000.8139106219 0 -2053000.8139106219 -629020.06069652294 0 0 0 0 28981447.781150818 -22886392.766796052 0 -22886392.766796052 3014338.791636467 0 0 0 0 40244456.759094238 17618388.282260895 0 17618388.282260895 -26516733.927885056 0 0 0 0 19201857.264136739 -4037824.2789799422 0 -4037824.2789799422 -3245114.3230897551 0 0 0 0 3850276.3534258902 2990948.6181566585 0 2990948.6181566585 -1578497.3357193652 0 0 0 0 30525729.66065979 -12701360.960886002 0 -12701360.960886002 13071167.907179356 0 0 0 0 24211008.825428009 -3251213.3189105988 0 -3251213.3189105988 -994145.93484592438 0 0 0 0 61932542.984859467 -4116056.0056638718 0 -4116056.0056638718 -26582109.144020081 0 0 0 0 23867191.022830941 -9121354.7484188676 0 -9121354.7484188676 -2966511.7485100245 0 0 0 0 17973016.482498169 -13170453.520151615 0 -13170453.520151615 1822816.7363324165 0 0 0 0 20504459.485378265 -1100025.2118346691 0 -1100025.2118346691 -2733039.2080059052 0 0 0 0 19621761.697998047 -7263689.2923955917 0 -7263689.2923955917 -18571686.318548203 0 0 0 0 19714620.109355927 42878089.026268184 0 42878089.026268184 -9893534.4357280731 0 0 0 0 8400833.6942404881 -2220139.8988468461 0 -2220139.8988468461 -4143475.5966373431 0 0 0 0 36111800.648475647 -31855181.574971437 0 -31855181.574971437 -11086355.002096176 0 0 0 0 46581179.64150238 -9417076.6315358877 0 -9417076.6315358877 -30542279.806102693 0 0 0 0 24934346.277952246 -5956606.5825712746 0 -5956606.5825712746 -143987.50895233877 0 0 0 0 31364079.83246994 -10408760.198948741 0 -10408760.198948741 -8470966.8713243008 0 0 0 0 84345971.443878174 -34689770.828399658 0 -34689770.828399658 2629105.4874515533 0 0 0 0 67458806.995391846 -21302568.716025352 0 -21302568.716025352 -6848083.8787059784 0 0 0 0 24705038.652675465 -8687478.3066502176 0 -8687478.3066502176 -8197717.4057390159 0 0 0 0 68447717.740737915 -38394242.292834282 0 -38394242.292834282 -8238471.7678542137 0 0 0 0 72030556.284088135 -27196795.217170715 0 -27196795.217170715 873082.25939464569 0 0 0 0 23149647.606501602 -13018694.922685876 0 -13018694.922685876 834638.16267570981 0 0 0 0 17511131.076019287 -11477317.819583893 0 -11477317.819583893 -21111301.804104805 0 0 0 0 58774736.592136383 -35627608.162894249 0 -35627608.162894249 -19616813.386859417 0 0 0 0 2046696.5366668701 -10475284.624342442 0 -10475284.624342442 -5344013.4027109146 0 0 0 0 41098654.578273728 -13947798.174125727 0 -13947798.174125727 -9345541.8966310248 0 0 0 0 17195808.450714111 2545325.5273885727 0 2545325.5273885727 -3288471.0499219894 0 0 0 0 17248915.384676524 -6639306.4434795752 0 -6639306.4434795752 1198842.7861962221 0 0 0 0 9567327.5671539307 -13625792.973227203 0 -13625792.973227203 16375933.566830635 0 0 0 0 4850817.7089385986 -7891091.2260522842 0 -7891091.2260522842 -6208106.1140518188 0 0 0 0 7140842.7239993066 3831858.169229798 0 3831858.169229798 5064070.3485673862 0 0 0 0 61204171.252723694 -17067231.370415688 0 -17067231.370415688 16849422.291652679 0 0 0 0 48677248.231170654 -28758656.572849274 0 -28758656.572849274 30493552.775836945 0 0 0 0 24238478.772674531 -19500728.652189031 0 -19500728.652189031 -2452151.9196062284 0 0 0 0 5420880.8486302234 54320.827189842239 0 54320.827189842239 -3337536.5525428755 0 0 0 0 48462479.416992188 -5227214.2699098587 0 -5227214.2699098587 -7429733.1481742859 0 0 0 0 54154229.255310059 -42960821.503904343 0 -42960821.503904343 16579966.351912498 0 0 0 0 31628380.570493549 7524912.4903516024 0 7524912.4903516024 803903.34403405711 0 0 0 0 24255274.150756836 -5094294.2465441227 0 -5094294.2465441227 -6416642.8890609741 0 0 0 0 3259707.4746473581 -553767.34678570181 0 -553767.34678570181 -814910.38709974196 0 0 0 0 28037151.871434972 -5680782.1188219413 0 -5680782.1188219413 -5837314.3642628426 0 0 0 0 17854551.270355225 -2526874.2681460381 0 -2526874.2681460381 -12799540.556475639 0 0 0 0 49434504.822540283 14699531.45923233 0 14699531.45923233 5160937.0211172104 0 0 0 0 61091736.323280334 12693509.419447422 0 12693509.419447422 5363934.3908824921 0 0 0 0 63383072.160583496 7268810.805355072 0 7268810.805355072 -5865197.2276849747 0 0 0 0 20070201.688840859 -1258116.6324477345 0 -1258116.6324477345 6968915.4650711315 0 0 0 0 45146247.087493896 20381651.928010464 0 20381651.928010464 -1998763.9814815521 0 0 0 0 46871682.900863647 -22601044.922412872 0 -22601044.922412872 7822041.8285121918 0 0 0 0 61891293.994888306 22746563.288758755 0 22746563.288758755 -13079080.443512917 0 0 0 0 -19727377.867523193 36658640.158773422 0 36658640.158773422 12353142.320800781 0 0 0 0 12281697.798025411 -1940964.0284650475 0 -1940964.0284650475 3510661.8673078446 0 0 0 0 50128071.533946991 56200351.435120344 0 56200351.435120344 -2198059.1202220917 0 0 0 0 -22250010.66166687 -31074407.507043362 0 -31074407.507043362 6401285.8807048798 0 0 0 0 130662428.66323853 9360764.0602731705 0 9360764.0602731705 -22345677.548027039 0 0 0 0 159424186.4546814 47634718.663596153 0 47634718.663596153 20512640.15594101 0 0 0 0 134965488.306427 92103862.910945892 0 92103862.910945892 128030504.8257103 0 0 0 0 211890670.86010742 -18677425.496269226 0 -18677425.496269226 78921523.586429596 0 0 0 0 94856595.339782715 29254831.554508209 0 29254831.554508209 33460301.055570126 0 0 0 0 52714727.965606689 67196615.35688591 0 67196615.35688591 43720111.231586695 0 0 0 0 77459491.959091187 19723185.111165047 0 19723185.111165047 -23507823.504732132 0 0 0 0 63902297.36882019 14808399.214551926 0 14808399.214551926 -18400584.836363792 0 0 0 0 22867574.67338562 -48946622.568808556 0 -48946622.568808556 7696022.3187980652 0 0 0 0 91788384.72644043 2207353.1648855209 0 2207353.1648855209 -26978934.363631129 0 0 0 0 21806595.830029219 -11699627.149748117 0 -11699627.149748117 -137747.36953175254 0 0 0 0 31508040.706008911 -11764562.925850868 0 -11764562.925850868 -391519.39789944887 0 0 0 0 104679.35757446289 31463785.772873402 0 31463785.772873402 -63526231.512910843 0 0 0 0 -6744251.5856933594 22692839.737110138 0 22692839.737110138 -10888221.05546093 0 0 0 0 -8516262.0833740234 48999749.605102539 0 48999749.605102539 -51487740.49079895 0 0 0 0 795740.8161688745 30947.788519989699 0 30947.788519989699 -469333.03772548214 0 0 0 0 -5423687.2743377686 33733885.707820892 0 33733885.707820892 -23350525.91349411 0 0 0 0 2488436.1305976808 -13830254.907701315 0 -13830254.907701315 -583710.90199278761 0 0 0 0 56906133.838348389 -29419045.605229378 0 -29419045.605229378 4119388.4637570381 0 0 0 0 80803506.619720459 -160342964.94583321 0 -160342964.94583321 61763701.442634583 0 0 0 0 -90882086.157516479 -14872017.898494244 0 -14872017.898494244 -7911880.6249352694 0 0 0 0 506860282.56992531 -24486045.434240639 0 -24486045.434240639 3907297.7108078003 0 0 0 0 144221094.44975185 102294918.94588043 0 102294918.94588043 33661854.667347908 0 0 0 0 11769011.787862524 -6106504.697979793 0 -6106504.697979793 -2217058.5905424282 0 0 0 0 -1318325.1648039222 -51053.268959857523 0 -51053.268959857523 895212.59611813445 0 0 0 0 988977.45827612281 -444024.85236373171 0 -444024.85236373171 -405776.32726560393 0 0 0 0 364537150.63540649 47106014.994773865 0 47106014.994773865 -6054216.0133476257 0 0 0 0 138734334.61834717 197155204.89010334 0 197155204.89010334 259046819.42406845 0 0 0 0 -48982277.680511475 91493818.211606503 0 91493818.211606503 44334962.384132385 0 0 0 0 34563464.616500854 41145206.059900045 0 41145206.059900045 -28841467.443832397 0 0 0 0 74950865.09475708 30383272.349622726 0 30383272.349622726 -26097653.834621906 0 0 0 0 10906374.047994614 -237826734.93694007 0 -237826734.93694007 55108193.840527534 0 0 0 0 59860672.211227417 118007918.87795115 0 118007918.87795115 26969908.296344757 0 0 0 0 -9848381.6431884766 191486333.68903255 0 191486333.68903255 184122888.93188477 0 0 0 0 12438353.67929773 -6084144.3480835296 0 -6084144.3480835296 -572931.05811982416 0 0 0 0 208180319.02682495 72787610.895940781 0 72787610.895940781 -53527962.893478394 0 0 0 0 169116910.37463379 69265617.177649498 0 69265617.177649498 -8083356.9324245453 0 0 0 0 116027029.86712646 147954098.33196259 0 147954098.33196259 -3113274.0383758545 0 0 0 0 83475255.686706543 123622945.77813816 0 123622945.77813816 -7421581.0850105286 0 0 0 0 59015786.210014343 44776855.020426989 0 44776855.020426989 -42363255.318769455 0 0 0 0 149469055.32835388 12920558.420386314 0 12920558.420386314 -122408181.31589699 0 0 0 0 5914673.112233758 -1771211.612656245 0 -1771211.612656245 -319072.32027455629 0 0 0 0 223364450.77264404 6421351.3822174072 0 6421351.3822174072 -62667177.836472511 0 0 0 0 57163916.41998291 56994849.497309685 0 56994849.497309685 -77823791.489135742 0 0 0 0 55900049.51751709 -2989819.6646556854 0 -2989819.6646556854 -55637.783314228058 0 0 0 0 -72577103.753356934 -33231594.164484024 0 -33231594.164484024 -2787804.5511695147 0 0 0 0 10058669.248921707 -3029042.2453773655 0 -3029042.2453773655 -950922.37755122269 0 0 0 0 -23649233.199768066 1758487.5201472044 0 1758487.5201472044 -376406.08583247662 0 0 0 0 -11032749.668945312 -89630808.53608942 0 -89630808.53608942 -77978159.696881294 0 0 0 0 35112387.510955811 -1956558.84689641 0 -1956558.84689641 -18566191.449754119 0 0 0 0 13813133.884841919 -45958438.32508266 0 -45958438.32508266 -27500146.755231857 0 0 0 0 6521014.5991821289 -80862499.944511414 0 -80862499.944511414 -20088715.556575298 0 0 0 0 -53988542.596405029 -98660486.911958218 0 -98660486.911958218 -12151577.279132843 0 0 0 0 -25759033.497808456 -19408046.184707403 0 -19408046.184707403 60739273.571561813 0 0 0 0 -82523274.567962646 -13166061.409022331 0 -13166061.409022331 43237894.660097122 0 0 0 0 -25942525.270247221 -29342697.551854759 0 -29342697.551854759 -55538295.639904022 0 0 0 0 20453183.969390869 40158317.595864296 0 40158317.595864296 106337773.83614731 0 0 0 0 37593295.107391357 -33230519.024845123 0 -33230519.024845123 51584692.95057106 0 0 0 0 48343317.649749756 21815235.805480957 0 21815235.805480957 160467900.17088127 0 0 0 0 167198786.03125 -8269379.8631458282 0 -8269379.8631458282 111996718.03146505 0 0 0 0 511106113.49856186 67334548.626857817 0 67334548.626857817 78363335.953578949 0 0 0 0 214740753.72589111 103886952.38905716 0 103886952.38905716 241361441.0246315 0 0 0 0 180760256.32229614 -9020699.8659744263 0 -9020699.8659744263 40081128.863737106 0 0 0 0 189765139.58709717 -51002484.463747025 0 -51002484.463747025 193413809.11067486 0 0 0 0 51804006.586914062 -10303197.208129883 0 -10303197.208129883 43505678.659511566 0 0 0 0 2297174.8588057011 -1214036.2912956253 0 -1214036.2912956253 3775188.1691486938 0 0 0 0 13130199.186157227 -5618728.386036396 0 -5618728.386036396 -1588459.6145088673 0 0 0 0 11284403.446935991 -3060437.0869174898 0 -3060437.0869174898 -83129.333174371161 0 0 0 0 10510146.135848999 964559.21440029144 0 964559.21440029144 1553974.3661441803 0 0 0 0 10747349.882141113 628342.04942297935 0 628342.04942297935 364814.6652135849 0 0 0 0 6555322.7260200232 -1895597.093082672 0 -1895597.093082672 2208845.7337471698 0 0 0 0 12098230.917192034 -18390.432036906481 0 -18390.432036906481 -2866733.6886219606 0 0 0 0 -12912885.555267334 -12323878.341047049 0 -12323878.341047049 -6199482.3597034365 0 0 0 0 4387874.3467238843 4089401.6510971785 0 4089401.6510971785 4605428.81965042 0 0 0 0 -395688957.46551514 -197201032.29637891 0 -197201032.29637891 263035939.37419474 0 0 0 0 -1698801.9279174805 -3843215.8409827352 0 -3843215.8409827352 -4040130.0077165365 0 0 0 0 -1185358.8920085728 -958866.16007108986 0 -958866.16007108986 -138412.72576022791 0 0 0 0 272161358.98110199 -113502587.18022639 0 -113502587.18022639 -312706999.65298742 0 0 0 0 -1083265.2401322722 234256.51173950545 0 234256.51173950545 1043548.1480961622 0 0 0 0 -1539749.7190856934 2404184.559753418 0 2404184.559753418 4942299.3921685219 0 0 0 0 -1282528.1739742905 1426342.9525313545 0 1426342.9525313545 6163683.1586901397 0 0 0 0 5975926.7878684998 5931250.0543575287 0 5931250.0543575287 1626609.9067687988 0 0 0 0 -385138.84786087275 -528039.00295256823 0 -528039.00295256823 2248581.4987947685 0 0 0 0 -11085865.876785278 -3899568.9074234962 0 -3899568.9074234962 11785587.497307777 0 0 0 0 49256406.618350983 -98593131.8427196 0 -98593131.8427196 194582133.62468091 0 0 0 0 214497006.08886719 -204134663.98676121 0 -204134663.98676121 32535438.277227163 0 0 0 0 696987437.23776627 -292394616.45672929 0 -292394616.45672929 7912292.2735562325 0 0 0 0 46891.207917205989 -467880.38877929747 0 -467880.38877929747 676139.40248027537 0 0 0 0 -11016138.672637939 -608721530.97356641 0 -608721530.97356641 119849517.65198153 0 0 0 0 -12929598.28213501 -14342973.385873795 0 -14342973.385873795 8520248.7979035378 0 0 0 0 22833960.627807617 19285475.626604199 0 19285475.626604199 -10660400.891369343 0 0 0 0 899057.47264622524 -458543.10132899135 0 -458543.10132899135 2771227.2024214529 0 0 0 0 5467881.6253967285 2898906.930501461 0 2898906.930501461 -8902371.5579867363 0 0 0 0 3301199.611328125 11701330.365569592 0 11701330.365569592 31493516.281393051 0 0 0 0 7663031.9666442871 -6821147.8600893021 0 -6821147.8600893021 6692296.9522914886 0 0 0 0 4007376.1247024536 -9717593.0519521236 0 -9717593.0519521236 -2090601.9861240387 0 0 0 0 -3572080.6564941406 -898536.47944068909 0 -898536.47944068909 5884946.4807939529 0 0 0 0 5969080.0580368042 -5417478.4941470623 0 -5417478.4941470623 3483934.9033222198 0 0 0 0 23584206.95350647 -8321235.4500536919 0 -8321235.4500536919 2264408.3165311813 0 0 0 0 7689480.8450927734 -7838923.3613939285 0 -7838923.3613939285 16439511.261492252 0 0 0 0 47213477.886953354 -25475903.071631014 0 -25475903.071631014 8717943.175403595 0 0 0 0 15814175.375061035 -15285316.771823883 0 -15285316.771823883 14953818.10802567 0 0 0 0 -11341457.480010986 -23182000.385063648 0 -23182000.385063648 29808841.906757355 0 0 0 0 2345366.8397521973 -27650387.297813892 0 -27650387.297813892 29485371.917235374 0 0 0 0 20054427.845611572 -39072694.226543427 0 -39072694.226543427 15128009.995737076 0 0 0 0 -15332107.836456299 -4257405.3440437317 0 -4257405.3440437317 63577577.560008049 0 0 0 0 -72653524.675170898 -29956534.039782524 0 -29956534.039782524 55038068.063152552 0 0 0 0 -21084726.520767212 -48118895.859009743 0 -48118895.859009743 21362975.116559982 0 0 0 0 -59152785.903526306 28276358.178001285 0 28276358.178001285 215760128.42909336 0 0 0 0 -28779523.104553223 -116747595.19213676 0 -116747595.19213676 70787495.884520531 0 0 0 0 22506112.319335938 -160388464.34401655 0 -160388464.34401655 99682815.684832573 0 0 0 0 -30485252.358734131 -132229648.72835779 0 -132229648.72835779 -64007659.071576118 0 0 0 0 -228574765.70495605 -179656121.23948097 0 -179656121.23948097 50073126.792139411 0 0 0 0 -210183122.19082642 -3248995.1743836403 0 -3248995.1743836403 -116010683.02749538 0 0 0 0 42018951.961395264 -201036056.97659254 0 -201036056.97659254 -99459503.351419926 0 0 0 0 -336501241.25906372 -126112154.37807298 0 -126112154.37807298 49732060.972575188 0 0 0 0 257427331.85237122 22518894.933841944 0 22518894.933841944 -36547272.210521698 0 0 0 0 6031418.9310671501 145884.7209340483 0 145884.7209340483 -406443.96136076283 0 0 0 0 165736535.47387695 -75389763.564085007 0 -75389763.564085007 1412622.2631822824 0 0 0 0 43394243.613464355 -35585000.978979111 0 -35585000.978979111 15568755.173062325 0 0 0 0 138720657.93963623 36321809.914608002 0 36321809.914608002 10287793.127103806 0 0 0 0 152614652.73025513 -53527032.88531208 0 -53527032.88531208 2298025.0060100555 0 0 0 0 61249650.65411377 -16526490.157440186 0 -16526490.157440186 1625319.8597126007 0 0 0 0 51288939.541495085 -7893485.217953979 0 -7893485.217953979 1175420.9695421658 0 0 0 0 78170594.623352051 -10170889.989906311 0 -10170889.989906311 -16527382.779772758 0 0 0 0 79585530.60369873 -11859161.465190411 0 -11859161.465190411 -16751524.585365832 0 0 0 0 69647939.246490479 -14954943.18924284 0 -14954943.18924284 8125213.9173202515 0 0 0 0 86998561.562683105 -28747932.955438614 0 -28747932.955438614 -1085805.8664193153 0 0 0 0 79843563.478668213 -12830275.616727233 0 -12830275.616727233 -15734392.549264431 0 0 0 0 78963332.231567383 9045225.5455493927 0 9045225.5455493927 8915685.2207878232 0 0 0 0 79256316.614074707 -12480845.439977646 0 -12480845.439977646 -13334337.086058617 0 0 0 0 122159485.58569336 -7502099.7623999119 0 -7502099.7623999119 -13657148.203217506 0 0 0 0 61132105.797332764 -7177202.4853079319 0 -7177202.4853079319 -275733.36424517632 0 0 0 0 83086733.941650391 -269557697.29089546 0 -269557697.29089546 153211743.18950081 0 0 0 0 153484475.14233398 -169809609.1186204 0 -169809609.1186204 -228208511.38082886 0 0 0 0 20486508.563782461 -1176489.8841297477 0 -1176489.8841297477 -2621017.3630943722 0 0 0 0 11143945.204376221 -247101101.22387218 0 -247101101.22387218 -66161549.823649406 0 0 0 0 -4788967.0096130371 -231204286.43411946 0 -231204286.43411946 -35550989.740294456 0 0 0 0 -29409134.305603027 -252586276.6939888 0 -252586276.6939888 -50082670.55510807 0 0 0 0 -17292188.164733887 -264224911.82199359 0 -264224911.82199359 -61499553.704331636 0 0 0 0 46646185.511789322 96081469.55461663 0 96081469.55461663 -36229269.221199512 0 0 0 0 11441812.979010642 2237504.7739970274 0 2237504.7739970274 -6121970.4407305662 0 0 0 0 59258602.583850861 -4560942.8052194118 0 -4560942.8052194118 -3085632.6046962738 0 0 0 0 103562578.52438354 -8165213.5751595497 0 -8165213.5751595497 -11310021.871519089 0 0 0 0 22146658.3527897 -355720.34525389969 0 -355720.34525389969 -748468.85573868966 0 0 0 0 47799433.518371612 -12964307.236228444 0 -12964307.236228444 2944627.4064911176 0 0 0 0 34059557.962387085 29660149.954418182 0 29660149.954418182 -13093856.34923172 0 0 0 0 47929497.65486145 -14582107.61575222 0 -14582107.61575222 1900872.960313797 0 0 0 0 59090128.697811127 -6346838.6455047131 0 -6346838.6455047131 7634489.0947999954 0 0 0 0 27632013.621272624 1542625.082437302 0 1542625.082437302 -1655517.3725999177 0 0 0 0 111921210.09846497 41817510.950195312 0 41817510.950195312 -209787868.82345128 0 0 0 0 12261990.377456665 -4084994.6409964561 0 -4084994.6409964561 -12325801.969449043 0 0 0 0 19795199.90222466 -3470902.5741174258 0 -3470902.5741174258 656840.7791324188 0 0 0 0 22605386.528907955 -8704636.4256442264 0 -8704636.4256442264 1396442.3623884309 0 0 0 0 11304945.418807983 -1240518.7369914055 0 -1240518.7369914055 -9906613.6278162003 0 0 0 0 27121032.336172678 -4800824.0491482038 0 -4800824.0491482038 2817086.1561293453 0 0 0 0 64530436.012390137 -65837112.142650425 0 -65837112.142650425 -9300976.1266832352 0 0 0 0 145199236.54022217 -91554486.828376293 0 -91554486.828376293 -294147872.22518575 0 0 0 0 -20704699.900297165 -70376477.740381092 0 -70376477.740381092 -157941017.40816545 0 0 0 0 284025942.43939209 -186276853.15434122 0 -186276853.15434122 -113860301.25993156 0 0 0 0 252658347.67532349 30112615.342007637 0 30112615.342007637 -160540632.72138655 0 0 0 0 11677186.248947144 12412156.556686163 0 12412156.556686163 -149577537.01057386 0 0 0 0 59639056.542999268 123223535.26493192 0 123223535.26493192 16631371.692601681 0 0 0 0 116375870.61271667 103548434.37025714 0 103548434.37025714 14426870.158655167 0 0 0 0 296808259.49472046 296655864.49153519 0 296655864.49153519 141094673.69705582 0 0 0 0 40756593.01499939 -212916954.85764945 0 -212916954.85764945 114710102.8986969 0 0 0 0 164216603.49064636 -4621795.4315574169 0 -4621795.4315574169 -96024055.667465687 0 0 0 0 705092645.65609741 -83562403.611382008 0 -83562403.611382008 -90290223.532362223 0 0 0 0 215488010.77713013 -351819319.32311797 0 -351819319.32311797 408173134.73415565 0 0 0 0 68132847.345275879 -109365060.44536304 0 -109365060.44536304 55094016.978506565 0 0 0 0 15854875.529388428 48628640.451686859 0 48628640.451686859 231545121.28232479 0 0 0 0 665287898.42996216 -267540013.06575298 0 -267540013.06575298 113643220.85426807 0 0 0 0 221032.61852024496 -80409.09401537478 0 -80409.09401537478 1082308.8920317525 0 0 0 0 22655061.945068359 45194801.849770546 0 45194801.849770546 44310296.355543137 0 0 0 0 321915570.49775696 249489650.65053463 0 249489650.65053463 -314031276.13509655 0 0 0 0 693257248.4095459 -218284006.0632925 0 -218284006.0632925 168451367.54060948 0 0 0 0 -222901169.21351624 16445446.824925661 0 16445446.824925661 148847367.0866065 0 0 0 0 -1129929.5428709686 2345967.2060960596 0 2345967.2060960596 454284.95122390374 0 0 0 0 -70688062.857849121 -12343150.698541641 0 -12343150.698541641 44933827.189501941 0 0 0 0 310476524.1423645 -177500379.10938561 0 -177500379.10938561 -800302642.89165545 0 0 0 0 5033905.3869934082 2705581.1925623417 0 2705581.1925623417 16455965.635360956 0 0 0 0 -58675322.250946045 70568495.815624714 0 70568495.815624714 -15949429.663444996 0 0 0 0 -55603272.109054565 58878962.830809116 0 58878962.830809116 27974409.497934341 0 0 0 0 32559314.341827393 157352705.463696 0 157352705.463696 128374251.46767092 0 0 0 0 70189763.628417969 118038625.70151597 0 118038625.70151597 -80345375.112158537 0 0 0 0 -4105470.791595459 86001116.477507591 0 86001116.477507591 -84920615.032728136 0 0 0 0 29956773.238908827 7618301.3999374546 0 7618301.3999374546 2543193.4854598739 0 0 0 0 25541701.361869559 8013323.8915464878 0 8013323.8915464878 2478604.816402256 0 0 0 0 887400560.66368484 323779868.9974221 0 323779868.9974221 110661558.34973669 0 0 0 0 1826666054.45541 -1169582875.7453742 0 -1169582875.7453742 337404251.21775067 0 0 0 0 2121192.2481610477 4725799.9845773019 0 4725799.9845773019 426084.5912488621 0 0 0 0 433421497.06047058 -473506762.99766326 0 -473506762.99766326 184861078.74791592 0 0 0 0 4197639331.394577 -477105432.53938699 0 -477105432.53938699 -1302753222.6566329 0 0 0 0 6614749100.435318 -1764898845.6615758 0 -1764898845.6615758 -1025903383.0634906 0 0 0 0 4200424863.9528809 -579705999.68855762 0 -579705999.68855762 -405527040.21070039 0 0 0 0 2115724925.6810303 -737257973.39184463 0 -737257973.39184463 145302762.18383843 0 0 0 0 4162834739.2069855 -1770196562.2456639 0 -1770196562.2456639 -535832581.42322701 0 0 0 0 6606340539.4840088 -3550692973.8036127 0 -3550692973.8036127 559518617.80891562 0 0 0 0 3313342439.3547287 -2529255425.0062313 0 -2529255425.0062313 1072477683.6317214 0 0 0 0 2629562609.5928345 -1704134168.4114974 0 -1704134168.4114974 1041896703.4163599 0 0 0 0 20797202.450330615 6513783.9281363338 0 6513783.9281363338 2360148.4989314321 0 0 0 0 -4685485.6618721634 9952465.0648632199 0 9952465.0648632199 1681970.5053552706 0 0 0 0 626398364.12588501 -379220227.20026565 0 -379220227.20026565 -829301578.31837678 0 0 0 0 -35582785.606468201 39216105.576204777 0 39216105.576204777 21537909.186329365 0 0 0 0 3578101.5110647678 6718334.3760742825 0 6718334.3760742825 1803406.142923635 0 0 0 0 2608173215.8429718 -4580376896.6064243 0 -4580376896.6064243 5125172923.1303215 0 0 0 0 -442754587.65081787 1646770021.9515164 0 1646770021.9515164 2957597565.5505872 0 0 0 0 6577618019.9875793 7227108.7850527912 0 7227108.7850527912 -4256338.5964365015 0 0 0 0 2391543.7195203677 1954867.9045491703 0 1954867.9045491703 2505608.2707231673 0 0 0 0 2445765759.8134155 1593469172.5743778 0 1593469172.5743778 -22445211.230182052 0 0 0 0 6599926368.7999115 4937503103.5743942 0 4937503103.5743942 2096461651.6898241 0 0 0 0 3023952351.3928223 1883254267.9663973 0 1883254267.9663973 98251296.775542021 0 0 0 0 6609108368.9617615 1597907294.4972663 0 1597907294.4972663 -685745416.97868061 0 0 0 0 2221670158.4178619 839835301.11646974 0 839835301.11646974 117924268.07704976 0 0 0 0 1782696630.2079468 1058910505.4749787 0 1058910505.4749787 350851118.35073757 0 0 0 0 1311424817.0534363 1638089916.7097201 0 1638089916.7097201 1136550711.0414374 0 0 0 0 -223595203.24699402 128981058.07154697 0 128981058.07154697 443395631.19700289 0 0 0 0 -210836894.25270081 -32996175.76123786 0 -32996175.76123786 175056081.73467612 0 0 0 0 284963984.78581238 -74612482.562661946 0 -74612482.562661946 170699960.56629997 0 0 0 0 86353864.168960571 40423534.247095466 0 40423534.247095466 347801585.63772345 0 0 0 0 1543364532.6459045 951378727.57180619 0 951378727.57180619 598483751.99891174 0 0 0 0 2258081884.5224304 380683665.16967577 0 380683665.16967577 7068708.7859313488 0 0 0 0 832359241.49243164 551774981.35702538 0 551774981.35702538 144395457.1343317 0 0 0 0 1770715267.6078186 409565380.39508998 0 409565380.39508998 -88118014.963353872 0 0 0 0 321550122.50733948 -332562407.76887161 0 -332562407.76887161 348147266.13245404 0 0 0 0 1024778378.142334 -170847800.221394 0 -170847800.221394 74646386.180036694 0 0 0 0 2355174477.6882935 49988102.260406256 0 49988102.260406256 8241130.8879882097 0 0 0 0 1273975558.1507034 382394393.7319324 0 382394393.7319324 172626468.35892832 0 0 0 0 3010100036.1896362 712360988.23821568 0 712360988.23821568 128542537.61034411 0 0 0 0 3136335261.0767059 725292779.48459363 0 725292779.48459363 -39998332.319760084 0 0 0 0 3052096867.7538757 783022423.46192861 0 783022423.46192861 -29903258.703879192 0 0 0 0 2214897824.0328293 446341457.467273 0 446341457.467273 -34388483.394166589 0 0 0 0 3236920372.6964989 1397672420.0529613 0 1397672420.0529613 769752668.70843482 0 0 0 0 2928507849.6489105 506243770.49765944 0 506243770.49765944 -368022410.66136932 0 0 0 0 6614340517.4316101 2858351692.8128467 0 2858351692.8128467 1126893479.6592195 0 0 0 0 9654823.6884545684 438817.49306126684 0 438817.49306126684 -1025003.2472966475 0 0 0 0 3257757190.9573059 802955051.15293837 0 802955051.15293837 -617833912.03305387 0 0 0 0 3304787306.3752441 1056084681.3538563 0 1056084681.3538563 -268471540.68638194 0 0 0 0 2984815038.3148346 910122971.34422672 0 910122971.34422672 -318841963.93745542 0 0 0 0 1967283296.0690308 -1819933259.303494 0 -1819933259.303494 787351762.94407189 0 0 0 0 3428197204.3705215 -2685578241.7590303 0 -2685578241.7590303 1249968397.7106051 0 0 0 0 2184948343.2134819 -1441668430.866518 0 -1441668430.866518 841176912.50240135 0 0 0 0 723029213.25671387 -727782643.05977011 0 -727782643.05977011 1305392261.2455838 0 0 0 0 1222957693.7708817 -2146594919.8988523 0 -2146594919.8988523 2383778348.4732723 0 0 0 0 3995721629.7865105 -2098756887.3461149 0 -2098756887.3461149 408190000.63276279 0 0 0 0 6605655135.7461777 -3985784816.755702 0 -3985784816.755702 1392615561.2338879 0 0 0 0 3565431059.6800461 -2007690075.6881542 0 -2007690075.6881542 389007362.39608502 0 0 0 0 5196243424.4241867 -2167796220.3784432 0 -2167796220.3784432 1681597.1145110186 0 0 0 0 3650295832.843132 -1875548066.1683657 0 -1875548066.1683657 453934366.43749392 0 0 0 0 2511855194.092247 -886587898.63476598 0 -886587898.63476598 531544763.97805977 0 0 0 0 2355504254.2856674 -1194615510.0378802 0 -1194615510.0378802 624870989.31287944 0 0 0 0 599289032.66381073 -812928337.4318825 0 -812928337.4318825 969353795.74134624 0 0 0 0 1209706998.1927261 -567130368.13048077 0 -567130368.13048077 709147872.96054387 0 0 0 0 1214420706.8075638 -1174735580.4996946 0 -1174735580.4996946 1067347690.9143023 0 0 0 0 413900039.9145813 -704213995.06929052 0 -704213995.06929052 597735552.04743195 0 0 0 0 549683987.56827545 -608872581.88209915 0 -608872581.88209915 662597449.36549258 0 0 0 0 13765538.825866546 -1021184.787975735 0 -1021184.787975735 -5233743.6317551052 0 0 0 0 440818523.23973846 -138323970.60498559 0 -138323970.60498559 350629622.38065958 0 0 0 0 4815218.3548583984 2071171.6470010281 0 2071171.6470010281 -3215598.1576895714 0 0 0 0 6168598.2570877075 2375151.8140830994 0 2375151.8140830994 -8223710.1368668079 0 0 0 0 10295577.110208463 1253139.1716424841 0 1253139.1716424841 -2873652.8855450768 0 0 0 0 3138919.8341711313 918293.24322818592 0 918293.24322818592 -2423372.8688977575 0 0 0 0 -32765144.779052734 -742161317.67508841 0 -742161317.67508841 1268438902.7375231 0 0 0 0 1127388678.9862442 -692911078.69062614 0 -692911078.69062614 435715621.38900328 0 0 0 0 50933785.193740845 44405293.722284019 0 44405293.722284019 -46193408.168043852 0 0 0 0 17107068.660084382 934533.36515733041 0 934533.36515733041 -2378110.7411754266 0 0 0 0 -22844353.963607788 25435710.978886545 0 25435710.978886545 69677874.883055538 0 0 0 0 -46635634.53805542 -193450233.43178797 0 -193450233.43178797 -142729812.02896634 0 0 0 0 354244.77503232658 749633.24810861098 0 749633.24810861098 62884.252564733732 0 0 0 0 25213731.238418579 168837.55442246795 0 168837.55442246795 25517364.637721866 0 0 0 0 44320812.509643555 53041704.463568687 0 53041704.463568687 -18253547.460046768 0 0 0 0 -327263.04284286499 -38638398.331511803 0 -38638398.331511803 -62444654.991191745 0 0 0 0 -138232775.23352814 -82132373.410203874 0 -82132373.410203874 55254781.869666427 0 0 0 0 245856210.13919067 71434025.67709893 0 71434025.67709893 -53810645.341443479 0 0 0 0 8347557.9140297845 -5418.7089425958693 0 -5418.7089425958693 -1568113.3472601213 0 0 0 0 -123694836.90314674 35994873.915442646 0 35994873.915442646 -2326546.3359834552 0 0 0 0 2490425.5575361364 -550946.15171751752 0 -550946.15171751752 -2664920.3288464146 0 0 0 0 -9781838.2131271362 67728238.596855402 0 67728238.596855402 -221973329.61444223 0 0 0 0 -127887597.79697418 -239025540.78133744 0 -239025540.78133744 -125003876.29325372 0 0 0 0 -31005012.597610474 -196949432.50147453 0 -196949432.50147453 -166638691.47836223 0 0 0 0 -7075181.2763137817 -296556561.36579692 0 -296556561.36579692 -201879828.59296852 0 0 0 0 70356992.422943115 -164811923.87462777 0 -164811923.87462777 -166022988.33266586 0 0 0 0 56916623.320457458 -214531335.18208146 0 -214531335.18208146 52755285.640138388 0 0 0 0 203875112.67448425 -162785509.29146659 0 -162785509.29146659 -204242198.11488065 0 0 0 0 -1238636.9318389893 -31761158.183321536 0 -31761158.183321536 -264204965.88595855 0 0 0 0 956950.13417308033 3161485.0224722857 0 3161485.0224722857 278598.58739595866 0 0 0 0 -17444237.82472229 22590712.322105121 0 22590712.322105121 -220470.43074034154 0 0 0 0 32069933.593200684 -325859701.52401841 0 -325859701.52401841 -819082252.26865005 0 0 0 0 2078760429.6225281 -1747067337.5180039 0 -1747067337.5180039 1953345021.7945409 0 0 0 0 14323199.20543088 -1859033.4574607834 0 -1859033.4574607834 -2379962.0586986523 0 0 0 0 26296239.311294556 -18744017.328489363 0 -18744017.328489363 -37614381.954308152 0 0 0 0 1168936068.3066483 -3926640569.2729421 0 -3926640569.2729421 6553683541.3644953 0 0 0 0 4414515.3112236112 -1705538.5529629905 0 -1705538.5529629905 -181776.39064694961 0 0 0 0 6536927909.7616577 3199826.4685353213 0 3199826.4685353213 -5730168.9162398754 0 0 0 0 3007434.5927607417 -532064.85112311994 0 -532064.85112311994 -495937.11674171983 0 0 0 0 4787404575.6950378 3864670533.0820017 0 3864670533.0820017 1597893729.7201545 0 0 0 0 6605398140.9784393 3678171943.5953732 0 3678171943.5953732 1390547125.8302548 0 0 0 0 14579062.278106689 365730160.28327346 0 365730160.28327346 223341472.28441122 0 0 0 0 4510288.4491063431 -549012.31870818883 0 -549012.31870818883 -353468.37775496405 0 0 0 0 -873856781.99092102 -231898459.09586644 0 -231898459.09586644 359982265.91141677 0 0 0 0 6460251813.8287659 3331809619.0628915 0 3331809619.0628915 1417717551.159359 0 0 0 0 3531433070.1884308 1861892949.8528545 0 1861892949.8528545 779329790.03825748 0 0 0 0 10427279.802027225 -2346676.8094482496 0 -2346676.8094482496 638624.5789040993 0 0 0 0 3410118446.7296915 1225978450.2797866 0 1225978450.2797866 465546325.73979229 0 0 0 0 6615905306.2750778 1778846431.0164068 0 1778846431.0164068 -637551902.62124527 0 0 0 0 4421886281.4488678 773723488.46018469 0 773723488.46018469 -933783692.36437106 0 0 0 0 4086444703.9793396 761810466.72423851 0 761810466.72423851 -917574927.21609926 0 0 0 0 3985255545.8939857 933556500.2807622 0 933556500.2807622 -294913457.9782505 0 0 0 0 2147736030.5604858 -137761386.40005708 0 -137761386.40005708 -384527878.31918192 0 0 0 0 4001799681.8081093 22652632.223710835 0 22652632.223710835 -611214021.15378618 0 0 0 0 6612525635.1458206 -359053831.68490911 0 -359053831.68490911 -1366376791.1220424 0 0 0 0 18642035.317476273 -250980017.20473096 0 -250980017.20473096 49739975.532979965 0 0 0 0 139814361.92443848 78056076.579588413 0 78056076.579588413 165919912.97507536 0 0 0 0 -75579825.946247101 291937497.69195873 0 291937497.69195873 100459996.6371119 0 0 0 0 2122082223.986908 -155307644.57850194 0 -155307644.57850194 -127747698.99938869 0 0 0 0 1615393855.4837341 388678623.0984273 0 388678623.0984273 -364106042.43681276 0 0 0 0 1615031519.9560089 381204504.00147223 0 381204504.00147223 -221038400.1113596 0 0 0 0 1212615434.0040741 -155428132.08846685 0 -155428132.08846685 -71019466.589119703 0 0 0 0 -6984921.0629844666 -63972773.859565303 0 -63972773.859565303 21715157.09732914 0 0 0 0 -17737227.188047647 167667214.3206293 0 167667214.3206293 217969821.8007946 0 0 0 0 14344380.227402717 -3969823.2310794443 0 -3969823.2310794443 2810120.8842021022 0 0 0 0 1298432524.3962708 1095232845.2478411 0 1095232845.2478411 496391478.38757133 0 0 0 0 152154974.83694458 268072591.030532 0 268072591.030532 150368930.31908906 0 0 0 0 207105103.64403534 148720813.99151164 0 148720813.99151164 -387062402.73852253 0 0 0 0 -51199086.100635529 -187418517.36224091 0 -187418517.36224091 -395893538.65546042 0 0 0 0 -272761206.53161621 -25747299.700349241 0 -25747299.700349241 203879993.63125032 0 0 0 0 25599398.67691803 -89125363.09178628 0 -89125363.09178628 -188450851.47906792 0 0 0 0 -11792173.157699585 -62942821.998909831 0 -62942821.998909831 -52381156.34987323 0 0 0 0 16144337.824478149 -99923481.23547554 0 -99923481.23547554 -152349645.01380098 0 0 0 0 17727436.471603394 -168982989.47139466 0 -168982989.47139466 -231361034.45855525 0 0 0 0 -276232.70204549283 156759.52682929486 0 156759.52682929486 508685.05483073089 0 0 0 0 5147237.980758667 -73957418.113327622 0 -73957418.113327622 -181646515.31421244 0 0 0 0 63029053.723791122 -13032210.712820262 0 -13032210.712820262 -55609929.453655958 0 0 0 0 82429748.321040154 -109965555.76319449 0 -109965555.76319449 -215691637.61811441 0 0 0 0 37942781.748199463 8827782.0984942913 0 8827782.0984942913 95666838.609628677 0 0 0 0 144559016.4758873 -22518794.402628839 0 -22518794.402628839 -105310470.0291093 0 0 0 0 15888697.230300903 -28679646.358480453 0 -28679646.358480453 -38996821.538336754 0 0 0 0 23056414.23928833 -47380500.47160244 0 -47380500.47160244 -35503290.835535765 0 0 0 0 4198572.6891555786 -13367681.206530094 0 -13367681.206530094 25319245.781560898 0 0 0 0 20986693.338529266 -3915008.6995457374 0 -3915008.6995457374 2455902.6171980752 0 0 0 0 13251969.143753052 -18578352.438327789 0 -18578352.438327789 56524523.489803791 0 0 0 0 -22120275.430831909 -53472116.634714127 0 -53472116.634714127 71900094.053328991 0 0 0 0 -16080937.388168335 -43337427.859548092 0 -43337427.859548092 77267879.292497873 0 0 0 0 -8407045.0331192017 -27539949.082170129 0 -27539949.082170129 83401703.235234261 0 0 0 0 -46933807.956359863 -45195378.381364822 0 -45195378.381364822 79711512.679162979 0 0 0 0 68044931.408874512 -93757193.791888237 0 -93757193.791888237 117191005.71646905 0 0 0 0 228896964.52610779 -92673179.486251831 0 -92673179.486251831 -5720231.4032335281 0 0 0 0 103236575.52822876 -50812867.34795332 0 -50812867.34795332 -31859459.832676888 0 0 0 0 -67361613.64630127 -44146226.320407867 0 -44146226.320407867 -28569028.226308823 0 0 0 0 303973616.74237442 54605661.34018302 0 54605661.34018302 -28993823.826457977 0 0 0 0 137063891.64480591 23058291.980918169 0 23058291.980918169 -62516529.813781738 0 0 0 0 67326175.758903503 -12280842.105221987 0 -12280842.105221987 20122191.278438568 0 0 0 0 12629960.715163231 -60952002.21933271 0 -60952002.21933271 -95761004.637172699 0 0 0 0 3217798.6408219859 -808819.15986054391 0 -808819.15986054391 -1675348.912547092 0 0 0 0 52881089.051673889 -7649990.4628915787 0 -7649990.4628915787 -7966926.5034012794 0 0 0 0 48008736.904970169 -21044940.587513447 0 -21044940.587513447 -26910261.103816986 0 0 0 0 41072677.916404724 -6635496.7716702223 0 -6635496.7716702223 -879382.45189762115 0 0 0 0 5761167.9098478798 956357.68796572834 0 956357.68796572834 466590.52806881629 0 0 0 0 43396421.02911377 -17894842.581707239 0 -17894842.581707239 -31427004.287799835 0 0 0 0 43770957.437774658 -24560410.665432453 0 -24560410.665432453 -21542705.38684082 0 0 0 0 24239984.618492126 -33511898.7683146 0 -33511898.7683146 -25436522.73488903 0 0 0 0 79868533.394874573 -124733986.55730014 0 -124733986.55730014 1632933.4207412004 0 0 0 0 89107364.969474792 -130114140.61989748 0 -130114140.61989748 -23823944.613192499 0 0 0 0 102186469.47904968 -129560224.7870059 0 -129560224.7870059 -31375920.148761019 0 0 0 0 99766485.973426819 -81442250.327929497 0 -81442250.327929497 -99353996.02563405 0 0 0 0 103558116.51610565 -57212850.659791552 0 -57212850.659791552 38213803.415713966 0 0 0 0 94654171.919961929 -9351042.0764445364 0 -9351042.0764445364 -19399463.673146725 0 0 0 0 96143294.674160957 -20948375.475119472 0 -20948375.475119472 139557.52428674698 0 0 0 0 84396921.935447693 -3201222.2111487389 0 -3201222.2111487389 -18022664.083055615 0 0 0 0 91680909.371078491 -10725843.922893524 0 -10725843.922893524 -18704011.686808109 0 0 0 0 124402353.86240005 22033778.913202405 0 22033778.913202405 -13303330.085363865 0 0 0 0 112751600.58174896 -2034485.0000197887 0 -2034485.0000197887 -41718980.649458647 0 0 0 0 80684381.617027283 894141.12198674679 0 894141.12198674679 -17946660.817909241 0 0 0 0 97184132.021224976 57266164.420405149 0 57266164.420405149 41786116.810009956 0 0 0 0 17858662.343897521 -343885.68589570932 0 -343885.68589570932 6744261.3362169266 0 0 0 0 23032917.385635376 -69425880.359261751 0 -69425880.359261751 -206822975.76060987 0 0 0 0 -13079331.120834351 48016180.949441433 0 48016180.949441433 -136211622.85753536 0 0 0 0 908566.19670307636 882395.52922277339 0 882395.52922277339 -43519.194632228231 0 0 0 0 18117257.617676973 27738064.163080044 0 27738064.163080044 -9753013.1813597679 0 0 0 0 7423183.368522644 2283216.9335873127 0 2283216.9335873127 -3611196.8203039169 0 0 0 0 7204249.5161361694 220839.25134348869 0 220839.25134348869 -3607865.6584501266 0 0 0 0 5792314.0964976437 2310224.6982250046 0 2310224.6982250046 -3348758.6317473743 0 0 0 0 14458337.504570007 -2506123.9308481216 0 -2506123.9308481216 792853.42367756367 0 0 0 0 1521907.2965954123 492513.33506502584 0 492513.33506502584 -182421.89412567159 0 0 0 0 38494675.664916992 9621605.6228713989 0 9621605.6228713989 -6992677.9568858147 0 0 0 0 87239580.923690796 10579794.040321112 0 10579794.040321112 -24937048.40819025 0 0 0 0 5574581.6675109863 287117.41054391861 0 287117.41054391861 -3250089.2723834515 0 0 0 0 10379615.108020224 3061026.5646720491 0 3061026.5646720491 -4497785.1618618965 0 0 0 0 5959660.662109375 3281622.9026420116 0 3281622.9026420116 -5576822.2039368153 0 0 0 0 109773073.96180725 -60581258.577890873 0 -60581258.577890873 115848574.20784354 0 0 0 0 -11883787.435700417 3688131.7269419432 0 3688131.7269419432 16863225.382476807 0 0 0 0 -470338.63308534399 715525.50077686831 0 715525.50077686831 -853444.60087176785 0 0 0 0 9653069.4665972777 2442981.4335022904 0 2442981.4335022904 -2996115.8796156924 0 0 0 0 82827769.573547363 -20285520.716336727 0 -20285520.716336727 -3698343.9870662689 0 0 0 0 85449718.702209473 -23817550.136423111 0 -23817550.136423111 -7202716.6384402514 0 0 0 0 73675370.198791504 -2393116.2188682556 0 -2393116.2188682556 3747402.076883316 0 0 0 0 102037595.42991638 -10575422.240702152 0 -10575422.240702152 -17060371.791954041 0 0 0 0 85180198.131538391 -13743734.263876081 0 -13743734.263876081 -21792092.774959564 0 0 0 0 88604034.972312927 -8005263.6390726566 0 -8005263.6390726566 -14998362.618430138 0 0 0 0 70435108.434772491 -14208352.349753618 0 -14208352.349753618 -2351068.3104114532 0 0 0 0 -27996133.10244751 -40188048.973611355 0 -40188048.973611355 14723955.6377244 0 0 0 0 51976122.601295471 -47227278.394655228 0 -47227278.394655228 -33932899.83998251 0 0 0 0 70809888.421264648 -9079684.9582047462 0 -9079684.9582047462 -7393041.2613214254 0 0 0 0 65711010.864974976 -17995888.499140739 0 -17995888.499140739 -10350604.192827225 0 0 0 0 21555378.84728241 -24435495.011452675 0 -24435495.011452675 18514098.955816507 0 0 0 0 5589388.1916427612 138601.41528892517 0 138601.41528892517 13564532.479609489 0 0 0 0 28028962.736839294 16434376.657700062 0 16434376.657700062 23149053.888659 0 0 0 0 36850331.913686752 -769110.554666996 0 -769110.554666996 5449555.1406593323 0 0 0 0 -26728821.547332764 11460111.449707508 0 11460111.449707508 56088558.806718826 0 0 0 0 -25435722.027267456 -115731656.64431167 0 -115731656.64431167 93103043.707267046 0 0 0 0 -35382419.633497238 4238861.7312989235 0 4238861.7312989235 265704054.06824875 0 0 0 0 -57126675.533248901 -71731102.903012276 0 -71731102.903012276 33193146.623856604 0 0 0 0 21385661.854598999 -204629504.42635095 0 -204629504.42635095 -237146414.61550337 0 0 0 0 26212713.951156616 -148190944.18026185 0 -148190944.18026185 78225811.409202844 0 0 0 0 77446588.312610626 -17131950.948031425 0 -17131950.948031425 -25095009.012713909 0 0 0 0 1058170.6807774007 471573.97598134726 0 471573.97598134726 -1198397.9943554271 0 0 0 0 74653691.008926392 -23431991.912488937 0 -23431991.912488937 6018295.7516589165 0 0 0 0 92383661.689865112 -7686393.6450088024 0 -7686393.6450088024 -19214039.146887779 0 0 0 0 109810241.54891586 -21581884.847857773 0 -21581884.847857773 -16680488.398392081 0 0 0 0 119888556.725914 -53696806.54627651 0 -53696806.54627651 12873238.806191757 0 0 0 0 1813098.7813384235 771029.54782310314 0 771029.54782310314 -2105002.1417418029 0 0 0 0 132751767.83835983 -55896385.184594333 0 -55896385.184594333 -119864168.06460679 0 0 0 0 151352167.43772888 -117894132.37466413 0 -117894132.37466413 -7660750.7402353287 0 0 0 0 96384770.131881714 6111348.2197628021 0 6111348.2197628021 -31669429.505489856 0 0 0 0 99662625.074327469 3550171.3840497136 0 3550171.3840497136 -95921689.257985592 0 0 0 0 1100615.9076566137 487016.78403277323 0 487016.78403277323 -1250338.302305253 0 0 0 0 115882745.9043541 3701861.2373441458 0 3701861.2373441458 -111188711.1957593 0 0 0 0 62835901.341308594 -55797033.387338638 0 -55797033.387338638 -100291172.19029558 0 0 0 0 74842295.796394348 -16939854.159122467 0 -16939854.159122467 -21854796.989769936 0 0 0 0 75526596.702220917 -21429318.646115065 0 -21429318.646115065 -59244055.689801216 0 0 0 0 49629461.370132446 -32675093.061731815 0 -32675093.061731815 -13795227.878000736 0 0 0 0 45562930.860704422 -7092242.1705969125 0 -7092242.1705969125 -6840132.306309998 0 0 0 0 74239239.053710938 -11465004.462176919 0 -11465004.462176919 -46598871.884870529 0 0 0 0 10433179.488914065 -5618597.0966775157 0 -5618597.0966775157 -3512886.1796985506 0 0 0 0 91662150.28717041 -49097093.783992708 0 -49097093.783992708 1641780.1420895159 0 0 0 0 30493995.302116394 57805547.993994832 0 57805547.993994832 -115879531.43977118 0 0 0 0 50725944.9088974 13216346.493223786 0 13216346.493223786 -63080694.742011666 0 0 0 0 106853425.49754333 -77685744.738631353 0 -77685744.738631353 1443284.0736581087 0 0 0 0 4836231.0500486568 -2857846.571787037 0 -2857846.571787037 -2381980.6000322471 0 0 0 0 52163085.388809204 -9910234.7177782655 0 -9910234.7177782655 -96455425.539702266 0 0 0 0 53724094.346572876 99136.280521929264 0 99136.280521929264 -42604892.021365881 0 0 0 0 -15511351.405654907 120279825.45535314 0 120279825.45535314 -344108877.42285758 0 0 0 0 327838051.51859283 30974145.073557854 0 30974145.073557854 -363420473.38965088 0 0 0 0 68165823.729391098 -214017466.38154519 0 -214017466.38154519 -227406052.93562579 0 0 0 0 -45295869.048820496 -177714081.69437456 0 -177714081.69437456 20816694.634921193 0 0 0 0 1623466.6570324749 -799650.918705374 0 -799650.918705374 -1090844.6487549441 0 0 0 0 37262597.485435486 -43529403.773449123 0 -43529403.773449123 15330434.982373955 0 0 0 0 29341528.662466049 -74112813.24352476 0 -74112813.24352476 -102217834.3178191 0 0 0 0 15397745.163631439 28719764.717167109 0 28719764.717167109 -97558594.348283648 0 0 0 0 35813232.21723175 -33998979.676672071 0 -33998979.676672071 -63360982.639779218 0 0 0 0 129850733.96349001 -41247828.982063472 0 -41247828.982063472 34457833.362805367 0 0 0 0 272656508.09887695 -117226007.61082952 0 -117226007.61082952 7709340.1523306444 0 0 0 0 1432538.9935813397 -390924.19381043129 0 -390924.19381043129 -246929.83167971036 0 0 0 0 -10851251.309203148 198129128.42215118 0 198129128.42215118 -130444082.37630425 0 0 0 0 108977957.07113647 88785895.064438641 0 88785895.064438641 -99532606.244098529 0 0 0 0 172076732.93328857 -126306450.1716978 0 -126306450.1716978 -407910948.82104886 0 0 0 0 114724.00797466189 -303365.94218007568 0 -303365.94218007568 111842.08921174909 0 0 0 0 218125101.13339472 203164756.96589613 0 203164756.96589613 -17201485.435516715 0 0 0 0 239883708.15956116 -77823117.152376294 0 -77823117.152376294 -125338470.82026839 0 0 0 0 274476561.00171661 50795079.675680041 0 50795079.675680041 -216361586.66139472 0 0 0 0 188600908.57265186 101052477.60480806 0 101052477.60480806 -122429312.50932765 0 0 0 0 279896695.71632957 -71375083.542638123 0 -71375083.542638123 -147065285.44585872 0 0 0 0 336313373.38569641 -271576118.93448091 0 -271576118.93448091 215037924.77277482 0 0 0 0 132803779.08029938 45436737.529983997 0 45436737.529983997 240201345.11562324 0 0 0 0 170999057.15883636 181870083.62869263 0 181870083.62869263 -149425295.30806613 0 0 0 0 -47595862.684440613 -316304516.8058604 0 -316304516.8058604 176539957.60631323 0 0 0 0 1962998.8852446433 609914.99317792989 0 609914.99317792989 71913.089657278266 0 0 0 0 86364396.305568695 51454664.483501911 0 51454664.483501911 41525588.51847744 0 0 0 0 25206927.856781006 -9085844.8893947601 0 -9085844.8893947601 12397454.839222908 0 0 0 0 22157744.861167908 -1191100.3213615417 0 -1191100.3213615417 7507665.9081945419 0 0 0 0 16840063.684593201 -5124381.634098053 0 -5124381.634098053 10521848.514065742 0 0 0 0 16133952.291732788 -2285871.3445916176 0 -2285871.3445916176 1393691.7268638611 0 0 0 0 15756759.483177185 -4595488.3452215195 0 -4595488.3452215195 850099.17384719849 0 0 0 0 6737499.719681358 1854826.6118714008 0 1854826.6118714008 -223898.52955853101 0 0 0 0 236149239.02233124 -358273799.51943541 0 -358273799.51943541 415573087.33557987 0 0 0 0 181157161.39054489 -135384329.41851878 0 -135384329.41851878 155816943.40644506 0 0 0 0 627319326.16682053 -152769315.48629355 0 -152769315.48629355 34518273.65542984 0 0 0 0 377747020.06367493 -8549177.4258027077 0 -8549177.4258027077 405972861.64221668 0 0 0 0 272086968.58979034 -67665340.379818916 0 -67665340.379818916 14207638.208379269 0 0 0 0 312464066.75600433 -233875385.3324616 0 -233875385.3324616 158946991.21321487 0 0 0 0 6005684.66847229 3197426.5066928864 0 3197426.5066928864 -677470.93098068237 0 0 0 0 -599851.55702781677 9948979.5965223312 0 9948979.5965223312 -5692683.0039405823 0 0 0 0 -8071890.6447048187 8897653.4154772758 0 8897653.4154772758 3429824.819152832 0 0 0 0 3689420.9964752197 7590470.3483104706 0 7590470.3483104706 -10273668.836574554 0 0 0 0 -2789267.9615936279 5982712.4901599884 0 5982712.4901599884 8444006.5476608276 0 0 0 0 47701.201464697719 70833.746160866693 0 70833.746160866693 -33417.194843403529 0 0 0 0 -2663637.0774230957 5308976.5458297729 0 5308976.5458297729 12031493.906311035 0 0 0 0 4787420.9556694031 6562040.3627119064 0 6562040.3627119064 -9356804.8168106079 0 0 0 0 79559.506293682382 2348877.6329762116 0 2348877.6329762116 6671769.1609700248 0 0 0 0 420491742.68915558 -70935963.380161762 0 -70935963.380161762 24278381.085808396 0 0 0 0 725881246.62980652 -77667758.957964659 0 -77667758.957964659 1131513.7949571609 0 0 0 0 722187189.21839523 -352454379.41569531 0 -352454379.41569531 183586572.01678848 0 0 0 0 466262992.60694885 -275567594.91452956 0 -275567594.91452956 163571184.2074194 0 0 0 0 881590649.30863571 -109167588.58545947 0 -109167588.58545947 5565570.1056575775 0 0 0 0 1690147.877073355 618917.37078736536 0 618917.37078736536 1021049.8792314995 0 0 0 0 10141755.725296021 -7364708.8110027313 0 -7364708.8110027313 -385895.71050834656 0 0 0 0 -2239333.1935119629 -1784427.6288833618 0 -1784427.6288833618 -2778276.2701644897 0 0 0 0 14266968.700696308 5203487.2924982123 0 5203487.2924982123 4915740.0224374104 0 0 0 0 20791894.385066986 -7271997.1974163055 0 -7271997.1974163055 -7199417.7371673584 0 0 0 0 13418398.666061401 -3772860.4196310043 0 -3772860.4196310043 1240907.055639267 0 0 0 0 18992913.602798462 -6783260.0764350891 0 -6783260.0764350891 -1100689.1687927246 0 0 0 0 25455081.540138245 -6299251.8680210114 0 -6299251.8680210114 -1555445.8973751068 0 0 0 0 22283902.178585052 -2384439.5528903008 0 -2384439.5528903008 -7200118.3199386597 0 0 0 0 6020604.0081481934 5310674.0112524033 0 5310674.0112524033 -6186976.4381904602 0 0 0 0 59702450.929870605 25463811.906604767 0 25463811.906604767 -21310125.560295105 0 0 0 0 21638666.455593932 -143673.58557169233 0 -143673.58557169233 57335.779200149234 0 0 0 0 1267227.7300762329 6134892.8530597249 0 6134892.8530597249 1840633.9099307042 0 0 0 0 4861212.3339424133 2404631.0889253616 0 2404631.0889253616 -4884902.0704965591 0 0 0 0 -2303697.3136978149 -2205975.0487947464 0 -2205975.0487947464 -1032963.1968040466 0 0 0 0 -1840714.6871490479 35107.306780815125 0 35107.306780815125 -3466015.7887306213 0 0 0 0 55398252.564628601 79338440.682460785 0 79338440.682460785 22168239.900506496 0 0 0 0 -450551.12296175584 5246721.8168745209 0 5246721.8168745209 1869053.3315051589 0 0 0 0 -13971076.122144699 -2922494.2146348953 0 -2922494.2146348953 29949848.456882477 0 0 0 0 74511414.200634003 89236122.764110565 0 89236122.764110565 8923750.0198707581 0 0 0 0 67341465.469009399 67930967.06199646 0 67930967.06199646 62457936.736846924 0 0 0 0 -2444772.1966056824 -2061276.08735919 0 -2061276.08735919 -342657.16897583008 0 0 0 0 -3353548.4343757629 -650543.21105957031 0 -650543.21105957031 4543833.679019928 0 0 0 0 -4992357.2860107422 2991440.9285144806 0 2991440.9285144806 -3372506.1749172211 0 0 0 0 -136251.02869736706 -145296.47042592661 0 -145296.47042592661 26680.833595434204 0 0 0 0 4948915.5201759338 -8612296.6642727852 0 -8612296.6642727852 5184091.1670646667 0 0 0 0 135123.95796203613 -2521165.7334117889 0 -2521165.7334117889 -2518034.0747265816 0 0 0 0 -970469.7311706543 -4785097.1562604904 0 -4785097.1562604904 2568761.2339878082 0 0 0 0 -3092715.4800567627 -962137.51747274399 0 -962137.51747274399 5388825.9080486298 0 0 0 0 -3375544.55884552 -648915.13676095009 0 -648915.13676095009 5044188.4310760498 0 0 0 0 -3329662.4385604858 -1462035.328248024 0 -1462035.328248024 9655553.0593996048 0 0 0 0 8602200.889793396 -6454481.6912107468 0 -6454481.6912107468 -13915779.851384401 0 0 0 0 19909084.584453583 -25443409.521336555 0 -25443409.521336555 9707164.8138461113 0 0 0 0 6158373.3116912842 3210572.6515407562 0 3210572.6515407562 -11117788.783299208 0 0 0 0 7802066.6658706665 4993680.0248103142 0 4993680.0248103142 -10183726.012495041 0 0 0 0 401457.49319966882 1407711.6040995438 0 1407711.6040995438 4054818.7700108518 0 0 0 0 -22997118.109386444 32041064.599057436 0 32041064.599057436 -23885466.216590881 0 0 0 0 30312757.052583218 8153157.1809617281 0 8153157.1809617281 -46605895.549450874 0 0 0 0 69731755.747203827 -47234662.206883669 0 -47234662.206883669 -6051519.5428156853 0 0 0 0 -14262653.406734467 -18030738.454541087 0 -18030738.454541087 132245299.4202261 0 0 0 0 -18193518.882225037 3003605.9426314831 0 3003605.9426314831 29135121.977551937 0 0 0 0 -10432720.438934326 8654557.2309871912 0 8654557.2309871912 25724910.519938469 0 0 0 0 -7064086.4182491302 -7316466.5609686375 0 -7316466.5609686375 35413117.61204052 0 0 0 0 17334781.551589966 42827933.883862436 0 42827933.883862436 -63955065.400245845 0 0 0 0 17309103.250671029 39296937.17945765 0 39296937.17945765 -949147.4440331459 0 0 0 0 -6256447.9122657776 88496837.639013171 0 88496837.639013171 52913734.642699569 0 0 0 0 53861090.537530899 -70949085.577377975 0 -70949085.577377975 25482544.978839159 0 0 0 0 36068238.107019424 -35263792.892388023 0 -35263792.892388023 63544103.068392664 0 0 0 0 2631098.545901686 2063987.2656941991 0 2063987.2656941991 189096.74905684029 0 0 0 0 12061542.625396729 -8840350.4472050667 0 -8840350.4472050667 -44213433.89103049 0 0 0 0 1133193.5777858216 343684.66896468587 0 343684.66896468587 -340294.28038957529 0 0 0 0 15372973.085891724 14173879.088517547 0 14173879.088517547 -26180766.485840321 0 0 0 0 9280333.6692657471 5744982.6022450328 0 5744982.6022450328 -4300713.7026023865 0 0 0 0 -33410312.510478973 7092461.0202927589 0 7092461.0202927589 15636170.186319351 0 0 0 0 6204477.1495989338 5799668.1886384329 0 5799668.1886384329 -49381.714328827104 0 0 0 0 -19711566.901580811 -373455181.81878376 0 -373455181.81878376 1162083373.8301229 0 0 0 0 -87809522.515968323 44999860.675817728 0 44999860.675817728 -6850416.811861515 0 0 0 0 2411059.0828557862 -2309818.2639937168 0 -2309818.2639937168 4022666.6401647986 0 0 0 0 951321203.22445679 900572487.89832234 0 900572487.89832234 -83217092.79266791 0 0 0 0 1699296216.5655823 -184091902.86022758 0 -184091902.86022758 851009270.14406776 0 0 0 0 189934164.60776138 874671608.2174859 0 874671608.2174859 115480921.65636086 0 0 0 0 18817379.59318924 8401573.4929037094 0 8401573.4929037094 -8419898.2821987867 0 0 0 0 8043918.1485546939 8196049.5278860349 0 8196049.5278860349 -1060557.4253328433 0 0 0 0 26150458.926024318 7870122.3478186354 0 7870122.3478186354 -21892653.537155151 0 0 0 0 25581518.92155838 24004449.644100189 0 24004449.644100189 -44643819.180342674 0 0 0 0 6695264.8284034729 10047624.076204956 0 10047624.076204956 2740942.9250543416 0 0 0 0 14184621.011849403 15573112.546142384 0 15573112.546142384 1863353.0546058416 0 0 0 0 3591285.150554657 11751508.330170155 0 11751508.330170155 4060273.9277172089 0 0 0 0 313452.50404370541 3615642.6451987941 0 3615642.6451987941 5193587.7137083737 0 0 0 0 2204197.9466438293 12305887.975603342 0 12305887.975603342 5819082.2775626183 0 0 0 0 -10019815.602706909 4972323.4341769218 0 4972323.4341769218 10948057.017949581 0 0 0 0 -1688834.0308227539 19669107.514271736 0 19669107.514271736 846840.92119002342 0 0 0 0 1133239.5299835205 31002003.508743048 0 31002003.508743048 31776597.756284714 0 0 0 0 -5456116.3374290466 8167530.4832239151 0 8167530.4832239151 21235129.637939453 0 0 0 0 -5549763.0312530994 6027764.7725812197 0 6027764.7725812197 9438907.3257379532 0 0 0 0 -7175073.084526062 3371079.5725483894 0 3371079.5725483894 12594419.829478741 0 0 0 0 -5857654.345038414 -2364088.21412462 0 -2364088.21412462 12710023.495037079 0 0 0 0 -1140037.1592912395 3419682.1461041356 0 3419682.1461041356 5325846.5734750088 0 0 0 0 -12103173.391498566 7251702.2683078051 0 7251702.2683078051 9589464.3972806931 0 0 0 0 -8505529.5446166992 6748651.4691200256 0 6748651.4691200256 4036428.7115492225 0 0 0 0 -8247235.8640213013 7116856.0080375671 0 7116856.0080375671 1947186.1978235245 0 0 0 0 -1128781.5124601126 11104404.25453192 0 11104404.25453192 5537085.7443122864 0 0 0 0 4226733.930349011 1707817.045598085 0 1707817.045598085 -1071075.5605364591 0 0 0 0 175442221.53876495 42548553.523017883 0 42548553.523017883 17448137.446199894 0 0 0 0 43255759.580104828 48749103.300754547 0 48749103.300754547 54996999.306647301 0 0 0 0 140868328.97757149 52886429.251556396 0 52886429.251556396 45078087.70194912 0 0 0 0 95658261.315485001 26029101.020019531 0 26029101.020019531 62974155.850200653 0 0 0 0 140047954.06496334 56748708.461931944 0 56748708.461931944 36351037.659893036 0 0 0 0 124643286.52468586 82417269.713604927 0 82417269.713604927 97831111.41986084 0 0 0 0 18334365.902744293 4511429.4127807617 0 4511429.4127807617 -20549260.822107315 0 0 0 0 1634128.8122235369 471583.95963495877 0 471583.95963495877 -680569.33195945062 0 0 0 0 95069618.594032288 29976124.36123848 0 29976124.36123848 -20243768.317364782 0 0 0 0 99562082.923523545 -11777409.975139976 0 -11777409.975139976 13900772.449821472 0 0 0 0 18685824.472412109 15537658.490228653 0 15537658.490228653 -7011622.3896789551 0 0 0 0 8008945.8921165466 2868597.2358293533 0 2868597.2358293533 -8021652.1634612083 0 0 0 0 -28139286.687845111 5728122.9761226773 0 5728122.9761226773 34138390.931419373 0 0 0 0 28922778.054401398 -29408904.149746418 0 -29408904.149746418 40887509.979861856 0 0 0 0 14113600.613611817 37531241.023626685 0 37531241.023626685 52149057.763692856 0 0 0 0 157505873.70450783 -62026735.980839133 0 -62026735.980839133 -49207850.012960196 0 0 0 0 78905180.5327034 163060017.1105516 0 163060017.1105516 26616622.972415924 0 0 0 0 -7649923.1395359039 19454865.539216757 0 19454865.539216757 -13558599.925840884 0 0 0 0 625828.48135972209 3817682.3116357471 0 3817682.3116357471 94623.88581605861 0 0 0 0 14800557.88354969 1335148.8008973598 0 1335148.8008973598 -19107950.5699296 0 0 0 0 131290015.89930248 -34373033.189433336 0 -34373033.189433336 -6856413.5739065409 0 0 0 0 27529319.021391511 -27947825.615066767 0 -27947825.615066767 10515536.220796585 0 0 0 0 -417972.64893971506 -678736.01402423566 0 -678736.01402423566 570211.35771199805 0 0 0 0 555907489.24547052 106127432.13894475 0 106127432.13894475 -132977008.82342577 0 0 0 0 240456.46017091256 -1313478.6054772853 0 -1313478.6054772853 309279.36469502049 0 0 0 0 -88206310.339716911 46407143.63835752 0 46407143.63835752 51662882.118614197 0 0 0 0 287943591.48848343 85366337.741006851 0 85366337.741006851 9169296.9183545113 0 0 0 0 266069293.40231371 -26240020.836864471 0 -26240020.836864471 82923826.541678429 0 0 0 0 13632811.52583456 3314733.0563416481 0 3314733.0563416481 -17412555.926366329 0 0 0 0 -4224719.2710165977 5969769.0734634399 0 5969769.0734634399 -870581.8796415329 0 0 0 0 13096656.712943077 -20750471.865756512 0 -20750471.865756512 2529832.1625957489 0 0 0 0 3166243.5869114343 -1222902.6316510658 0 -1222902.6316510658 -1106816.1960741729 0 0 0 0 -35376565.257768631 23021392.551094055 0 23021392.551094055 113873523.44835854 0 0 0 0 551071.06040834158 -1961863.3813011786 0 -1961863.3813011786 1188610.6133626336 0 0 0 0 351424593.9623456 46767312.614020348 0 46767312.614020348 -47253665.214334488 0 0 0 0 170204.0276323352 55977.329379592091 0 55977.329379592091 -40621.513769276906 0 0 0 0 324392501.00525188 -5240261.1378517151 0 -5240261.1378517151 -43089071.18400383 0 0 0 0 378336344.01975441 120635463.89193916 0 120635463.89193916 75152948.247432709 0 0 0 0 218273402.10882568 -15099174.178693771 0 -15099174.178693771 16190178.708007812 0 0 0 0 273695791.71813381 129250757.05649054 0 129250757.05649054 -140479371.42897797 0 0 0 0 512971.57562706311 -1614126.3234881479 0 -1614126.3234881479 1581933.8550889976 0 0 0 0 369408475.32783508 -102892390.80156708 0 -102892390.80156708 -25977795.726854324 0 0 0 0 263026584.98655701 104866530.97395515 0 104866530.97395515 55113658.962331772 0 0 0 0 -227670954.29749107 477895266.32683563 0 477895266.32683563 -184111814.66150665 0 0 0 0 222994188.14153671 42591916.250764847 0 42591916.250764847 16776557.042682648 0 0 0 0 239096976.87725067 -6809337.2325649261 0 -6809337.2325649261 11254193.760681152 0 0 0 0 -10287283.07254982 -65553919.557725906 0 -65553919.557725906 -76639400.900150299 0 0 0 0 -12071487.757914066 -60509559.173272133 0 -60509559.173272133 -32292217.649536133 0 0 0 0 -31509695.700267792 -40386497.409456253 0 -40386497.409456253 74680152.848869324 0 0 0 0 -71622730.797367096 -7865300.3867416382 0 -7865300.3867416382 49921705.673721313 0 0 0 0 -51623610.117258072 -115638083.68207932 0 -115638083.68207932 -123237947.56072998 0 0 0 0 -201961707.25275612 -111782795.05466461 0 -111782795.05466461 -17370316.751842499 0 0 0 0 20811068.533566475 -11702616.993898392 0 -11702616.993898392 -131903177.84299141 0 0 0 0 -139747186.40494627 20751020.842582226 0 20751020.842582226 -4581256.5656509399 0 0 0 0 -82294074.225885391 -133502633.74137831 0 -133502633.74137831 -80906590.461584091 0 0 0 0 7933004.2674689302 -4178549.7519152537 0 -4178549.7519152537 -5956627.3204637924 0 0 0 0 57706899.016708374 -16023420.332208633 0 -16023420.332208633 -42440244.005374908 0 0 0 0 35984621.478013098 -4024094.6093743946 0 -4024094.6093743946 -3751025.747063932 0 0 0 0 48624777.888694763 -9365092.6092367172 0 -9365092.6092367172 -38556121.745941162 0 0 0 0 201617790.92898989 186472305.56681204 0 186472305.56681204 -160239913.11891747 0 0 0 0 28270215.257644653 -25740390.335723877 0 -25740390.335723877 -24964997.91152668 0 0 0 0 15468139.526794434 -16683081.376647949 0 -16683081.376647949 -14768853.808223724 0 0 0 0 172360429.11004448 -68479339.459848404 0 -68479339.459848404 -10895646.997158051 0 0 0 0 158894348.08370113 -84029067.055961609 0 -84029067.055961609 558270.14259719849 0 0 0 0 293115423.44555718 -29696360.572354555 0 -29696360.572354555 -24216302.988922119 0 0 0 0 189011.40931198935 -635791.18618117739 0 -635791.18618117739 332337.26869357191 0 0 0 0 -120077593.774827 -141255545.80259132 0 -141255545.80259132 237233384.37873077 0 0 0 0 -220774817.28377533 -314834934.22571373 0 -314834934.22571373 151003036.01869583 0 0 0 0 190062811.68191528 -3665454.0181789398 0 -3665454.0181789398 11185470.800893664 0 0 0 0 61439234.055504799 17283273.342385769 0 17283273.342385769 -20819171.014255524 0 0 0 0 48311268.180030823 42598890.028503418 0 42598890.028503418 37782092.719004095 0 0 0 0 138743369.83074856 24624713.658734322 0 24624713.658734322 37985848.697628021 0 0 0 0 83870799.620783448 88014525.112216055 0 88014525.112216055 69966613.931081772 0 0 0 0 48958286.841121674 70590230.55436039 0 70590230.55436039 70378471.999759674 0 0 0 0 91376395.238368034 41874035.431640863 0 41874035.431640863 -11760515.496547699 0 0 0 0 12062556.972581863 48154200.790792465 0 48154200.790792465 80438542.835246563 0 0 0 0 47993479.162163734 54318272.663915634 0 54318272.663915634 -76345777.352920532 0 0 0 0 63355882.122099876 -14370381.473809242 0 -14370381.473809242 -113964486.12077713 0 0 0 0 22118182.1472435 27519508.2701478 0 27519508.2701478 -4127947.0992164612 0 0 0 0 30737459.444761343 -4505082.9327599108 0 -4505082.9327599108 -1124933.7224479476 0 0 0 0 -81126776.225358963 -22927681.039844513 0 -22927681.039844513 -26703894.890695572 0 0 0 0 157655427.6240654 -69696267.461597443 0 -69696267.461597443 -265540062.27087402 0 0 0 0 25489294.135993958 -13179074.552927017 0 -13179074.552927017 -21472953.526435852 0 0 0 0 18712683.011882782 -8832354.9137539864 0 -8832354.9137539864 -3779507.2591781616 0 0 0 0 26075091.976909924 -2800572.8114077467 0 -2800572.8114077467 -389852.8540909281 0 0 0 0 23473691.387680054 -9591108.0111494064 0 -9591108.0111494064 -14170921.314583778 0 0 0 0 21821505.556098938 -6572679.52231884 0 -6572679.52231884 -277749.31091690063 0 0 0 0 22152414.822317123 533649.04490765929 0 533649.04490765929 6565041.9069766998 0 0 0 0 581483.82789993286 -8835126.3665015697 0 -8835126.3665015697 15818164.515007019 0 0 0 0 14164425.730712891 -9637120.8145036697 0 -9637120.8145036697 -3389981.1943907738 0 0 0 0 15814255.137947083 -16294660.239037991 0 -16294660.239037991 16074613.144487381 0 0 0 0 32585985.254127502 -26016040.374649048 0 -26016040.374649048 15351636.729677439 0 0 0 0 34522828.435134888 -7231983.2237884998 0 -7231983.2237884998 20128053.004011154 0 0 0 0 52613752.115470886 -16804295.268024445 0 -16804295.268024445 -3677681.1567306519 0 0 0 0 68754840.228256226 -26363901.811168671 0 -26363901.811168671 -29486664.277647018 0 0 0 0 34304624.369987488 -19594701.827293396 0 -19594701.827293396 -1984441.0714988708 0 0 0 0 20536162.478530884 -20544999.234231949 0 -20544999.234231949 -990660.93542432785 0 0 0 0 38622016.312225342 -19868256.825465202 0 -19868256.825465202 -14341942.059352875 0 0 0 0 26533230.715927124 -15785348.16959095 0 -15785348.16959095 -1919234.4999732971 0 0 0 0 37042949.722091675 45288014.427120209 0 45288014.427120209 14072090.781190872 0 0 0 0 105779894.17672729 23891952.3152771 0 23891952.3152771 -37159663.299751282 0 0 0 0 4242988.5882492065 5108201.9542136192 0 5108201.9542136192 -23867923.43655014 0 0 0 0 25735138.338775635 41219858.381700516 0 41219858.381700516 -42638047.854258537 0 0 0 0 23955338.97102356 8480290.1392612457 0 8480290.1392612457 -28624155.029270172 0 0 0 0 104785874.13839722 -30668164.674942017 0 -30668164.674942017 -22000381.268301964 0 0 0 0 57195368.880371094 -3083048.810338974 0 -3083048.810338974 -36404027.42748642 0 0 0 0 52782033.42600441 -22898566.33847928 0 -22898566.33847928 52343283.940843582 0 0 0 0 116605029.08281708 18757319.875930786 0 18757319.875930786 14078449.248528481 0 0 0 0 123550746.71369934 -27193547.09585762 0 -27193547.09585762 -6963770.6895229816 0 0 0 0 -1512483.6070725024 1949233.9856985481 0 1949233.9856985481 -686814.45124055212 0 0 0 0 74154653.596969604 -43191638.458404541 0 -43191638.458404541 8204170.1981515884 0 0 0 0 -3087488.7939758301 26797422.404708862 0 26797422.404708862 16941918.685237885 0 0 0 0 -16716089.158943176 16248719.521033287 0 16248719.521033287 15722465.022743225 0 0 0 0 -4971445.203502655 7485863.5475053787 0 7485863.5475053787 -11159127.041811466 0 0 0 0 16670003.261883713 5855227.7228269652 0 5855227.7228269652 -8798287.9521372113 0 0 0 0 908524624.55460739 -535792682.77430558 0 -535792682.77430558 226373871.21604741 0 0 0 0 1614453038.4976273 -1099271893.5293372 0 -1099271893.5293372 173521366.27907836 0 0 0 0 1117792895.810936 -277808431.80884647 0 -277808431.80884647 -56405143.353079021 0 0 0 0 352448.51304113865 1918710.7973884894 0 1918710.7973884894 -160287.63660292415 0 0 0 0 1055148164.458622 -1483899566.055639 0 -1483899566.055639 989183328.82855916 0 0 0 0 1658961922.149353 -765110707.04641557 0 -765110707.04641557 834360191.019979 0 0 0 0 1077817.6430408459 -342313.19333540648 0 -342313.19333540648 107408.04939028225 0 0 0 0 730981179.64515686 -916866975.98708868 0 -916866975.98708868 905869877.73184967 0 0 0 0 965106423.69991016 -1395213799.3450136 0 -1395213799.3450136 1223409863.8206773 0 0 0 0 7477542.319661824 1816086.3442803705 0 1816086.3442803705 -130519.56274307659 0 0 0 0 1168414254.6761398 -1993546156.4009705 0 -1993546156.4009705 1192044126.8053589 0 0 0 0 -6735743.482483387 111923760.1199739 0 111923760.1199739 -444632814.18217087 0 0 0 0 230468184.74273682 -12336515.349389076 0 -12336515.349389076 273766026.51812899 0 0 0 0 272043466.70101547 -1927378146.3893809 0 -1927378146.3893809 -1396133007.9772058 0 0 0 0 1956751065.2382011 -1138288694.5159178 0 -1138288694.5159178 -3220097339.3113685 0 0 0 0 2023198884.9279594 -550196299.98865724 0 -550196299.98865724 -411784329.37839532 0 0 0 0 -1680685518.7505188 1100131949.275749 0 1100131949.275749 -292092562.20209503 0 0 0 0 -457102826.20457458 2952465661.9142094 0 2952465661.9142094 -1062087894.1131692 0 0 0 0 4109091372.6245193 918657268.10396481 0 918657268.10396481 -73663811.868292093 0 0 0 0 1997243717.1168518 342002096.04897094 0 342002096.04897094 -136748947.01876235 0 0 0 0 169458969.46563721 2393758919.5801558 0 2393758919.5801558 640465808.73697782 0 0 0 0 -263023512.91312385 -390426067.62829828 0 -390426067.62829828 2660552895.2748432 0 0 0 0 2057312535.2770386 2897519637.2705317 0 2897519637.2705317 3112823295.2939634 0 0 0 0 1627517321.0466537 1742660458.4255803 0 1742660458.4255803 125188510.34916258 0 0 0 0 -280221425.5884099 254015139.39957646 0 254015139.39957646 5405835297.7092085 0 0 0 0 1008212.6406259993 922427.17544633942 0 922427.17544633942 -26476.768329842482 0 0 0 0 5710719137.5897369 1459094293.5819302 0 1459094293.5819302 1969069101.4497652 0 0 0 0 4949823170.9686852 2429602762.5574551 0 2429602762.5574551 1176053391.7684009 0 0 0 0 1399010.0669318 141294.31212523778 0 141294.31212523778 -708215.66290042689 0 0 0 0 2215898144.0936317 -476680656.34036642 0 -476680656.34036642 2331763107.0852809 0 0 0 0 2787668291.5460815 -1390510075.0555236 0 -1390510075.0555236 364402384.60726035 0 0 0 0 3367402243.9131813 -576641948.04056728 0 -576641948.04056728 1291712572.8789003 0 0 0 0 2169400495.8739128 -233479435.1025863 0 -233479435.1025863 1906708076.5520205 0 0 0 0 91813824.203548431 682400583.26383901 0 682400583.26383901 -1531502176.2577603 0 0 0 0 -168408562.53197479 2315685022.9407592 0 2315685022.9407592 -1564342340.5177863 0 0 0 0 15978440.729156494 -2074949.9366474152 0 -2074949.9366474152 -13861810.165499687 0 0 0 0 9430159.508116832 7680767.5436657816 0 7680767.5436657816 -4006954.0050421692 0 0 0 0 -79848753.689769745 2738022824.513659 0 2738022824.513659 -1830038458.448204 0 0 0 0 -718853927.45231628 1961461560.7390003 0 1961461560.7390003 -1742645665.5825655 0 0 0 0 367817855.41669464 1905922725.8427768 0 1905922725.8427768 -1269981648.9972274 0 0 0 0 21555823.919074059 8390629.6323022842 0 8390629.6323022842 -17320306.717481613 0 0 0 0 1120846103.635478 -2808762369.068881 0 -2808762369.068881 591692908.99737978 0 0 0 0 16821300.313895743 7821295.5976026487 0 7821295.5976026487 -5261145.3767866604 0 0 0 0 20771260.987255096 3513811.2679347992 0 3513811.2679347992 -21567192.652210236 0 0 0 0 717089.81263923645 1216517601.8899028 0 1216517601.8899028 38926658.099294186 0 0 0 0 2582786456.7836838 -1569223962.4070911 0 -1569223962.4070911 -445750786.74083567 0 0 0 0 24209423.528665226 1012342.2471095044 0 1012342.2471095044 -9461719.712258067 0 0 0 0 1456048133.8998919 -491804826.31481987 0 -491804826.31481987 -871107323.23141813 0 0 0 0 36789257.627609253 7488423.6533489227 0 7488423.6533489227 -42398166.909710407 0 0 0 0 69533833.473449707 -2822952.1199207306 0 -2822952.1199207306 -40393019.633003235 0 0 0 0 30098832.738164313 -2195642.6869508661 0 -2195642.6869508661 -12009913.701081533 0 0 0 0 27093809.044232368 7583995.0987539291 0 7583995.0987539291 -26532628.599937439 0 0 0 0 27313148.390012741 8551403.6646156311 0 8551403.6646156311 -84034489.075202942 0 0 0 0 26424056.555772781 3631610.5146064758 0 3631610.5146064758 -34290605.341941833 0 0 0 0 18058420.789592743 -20924524.918420792 0 -20924524.918420792 -42658766.241603851 0 0 0 0 18131569.189000607 -13181551.094530582 0 -13181551.094530582 -1879399.6750583649 0 0 0 0 15424101.565282822 -429947.8021478653 0 -429947.8021478653 -18675910.494106293 0 0 0 0 17704273.811721802 -4819754.1504764557 0 -4819754.1504764557 -20092974.444633484 0 0 0 0 5947840.1099790353 -3847076.2455627425 0 -3847076.2455627425 -5790851.0994350994 0 0 0 0 9445331.4598225355 -18902595.948894188 0 -18902595.948894188 -3186013.2568969727 0 0 0 0 5734395.571117878 -28645626.475448608 0 -28645626.475448608 3393359.7098293304 0 0 0 0 9229877.8448705673 -9115114.6047887802 0 -9115114.6047887802 20639286.271492004 0 0 0 0 6605593.4870652705 -2972473.8225019244 0 -2972473.8225019244 -2730259.3330718214 0 0 0 0 17214668.37000978 -8586066.8057322502 0 -8586066.8057322502 -5846524.2108130455 0 0 0 0 1019289.0396911396 -2260206.4363885066 0 -2260206.4363885066 -764324.91751933657 0 0 0 0 5329724.9246107154 -201932.54453370831 0 -201932.54453370831 -3008858.607997098 0 0 0 0 111605518.41056585 15010187.767122865 0 15010187.767122865 -6172698.5884764194 0 0 0 0 245837406.3597703 326702824.65491867 0 326702824.65491867 -320076014.51551378 0 0 0 0 182543446.81941432 -192189606.84205142 0 -192189606.84205142 -758248466.86007595 0 0 0 0 -35300028.15971294 525588491.47743756 0 525588491.47743756 -374708663.75805664 0 0 0 0 -393712978.88521731 19538236.849981546 0 19538236.849981546 -258319047.97344953 0 0 0 0 2346865.1957927165 -451942.54492491682 0 -451942.54492491682 -663449.4980285482 0 0 0 0 2361534194.0554581 966048966.8792429 0 966048966.8792429 96273893.559273958 0 0 0 0 218696474.41516495 -986097061.63772845 0 -986097061.63772845 -234576300.33146596 0 0 0 0 68461498.014371634 125018472.50278372 0 125018472.50278372 447908906.54860473 0 0 0 0 3284694847.4570794 -133665399.90382326 0 -133665399.90382326 -306142981.480937 0 0 0 0 2134225639.4278655 268095819.95429319 0 268095819.95429319 -300554973.30558062 0 0 0 0 2774526538.5469732 -1426332.0394935608 0 -1426332.0394935608 -355855025.76124287 0 0 0 0 1683036380.1994052 -446260694.71329272 0 -446260694.71329272 -210722959.07935214 0 0 0 0 1781936985.8193398 -15001673.946179748 0 -15001673.946179748 -372782336.1942907 0 0 0 0 17673017.84633255 -5412852.6431808472 0 -5412852.6431808472 -16076509.309188843 0 0 0 0 973427750.80993462 337686641.81398237 0 337686641.81398237 132929722.56274486 0 0 0 0 6767294.81319925 -3924239.1545111542 0 -3924239.1545111542 -7130972.0749180671 0 0 0 0 2603132276.5537682 -72350067.341961384 0 -72350067.341961384 219967583.33536637 0 0 0 0 2520634245.4729333 106990607.3123022 0 106990607.3123022 -13529553.057088852 0 0 0 0 2282034099.1795626 -558422864.38640749 0 -558422864.38640749 -210400809.16632938 0 0 0 0 3073180605.5684738 5464914.8871299028 0 5464914.8871299028 24421384.375605971 0 0 0 0 676943918.08559489 -2064343355.7050824 0 -2064343355.7050824 499230331.56391382 0 0 0 0 2748904553.1379633 379525513.38170248 0 379525513.38170248 1412654922.4513445 0 0 0 0 2718654243.2100945 106770334.23659402 0 106770334.23659402 344677717.86133003 0 0 0 0 2297025289.5612106 -154874235.29616344 0 -154874235.29616344 1234689829.2666054 0 0 0 0 2221666119.5673447 -493784764.47986734 0 -493784764.47986734 152145216.05770493 0 0 0 0 2523991152.7293701 -215885058.03287888 0 -215885058.03287888 360183670.53831923 0 0 0 0 2604697353.85569 -91293130.415569544 0 -91293130.415569544 29825525.508621693 0 0 0 0 2627113884.5484238 -710122591.02074075 0 -710122591.02074075 42005069.058905602 0 0 0 0 2432171168.6828337 -572716779.09306645 0 -572716779.09306645 -41865905.79936552 0 0 0 0 2953216953.1439552 -1126417601.3292484 0 -1126417601.3292484 7749846.2307109833 0 0 0 0 3265511393.7201786 -570112889.57913685 0 -570112889.57913685 -41868749.674787961 0 0 0 0 2928495075.7117491 -341225828.90073323 0 -341225828.90073323 -102934057.94940317 0 0 0 0 2884142535.154007 -193138370.06827331 0 -193138370.06827331 -23006901.767100811 0 0 0 0 2857960539.5421839 -248895795.57958317 0 -248895795.57958317 -140440096.51302052 0 0 0 0 2976604601.7522335 -227843954.33058238 0 -227843954.33058238 -311714978.45988631 0 0 0 0 3753500384.5282168 -339266357.38920617 0 -339266357.38920617 -347832616.1969161 0 0 0 0 3125028357.595747 -317045058.71210033 0 -317045058.71210033 -131985026.59927988 0 0 0 0 3652177656.9912872 -670035171.60820544 0 -670035171.60820544 -604989327.81023049 0 0 0 0 3472449328.5591297 -28566703.678696156 0 -28566703.678696156 -255024022.20431495 0 0 0 0 4419589461.09618 -443538609.18215537 0 -443538609.18215537 -539709836.23349476 0 0 0 0 3459826044.9188437 -32679316.490736365 0 -32679316.490736365 83603575.170042276 0 0 0 0 5082544004.7260838 -101590969.27393579 0 -101590969.27393579 -822050651.48420382 0 0 0 0 5105334555.8376236 -798835230.27328086 0 -798835230.27328086 -1019480052.442974 0 0 0 0 6613252070.0723448 113619514.99877726 0 113619514.99877726 -1455668504.2930758 0 0 0 0 4624490014.4561405 -946863176.14918244 0 -946863176.14918244 -999807396.533638 0 0 0 0 6615801106.7366247 -2074739916.3228831 0 -2074739916.3228831 -1016459693.8826058 0 0 0 0 4611129857.4989758 -1122235447.1340861 0 -1122235447.1340861 -434434751.84046221 0 0 0 0 3711984602.919601 -2085318912.9527481 0 -2085318912.9527481 275781848.97378957 0 0 0 0 2466461758.10639 -1115748539.1139035 0 -1115748539.1139035 36265781.758966923 0 0 0 0 3684616592.3164902 -2276129071.3077636 0 -2276129071.3077636 -932815325.94220257 0 0 0 0 6602914765.8995132 -3843350717.4042082 0 -3843350717.4042082 -624592015.51209104 0 0 0 0 1677667277.2914963 -4141923481.7154589 0 -4141923481.7154589 2001535347.7657745 0 0 0 0 4836067084.0113907 2607075642.0241399 0 2607075642.0241399 -2774881004.3922696 0 0 0 0 6050972.2008997537 -5277312.4234505557 0 -5277312.4234505557 783796.60954380909 0 0 0 0 -815359346.24440956 -146989642.10553706 0 -146989642.10553706 -112244254.54296744 0 0 0 0 917626899.54931068 -1339666387.8071547 0 -1339666387.8071547 676904734.83583713 0 0 0 0 2334600608.2183495 -460306546.5889405 0 -460306546.5889405 -352351416.59249526 0 0 0 0 2252896815.660244 -825009336.57951427 0 -825009336.57951427 17682777.7944832 0 0 0 0 2690069349.4696751 -932148378.14044809 0 -932148378.14044809 -1407060948.3000996 0 0 0 0 2127052650.5434799 803656.66325397789 0 803656.66325397789 -1320584117.3615251 0 0 0 0 2851325457.1299171 -624555753.89719856 0 -624555753.89719856 -1350172421.9467838 0 0 0 0 2167515865.0212135 -783436233.67029452 0 -783436233.67029452 365858687.099944 0 0 0 0 1963113862.4391298 -904742408.59203196 0 -904742408.59203196 658520975.43735361 0 0 0 0 2093964883.667717 -854820523.73580277 0 -854820523.73580277 452094823.90170938 0 0 0 0 2349583570.0976124 -869392946.72206306 0 -869392946.72206306 -717776751.76459575 0 0 0 0 2743238098.4573784 -1148107425.4541712 0 -1148107425.4541712 -576353121.00243092 0 0 0 0 2524149764.8910866 -1516432431.9483325 0 -1516432431.9483325 -1192984859.5024698 0 0 0 0 1866699442.7324462 -1676508542.0021334 0 -1676508542.0021334 -361064842.52003694 0 0 0 0 2296914438.1543808 -1074495543.4758549 0 -1074495543.4758549 -1235465410.6546311 0 0 0 0 834782153.1735611 1800697.6117454469 0 1800697.6117454469 -845118386.5405848 0 0 0 0 17046493.850226417 2154349.6966396407 0 2154349.6966396407 -1672213.384997186 0 0 0 0 1638136169.6303749 981528221.23689556 0 981528221.23689556 -2975574576.545311 0 0 0 0 1988393285.371851 -1369255312.2306759 0 -1369255312.2306759 -1045868579.716188 0 0 0 0 1669917467.3192253 -925934648.26401424 0 -925934648.26401424 -1102009064.0447125 0 0 0 0 1853527550.3917923 -994350664.85670328 0 -994350664.85670328 -1379554898.3060076 0 0 0 0 2448789220.6881599 -2779472861.2620378 0 -2779472861.2620378 817175178.70703554 0 0 0 0 -738641863.70922089 1873205096.3597474 0 1873205096.3597474 819452961.92818809 0 0 0 0 2895785385.9883881 -3765877913.3496447 0 -3765877913.3496447 2012962507.9450457 0 0 0 0 -2408173993.1984634 391981742.29596949 0 391981742.29596949 6678811127.778512 0 0 0 0 1607353283.5331535 667727454.53087616 0 667727454.53087616 -2597866698.0146799 0 0 0 0 6453367.4156025089 -4179305.736447393 0 -4179305.736447393 705690.68047878426 0 0 0 0 3207748258.1906281 -5248381306.0606976 0 -5248381306.0606976 542050980.05416906 0 0 0 0 3289324685.8865242 -801897958.65691459 0 -801897958.65691459 -3260292421.9817519 0 0 0 0 3726690516.1404781 -1319152720.8772433 0 -1319152720.8772433 -1871689596.302238 0 0 0 0 2830244483.3805504 -730725259.15775609 0 -730725259.15775609 -1736874455.6597018 0 0 0 0 2801623521.313118 -2460518125.676096 0 -2460518125.676096 2434632547.1102533 0 0 0 0 4805943347.2505798 -2675629621.4072742 0 -2675629621.4072742 -949657871.09681845 0 0 0 0 2325660464.6892853 -5406424601.0990372 0 -5406424601.0990372 2746689012.6947675 0 0 0 0 9789309.6960412785 52473.683492203243 0 52473.683492203243 -1453648.4874126394 0 0 0 0 1021780239.5207596 1014385718.1688488 0 1014385718.1688488 -1676203479.3000104 0 0 0 0 416400984.9947052 -305089148.84515595 0 -305089148.84515595 572318638.49122775 0 0 0 0 490850279.26319885 -857051616.57206905 0 -857051616.57206905 -551018097.10016489 0 0 0 0 -770287059.71556854 -25510594.575286448 0 -25510594.575286448 170232176.05965006 0 0 0 0 -274313468.24415588 -884507279.31919217 0 -884507279.31919217 105366019.94326705 0 0 0 0 169988262.87488556 -791440576.68910372 0 -791440576.68910372 802442047.31309891 0 0 0 0 115125378.61910629 -717753951.13719344 0 -717753951.13719344 745700909.22174251 0 0 0 0 3162697752.6472321 -208295003.9181087 0 -208295003.9181087 -1178663994.1823442 0 0 0 0 619980455.56208801 -395845283.21859735 0 -395845283.21859735 520423002.58447647 0 0 0 0 727816421.81182861 -508555150.93445361 0 -508555150.93445361 193814143.96398425 0 0 0 0 1851345389.7702408 -353518189.44163871 0 -353518189.44163871 452574124.52091914 0 0 0 0 3448117472.3285713 -677641402.17668498 0 -677641402.17668498 127752714.3757938 0 0 0 0 4470354985.9269409 -1983813671.6864629 0 -1983813671.6864629 372682611.59819406 0 0 0 0 6616937150.2670908 -1133470539.2315965 0 -1133470539.2315965 -26336566.818771027 0 0 0 0 3739244439.3036575 -219645316.33881909 0 -219645316.33881909 -286817475.67543 0 0 0 0 6601530767.7574339 656804095.84821355 0 656804095.84821355 -800417456.4456718 0 0 0 0 2732308510.4907837 -5797953497.1909456 0 -5797953497.1909456 1482375706.3408325 0 0 0 0 1080032985.5127258 1913101129.3341551 0 1913101129.3341551 1449689745.6009336 0 0 0 0 3883914437.7842979 -981857807.16412115 0 -981857807.16412115 3347862758.0466566 0 0 0 0 280738558.95356369 96702198.768701077 0 96702198.768701077 55398685.770435333 0 0 0 0 231844989.8667984 73729772.453195572 0 73729772.453195572 -76010692.908455849 0 0 0 0 1903310.5859260652 -1576455.6441224627 0 -1576455.6441224627 -1331580.0142585868 0 0 0 0 290467085.88383484 139406927.11508226 0 139406927.11508226 217259659.47437477 0 0 0 0 400391230.45314026 85450266.942269325 0 85450266.942269325 -28440052.164507389 0 0 0 0 400921435.79200363 98236670.780105114 0 98236670.780105114 -6682631.6356124878 0 0 0 0 401162686.90019417 97571581.656237602 0 97571581.656237602 -6639942.2961616516 0 0 0 0 483676550.43657684 118003339.42122555 0 118003339.42122555 -21821432.669891834 0 0 0 0 334871943.87652588 117502560.87306595 0 117502560.87306595 -8486689.7934875488 0 0 0 0 209510574.93186951 117425975.90022945 0 117425975.90022945 -55268706.396121979 0 0 0 0 192257090.9916687 188395126.58359528 0 188395126.58359528 -198547571.43597412 0 0 0 0 14431052.416305542 160857978.60623646 0 160857978.60623646 -63186786.173024654 0 0 0 0 107306266.47792053 -7155748.1131982803 0 -7155748.1131982803 -16300679.893074989 0 0 0 0 6692209.5750398636 -31241844.503413394 0 -31241844.503413394 -21080068.678627014 0 0 0 0 209522929.51358032 1126621.9954986572 0 1126621.9954986572 23420312.870509624 0 0 0 0 84281892.652076721 -24837649.467179298 0 -24837649.467179298 19016518.458351135 0 0 0 0 145915011.43153381 101867756.5055666 0 101867756.5055666 -58398036.565749168 0 0 0 0 218119816.37239838 38071482.915588379 0 38071482.915588379 -2040217.6435346603 0 0 0 0 259983950.60899544 109353761.21287203 0 109353761.21287203 48314444.832597733 0 0 0 0 226179958.26091003 -2630616.7799882889 0 -2630616.7799882889 20714919.969337463 0 0 0 0 1880123.1235578023 -1477587.4437138401 0 -1477587.4437138401 -1495403.3376960414 0 0 0 0 195902698.2378633 -62365129.311112314 0 -62365129.311112314 49344171.181215286 0 0 0 0 201962931.18684101 -9843237.0188402236 0 -9843237.0188402236 38070951.810162544 0 0 0 0 338007378.60528564 -153133781.80440402 0 -153133781.80440402 -30705036.493699074 0 0 0 0 379220464.38136196 79419767.914525151 0 79419767.914525151 79747980.694706917 0 0 0 0 242544619.35503387 104598420.09645081 0 104598420.09645081 43376026.045605183 0 0 0 0 242317792.8693161 98101253.470849514 0 98101253.470849514 83138855.976431847 0 0 0 0 275909342.41959 122290360.31988382 0 122290360.31988382 45255230.308166504 0 0 0 0 267761547.03189087 110770724.64213848 0 110770724.64213848 32933484.400082111 0 0 0 0 304110919.63439178 84882722.078277111 0 84882722.078277111 -7081471.2645282745 0 0 0 0 235078364.39949799 29693432.504765987 0 29693432.504765987 9854858.6522636414 0 0 0 0 257313444.78749084 30176523.679836273 0 30176523.679836273 -38608195.715053797 0 0 0 0 214359425.88618469 73985150.647830009 0 73985150.647830009 40977303.834371567 0 0 0 0 190938368.62083054 11423751.442909718 0 11423751.442909718 8494456.559425354 0 0 0 0 231355099.65438843 76365044.12747097 0 76365044.12747097 40737183.929041862 0 0 0 0 133016893.26509094 106647116.84899426 0 106647116.84899426 152713613.97921085 0 0 0 0 72228426.847213745 2761626.6473381519 0 2761626.6473381519 73442010.665758133 0 0 0 0 40883488.566919804 -23401294.760586187 0 -23401294.760586187 75638264.607894897 0 0 0 0 39930694.555099487 2227679.3169536591 0 2227679.3169536591 100389770.72554493 0 0 0 0 102834565.62284851 22756244.749070168 0 22756244.749070168 83912568.291215897 0 0 0 0 20701403.797027588 -29507942.09206295 0 -29507942.09206295 96305785.366822243 0 0 0 0 17268279.311950684 -26750346.211032867 0 -26750346.211032867 96732997.022542834 0 0 0 0 29008887.741714478 -62970672.388045311 0 -62970672.388045311 121001591.40475321 0 0 0 0 -778799.06921386719 -16815695.374986172 0 -16815695.374986172 166786917.48842049 0 0 0 0 2488987.9594345093 -15717372.460243583 0 -15717372.460243583 89107448.70368576 0 0 0 0 25706118.973136902 -31770736.938817978 0 -31770736.938817978 44216005.733507156 0 0 0 0 16639517.257591248 35082334.206982136 0 35082334.206982136 -76731773.010728836 0 0 0 0 -34856504.002166748 8059080.613535881 0 8059080.613535881 55250189.306766868 0 0 0 0 113273661.47653961 -89783587.181057215 0 -89783587.181057215 -17637334.330784798 0 0 0 0 -20792778.990234375 -47403742.634487629 0 -47403742.634487629 59229693.727589607 0 0 0 0 84549027.006698608 -45269866.012640238 0 -45269866.012640238 50756826.363019943 0 0 0 0 -28102196.848098755 48524403.534787655 0 48524403.534787655 249815559.40232658 0 0 0 0 -12570043.195495605 4816739.0423231125 0 4816739.0423231125 213697580.18192673 0 0 0 0 18696925.334793091 40528506.336346626 0 40528506.336346626 117592940.73433304 0 0 0 0 30880918.986002445 4987369.4600572288 0 4987369.4600572288 159791263.05840302 0 0 0 0 -33522336.231842041 52781928.10188055 0 52781928.10188055 194829814.60923481 0 0 0 0 95338595.628326416 -3843677.7599701881 0 -3843677.7599701881 62725600.905950308 0 0 0 0 17927266.665771484 29354961.499278069 0 29354961.499278069 93229773.981248021 0 0 0 0 48126405.562927246 80326723.371593475 0 80326723.371593475 174186612.0302124 0 0 0 0 108676.46459960938 -30670519.543485641 0 -30670519.543485641 55735588.982220173 0 0 0 0 -34535877.017913818 -20820695.074167252 0 -20820695.074167252 -41124058.789417505 0 0 0 0 -33928872.760864258 69722501.639610291 0 69722501.639610291 -194501168.08396912 0 0 0 0 -79886303.561798096 -9165962.3049201965 0 -9165962.3049201965 -42835497.917302132 0 0 0 0 -81369442.013336182 67273194.220308304 0 67273194.220308304 -74597470.19367981 0 0 0 0 -29023559.705474854 8576464.1746397018 0 8576464.1746397018 89964146.190065622 0 0 0 0 16032627.36510849 27631902.994608164 0 27631902.994608164 -1971161.0878791809 0 0 0 0 12976092.257850647 -28546707.34175539 0 -28546707.34175539 -35109940.043621063 0 0 0 0 534321.15449415147 1963626.5317880292 0 1963626.5317880292 879206.07885455363 0 0 0 0 24349816.656738281 57355971.741552353 0 57355971.741552353 -129482296.53982162 0 0 0 0 48071567.148803711 30022601.459417343 0 30022601.459417343 -123293063.54065371 0 0 0 0 16545106.369308472 32685473.517090797 0 32685473.517090797 546815.65383911133 0 0 0 0 -13825927.750473022 34013394.135635376 0 34013394.135635376 836990.2727394104 0 0 0 0 -2536354.4661254883 55350469.610158443 0 55350469.610158443 -57542489.208759308 0 0 0 0 -54917678.880554199 22675370.743412018 0 22675370.743412018 -115077551.25021362 0 0 0 0 -79892254.938934326 58706687.890155792 0 58706687.890155792 -57469676.285861969 0 0 0 0 -27648839.113342285 21746851.047346115 0 21746851.047346115 115819010.91592205 0 0 0 0 -233318801.71379089 -138526649.7733326 0 -138526649.7733326 311444231.51034737 0 0 0 0 266831478.54135132 -48455921.156642914 0 -48455921.156642914 -261508590.08046913 0 0 0 0 -32730989.82245636 -16758474.814218521 0 -16758474.814218521 -12094667.68850708 0 0 0 0 -3579645.4777526855 -15887614.186994553 0 -15887614.186994553 -40945891.075741768 0 0 0 0 31402013.957672119 1700324.390818119 0 1700324.390818119 -123682090.93003845 0 0 0 0 382273.80503982306 -992721.70911228657 0 -992721.70911228657 352923.43362074997 0 0 0 0 -24694896.889892578 -27777104.749572754 0 -27777104.749572754 -367875569.77722168 0 0 0 0 18629.258045645431 -24794.943498242646 0 -24794.943498242646 -5514.4665428837761 0 0 0 0 247010170.33131409 75139036.897965431 0 75139036.897965431 -160538680.17689514 0 0 0 0 -20361286.599143982 -35803564.498191833 0 -35803564.498191833 16732481.731170654 0 0 0 0 363286000.10159302 235296515.04009247 0 235296515.04009247 -20413987.27349472 0 0 0 0 383725292.22186279 241697229.41075897 0 241697229.41075897 -27478792.06451416 0 0 0 0 -337918259.79392242 -270591016.85823154 0 -270591016.85823154 -53452630.017166138 0 0 0 0 1109362.8074274324 -805950.85333767161 0 -805950.85333767161 -1370838.5953024477 0 0 0 0 205107360.4078064 -104368745.22436905 0 -104368745.22436905 49494608.31586647 0 0 0 0 481501170.83651733 97307352.589673996 0 97307352.589673996 -166208903.89051056 0 0 0 0 332277221.29669189 -15390542.858968735 0 -15390542.858968735 -245203968.6949234 0 0 0 0 172947081.97705078 146595409.97709656 0 146595409.97709656 61675741.541416168 0 0 0 0 253524658.45452118 -49528829.62338233 0 -49528829.62338233 -58540622.863520622 0 0 0 0 -63487.415324084461 1282387.2436240057 0 1282387.2436240057 350544.50513608684 0 0 0 0 -96509.657717011869 2498248.9738108437 0 2498248.9738108437 427299.67484028009 0 0 0 0 10626038.447616577 -30019503.922754288 0 -30019503.922754288 -30564537.836657524 0 0 0 0 88330391.952804565 82096202.491172791 0 82096202.491172791 65888181.801766396 0 0 0 0 -22810000.70357132 -8868161.8334183693 0 -8868161.8334183693 64463294.161569595 0 0 0 0 8821806.2509155273 21702191.381418228 0 21702191.381418228 -4359007.5221233368 0 0 0 0 205762060.03938293 18428917.173823833 0 18428917.173823833 109681142.9151268 0 0 0 0 211613964.57830811 103016625.85241652 0 103016625.85241652 55736014.876419067 0 0 0 0 160687511.32971191 103980125.46321487 0 103980125.46321487 61951063.235042334 0 0 0 0 184854562.09744644 27623880.789145708 0 27623880.789145708 49057953.618808746 0 0 0 0 8731537.0858917236 15226800.996723175 0 15226800.996723175 62043099.416275024 0 0 0 0 85899358.761123657 77310669.999340057 0 77310669.999340057 56276019.465399384 0 0 0 0 118171645.31636047 48889609.777515411 0 48889609.777515411 -17795787.514529228 0 0 0 0 10122753.331031799 -1465345.1681079865 0 -1465345.1681079865 14830111.399347305 0 0 0 0 138025409.13059998 105942972.31921005 0 105942972.31921005 37002668.226996422 0 0 0 0 128514376.44098091 34511884.423153877 0 34511884.423153877 17128191.211776733 0 0 0 0 111237707.79767227 53368146.209330082 0 53368146.209330082 20374999.954948425 0 0 0 0 152613763.82414246 43077267.230433464 0 43077267.230433464 -26185598.543315887 0 0 0 0 302942857.70360374 170226529.49038625 0 170226529.49038625 70463982.732006073 0 0 0 0 1337457.2187993675 349005.29169110768 0 349005.29169110768 -954788.15239810012 0 0 0 0 -52816.667553521693 -1146472.7829040922 0 -1146472.7829040922 1282501.2591738123 0 0 0 0 365019096.11413574 -265096774.47436714 0 -265096774.47436714 120116090.28954792 0 0 0 0 65409387.286140442 59929378.055317402 0 59929378.055317402 20602204.919939041 0 0 0 0 -39066336.016983032 33780039.675819397 0 33780039.675819397 58034926.204479218 0 0 0 0 256154060.72816467 37096552.287241936 0 37096552.287241936 -104715817.62999153 0 0 0 0 259125506.97410583 17775892.483104706 0 17775892.483104706 -27828687.267511368 0 0 0 0 238162077.69898987 -92646032.076137543 0 -92646032.076137543 25163797.186134338 0 0 0 0 132697.02802217007 1055885.9435985652 0 1055885.9435985652 27417.890733958222 0 0 0 0 278653120.47215271 3431383.214756012 0 3431383.214756012 -86412561.671333313 0 0 0 0 -284755.93219925836 -1412012.3510942645 0 -1412012.3510942645 1290233.2089524753 0 0 0 0 -47544989.993499756 123317832.96140957 0 123317832.96140957 149909197.32747459 0 0 0 0 106340075.9025116 -138763099.96178436 0 -138763099.96178436 14889519.562759399 0 0 0 0 -111308990.64962006 -14616426.240023613 0 -14616426.240023613 14660877.461483002 0 0 0 0 312978438.86693573 35138310.064860344 0 35138310.064860344 -64546399.051628113 0 0 0 0 145840621.82780457 155092740.23778152 0 155092740.23778152 145800956.4452095 0 0 0 0 162389514.77411652 112333961.87212563 0 112333961.87212563 -4654795.4630889893 0 0 0 0 164405169.43466949 90243102.273645401 0 90243102.273645401 -22290432.894616127 0 0 0 0 160828376.02944183 83013855.872736931 0 83013855.872736931 -6551254.9473075867 0 0 0 0 178257670.33680725 73924177.917849541 0 73924177.917849541 -10671439.291763306 0 0 0 0 -448750.00422111899 -1790034.7024694309 0 -1790034.7024694309 815329.45832731202 0 0 0 0 450616783.49238205 -41504042.284397125 0 -41504042.284397125 -78997471.794960022 0 0 0 0 136166860.15039062 1390241.1460571289 0 1390241.1460571289 -64488537.746669769 0 0 0 0 94864204.056747437 138826695.18295288 0 138826695.18295288 -43875497.41999054 0 0 0 0 83286850.096725464 103914733.9632473 0 103914733.9632473 -259440227.83927917 0 0 0 0 63837666.652355194 16184953.314596415 0 16184953.314596415 -57448740.298023224 0 0 0 0 -91595581.948570251 8764380.5372467041 0 8764380.5372467041 -50509738.229343414 0 0 0 0 -58749824.934785843 -217653345.90447092 0 -217653345.90447092 -272335888.23571777 0 0 0 0 -146202115.98207092 150672104.04149246 0 150672104.04149246 -287541544.05854034 0 0 0 0 120246812.49139404 -69467491.930521011 0 -69467491.930521011 -79146847.806316376 0 0 0 0 266067328.68845177 104254722.11140871 0 104254722.11140871 -235245302.9310379 0 0 0 0 117184222.37705994 -1992783.5272941589 0 -1992783.5272941589 -37349497.883527756 0 0 0 0 99402461.885528564 63496818.356908798 0 63496818.356908798 -8968426.1383304596 0 0 0 0 53680885.317802429 -89299758.938167572 0 -89299758.938167572 46956940.829584122 0 0 0 0 261320445.30221558 82353214.307358742 0 82353214.307358742 30830885.930058479 0 0 0 0 239821516.17624664 -82654403.737168312 0 -82654403.737168312 -24472440.582439423 0 0 0 0 183238675.03695679 -76169326.855268478 0 -76169326.855268478 7153689.402929306 0 0 0 0 190170480.96884441 -154417403.82731831 0 -154417403.82731831 14844470.803512573 0 0 0 0 302730512.04586792 -79283643.980970383 0 -79283643.980970383 -28031130.186096191 0 0 0 0 273283141.11073875 -138451622.45988536 0 -138451622.45988536 -45188969.456453323 0 0 0 0 1003940.7732567191 -864044.8216111511 0 -864044.8216111511 -657648.41773007251 0 0 0 0 135440638.10639572 -49788312.463362932 0 -49788312.463362932 321588374.40213776 0 0 0 0 475663424.88720703 56462198.449626923 0 56462198.449626923 -32328774.616386414 0 0 0 0 348626923.70983887 -24067542.204267502 0 -24067542.204267502 55864648.990945816 0 0 0 0 9716452.0215969086 130837305.11236072 0 130837305.11236072 -118011715.81677818 0 0 0 0 63814503.065498352 -5805172.6762857437 0 -5805172.6762857437 -111248171.47404575 0 0 0 0 -549868.58054086566 815763.87340545375 0 815763.87340545375 1059641.0457520932 0 0 0 0 223893772.15219116 -167497286.77169228 0 -167497286.77169228 -24702049.119643211 0 0 0 0 -805020.20502834022 1452051.1550062494 0 1452051.1550062494 1793477.5969412243 0 0 0 0 36996590.92440033 51217986.399964333 0 51217986.399964333 -122665771.77574825 0 0 0 0 386324440.1615963 3635222.7619755268 0 3635222.7619755268 -104757276.22587013 0 0 0 0 134727953.78822136 1089692.0713167191 0 1089692.0713167191 217480085.68742371 0 0 0 0 131481674.78433228 -206557273.43178749 0 -206557273.43178749 112288395.84668922 0 0 0 0 295595196.54901886 152687109.79525661 0 152687109.79525661 -15199757.276630402 0 0 0 0 375884346.15050316 -56606552.438664913 0 -56606552.438664913 -82096235.933891296 0 0 0 0 65501834.547080994 -151020227.3980217 0 -151020227.3980217 236054439.73914719 0 0 0 0 896845.75090627372 577554.5824244041 0 577554.5824244041 -643281.87765537668 0 0 0 0 21644021.216072083 38770405.769002914 0 38770405.769002914 -9495268.7830305099 0 0 0 0 -99322544.007881165 -4594032.0614843369 0 -4594032.0614843369 166732512.42907047 0 0 0 0 -47517638.152580261 144217917.94229794 0 144217917.94229794 -49755639.780585289 0 0 0 0 -660153.4356036298 870617.56805528048 0 870617.56805528048 1150951.6542569315 0 0 0 0 32487887.063667297 -63204253.005110741 0 -63204253.005110741 47020184.10226059 0 0 0 0 81038206.243865967 83604418.664791107 0 83604418.664791107 -21580828.532732964 0 0 0 0 1737853.3354187012 -131801737.57552528 0 -131801737.57552528 -73451382.016803265 0 0 0 0 4898928.3676485941 -2347575.5731404568 0 -2347575.5731404568 -4639621.6038712217 0 0 0 0 11847709.093078613 5000.4436130523682 0 5000.4436130523682 -8508105.3928422928 0 0 0 0 11180318.667297363 4374631.8491029739 0 4374631.8491029739 -13643617.994247437 0 0 0 0 16662893.931244798 1533465.8891337039 0 1533465.8891337039 -7770619.8427145919 0 0 0 0 9596161.9250259399 1780265.8784124851 0 1780265.8784124851 -2651435.6524963379 0 0 0 0 -86709571.466316223 -93545205.089285374 0 -93545205.089285374 150555521.30605698 0 0 0 0 207438491.50645447 71905049.312272072 0 71905049.312272072 -95286762.337173462 0 0 0 0 10810634.462291503 -1126021.1553845964 0 -1126021.1553845964 -7750960.0860479008 0 0 0 0 26082294.191661835 15799098.128804684 0 15799098.128804684 -24408946.619897842 0 0 0 0 99457190.111381531 -20286484.067612648 0 -20286484.067612648 -7568759.3869485855 0 0 0 0 8931651.2675819136 -3247758.0484822206 0 -3247758.0484822206 -5084380.7341082823 0 0 0 0 13966713.768379211 -1305607.3497619629 0 -1305607.3497619629 -1456140.9880218506 0 0 0 0 8663379.9846104868 4371102.1065455507 0 4371102.1065455507 -6794455.8050373569 0 0 0 0 -26647622.109699249 -7937110.0464075804 0 -7937110.0464075804 -16213136.55983448 0 0 0 0 6769626.5620591165 2817229.503309682 0 2817229.503309682 -6087695.8269725535 0 0 0 0 -5374127.4201698303 5994842.7223424911 0 5994842.7223424911 -8703319.012141943 0 0 0 0 -34226579.624191284 15645714.44921279 0 15645714.44921279 -8892867.608212769 0 0 0 0 232369.13528461009 -676372.20301712491 0 -676372.20301712491 -1892007.5322371926 0 0 0 0 100696769.81682587 -32665006.421595097 0 -32665006.421595097 -42669137.55106926 0 0 0 0 73550278.916862488 -54891779.434529305 0 -54891779.434529305 -44916139.521722555 0 0 0 0 8367121.6902618408 18131195.418797493 0 18131195.418797493 -59669131.088826418 0 0 0 0 157918076.84043884 -72328789.190589905 0 -72328789.190589905 -14938765.202486038 0 0 0 0 51536668.987636566 -43384908.29489851 0 -43384908.29489851 -22138629.113260269 0 0 0 0 83312539.072360992 -11710393.478426367 0 -11710393.478426367 -168467108.70264423 0 0 0 0 42163334.60861969 -16672415.144138277 0 -16672415.144138277 6494425.3414495587 0 0 0 0 237227954.58814049 44832439.611721575 0 44832439.611721575 -80536968.469465882 0 0 0 0 89527052.755218506 49509616.914721489 0 49509616.914721489 -6892654.0475138426 0 0 0 0 142346943.50068855 60192880.485925533 0 60192880.485925533 -35044858.16074276 0 0 0 0 81623331.914047241 55770633.076883674 0 55770633.076883674 -25182702.624452353 0 0 0 0 77804041.770835876 19818957.414604425 0 19818957.414604425 -47384815.54736352 0 0 0 0 76980187.759654999 26801590.057707071 0 26801590.057707071 -72873553.460485697 0 0 0 0 34140354.009376526 40195815.144920826 0 40195815.144920826 -47700088.031236053 0 0 0 0 73576418.040809631 24727289.353199989 0 24727289.353199989 -53041953.409454346 0 0 0 0 9139246.6736755371 -2544574.5038768053 0 -2544574.5038768053 -38944221.856320307 0 0 0 0 6221642.958820343 2958677.8792261183 0 2958677.8792261183 -48789024.635593176 0 0 0 0 -31944515.556919813 -68749963.999093056 0 -68749963.999093056 -128989378.64649795 0 0 0 0 -29549291.268882751 13211949.546664149 0 13211949.546664149 -35993890.029627621 0 0 0 0 -9686899.6423492432 179605602.30185485 0 179605602.30185485 148859741.84254265 0 0 0 0 36363352.282581329 -60098257.473451257 0 -60098257.473451257 -249146279.79844934 0 0 0 0 -29987.585591062903 -317706.2403465379 0 -317706.2403465379 161287.58602243391 0 0 0 0 26767770.423339844 42141406.048513234 0 42141406.048513234 -171878106.22361094 0 0 0 0 15748132.867996715 2493102.4743978661 0 2493102.4743978661 -6748123.7733070636 0 0 0 0 -9462680.947555542 5362068.8086214066 0 5362068.8086214066 -48837775.924302459 0 0 0 0 20489314.089895248 -12465933.413912725 0 -12465933.413912725 -64629137.241033882 0 0 0 0 -13387333.75983429 5871072.4089624882 0 5871072.4089624882 -35463162.286610365 0 0 0 0 -15095910.507530212 -14756934.90114224 0 -14756934.90114224 -60035867.663338661 0 0 0 0 1311687.2919597626 -36546482.113734886 0 -36546482.113734886 -139089684.05885223 0 0 0 0 9044774.3764038086 3498856.4062194824 0 3498856.4062194824 -14095306.903122187 0 0 0 0 6599575.0065879822 1141041.5785899162 0 1141041.5785899162 -5037953.5575313568 0 0 0 0 11070930.551685024 3338145.3395143878 0 3338145.3395143878 -6068205.8040216248 0 0 0 0 -1841689.4858093262 82277367.676323295 0 82277367.676323295 62976821.02853024 0 0 0 0 11946893.843032837 -1170076.7950911522 0 -1170076.7950911522 -5712049.5179224014 0 0 0 0 6752218.5387878418 58089269.98093152 0 58089269.98093152 -110956786.8431398 0 0 0 0 65993885.348190308 15294400.987949371 0 15294400.987949371 -40666961.817724943 0 0 0 0 97122042.020931244 75015603.971311808 0 75015603.971311808 -28538154.445258617 0 0 0 0 -29763882.235839844 -7046036.2876734734 0 -7046036.2876734734 -4895527.3847870827 0 0 0 0 9921990.7339515686 59265294.918315589 0 59265294.918315589 17616746.709465027 0 0 0 0 -90882120.722801208 8437895.024310112 0 8437895.024310112 -5832113.1716206074 0 0 0 0 -41392284.025455475 51539889.438910186 0 51539889.438910186 -93025691.72195816 0 0 0 0 -168358365.56459808 -21633895.360444307 0 -21633895.360444307 -118889858.15969849 0 0 0 0 -29499046.628158569 160356110.91066885 0 160356110.91066885 -98547342.260014564 0 0 0 0 -259604426.54685211 214670306.03152108 0 214670306.03152108 -98902186.0574563 0 0 0 0 74028363.05535078 225481776.70231318 0 225481776.70231318 -356907655.06257391 0 0 0 0 15853590.551641464 72047943.11442396 0 72047943.11442396 31091845.693214417 0 0 0 0 58515148.098337173 122532548.47320104 0 122532548.47320104 -177870207.92403364 0 0 0 0 82506525.150932312 152811082.88337255 0 152811082.88337255 -151601888.78204012 0 0 0 0 136088126.30071259 147753489.04984927 0 147753489.04984927 -169716857.39901519 0 0 0 0 128500166.58683777 24336768.96172142 0 24336768.96172142 -161042250.06333947 0 0 0 0 -26725690.78565979 58158705.295078278 0 58158705.295078278 -158998886.89917994 0 0 0 0 172593.03630425781 -490997.05820846464 0 -490997.05820846464 188785.49031183776 0 0 0 0 103762423.86991119 87960391.07987237 0 87960391.07987237 -175088365.48304486 0 0 0 0 244513226.64198685 5317380.4509189129 0 5317380.4509189129 -15933852.946382999 0 0 0 0 355907679.97251511 -16464153.608023405 0 -16464153.608023405 -25620016.216061592 0 0 0 0 124174.88427573116 328062.90057830885 0 328062.90057830885 4347.2657451741397 0 0 0 0 78941722.974143982 104827015.52965069 0 104827015.52965069 -176426822.7785877 0 0 0 0 76895509.557563782 12860149.861884594 0 12860149.861884594 8329631.4484312534 0 0 0 0 71783870.532390594 62185864.582669497 0 62185864.582669497 -25112349.10808754 0 0 0 0 80351774.175109863 51012073.051416397 0 51012073.051416397 -31920517.531334639 0 0 0 0 113529696.79636002 24841280.297697186 0 24841280.297697186 -77009682.356889248 0 0 0 0 105925287.78702736 80480301.974517941 0 80480301.974517941 -276851048.58303213 0 0 0 0 -120148139.59056091 407864322.75215197 0 407864322.75215197 -292558227.04419708 0 0 0 0 -194256700.68443298 346404933.29891872 0 346404933.29891872 -341286526.99700117 0 0 0 0 -204647070.6895504 171436381.85352299 0 171436381.85352299 -138674658.33211517 0 0 0 0 -562765636.04017258 229312999.54845095 0 229312999.54845095 -145088994.40099621 0 0 0 0 115590.46198381111 219466.29725478962 0 219466.29725478962 -988221.49041353399 0 0 0 0 -231137292.47669983 610827414.93142581 0 610827414.93142581 -274386701.88238716 0 0 0 0 -596220397.19766235 690861626.60950804 0 690861626.60950804 -99811747.218055725 0 0 0 0 50737509.208885193 -379777083.9371407 0 -379777083.9371407 -251098508.57211494 0 0 0 0 -97426210.213945389 88009529.457186103 0 88009529.457186103 21305317.325639248 0 0 0 0 -68939.743964386173 -119782.99627893977 0 -119782.99627893977 -1193790.4819958527 0 0 0 0 103450951.9417305 105686901.15235877 0 105686901.15235877 -74575420.930299759 0 0 0 0 207935890.41716003 31943728.119054556 0 31943728.119054556 -44777462.609713078 0 0 0 0 210039.91015466023 437284.36770313978 0 437284.36770313978 130962.3686963818 0 0 0 0 117006078.55046844 -6844464.0556168556 0 -6844464.0556168556 32689297.756494522 0 0 0 0 394454749.0887146 -40587904.226002216 0 -40587904.226002216 -58430217.549772263 0 0 0 0 123342322.45861053 22965118.620839357 0 22965118.620839357 75135318.677978039 0 0 0 0 -5332373.8180446625 27081236.092071593 0 27081236.092071593 581482.55139636993 0 0 0 0 99374108.660896301 -80401676.991283417 0 -80401676.991283417 21138808.312556326 0 0 0 0 -1480522.362260744 -1025031.3701306432 0 -1025031.3701306432 529230.28177980892 0 0 0 0 81496094.096908569 -62181235.483102798 0 -62181235.483102798 49425914.093366623 0 0 0 0 72193355.629043579 -54070720.62320447 0 -54070720.62320447 42894305.346813202 0 0 0 0 62048627.87600708 -42157682.683276653 0 -42157682.683276653 17991527.756738663 0 0 0 0 6816468.3709068298 6360476.8980789185 0 6360476.8980789185 -7862774.5376396179 0 0 0 0 -1164963.3745725267 807656.35963873006 0 807656.35963873006 -26241.206457360648 0 0 0 0 -1025042927.660553 390845954.83580112 0 390845954.83580112 22245812.997451782 0 0 0 0 1105847.6064468734 227971.93931888044 0 227971.93931888044 -1291085.5139246807 0 0 0 0 7381793.1374063492 6347620.9176310897 0 6347620.9176310897 -322811511.81616211 0 0 0 0 4270528.4504241943 -9183111.5062232018 0 -9183111.5062232018 -4232113.4510673285 0 0 0 0 2696634.6803583428 2490656.9547081329 0 2490656.9547081329 -796364.48985247128 0 0 0 0 -126401095.49543762 250890046.32831955 0 250890046.32831955 -268680653.78613663 0 0 0 0 -110880687.11777496 261533693.86345577 0 261533693.86345577 -319961094.12958264 0 0 0 0 -283742732.91334152 234376308.58878219 0 234376308.58878219 -122234662.90392494 0 0 0 0 -174251366.7407074 38185821.362367153 0 38185821.362367153 90411580.975009918 0 0 0 0 -103832474.01570892 147125833.1874938 0 147125833.1874938 -333916477.51337814 0 0 0 0 -89761338.392047882 68905766.952049732 0 68905766.952049732 -163756971.61365223 0 0 0 0 -16682959.83442688 108189243.57648611 0 108189243.57648611 -511646568.86492348 0 0 0 0 2209329.0023822449 2567282.4215617329 0 2567282.4215617329 916648.19716447545 0 0 0 0 -11711036.523681641 -30361741.265668869 0 -30361741.265668869 -13343775.93963623 0 0 0 0 -108111985.39584827 335162856.21399534 0 335162856.21399534 -499037784.50132847 0 0 0 0 -973230.32964129373 -526747.53852291964 0 -526747.53852291964 689999.59321368346 0 0 0 0 115620625.40472031 -75021778.148189545 0 -75021778.148189545 59750780.780786991 0 0 0 0 1419761.4113573693 2564184.8134950753 0 2564184.8134950753 2264874.4247652264 0 0 0 0 13580000.798355103 -35531023.942468643 0 -35531023.942468643 -45294174.795200348 0 0 0 0 -11277651.881027222 41997490.09115839 0 41997490.09115839 28398198.424342155 0 0 0 0 -248928939.24868393 615298350.79909265 0 615298350.79909265 -393791472.70524597 0 0 0 0 -55899912.667636871 733767086.19469428 0 733767086.19469428 -931659036.30344582 0 0 0 0 -111775136.04060364 -64430820.906409144 0 -64430820.906409144 -215466300.65544224 0 0 0 0 68634946.022935867 648068584.87692702 0 648068584.87692702 350541060.21132755 0 0 0 0 -468777639.55446625 406626685.67326689 0 406626685.67326689 1646774735.8776977 0 0 0 0 631759922.47407532 637267654.79934502 0 637267654.79934502 408540560.7615931 0 0 0 0 -14756705.791085243 -55871188.814782083 0 -55871188.814782083 895303723.89207983 0 0 0 0 554790920.47116089 -265567142.638695 0 -265567142.638695 85995508.471212983 0 0 0 0 -130508068.95535851 17721087.376096368 0 17721087.376096368 -233613873.02457237 0 0 0 0 -25124083.099990845 128395028.18873858 0 128395028.18873858 -117836769.25106144 0 0 0 0 -111793036.64463043 -148838060.15708017 0 -148838060.15708017 117188278.11715984 0 0 0 0 91663456.197402954 -64563478.787814617 0 -64563478.787814617 -182069187.85924292 0 0 0 0 -138738562.63609314 -105708246.49769282 0 -105708246.49769282 48188663.010353446 0 0 0 0 -2049173.0362167358 -30561537.546477556 0 -30561537.546477556 28818631.368126154 0 0 0 0 -10977977.264724731 226084537.32253456 0 226084537.32253456 248957585.13555384 0 0 0 0 -142610452.46285248 277841275.83910882 0 277841275.83910882 303912013.91429806 0 0 0 0 -216908.86153100245 -212560.30194880255 0 -212560.30194880255 416052.42486000387 0 0 0 0 -1918679.3241577148 156008188.57395649 0 156008188.57395649 278628662.59563756 0 0 0 0 73671189.234580994 86321617.017054796 0 86321617.017054796 -17949509.390390396 0 0 0 0 103192680.69477844 152770499.00628638 0 152770499.00628638 84997713.434329987 0 0 0 0 339699021.63288879 296927408.87827682 0 296927408.87827682 83364223.17070125 0 0 0 0 71539832.759788513 137113310.11779809 0 137113310.11779809 13725348.38181448 0 0 0 0 181631240.64515686 79114920.403683186 0 79114920.403683186 -145961312.64271593 0 0 0 0 93277386.899993896 -21279439.313693047 0 -21279439.313693047 -130011352.43882298 0 0 0 0 6261522.9506328497 2627494.923125498 0 2627494.923125498 813783.45537714288 0 0 0 0 296084062.49152374 106266118.24940085 0 106266118.24940085 -21070954.943042755 0 0 0 0 -22118643.251647949 98520476.604959011 0 98520476.604959011 143434643.59503078 0 0 0 0 2393396.1713104248 -31325323.21716547 0 -31325323.21716547 25539557.377780437 0 0 0 0 -92441993.555624008 -284549444.87486738 0 -284549444.87486738 91763871.962286949 0 0 0 0 2618048.3134041987 -428447.14149817335 0 -428447.14149817335 -564668.34835551016 0 0 0 0 486266634.28829956 -249291576.85847378 0 -249291576.85847378 -140716278.1147368 0 0 0 0 245852228.1309967 576415323.13829899 0 576415323.13829899 630909782.6308291 0 0 0 0 20125556.793727875 302658922.14654803 0 302658922.14654803 395346980.12624168 0 0 0 0 174194545.26890564 78524170.886245489 0 78524170.886245489 28446156.441003323 0 0 0 0 765727776.6289711 362601585.454844 0 362601585.454844 93552363.543405533 0 0 0 0 472705543.4451828 -175612066.88489294 0 -175612066.88489294 67700336.617890537 0 0 0 0 488795726.03685951 -172978095.33301425 0 -172978095.33301425 52116183.546140671 0 0 0 0 183671601.20012665 -163994716.49733734 0 -163994716.49733734 224957056.26987004 0 0 0 0 376594089.64277077 -159588110.68026757 0 -159588110.68026757 69839839.210647583 0 0 0 0 114245.79944649618 154905.73425840028 0 154905.73425840028 119401.33042023471 0 0 0 0 311738043.43055105 12190902.804010987 0 12190902.804010987 -30946139.724728584 0 0 0 0 396433754.0368576 -65777746.104456425 0 -65777746.104456425 42261011.625355482 0 0 0 0 119756872.02915192 34295482.809771061 0 34295482.809771061 135478925.73408175 0 0 0 0 89471423.799686432 -43517570.791594505 0 -43517570.791594505 -22708387.828642368 0 0 0 0 -315422.60380972363 -352668.35002266802 0 -352668.35002266802 112022.84796421835 0 0 0 0 -194342470.25072956 136245616.15072495 0 136245616.15072495 47417180.900273323 0 0 0 0 -188367257.97765541 -27110744.337693453 0 -27110744.337693453 288077089.20108271 0 0 0 0 3144286.4715499878 67262892.389425516 0 67262892.389425516 323188414.30004203 0 0 0 0 213951884.13345337 -11397060.943357229 0 -11397060.943357229 -9984087.0925646424 0 0 0 0 235258183.60364532 210191573.33425188 0 210191573.33425188 334865784.55683899 0 0 0 0 223224232.20383406 -111167767.9979803 0 -111167767.9979803 117358616.60271788 0 0 0 0 493395380.08802032 -37142945.08273077 0 -37142945.08273077 120867966.59158111 0 0 0 0 448274875.90851593 -110833379.18627286 0 -110833379.18627286 160707079.89600706 0 0 0 0 688699767.46839714 -220008829.61689162 0 -220008829.61689162 47463991.143379688 0 0 0 0 943187528.00481415 406909599.56379765 0 406909599.56379765 -170670800.75502121 0 0 0 0 680449172.98511124 426164884.57455218 0 426164884.57455218 237653795.50305319 0 0 0 0 -66997066.615871429 92104417.995658696 0 92104417.995658696 178042264.31804895 0 0 0 0 1761.8431307729334 302056.72098000348 0 302056.72098000348 1619836.4343233001 0 0 0 0 1364829764.6277657 66019400.261179328 0 66019400.261179328 135112044.47034407 0 0 0 0 662761972.76436615 -117837189.44310796 0 -117837189.44310796 116338884.26787096 0 0 0 0 218931598.7273407 143519704.74342895 0 143519704.74342895 463329039.60543036 0 0 0 0 187743948.71211338 9248043.987115711 0 9248043.987115711 192167032.55648136 0 0 0 0 -24243874.430755615 60771890.807847619 0 60771890.807847619 202245097.53971159 0 0 0 0 -31859232.131408691 23494323.843109608 0 23494323.843109608 346817972.70474678 0 0 0 0 -6608179.474149704 68085462.463682652 0 68085462.463682652 176165120.27067709 0 0 0 0 -48889141.740859985 -15311826.523441195 0 -15311826.523441195 -148890001.88892281 0 0 0 0 -125258727.04530334 -136603430.97889447 0 -136603430.97889447 73397180.734913826 0 0 0 0 9191538.573714193 -8044393.7990612686 0 -8044393.7990612686 -5612089.3265886661 0 0 0 0 -10593538.160816193 -286193311.14839607 0 -286193311.14839607 -338972133.79974508 0 0 0 0 -492918692.63288498 292908288.33632517 0 292908288.33632517 -342410961.19990206 0 0 0 0 -721537500.31078148 81393990.095967174 0 81393990.095967174 -248604858.62327671 0 0 0 0 -1010989053.5811996 826563777.93397975 0 826563777.93397975 -406953582.84543419 0 0 0 0 1375440732.6348953 964122907.15223503 0 964122907.15223503 -1108506407.168685 0 0 0 0 233147277.99536133 361092972.79174423 0 361092972.79174423 -344628274.00536823 0 0 0 0 654032488.76878738 -727343302.17522717 0 -727343302.17522717 -608584826.48199463 0 0 0 0 -24522709.262916565 -153227845.91399574 0 -153227845.91399574 -677655363.10754418 0 0 0 0 1971378809.706337 -881217377.26885796 0 -881217377.26885796 -475890825.58047175 0 0 0 0 80040242.072572708 178795369.02911526 0 178795369.02911526 7405276.4215795994 0 0 0 0 -214631242.59577179 -227406739.74077874 0 -227406739.74077874 53703806.023553632 0 0 0 0 154485071.21212769 -387322422.10487378 0 -387322422.10487378 -480759030.76794875 0 0 0 0 9135275.5472348332 -4253740.4115275303 0 -4253740.4115275303 -2856689.2232075296 0 0 0 0 91170928.437965393 -175675991.23699188 0 -175675991.23699188 -438602620.91727066 0 0 0 0 -905503354.49290466 152052877.78250313 0 152052877.78250313 -377135545.21117783 0 0 0 0 4154620.650317695 -1244943.1635222817 0 -1244943.1635222817 -1013718.2283182289 0 0 0 0 1376537418.3478394 753954677.2463212 0 753954677.2463212 -185750928.90744525 0 0 0 0 1043458561.1988907 688500043.05176115 0 688500043.05176115 -194628401.55472898 0 0 0 0 -186799871.55649948 275867913.31894809 0 275867913.31894809 830141638.77415454 0 0 0 0 1094255385.8160782 77269998.360904843 0 77269998.360904843 -216426832.61215061 0 0 0 0 1187045329.3902206 578595724.03594446 0 578595724.03594446 -58628985.090469256 0 0 0 0 48183161.278690577 76190560.363703489 0 76190560.363703489 88745903.338104248 0 0 0 0 47646712.833993435 90742247.29866755 0 90742247.29866755 97891597.741882324 0 0 0 0 173264619.84864807 48669396.395401001 0 48669396.395401001 95720233.817596436 0 0 0 0 24636753.133725345 17063084.473014832 0 17063084.473014832 7402346.5980014801 0 0 0 0 20550704.815126866 14627138.777191717 0 14627138.777191717 10636254.252101228 0 0 0 0 37585785.860373616 13594072.863642769 0 13594072.863642769 24461607.896149609 0 0 0 0 40227417.726092517 -5781993.7663796013 0 -5781993.7663796013 -29283755.168422006 0 0 0 0 -26618554.048065186 -55174994.068535566 0 -55174994.068535566 -33184148.497085333 0 0 0 0 198881162.54019165 77943151.49621582 0 77943151.49621582 -2956428.2793579102 0 0 0 0 143050249.04890442 101453827.32439423 0 101453827.32439423 226731644.08711243 0 0 0 0 -2516045.3611872196 -3416861.8266770504 0 -3416861.8266770504 -873332.7612650916 0 0 0 0 24333717.304284632 16046378.431340218 0 16046378.431340218 17093046.998431683 0 0 0 0 30961149.366210699 16469730.693470955 0 16469730.693470955 20965635.930599213 0 0 0 0 35868268.089340091 13603167.183805704 0 13603167.183805704 15891381.236854553 0 0 0 0 32980756.565811634 4329080.9005641937 0 4329080.9005641937 4680683.8072910309 0 0 0 0 31247923.582661152 7898123.360124588 0 7898123.360124588 -258511.68616676331 0 0 0 0 178742631.94376373 41686344.477471113 0 41686344.477471113 -27109360.738018036 0 0 0 0 36037854.864142813 1226417.0990954693 0 1226417.0990954693 -712267.07379251346 0 0 0 0 28241823.358408928 -2834097.7536334991 0 -2834097.7536334991 4419657.109146595 0 0 0 0 24780229.007394791 2784276.5256414413 0 2784276.5256414413 14715007.882511139 0 0 0 0 50624814.908279419 -34132742.847511411 0 -34132742.847511411 -76908500.692721367 0 0 0 0 23728600.990082633 8524788.0234708339 0 8524788.0234708339 1754170.4159928903 0 0 0 0 10085883.04078603 3813988.424958514 0 3813988.424958514 -5311729.9383918699 0 0 0 0 -21803201.299690247 -46793144.272344828 0 -46793144.272344828 -29309312.335100174 0 0 0 0 43379491.659984589 65912077.783907533 0 65912077.783907533 19506234.374430656 0 0 0 0 -12663080.536987305 25365712.579719305 0 25365712.579719305 98931617.363248587 0 0 0 0 2134960.1231842041 -52866045.788968801 0 -52866045.788968801 -49526250.008024931 0 0 0 0 29059345.618522644 -20241823.177272439 0 -20241823.177272439 -36465467.336696148 0 0 0 0 -30191567.236747742 110569833.11257362 0 110569833.11257362 271863651.16635156 0 0 0 0 -33653747.875160217 31041196.997174859 0 31041196.997174859 98368308.07048583 0 0 0 0 -77756526.520698547 -58359221.249592602 0 -58359221.249592602 132771627.2162261 0 0 0 0 -23635781.160102844 -27940699.131433487 0 -27940699.131433487 16672853.250593662 0 0 0 0 -60820613.23638916 -83333278.705152273 0 -83333278.705152273 15542110.005670071 0 0 0 0 -132917198.7967453 -87090092.452981234 0 -87090092.452981234 13171420.29861778 0 0 0 0 -24865263.223686218 -134945733.51736903 0 -134945733.51736903 -121440243.16824102 0 0 0 0 2112876.9564305656 -19103403.882386774 0 -19103403.882386774 -7940479.433670314 0 0 0 0 22779315.849258423 -43528457.288569331 0 -43528457.288569331 -87715318.099159718 0 0 0 0 -23149865.515258789 -35082863.923440218 0 -35082863.923440218 -30410423.106660247 0 0 0 0 119993606.14503479 69437346.830612183 0 69437346.830612183 192131308.30669785 0 0 0 0 9070588.2572001778 2155014.9532307405 0 2155014.9532307405 482770.44251277298 0 0 0 0 55699848.049642839 3671604.0487598563 0 3671604.0487598563 -28985781.227744553 0 0 0 0 175307447.82920837 180152396.77124023 0 180152396.77124023 91293945.759552002 0 0 0 0 143893682.37076569 -131268006.28367138 0 -131268006.28367138 -197735009.36495733 0 0 0 0 7334861.4670333862 -158162462.53011179 0 -158162462.53011179 -19684701.731715202 0 0 0 0 180357928.9747467 116476650.44353104 0 116476650.44353104 227046728.82377625 0 0 0 0 159257221.7610321 291083967.18787384 0 291083967.18787384 241063639.72982788 0 0 0 0 61974035.033923671 -8362248.070369646 0 -8362248.070369646 -24441405.248554729 0 0 0 0 265101225.71772385 218640013.80375862 0 218640013.80375862 10222089.739192963 0 0 0 0 -13395612.995201111 -119315441.33893394 0 -119315441.33893394 25385849.595908046 0 0 0 0 37145282.129440308 31347361.628523827 0 31347361.628523827 -2669792.1871299744 0 0 0 0 -131662551.15869904 -13337372.64620018 0 -13337372.64620018 348525774.25376511 0 0 0 0 34033475.021967173 2410079.4458148256 0 2410079.4458148256 -3074233.6792203672 0 0 0 0 116588744.47220802 44502184.393354416 0 44502184.393354416 19794261.037689209 0 0 0 0 286306805.37333679 248781085.75624847 0 248781085.75624847 128413004.50868225 0 0 0 0 105488041.06126308 85315592.570155144 0 85315592.570155144 -35457536.520950317 0 0 0 0 -89863164.279663086 81399847.04434967 0 81399847.04434967 15523239.786323547 0 0 0 0 -7394987.1710079294 96143.233203645796 0 96143.233203645796 9618486.6728600636 0 0 0 0 48479218.95299387 143706965.35716629 0 143706965.35716629 -15249089.518920898 0 0 0 0 58263383.973011017 87444117.295505524 0 87444117.295505524 98900239.916137695 0 0 0 0 36148447.816202164 17264680.301849842 0 17264680.301849842 19841040.436096191 0 0 0 0 28145341.546436876 11286340.459836006 0 11286340.459836006 17964427.803060532 0 0 0 0 381669.10815429688 44584.969078063965 0 44584.969078063965 1985980.1192016602 0 0 0 0 14520210.489590224 -3726980.8897290435 0 -3726980.8897290435 16830428.846958376 0 0 0 0 12028281.927740097 5181474.0564604951 0 5181474.0564604951 15067540.463676106 0 0 0 0 21226230.4726592 13971103.046944998 0 13971103.046944998 10417670.202312104 0 0 0 0 38685504.269991398 18615267.071653366 0 18615267.071653366 233271.68803215027 0 0 0 0 -8575395.9221038818 464759.39692497253 0 464759.39692497253 11709200.493421555 0 0 0 0 -6553798.1891822815 1100281.0833129883 0 1100281.0833129883 11679761.652671814 0 0 0 0 3110554.5981783606 1693343.5864393353 0 1693343.5864393353 22747125.321611553 0 0 0 0 7184616.7800189266 5324993.3883390166 0 5324993.3883390166 13166487.311713075 0 0 0 0 -145309822.76549911 -29531036.409383774 0 -29531036.409383774 11454941.877166986 0 0 0 0 28169456.155128956 25256730.671437263 0 25256730.671437263 23956552.711936951 0 0 0 0 230353977.72423744 -6727920.5808215141 0 -6727920.5808215141 -44956454.424459457 0 0 0 0 68468505.998226166 161092797.32296944 0 161092797.32296944 42448848.204434395 0 0 0 0 -100653802.90190315 125959466.11483145 0 125959466.11483145 271563769.54104996 0 0 0 0 144025673.83342886 111881835.04935694 0 111881835.04935694 -29181944.77791214 0 0 0 0 26201594.20732832 9360906.0960025787 0 9360906.0960025787 19448941.327453613 0 0 0 0 45492394.734230042 33206916.193945885 0 33206916.193945885 21428501.542382717 0 0 0 0 64007483.520246506 7323368.582069397 0 7323368.582069397 -484343.38013839722 0 0 0 0 14928670.893770501 6895795.9636403397 0 6895795.9636403397 16066673.3063809 0 0 0 0 6960467.9809720442 3853535.8970788009 0 3853535.8970788009 -479910.16033007577 0 0 0 0 210577662.25544739 142253352.68664074 0 142253352.68664074 -128397693.32225895 0 0 0 0 -34350902.84078598 102258371.51663971 0 102258371.51663971 -98264459.953702927 0 0 0 0 25848562.294410706 24501715.394052505 0 24501715.394052505 -53877977.805330276 0 0 0 0 5131370.3758560773 -293515.68962620758 0 -293515.68962620758 -1949664.2652972564 0 0 0 0 2961953.345503923 662453.77576211095 0 662453.77576211095 -386487.59022610821 0 0 0 0 61136349.521190643 272170596.5147562 0 272170596.5147562 52466420.204774857 0 0 0 0 84591386.085146904 303012909.34112382 0 303012909.34112382 92756155.114507675 0 0 0 0 243062617.06406975 -184426918.07014561 0 -184426918.07014561 169874887.03442955 0 0 0 0 426854890.52058887 250506716.96620989 0 250506716.96620989 68331258.010723114 0 0 0 0 26877024.189739227 46745038.098383904 0 46745038.098383904 18996012.016643524 0 0 0 0 -5830896.3094673157 111363677.0156827 0 111363677.0156827 680950564.31606293 0 0 0 0 787780568.03477287 -227249750.40438092 0 -227249750.40438092 125391216.42085838 0 0 0 0 685070693.42317104 173467145.32349205 0 173467145.32349205 54783374.004444122 0 0 0 0 -193647730.79909515 84841431.37660265 0 84841431.37660265 255536642.88604116 0 0 0 0 -107624.39055609703 18440386.012207001 0 18440386.012207001 -107311571.62109947 0 0 0 0 -252417456.49081039 -306583029.07392383 0 -306583029.07392383 154230970.31093764 0 0 0 0 463765143.52766418 -276380783.09888124 0 -276380783.09888124 -21312653.30302763 0 0 0 0 74367545.673274517 33008347.563607216 0 33008347.563607216 15177331.470453262 0 0 0 0 50169021.370610237 9564681.5293664932 0 9564681.5293664932 12160983.014635086 0 0 0 0 40279183.182675362 8793033.5416593552 0 8793033.5416593552 24266417.43176651 0 0 0 0 55302041.359035969 594915.8867893219 0 594915.8867893219 17762985.901024818 0 0 0 0 -275207538.09038734 -175804635.11886168 0 -175804635.11886168 -21236012.806798056 0 0 0 0 8204112.120909268 3696458.96016041 0 3696458.96016041 14144648.498384224 0 0 0 0 57179893.729815006 32330810.796337128 0 32330810.796337128 37486988.938588142 0 0 0 0 6649933.5559082069 3053524.8863886306 0 3053524.8863886306 12479418.305438414 0 0 0 0 72077347.970392227 26336163.361804485 0 26336163.361804485 10308236.640853882 0 0 0 0 48083558.550168514 19882588.444984436 0 19882588.444984436 6143969.91233401 0 0 0 0 46391889.454139471 16456648.164743423 0 16456648.164743423 20856047.366973877 0 0 0 0 40011240.28821373 1478920.7124652863 0 1478920.7124652863 6337499.9717079252 0 0 0 0 28950157.210873362 24019.438472684473 0 24019.438472684473 -1596348.620600648 0 0 0 0 105121890.47149658 -72941664.111160398 0 -72941664.111160398 -27255051.322235584 0 0 0 0 243338466.63960266 -67245829.15515542 0 -67245829.15515542 -45975222.087726593 0 0 0 0 12266414.099685669 39489650.785169601 0 39489650.785169601 18986790.579421997 0 0 0 0 148519673.34146881 16812604.822419167 0 16812604.822419167 -61400596.755314827 0 0 0 0 57632377.220802307 -72157449.726180315 0 -72157449.726180315 54196513.247411251 0 0 0 0 46031834.319743156 6370979.6569986343 0 6370979.6569986343 8444571.0724601746 0 0 0 0 -30218347.927017212 -16872940.703959346 0 -16872940.703959346 -11105510.626273632 0 0 0 0 28553930.899056699 2304312.2052002642 0 2304312.2052002642 -3198412.2413630458 0 0 0 0 42403953.332722902 25113932.173876762 0 25113932.173876762 19078296.425701141 0 0 0 0 4553234.0280818939 -58505513.016086936 0 -58505513.016086936 -122860662.81903839 0 0 0 0 133042589.41753006 -72609538.010165691 0 -72609538.010165691 -157645079.47586221 0 0 0 0 234345607.38720989 139325016.84921068 0 139325016.84921068 -163274597.60549688 0 0 0 0 33906643.067136765 2507703.0047618151 0 2507703.0047618151 -33599073.250883579 0 0 0 0 -22809452.748283386 -74648532.707298517 0 -74648532.707298517 -135043408.04870319 0 0 0 0 49672999.282222748 18837556.943106413 0 18837556.943106413 10103453.072937012 0 0 0 0 9100391.2888430469 4813098.2618877701 0 4813098.2618877701 11348979.025977202 0 0 0 0 8625785.4257965088 2789835.8677988052 0 2789835.8677988052 -15463573.031866074 0 0 0 0 3948847.0370407104 -5976916.0116086006 0 -5976916.0116086006 -1007518.6610509157 0 0 0 0 18409033.798377205 -3854562.4259636467 0 -3854562.4259636467 -196799.21492252569 0 0 0 0 -198226439.22619629 -80504790.541900158 0 -80504790.541900158 111277479.6619544 0 0 0 0 19026654.459040321 -2260171.9571957011 0 -2260171.9571957011 -122693.778244938 0 0 0 0 7088772.6461677328 11317745.143442998 0 11317745.143442998 10845499.992485004 0 0 0 0 3267253.8233261108 8403652.6173477173 0 8403652.6173477173 7935286.6636985689 0 0 0 0 15649943.503753662 22222047.967886448 0 22222047.967886448 6491234.7919816971 0 0 0 0 10699702.233337402 820474.34744024277 0 820474.34744024277 -15753686.039010048 0 0 0 0 11235965.837153273 5261113.4677364044 0 5261113.4677364044 4218767.1347409934 0 0 0 0 1355519.2739679739 157863.00701277703 0 157863.00701277703 -131115.65534465667 0 0 0 0 -14344029.059387207 13494184.345752716 0 13494184.345752716 -2729495.9946804047 0 0 0 0 31951019.85446167 19767541.605262756 0 19767541.605262756 -1881982.1954908371 0 0 0 0 45610350.421051025 11265949.877571106 0 11265949.877571106 -22392956.096086502 0 0 0 0 1521684.8805320449 447628.60055349395 0 447628.60055349395 -901833.07494449196 0 0 0 0 4776532.973281797 584650.83928273246 0 584650.83928273246 -1216640.1353600919 0 0 0 0 119028835.48836517 183777149.86768532 0 183777149.86768532 63654048.518959045 0 0 0 0 55653211.361480713 -8984469.7344665527 0 -8984469.7344665527 10597545.981416702 0 0 0 0 16947203.950973511 2620677.2563648224 0 2620677.2563648224 119713306.72415757 0 0 0 0 51820188.851715088 -25972005.507230759 0 -25972005.507230759 9558154.9420967102 0 0 0 0 283995344.33628082 114491462.71647954 0 114491462.71647954 41248847.089283705 0 0 0 0 211154736.86886597 173875300.25119305 0 173875300.25119305 27748845.351138353 0 0 0 0 266042950.55187988 151607258.26589775 0 151607258.26589775 23029146.869110107 0 0 0 0 192615650.66552734 129294936.7380724 0 129294936.7380724 83121071.042800143 0 0 0 0 816429756.39226532 79338193.123072386 0 79338193.123072386 -40558859.368342876 0 0 0 0 273946639.97185898 92163209.335996628 0 92163209.335996628 -3484168.7600016594 0 0 0 0 1000497.416687781 -768466.07699542493 0 -768466.07699542493 -827620.35244940966 0 0 0 0 1166131443.7261963 177299163.96795702 0 177299163.96795702 -4672407.6090502739 0 0 0 0 517391330.5465889 -311337223.55284834 0 -311337223.55284834 252786756.03643227 0 0 0 0 39421817.111251831 35029555.789548874 0 35029555.789548874 104625773.7847476 0 0 0 0 -717664934.68664551 -177241702.89284229 0 -177241702.89284229 -502923093.86969757 0 0 0 0 -167662527.8088131 717851919.91877782 0 717851919.91877782 -145501380.41809642 0 0 0 0 985488956.33131409 -395685216.4215889 0 -395685216.4215889 74906570.321413398 0 0 0 0 -586124361.73331833 951566227.03704667 0 951566227.03704667 131134500.01630354 0 0 0 0 35499.640229344368 1203832.2206756789 0 1203832.2206756789 1838084.9553936287 0 0 0 0 -906171697.47179413 639283806.87782907 0 639283806.87782907 520321069.09866524 0 0 0 0 -471871014.19480133 -131022641.21799114 0 -131022641.21799114 792593299.1429292 0 0 0 0 -24121378.712615967 355166431.02146131 0 355166431.02146131 205022445.46800077 0 0 0 0 -273253219.33717346 300925519.62743795 0 300925519.62743795 539998254.28368568 0 0 0 0 8370418.7237744406 -6552923.9396352749 0 -6552923.9396352749 -2208758.3345905426 0 0 0 0 1252448000.8082275 366823687.62830639 0 366823687.62830639 -60060041.817734092 0 0 0 0 956753938.371521 1457659429.0417452 0 1457659429.0417452 785316054.38521934 0 0 0 0 1602690453.9227905 109266612.39327049 0 109266612.39327049 -250877748.11630154 0 0 0 0 -868064695.85339355 -549891023.26515293 0 -549891023.26515293 86276796.720451117 0 0 0 0 -546836829.39219666 -761319375.81021261 0 -761319375.81021261 -434624145.64924812 0 0 0 0 26119359.017974854 -42666969.47325027 0 -42666969.47325027 -19711620.081198752 0 0 0 0 22635519.181860562 -4649279.7469312567 0 -4649279.7469312567 317862.61205627024 0 0 0 0 -323460548.47377014 -194123134.02687645 0 -194123134.02687645 -319871495.89437747 0 0 0 0 -635119734.85339355 4800271.8974370956 0 4800271.8974370956 652862798.44209862 0 0 0 0 1233272694.6036148 752733698.12901449 0 752733698.12901449 128852734.20648861 0 0 0 0 -659800954.63933563 400432433.23219633 0 400432433.23219633 1560640365.1518526 0 0 0 0 352357.89825748652 -2068942.8655216477 0 -2068942.8655216477 349937.83530655334 0 0 0 0 -15247509.415405273 -27331350.322786093 0 -27331350.322786093 20195654.754314899 0 0 0 0 23263712.686884582 -2080978.8377515487 0 -2080978.8377515487 -2537559.5499999626 0 0 0 0 986722724.13170624 -1289726864.1294057 0 -1289726864.1294057 -1180247658.9932976 0 0 0 0 124430464.66324615 32231574.467267752 0 32231574.467267752 -11285437.665968895 0 0 0 0 13065373.408721924 48827339.700226784 0 48827339.700226784 133576194.94463587 0 0 0 0 18000893.78074646 -5984359.8344745636 0 -5984359.8344745636 94467961.034364223 0 0 0 0 23983236.682098389 21177224.7754004 0 21177224.7754004 48427874.354233146 0 0 0 0 29294292.70765686 18670545.083484888 0 18670545.083484888 47914357.254946709 0 0 0 0 42249870.054550171 -37591822.942518473 0 -37591822.942518473 44792621.262561798 0 0 0 0 22090645.305084229 -1665413.7822842598 0 -1665413.7822842598 55415002.812429428 0 0 0 0 33632484.709762573 16459785.254974842 0 16459785.254974842 27834053.250558376 0 0 0 0 32404356.56427002 -7886279.984401226 0 -7886279.984401226 47095644.190526009 0 0 0 0 44248746.625778198 1260243.5186696053 0 1260243.5186696053 14904806.617179871 0 0 0 0 22167215.919342041 16106649.804454803 0 16106649.804454803 17508341.741253853 0 0 0 0 39597410.923976898 -2009974.1490489244 0 -2009974.1490489244 31242294.062429428 0 0 0 0 38214831.218025208 11382787.70770663 0 11382787.70770663 -15894359.718804419 0 0 0 0 21256663.036151662 5488607.2858804846 0 5488607.2858804846 2544390.1051358348 0 0 0 0 40957377.832962036 14979073.6733706 0 14979073.6733706 3472649.4910621643 0 0 0 0 22837084.939567566 7358493.6010860801 0 7358493.6010860801 575613.14500045776 0 0 0 0 47002470.679763794 28490543.490048766 0 28490543.490048766 -3128392.6757395267 0 0 0 0 30469900.858001709 15412095.876825035 0 15412095.876825035 2598018.6250393242 0 0 0 0 37043195.656417847 11637575.633054793 0 11637575.633054793 3461999.4767050743 0 0 0 0 -213575411.92485046 -236019682.57362843 0 -236019682.57362843 -177371262.48038101 0 0 0 0 32276479.835354805 -11024548.989144094 0 -11024548.989144094 -47008819.562966347 0 0 0 0 22697898.952304065 -4799713.0885574687 0 -4799713.0885574687 1176875.8498730552 0 0 0 0 -350661074.97401047 -53414507.744791508 0 -53414507.744791508 139697882.92814064 0 0 0 0 -75585371.676940918 59088576.413536549 0 59088576.413536549 71781174.566202164 0 0 0 0 -61915715.773784637 -58618093.704304218 0 -58618093.704304218 8724200.1797828674 0 0 0 0 -129269880.66190338 -113754262.56360245 0 -113754262.56360245 -65145.575569152832 0 0 0 0 3554341.5514761433 1446392.7334542032 0 1446392.7334542032 -3143934.7606818317 0 0 0 0 -162217947.97184753 -10347854.490075111 0 -10347854.490075111 61943152.641674042 0 0 0 0 -23732543.502052307 -7642442.6745100021 0 -7642442.6745100021 4883987.6539187431 0 0 0 0 35591465.119125366 -2173967.8100662231 0 -2173967.8100662231 -1164413.3182262182 0 0 0 0 4535290.1145250704 -1101412.0674951524 0 -1101412.0674951524 8442387.1537336595 0 0 0 0 -43901849.532175064 109154773.24204355 0 109154773.24204355 -140775826.16294098 0 0 0 0 -18316787.163505554 -22337262.171977043 0 -22337262.171977043 15956805.251527786 0 0 0 0 -53060618.884384155 -2598021.7909517288 0 -2598021.7909517288 5761427.7284803391 0 0 0 0 6749667.3609199524 58375007.323011398 0 58375007.323011398 45528782.099404335 0 0 0 0 -40716651.034454346 21482278.178219795 0 21482278.178219795 52049659.625575066 0 0 0 0 -75739783.594161987 67104707.413150311 0 67104707.413150311 94246876.228096008 0 0 0 0 204989546.49875641 207302495.26845074 0 207302495.26845074 35472394.967558861 0 0 0 0 128959439.32723999 108873647.51280975 0 108873647.51280975 38037685.291668892 0 0 0 0 35422377.196018219 185208336.5504899 0 185208336.5504899 119381663.59010887 0 0 0 0 -151048766.89911652 115328545.15219498 0 115328545.15219498 94327752.862257004 0 0 0 0 182882370.67465973 405006422.48252106 0 405006422.48252106 253949756.11097288 0 0 0 0 194352368.97714996 303394540.93097973 0 303394540.93097973 32157296.380198479 0 0 0 0 220039754.64532089 182257311.57083511 0 182257311.57083511 19220175.39684391 0 0 0 0 448320706.13835907 243744754.09188652 0 243744754.09188652 -12427115.479818344 0 0 0 0 209979656.28410006 165784216.79782397 0 165784216.79782397 38299933.466842651 0 0 0 0 347838326.7649231 87696987.377173424 0 87696987.377173424 -36644252.079284668 0 0 0 0 151749268.77608871 216872412.01217937 0 216872412.01217937 171205078.60387039 0 0 0 0 337127200.02317047 346339715.25009632 0 346339715.25009632 261186613.35526085 0 0 0 0 127039963.58205414 148561481.6240654 0 148561481.6240654 41284465.348126411 0 0 0 0 103569227.70407867 126362535.88649368 0 126362535.88649368 88947433.770942688 0 0 0 0 -350051197.89401627 215004058.70894766 0 215004058.70894766 48475157.431254387 0 0 0 0 324881847.43359423 462211648.97383672 0 462211648.97383672 110635144.68163395 0 0 0 0 901936.27532177605 -1094857.6285967547 0 -1094857.6285967547 6643780.1875668596 0 0 0 0 20480516.465335846 49461821.43913269 0 49461821.43913269 6234932.3249206543 0 0 0 0 -329692.57415454276 -774785.44313917868 0 -774785.44313917868 2950373.1236379538 0 0 0 0 493250093.76763916 186618421.97492313 0 186618421.97492313 28412828.096534729 0 0 0 0 -326805468.26836205 -121174135.42893124 0 -121174135.42893124 157097382.06269646 0 0 0 0 -846906.50406782143 559872.10565358959 0 559872.10565358959 2547292.5656823143 0 0 0 0 -365427821.60538483 -106300791.00642204 0 -106300791.00642204 279189309.56374311 0 0 0 0 244194030.78937149 -201721860.93357849 0 -201721860.93357849 -29363334.27520752 0 0 0 0 249276862.9564743 -57133853.029951096 0 -57133853.029951096 -12413628.344293594 0 0 0 0 -569952.00571636669 2023901.5416411329 0 2023901.5416411329 5108088.2129247878 0 0 0 0 279113105.13268852 -332184513.90687418 0 -332184513.90687418 30706234.594467163 0 0 0 0 -365256178.23272705 768270867.36737251 0 768270867.36737251 292949034.89959884 0 0 0 0 283991.71823403612 2970686.0194944926 0 2970686.0194944926 5527727.7234571744 0 0 0 0 115551370.45969391 -173128775.21334362 0 -173128775.21334362 9524934.1111373901 0 0 0 0 141524244.58744812 -169268629.41389275 0 -169268629.41389275 -31618953.652751923 0 0 0 0 108509976.92987537 -117559311.33126926 0 -117559311.33126926 -32667045.494979858 0 0 0 0 149442763.88453674 -150399590.66435814 0 -150399590.66435814 -7060817.9865493774 0 0 0 0 168339300.72567749 -86491314.232992172 0 -86491314.232992172 -119683101.29652405 0 0 0 0 51007413.406898499 -46819424.628429413 0 -46819424.628429413 7463132.0724830627 0 0 0 0 -52476101.060897827 41938328.038217545 0 41938328.038217545 499094501.12991524 0 0 0 0 84255823.853729248 24960797.958739281 0 24960797.958739281 128679680.28930283 0 0 0 0 169294396.50589752 52111399.636514664 0 52111399.636514664 -418301137.0550766 0 0 0 0 179104567.17269897 -173002697.66979599 0 -173002697.66979599 -57053533.715600967 0 0 0 0 -53620070.836074829 259824253.17393112 0 259824253.17393112 -346481818.87226963 0 0 0 0 84152148.826705933 -88583599.810741425 0 -88583599.810741425 -110621300.599123 0 0 0 0 -7622730.6653671265 -48516762.69503212 0 -48516762.69503212 -116547934.67111969 0 0 0 0 89871901.456108093 -6298096.5857315063 0 -6298096.5857315063 -233656448.16435432 0 0 0 0 6903391.08228302 5627398.5428161621 0 5627398.5428161621 -97730678.402990341 0 0 0 0 6861482.6171205342 -304331.98405256122 0 -304331.98405256122 -81657987.552940369 0 0 0 0 -12630642.66859436 39242909.87676239 0 39242909.87676239 -124220704.433918 0 0 0 0 -49178832.260695457 -135497864.88321543 0 -135497864.88321543 3525892.8980636597 0 0 0 0 -12808512.087661743 -27222186.634866714 0 -27222186.634866714 6321637.0923593044 0 0 0 0 -90475050.831459999 19467181.321180344 0 19467181.321180344 12422737.859584808 0 0 0 0 447497.56955626048 3128210.8444184158 0 3128210.8444184158 4925697.480963584 0 0 0 0 4923873.2741915137 668360.07766791806 0 668360.07766791806 -2756042.3341299854 0 0 0 0 4451233.5293824524 4226415.8838741947 0 4226415.8838741947 -470711.07093797345 0 0 0 0 -19516994.372077942 57011024.241444588 0 57011024.241444588 -43795923.109348297 0 0 0 0 50073627.517024994 -37137995.393897057 0 -37137995.393897057 83183602.550899506 0 0 0 0 207118342.27777863 154738763.52499771 0 154738763.52499771 93476136.090068817 0 0 0 0 266885426.43999481 287872018.17768669 0 287872018.17768669 126889942.50039291 0 0 0 0 117169425.09270859 -162031482.01117706 0 -162031482.01117706 29034043.988660812 0 0 0 0 401130467.79794025 93309569.991930246 0 93309569.991930246 -65700843.817596436 0 0 0 0 323728251.85145569 -201752724.88148308 0 -201752724.88148308 -117861250.33553219 0 0 0 0 200747379.64326096 -25549697.773057938 0 -25549697.773057938 -40405306.172447205 0 0 0 0 131830603.85845184 -43339592.465730667 0 -43339592.465730667 -36372456.886986256 0 0 0 0 179348137.96735764 432236.8296251297 0 432236.8296251297 -53506849.014728546 0 0 0 0 240953648.27235031 64008451.552865982 0 64008451.552865982 -2963709.9825973511 0 0 0 0 34078937.701965332 57850870.96787262 0 57850870.96787262 72404856.839766502 0 0 0 0 -22137424.391643524 39273869.54593277 0 39273869.54593277 90374923.176506042 0 0 0 0 7500983.9706655536 2962939.9412270617 0 2962939.9412270617 5329815.6279311627 0 0 0 0 89409314.116062164 -27523586.391728401 0 -27523586.391728401 -4480492.0382423401 0 0 0 0 161151833.24448395 18290583.463317871 0 18290583.463317871 -22178433.486810684 0 0 0 0 187956240.06740189 -24151556.648479462 0 -24151556.648479462 -6351463.1728811264 0 0 0 0 10507218.098247143 -1911122.2152194097 0 -1911122.2152194097 -5749657.3526680535 0 0 0 0 -3562730.3776102066 4307015.9393010139 0 4307015.9393010139 2562583.6801719666 0 0 0 0 34061561.848553181 72689332.328924179 0 72689332.328924179 -31530981.946811676 0 0 0 0 2134844.5525857317 10328404.142568655 0 10328404.142568655 16777857.576502137 0 0 0 0 99329527.104484558 -752169.50569534302 0 -752169.50569534302 90566762.716239929 0 0 0 0 194785480.98598099 21728669.214363098 0 21728669.214363098 -14230593.914468765 0 0 0 0 168349945.8372345 12306694.617767334 0 12306694.617767334 -17250236.443347931 0 0 0 0 159144288.42554283 308093393.53622341 0 308093393.53622341 136967606.72579956 0 0 0 0 -1391485.2191170324 5462930.2499857303 0 5462930.2499857303 13329484.918951102 0 0 0 0 402723432.51273346 -318944670.91572952 0 -318944670.91572952 -79716537.372871399 0 0 0 0 9242660.6568208933 -16700100.568618774 0 -16700100.568618774 -46417566.887378693 0 0 0 0 1581928.6263846206 -7858688.1042464189 0 -7858688.1042464189 4466959.7465207186 0 0 0 0 -6935462.0599968005 1104518.6601692699 0 1104518.6601692699 7966829.6685655154 0 0 0 0 -96079725.961777091 -96160994.944671631 0 -96160994.944671631 -8728594.7469062805 0 0 0 0 -150214772.41812038 130120429.30931258 0 130120429.30931258 -152318930.18572235 0 0 0 0 225892950.44883728 429578539.5653801 0 429578539.5653801 307247986.66610146 0 0 0 0 633117233.49716187 918903455.49482346 0 918903455.49482346 651992354.81632996 0 0 0 0 111465.55599242821 882814.8424862083 0 882814.8424862083 1558506.3345622011 0 0 0 0 26115779.063932896 120353482.54625618 0 120353482.54625618 728036963.83018494 0 0 0 0 7308697.0966887474 -95415354.665843606 0 -95415354.665843606 79949588.043640137 0 0 0 0 3448287.9240673836 1068128.825330304 0 1068128.825330304 -3125186.6810928881 0 0 0 0 36548491.250358582 20918971.70629406 0 20918971.70629406 -4356826.9441375732 0 0 0 0 1629067.4930893648 190006.14789475035 0 190006.14789475035 -1476039.0879633278 0 0 0 0 79983760.04800415 -44071371.03912735 0 -44071371.03912735 -5436716.7611297965 0 0 0 0 117245150.76093769 87091550.036982536 0 87091550.036982536 -132242311.81827545 0 0 0 0 285386881.61723709 27232027.567605972 0 27232027.567605972 140458237.94120789 0 0 0 0 491462396.31423187 420264058.54916382 0 420264058.54916382 12884047.68132019 0 0 0 0 693860874.55259705 267718680.03033829 0 267718680.03033829 -109210057.7906065 0 0 0 0 -328425415.69338989 144257354.65561748 0 144257354.65561748 35117023.277900696 0 0 0 0 553075500.29595184 566443290.32468414 0 566443290.32468414 -37703468.549016953 0 0 0 0 226428126.05593109 550408892.55937958 0 550408892.55937958 -11294769.364814758 0 0 0 0 802985670.20410156 277496242.38053131 0 277496242.38053131 -249780746.93966675 0 0 0 0 227133476.81656647 580707658.27311325 0 580707658.27311325 371177799.8468399 0 0 0 0 1507667598.1212349 1231198070.0705051 0 1231198070.0705051 -899483775.13370514 0 0 0 0 -161414446.87689686 878215637.88625097 0 878215637.88625097 189168971.7243042 0 0 0 0 12250217.856087469 1487616.0884607052 0 1487616.0884607052 -9210171.581483461 0 0 0 0 234260937.26254082 82838859.145627022 0 82838859.145627022 -19695658.567127228 0 0 0 0 -145287836.33969116 -1458210726.5129013 0 -1458210726.5129013 1399072768.4036999 0 0 0 0 321158669.47285843 938757252.74422836 0 938757252.74422836 363466993.72273636 0 0 0 0 -19684170.479995728 388443610.18611145 0 388443610.18611145 1449227015.1081467 0 0 0 0 -65550097.412761688 574883436.94905663 0 574883436.94905663 710702779.5705719 0 0 0 0 261586268.0535965 240384792.33772278 0 240384792.33772278 1123713970.9439774 0 0 0 0 2024339428.0017357 -12177375.428604126 0 -12177375.428604126 -417597496.00764656 0 0 0 0 -1851647.7789733764 1468283.2061275654 0 1468283.2061275654 6056325.2164354324 0 0 0 0 1582977723.4997349 -789346632.60263634 0 -789346632.60263634 419049753.00559235 0 0 0 0 -5103168.6878139526 737928.39784531295 0 737928.39784531295 5420842.4314163215 0 0 0 0 54812545.095405579 163169696.91539764 0 163169696.91539764 707741341.07289124 0 0 0 0 -101230127.98618317 -440611048.52785492 0 -440611048.52785492 -130680937.11495209 0 0 0 0 -18173479.587390304 -106858977.09034443 0 -106858977.09034443 103687128.05533981 0 0 0 0 680072290.52726364 592515190.39060211 0 592515190.39060211 388770284.71726227 0 0 0 0 -500056.14789956249 -5608205.1771828644 0 -5608205.1771828644 2664061.9433056265 0 0 0 0 -870248547.58060217 514947064.76640415 0 514947064.76640415 1005943230.7350006 0 0 0 0 259558061.28179932 320472569.02355194 0 320472569.02355194 302848806.35232544 0 0 0 0 178877903.15591812 557892558.15538788 0 557892558.15538788 620752711.12136841 0 0 0 0 23900847.743270874 533190075.00066376 0 533190075.00066376 726921226.90888309 0 0 0 0 90628670.069442749 621290156.99856567 0 621290156.99856567 598206701.30001068 0 0 0 0 82325607.281461716 608927963.20966721 0 608927963.20966721 597880488.49110413 0 0 0 0 100549576.13644028 156902925.96316528 0 156902925.96316528 189580763.48792267 0 0 0 0 129546778.79182053 484341032.56877518 0 484341032.56877518 164898733.32434082 0 0 0 0 83855549.127743602 595567350.87446594 0 595567350.87446594 792742370.08790588 0 0 0 0 77828416.851802826 -8659097.1281890869 0 -8659097.1281890869 555059440.64459229 0 0 0 0 91552308.924824715 23083094.675588608 0 23083094.675588608 -155067063.77897644 0 0 0 0 180330037.24048996 213596288.20433807 0 213596288.20433807 -35681283.780578613 0 0 0 0 329824390.93027115 196328961.54061127 0 196328961.54061127 -295972204.77557373 0 0 0 0 155032447.84719658 -49566487.363819122 0 -49566487.363819122 -378064309.25526428 0 0 0 0 -468303879.26809502 132458703.10800934 0 132458703.10800934 521182810.00937653 0 0 0 0 -349969084.51154518 278575094.05190659 0 278575094.05190659 699749541.15689468 0 0 0 0 305650720.22464848 363689393.88656616 0 363689393.88656616 148355147.69229126 0 0 0 0 400698177.88475418 56345843.87903595 0 56345843.87903595 -34949933.462738037 0 0 0 0 157205597.8545289 214877119.1566925 0 214877119.1566925 -52265823.688751221 0 0 0 0 207964018.62344933 277148756.33990479 0 277148756.33990479 -445263904.32470703 0 0 0 0 314427033.32313919 132934141.15613556 0 132934141.15613556 -615150919.3789978 0 0 0 0 124637229.28761911 113033325.94921875 0 113033325.94921875 -73076097.496810913 0 0 0 0 -16937856.974284172 -197495604.78961563 0 -197495604.78961563 -353036264.39297485 0 0 0 0 12180203.311793314 3185794.7098220205 0 3185794.7098220205 2374818.5841180682 0 0 0 0 135577719.023592 276163831.60655212 0 276163831.60655212 -279370230.79180813 0 0 0 0 360301875.08059502 -120841044.91673851 0 -120841044.91673851 -28554601.81489563 0 0 0 0 29944117.725645542 -36949145.046440125 0 -36949145.046440125 -16620382.865829468 0 0 0 0 5946583.3824248621 -2631393.1230991334 0 -2631393.1230991334 -5126841.0692002624 0 0 0 0 169195018.45479202 412741964.40989685 0 412741964.40989685 -644266172.85919094 0 0 0 0 35013071.745841563 -1019214.4721080475 0 -1019214.4721080475 -16730045.309152361 0 0 0 0 46922583.590492249 36175550.087612152 0 36175550.087612152 -2472509.968788147 0 0 0 0 10705805.583732605 -4564842.69972229 0 -4564842.69972229 -152465384.56694031 0 0 0 0 -14515886.004154205 -59209808.569915771 0 -59209808.569915771 -260400133.59696198 0 0 0 0 22212806.023515679 32352757.008129068 0 32352757.008129068 1359044.4268345572 0 0 0 0 -61856630.465690613 183611796.36222839 0 183611796.36222839 -261729184.99960327 0 0 0 0 73844048.864273071 413162440.89572144 0 413162440.89572144 -337057761.25067902 0 0 0 0 203025605.19834805 30942026.710777283 0 30942026.710777283 -398148371.41928101 0 0 0 0 -71454845.162223816 282105745.71318054 0 282105745.71318054 -426348251.60402679 0 0 0 0 -138323930.81759644 -25199886.899703979 0 -25199886.899703979 -767687740.44049072 0 0 0 0 1142250.4368353332 314196.75595439598 0 314196.75595439598 -144910.95321700722 0 0 0 0 40077326.197021484 23693044.220011711 0 23693044.220011711 -7699732.9733123779 0 0 0 0 125044822.96763992 3895669.8991518021 0 3895669.8991518021 -32083808.249702454 0 0 0 0 24839208.830173727 8598582.7090570386 0 8598582.7090570386 -18424121.523028515 0 0 0 0 -33705627.374534607 -209905859.51038742 0 -209905859.51038742 -410465428.50078583 0 0 0 0 164095833.47514725 46267007.356853485 0 46267007.356853485 -8330718.9015350342 0 0 0 0 357972300.58477592 603361557.22425079 0 603361557.22425079 -465933909.83224487 0 0 0 0 226349725.75062561 -29118624.255950928 0 -29118624.255950928 -680241580.93567657 0 0 0 0 40515233.611522675 159543057.72720337 0 159543057.72720337 56292794.718696594 0 0 0 0 -80703160.755760193 -140420080.91547012 0 -140420080.91547012 -109954925.14400482 0 0 0 0 -237847224.88173676 137481947.32440567 0 137481947.32440567 357629051.48771667 0 0 0 0 -196659142.86288834 -52891918.244501114 0 -52891918.244501114 -169550594.64244843 0 0 0 0 4041814.1831838377 -3860420.4928829446 0 -3860420.4928829446 -3587834.9103612602 0 0 0 0 95389203.705867767 234993729.9129734 0 234993729.9129734 159908884.91576385 0 0 0 0 171336496.34562683 315232177.75230026 0 315232177.75230026 28175031.911239624 0 0 0 0 65105005.237098694 173925730.35014725 0 173925730.35014725 110053091.41912079 0 0 0 0 326886436.6264267 -114610621.54040146 0 -114610621.54040146 -122715623.40934753 0 0 0 0 316846210.29926491 -66794232.480506897 0 -66794232.480506897 47296272.310073853 0 0 0 0 1213057.4810670405 -1436719.1177558256 0 -1436719.1177558256 3632870.6422268674 0 0 0 0 110277633.53187943 244112167.32653046 0 244112167.32653046 472343880.97802353 0 0 0 0 1228776468.9491177 10468180.617286682 0 10468180.617286682 57722734.082839966 0 0 0 0 575091940.87335205 -169476612.62796783 0 -169476612.62796783 87153009.523159027 0 0 0 0 669157022.88787746 362169342.51345253 0 362169342.51345253 161443500.44340515 0 0 0 0 27725966.819084644 218136003.43305922 0 218136003.43305922 270119259.07063293 0 0 0 0 109408871.88841629 204598904.14638138 0 204598904.14638138 186391581.95461655 0 0 0 0 -166025821.52696609 89499465.923460007 0 89499465.923460007 446799967.3195076 0 0 0 0 14263422.897058487 -367975039.06045628 0 -367975039.06045628 -109455100.40177155 0 0 0 0 -159068945.33057785 -271207257.22104645 0 -271207257.22104645 836087686.25973523 0 0 0 0 784783078.88931847 739217699.73737335 0 739217699.73737335 781059004.31395721 0 0 0 0 532976783.76641846 163645742.5073576 0 163645742.5073576 -448616332.15584946 0 0 0 0 109126284.28043365 103055243.24359703 0 103055243.24359703 -451158672.7501353 0 0 0 0 55557668.944232941 -27463629.733190536 0 -27463629.733190536 -380112797.95017338 0 0 0 0 221910450.51251411 142541246.42947531 0 142541246.42947531 -47464951.999370575 0 0 0 0 7407942.126161823 -7045956.2335989866 0 -7045956.2335989866 -6581619.1232967265 0 0 0 0 99095173.7501297 188001975.57114983 0 188001975.57114983 77673648.355117798 0 0 0 0 -24771745.913526535 105427055.61614799 0 105427055.61614799 84547666.907756805 0 0 0 0 83326195.183547974 265965624.72991657 0 265965624.72991657 259121128.51569366 0 0 0 0 -191459881.23094177 -95412984.042227745 0 -95412984.042227745 107866986.00453949 0 0 0 0 7484194.5925082341 -7220490.7587199397 0 -7220490.7587199397 -6466838.4897138998 0 0 0 0 -254895357.40518951 -86914617.594573975 0 -86914617.594573975 242197036.21253586 0 0 0 0 -98628447.556861877 36739508.576570511 0 36739508.576570511 113343986.40596771 0 0 0 0 -181782027.1192131 86300996.146960258 0 86300996.146960258 538749289.21639252 0 0 0 0 334016747.05223083 540036780.11551666 0 540036780.11551666 364084866.68047333 0 0 0 0 58056662.370620728 235305140.56090546 0 235305140.56090546 30386985.329986572 0 0 0 0 58746037.573600769 213307678.66753769 0 213307678.66753769 84437390.315231323 0 0 0 0 21373007.555053711 151568081.71068573 0 151568081.71068573 252501467.02555084 0 0 0 0 91865822.803039551 221174983.22378159 0 221174983.22378159 86076713.879758835 0 0 0 0 20991431.815536499 144081368.07691574 0 144081368.07691574 109042960.66270828 0 0 0 0 -142795856.25588989 -82526869.732808113 0 -82526869.732808113 -10547681.939526558 0 0 0 0 71365657.118175507 -15617585.139469624 0 -15617585.139469624 -71392236.24988699 0 0 0 0 -120246094.94800568 -61259876.898597002 0 -61259876.898597002 -127841147.13480949 0 0 0 0 4374942.6313610822 3922223.6929826317 0 3922223.6929826317 -3358899.3355453676 0 0 0 0 -20388233.250701904 -121703152.4863739 0 -121703152.4863739 -3114069.9191246033 0 0 0 0 160163379.72242737 490264509.81800175 0 490264509.81800175 361108056.11933053 0 0 0 0 1077983.471824646 212156896.58866692 0 212156896.58866692 370683618.62490463 0 0 0 0 379991435.07070923 -92171392.634773254 0 -92171392.634773254 -93113426.248596191 0 0 0 0 4846965.0966311507 3262253.1404278269 0 3262253.1404278269 -4429183.4052686226 0 0 0 0 518634760.68919373 457414179.79731274 0 457414179.79731274 -37645100.224146813 0 0 0 0 -111348577.53674507 -203440834.90465605 0 -203440834.90465605 -57415660.36457634 0 0 0 0 -46088301.369628906 -25043215.068893552 0 -25043215.068893552 -109765782.86734724 0 0 0 0 363368188.79644775 -247435570.41980362 0 -247435570.41980362 -6953362.8473135233 0 0 0 0 545474734.60896301 54421109.968809128 0 54421109.968809128 -216967543.88946724 0 0 0 0 810111615.12267804 251511759.71017775 0 251511759.71017775 -55711119.205451965 0 0 0 0 799162729.0019331 -103284363.96313983 0 -103284363.96313983 -97169736.092388153 0 0 0 0 171760214.50198364 -238726652.03770351 0 -238726652.03770351 30793933.909022331 0 0 0 0 251434609.42102051 -17579826.874135971 0 -17579826.874135971 -97831703.420229435 0 0 0 0 234764168.30741882 -66704846.584075451 0 -66704846.584075451 -228533535.38427594 0 0 0 0 287630727.93922424 6907879.4091757536 0 6907879.4091757536 -390993887.56094849 0 0 0 0 -80186561.249641418 -188747276.63227773 0 -188747276.63227773 -190410201.325387 0 0 0 0 74325784.26587677 48586459.838311434 0 48586459.838311434 35924721.81664896 0 0 0 0 10278604.416213132 9305883.3534925282 0 9305883.3534925282 -1996657.7680679422 0 0 0 0 -83696516.035125732 -84389973.12263155 0 -84389973.12263155 -116447467.16082811 0 0 0 0 230755979.15789819 -49749216.690520644 0 -49749216.690520644 -260247943.85256577 0 0 0 0 2335032.7537504546 -3855263.1317413617 0 -3855263.1317413617 -510011.74960901216 0 0 0 0 -51180470.484090805 -9327558.1248111725 0 -9327558.1248111725 43828162.293133259 0 0 0 0 201212852.31130791 55145125.391178906 0 55145125.391178906 494953321.99225664 0 0 0 0 -237038397.53860855 198217876.81885839 0 198217876.81885839 -229903980.20298052 0 0 0 0 3843761.2012726152 -3587050.8008907158 0 -3587050.8008907158 -3592454.3892396791 0 0 0 0 -572116527.22562265 16321779.959703207 0 16321779.959703207 221043273.60860443 0 0 0 0 -305817889.02084732 114653743.85554957 0 114653743.85554957 440931715.37557602 0 0 0 0 210951037.66484344 315809150.70815456 0 315809150.70815456 77144944.972767353 0 0 0 0 271291754.20455933 297020539.88631368 0 297020539.88631368 81787886.511647224 0 0 0 0 227368230.55639648 305496033.9398098 0 305496033.9398098 357310421.11380005 0 0 0 0 218006508.77264404 83979685.543064117 0 83979685.543064117 -61039049.406325042 0 0 0 0 324248971.93703461 120371721.41896266 0 120371721.41896266 -178960929.02509618 0 0 0 0 -18744770.867630005 -54940875.083638191 0 -54940875.083638191 -228621400.09472799 0 0 0 0 -119778650.91378021 175295966.58748007 0 175295966.58748007 129077823.10652542 0 0 0 0 -253140059.09619904 -50171771.829737663 0 -50171771.829737663 -70113643.352301598 0 0 0 0 -37161699.601150513 74850450.15987587 0 74850450.15987587 -403054435.5078373 0 0 0 0 -2011439.8912677765 6265236.0150957108 0 6265236.0150957108 4691669.6812591553 0 0 0 0 45263001.730056763 53997679.950681686 0 53997679.950681686 25099329.628809214 0 0 0 0 9533412.0323439725 -2413438.9851126093 0 -2413438.9851126093 -3001432.1785889613 0 0 0 0 3170678.4846939631 9008010.8436936736 0 9008010.8436936736 10850433.641611431 0 0 0 0 668484.84638595581 1299482.9205431938 0 1299482.9205431938 1109620.6293106079 0 0 0 0 14241274.85763552 8385019.3842595331 0 8385019.3842595331 3267442.9269588944 0 0 0 0 752237.94494152954 1206032.6478117439 0 1206032.6478117439 3887387.0957920812 0 0 0 0 570265.31394958496 7869888.976770401 0 7869888.976770401 4323935.3132858276 0 0 0 0 2927843.4616298676 9530342.1715927124 0 9530342.1715927124 3340519.0014400482 0 0 0 0 478721.86265671253 7267350.7104008198 0 7267350.7104008198 1500460.8167686462 0 0 0 0 8774823.3376539089 15082937.30448769 0 15082937.30448769 11342490.386044517 0 0 0 0 20953901.817257237 17169019.553521037 0 17169019.553521037 20234620.615966193 0 0 0 0 27542445.517112732 -2204770.1869010925 0 -2204770.1869010925 4731700.1994934082 0 0 0 0 23755078.29689429 15763991.344487313 0 15763991.344487313 8445607.2515679188 0 0 0 0 1793680.7369314432 6460580.8824037313 0 6460580.8824037313 -1072406.422832489 0 0 0 0 17028572.357447289 5172978.8506665062 0 5172978.8506665062 1328385.4208596395 0 0 0 0 -100137714.09812927 163921759.00514412 0 163921759.00514412 -431367918.79466295 0 0 0 0 9094841.0597187597 10402795.717930486 0 10402795.717930486 7626890.3740147743 0 0 0 0 -88730198.460205078 49801226.696710587 0 49801226.696710587 -315670663.86658001 0 0 0 0 32129924.739663839 46408253.573815107 0 46408253.573815107 -22364431.533218384 0 0 0 0 55070956.882648468 35888561.123161316 0 35888561.123161316 -29812981.32756424 0 0 0 0 17756670.995386578 -270933.02755389595 0 -270933.02755389595 -6429855.3420955166 0 0 0 0 80276128.612213135 15250477.080009699 0 15250477.080009699 -29731727.336639404 0 0 0 0 2895481.8872120781 1643467.3142435942 0 1643467.3142435942 -662685.16181495041 0 0 0 0 49176659.258839607 -3315886.0833787918 0 -3315886.0833787918 -28185552.294281006 0 0 0 0 6761985.7135534286 8699445.9449834824 0 8699445.9449834824 -2936628.4800252914 0 0 0 0 39712383.907089233 7466895.3693809509 0 7466895.3693809509 -37111823.440078735 0 0 0 0 19302932.28943634 22913641.406143188 0 22913641.406143188 -27586672.267738342 0 0 0 0 9468158.8548829369 9419034.1180423051 0 9419034.1180423051 277363.67343894206 0 0 0 0 22436766.832077026 4217911.723772049 0 4217911.723772049 5324361.0432071686 0 0 0 0 107592474.67243958 -338595.12637138367 0 -338595.12637138367 41483132.095778704 0 0 0 0 122402240.53482246 73996229.133345425 0 73996229.133345425 19149336.966719627 0 0 0 0 27948776.536670685 39235058.606514692 0 39235058.606514692 35129965.314415932 0 0 0 0 191501478.27178955 -110933949.99392414 0 -110933949.99392414 -422594663.99185896 0 0 0 0 -15759454.149124146 37741475.128526688 0 37741475.128526688 19626016.592150688 0 0 0 0 16737903.240977403 16076087.925630171 0 16076087.925630171 -303908.20573730138 0 0 0 0 -4496050.3661422729 15342874.988294601 0 15342874.988294601 11634230.805482864 0 0 0 0 2849651.7536964417 1604752.6213531494 0 1604752.6213531494 37326313.551082611 0 0 0 0 -17296182.912002563 31573705.375463486 0 31573705.375463486 47533451.026491642 0 0 0 0 -6140251.7681427002 -5854090.3329658508 0 -5854090.3329658508 -11413809.664920807 0 0 0 0 35914462.206054688 20941567.340557098 0 20941567.340557098 -567238.52661132812 0 0 0 0 22996469.173333459 21949036.507778294 0 21949036.507778294 25284716.14630704 0 0 0 0 51493481.564598083 60397017.169401169 0 60397017.169401169 -3734505.1485786438 0 0 0 0 62135472.035644531 66897266.500434875 0 66897266.500434875 72949969.437950134 0 0 0 0 4002331.0726874042 752278.20426009782 0 752278.20426009782 -1345332.4681759831 0 0 0 0 159307402.25983429 26982572.401607513 0 26982572.401607513 -2793110.6759185791 0 0 0 0 27472542.056671143 11804058.78101778 0 11804058.78101778 -4110898.203250885 0 0 0 0 26391687.32692105 4383459.8393153176 0 4383459.8393153176 -542048.37947343104 0 0 0 0 39472639.437568665 25303361.761162281 0 25303361.761162281 5864706.2920627594 0 0 0 0 104654070.3429985 57491167.887652516 0 57491167.887652516 60060910.603177071 0 0 0 0 9344359.0058978125 -1429990.2374742217 0 -1429990.2374742217 -3189667.4750467967 0 0 0 0 -19828801.289699554 26211998.330654144 0 26211998.330654144 8371414.0325489044 0 0 0 0 158244567.56758118 46818381.46930325 0 46818381.46930325 -19668232.342834949 0 0 0 0 32329985.521392822 72455251.648367882 0 72455251.648367882 -15472196.670772076 0 0 0 0 87521595.920370102 37481976.509655237 0 37481976.509655237 -18571586.321311951 0 0 0 0 58847415.320922852 -85165900.657074451 0 -85165900.657074451 -21802351.689988792 0 0 0 0 27033729.476068251 1030663.5570872147 0 1030663.5570872147 -9143444.8831770848 0 0 0 0 93561110.902785778 208663573.9974333 0 208663573.9974333 67588812.412787437 0 0 0 0 22192080.03803689 2509982.7395791449 0 2509982.7395791449 -13704001.511979144 0 0 0 0 74843327.692650795 -13672689.313910723 0 -13672689.313910723 -12215313.252608299 0 0 0 0 32652153.087371826 20042350.568673849 0 20042350.568673849 12784400.419097543 0 0 0 0 159936033.80156708 -49616600.904904842 0 -49616600.904904842 50325377.842353344 0 0 0 0 22047572.016908646 10972.806327402592 0 10972.806327402592 14801371.008517504 0 0 0 0 13991396.118080139 47287221.410611957 0 47287221.410611957 20211238.555981874 0 0 0 0 3060579.0029830933 34995776.85279274 0 34995776.85279274 -29013162.508914948 0 0 0 0 16619138.258255005 59195613.980787277 0 59195613.980787277 -22044718.132141113 0 0 0 0 -19451258.722816467 30685084.736068964 0 30685084.736068964 159622113.52492523 0 0 0 0 70560188.967056274 -316776669.11254883 0 -316776669.11254883 -155020285.69662476 0 0 0 0 91086802.077606201 222558746.60631371 0 222558746.60631371 -43068351.286437988 0 0 0 0 3301377.6175231934 -212831711.92632866 0 -212831711.92632866 -14934356.212295532 0 0 0 0 -118337885.09690094 34771748.28049469 0 34771748.28049469 17791257.361161232 0 0 0 0 105581163.66893005 -240257960.15032387 0 -240257960.15032387 -326708516.01091433 0 0 0 0 8640533.9620189145 6686826.5331833996 0 6686826.5331833996 -5947556.6689582616 0 0 0 0 -106724834.62326241 -2850594.2948617935 0 -2850594.2948617935 -181438953.7882576 0 0 0 0 6203465.8558959961 -28805733.368225098 0 -28805733.368225098 -291907356.59232712 0 0 0 0 4351017.7104758285 4107782.7328374311 0 4107782.7328374311 -1862591.3227356705 0 0 0 0 90727252.035736084 147433014.47253156 0 147433014.47253156 187351225.20922858 0 0 0 0 -41599451.215118408 -11614901.258337498 0 -11614901.258337498 15003562.147580504 0 0 0 0 -12740329.48348999 -45900131.263259411 0 -45900131.263259411 -164646882.48537827 0 0 0 0 30350312.868408203 88035908.610085011 0 88035908.610085011 17927538.17373386 0 0 0 0 -17552903.666305542 59239245.200730115 0 59239245.200730115 140117289.48138678 0 0 0 0 210096811.43631172 107428418.3228005 0 107428418.3228005 42773129.64880228 0 0 0 0 -281210134.60163665 736525976.37339878 0 736525976.37339878 -91839789.741233826 0 0 0 0 240199896.01196289 -59475540.033320427 0 -59475540.033320427 -114386163.44014609 0 0 0 0 -43344895.575637817 -149194061.21014023 0 -149194061.21014023 -34051290.536523581 0 0 0 0 14765627.153903335 -4414828.7042547483 0 -4414828.7042547483 2907672.8761810055 0 0 0 0 -20313495.584915161 13505142.0365026 0 13505142.0365026 -96508492.60836935 0 0 0 0 127428885.78113365 -110657937.70965981 0 -110657937.70965981 -20133935.840591431 0 0 0 0 338232560.75644159 -136424791.50706893 0 -136424791.50706893 -40547028.657141685 0 0 0 0 -135036405.15869904 -316403225.90312862 0 -316403225.90312862 -92417370.080722809 0 0 0 0 -96160126.847366333 8043686.4632909298 0 8043686.4632909298 101658768.21074581 0 0 0 0 -79696024.940987587 -99498273.43728745 0 -99498273.43728745 616399493.17063904 0 0 0 0 -234634795.53551674 -110133882.56166792 0 -110133882.56166792 204472483.57530022 0 0 0 0 279234958.92795467 301656471.66184914 0 301656471.66184914 208516096.29366589 0 0 0 0 948968859.46855545 -858976671.56102943 0 -858976671.56102943 723640437.37487411 0 0 0 0 78593288.914416358 -23853481.342461936 0 -23853481.342461936 -18329395.812617943 0 0 0 0 97148835.971393108 222445664.22982544 0 222445664.22982544 81361138.684849739 0 0 0 0 294767929.12260437 75200282.106452465 0 75200282.106452465 186945167.26409656 0 0 0 0 4723424.3602978699 -1265875.2309802407 0 -1265875.2309802407 669081.32678379677 0 0 0 0 608060158.96760178 -971650143.70424128 0 -971650143.70424128 615707027.37303829 0 0 0 0 70887317.419237137 -17362948.950118884 0 -17362948.950118884 -20986469.019836728 0 0 0 0 2372090917.9944763 -1537690556.0670605 0 -1537690556.0670605 1113499007.5412827 0 0 0 0 -1074861923.5426025 1365680870.3725176 0 1365680870.3725176 -357157667.42288589 0 0 0 0 236728016.71406555 346897876.9299798 0 346897876.9299798 227594415.01751137 0 0 0 0 251597163.26847839 66737680.349841118 0 66737680.349841118 195010069.42192113 0 0 0 0 122505063.95103455 -73740739.984646797 0 -73740739.984646797 24857441.446609616 0 0 0 0 42880509.980209351 43210749.828454018 0 43210749.828454018 -23046132.848999023 0 0 0 0 44202456.595237732 26145325.034111977 0 26145325.034111977 -70645915.069116592 0 0 0 0 17944374.589737579 5515467.5760381632 0 5515467.5760381632 -17097131.420549978 0 0 0 0 209661322.42810059 4452954.3088550568 0 4452954.3088550568 44559223.008861542 0 0 0 0 183202639.94714355 128401789.34917861 0 128401789.34917861 185917024.32054996 0 0 0 0 314458857.96522522 156993506.98900461 0 156993506.98900461 65172398.156300694 0 0 0 0 360111321.95257568 298691452.5215683 0 298691452.5215683 56238585.197477341 0 0 0 0 292592966.51887512 208698661.0804143 0 208698661.0804143 63549687.801021576 0 0 0 0 114984445.20379639 131750144.96432877 0 131750144.96432877 37958648.683931351 0 0 0 0 280970512.52262735 -368163632.22137833 0 -368163632.22137833 214022002.69857025 0 0 0 0 84410176.429485708 -28984689.374895081 0 -28984689.374895081 -15439944.746951938 0 0 0 0 -64310427.808227539 -215206796.81520176 0 -215206796.81520176 43727492.781772614 0 0 0 0 9379596.322808072 14819480.392095231 0 14819480.392095231 -18900595.523122851 0 0 0 0 356079385.11862659 239011219.26827145 0 239011219.26827145 -240054511.74492645 0 0 0 0 -197770077.58938599 508909220.63316345 0 508909220.63316345 433712099.52806854 0 0 0 0 13681908.592135884 9604225.3275078051 0 9604225.3275078051 -19154599.237145301 0 0 0 0 80217258.601104736 -104669894.45207214 0 -104669894.45207214 -209288973.85715866 0 0 0 0 253983500.6231842 118827377.061203 0 118827377.061203 -104874673.02064323 0 0 0 0 27923601.176498413 -98784278.481466293 0 -98784278.481466293 70885288.310119629 0 0 0 0 4178080.0327114165 3934752.9825736247 0 3934752.9825736247 -3248454.701464775 0 0 0 0 80992368.813583374 204931559.20128059 0 204931559.20128059 165871716.17410088 0 0 0 0 58734714.782424927 24602829.876277924 0 24602829.876277924 15489907.546123505 0 0 0 0 44996852.928437233 68623506.546523452 0 68623506.546523452 -35303895.589447021 0 0 0 0 44261985.32232666 65934577.593562841 0 65934577.593562841 -35079631.205036163 0 0 0 0 8314645.149010323 6814065.0401655175 0 6814065.0401655175 -5867683.2166191032 0 0 0 0 3532491.8652267456 98931936.687627792 0 98931936.687627792 108734996.32073212 0 0 0 0 -71412183.16583252 38104196.562957764 0 38104196.562957764 117278682.01541138 0 0 0 0 56178124.323028564 49564594.760173798 0 49564594.760173798 115185724.16703033 0 0 0 0 52116821.328720093 60638385.995340347 0 60638385.995340347 93894259.413726807 0 0 0 0 56080280.283763885 68690416.123929977 0 68690416.123929977 84445590.853309631 0 0 0 0 7287528.0780366622 -381877.86817517877 0 -381877.86817517877 -2529841.5356699899 0 0 0 0 -65949796.576568604 30598866.990966797 0 30598866.990966797 28687990.226989746 0 0 0 0 142961178.42106628 65578888.455444336 0 65578888.455444336 48736205.099287033 0 0 0 0 193930178.5319519 81462413.264942169 0 81462413.264942169 52877744.515655518 0 0 0 0 74846686.064056396 70235605.160888672 0 70235605.160888672 97399567.792945862 0 0 0 0 109305095.22547913 21471430.094028473 0 21471430.094028473 63289193.503067017 0 0 0 0 95456251.912414551 14444220.371658325 0 14444220.371658325 59911831.506515503 0 0 0 0 99423973.162475586 -288313.80661010742 0 -288313.80661010742 3984033.9071502686 0 0 0 0 78619673.990653992 -41325933.211036682 0 -41325933.211036682 21070519.039291382 0 0 0 0 -60504452.96503067 -50565130.54337883 0 -50565130.54337883 95294706.373756409 0 0 0 0 21429904.966339111 9496845.1168365479 0 9496845.1168365479 85157062.735748291 0 0 0 0 69191601.856079102 -38608927.910531998 0 -38608927.910531998 96266442.399490356 0 0 0 0 172092071.38975525 -92030154.18447113 0 -92030154.18447113 39081947.970485687 0 0 0 0 86371257.20010376 -8090298.8728218079 0 -8090298.8728218079 31756451.830898285 0 0 0 0 118597554.83336639 67399643.757953644 0 67399643.757953644 -58042979.444816589 0 0 0 0 -149913930.27442932 107465713.05415344 0 107465713.05415344 134895066.56520939 0 0 0 0 195107648.5092144 21993894.423581362 0 21993894.423581362 -44161960.914024353 0 0 0 0 38960529.057353973 -301030457.23389435 0 -301030457.23389435 -127786404.87758255 0 0 0 0 17107065.745773315 136530058.27972031 0 136530058.27972031 78966472.989330292 0 0 0 0 257035628.75421143 416268562.64850998 0 416268562.64850998 470661754.47134209 0 0 0 0 -238146358.43849182 -141470135.26995277 0 -141470135.26995277 607803661.9907074 0 0 0 0 393289021.38555145 -11676663.005584717 0 -11676663.005584717 -332351524.09004211 0 0 0 0 9014738.6544824392 5522922.5591433384 0 5522922.5591433384 -7802460.9349567126 0 0 0 0 144862522.79954529 -22079347.07639122 0 -22079347.07639122 -92633512.661903381 0 0 0 0 740279678.68177032 250406136.48710442 0 250406136.48710442 -297170369.55325699 0 0 0 0 8531742.0232267082 5073537.4552219119 0 5073537.4552219119 -7264358.5758044794 0 0 0 0 -147550339.01449585 89742369.272304535 0 89742369.272304535 72327952.78799057 0 0 0 0 89054929.198524475 16078723.775444031 0 16078723.775444031 -272697344.23253059 0 0 0 0 156827458.04008484 -50292534.102325439 0 -50292534.102325439 -132763899.1098671 0 0 0 0 9532775.197815299 7077094.4867822938 0 7077094.4867822938 -6315831.3621676844 0 0 0 0 17574713.218200684 59902710.014436722 0 59902710.014436722 -33678232.736009598 0 0 0 0 -104629434.26306152 151487112.26674557 0 151487112.26674557 105913366.48708725 0 0 0 0 145494529.68577576 -116923214.92696381 0 -116923214.92696381 -116653456.55036545 0 0 0 0 -37452768.954742432 -47048410.523666382 0 -47048410.523666382 118532921.68552399 0 0 0 0 4276122.3505104333 2743612.0383119509 0 2743612.0383119509 -3817426.6167841628 0 0 0 0 -113327393.42312622 40002892.239700317 0 40002892.239700317 205324694.15978241 0 0 0 0 55792111.705963135 96540255.407665253 0 96540255.407665253 167954206.23171997 0 0 0 0 109645659.91235352 67300549.074321747 0 67300549.074321747 78941655.198104858 0 0 0 0 71522097.9972229 -6598898.1798858643 0 -6598898.1798858643 130123676.18927765 0 0 0 0 18832543.589874268 27990510.47644043 0 27990510.47644043 114276375.62193298 0 0 0 0 5722751.7030944824 86275553.359184265 0 86275553.359184265 71453502.142455101 0 0 0 0 40906565.006744385 83011737.82723999 0 83011737.82723999 71301873.818130493 0 0 0 0 57297915.912246704 44033061.507411957 0 44033061.507411957 66894409.182693481 0 0 0 0 12839250.193572998 44181335.499702454 0 44181335.499702454 67844807.209636688 0 0 0 0 21544887.1916008 62964930.064342499 0 62964930.064342499 37695665.212356567 0 0 0 0 -6850385.033416748 72254569.485671997 0 72254569.485671997 48816376.643890381 0 0 0 0 1654475.0285949707 83361839.311714172 0 83361839.311714172 14763081.045915604 0 0 0 0 11317862.672325134 41485137.379562378 0 41485137.379562378 90046891.330360413 0 0 0 0 24261883.379425049 76257243.027957916 0 76257243.027957916 155008720.84513855 0 0 0 0 89296124.181533813 69414062.345096588 0 69414062.345096588 68573924.844665527 0 0 0 0 17427449.389671326 49825869.551321983 0 49825869.551321983 95315258.8074646 0 0 0 0 51172542.485687256 90274674.266914368 0 90274674.266914368 48834708.409576416 0 0 0 0 55609313.036834717 75454985.695968628 0 75454985.695968628 75714324.163459778 0 0 0 0 237310987.75544739 87928669.7397995 0 87928669.7397995 44395120.076311111 0 0 0 0 105511640.82144928 119499277.09528732 0 119499277.09528732 146160681.59980774 0 0 0 0 64789631.193084717 90264174.194339752 0 90264174.194339752 140164963.94845295 0 0 0 0 206913098.90505219 244945441.9655304 0 244945441.9655304 231311513.29078674 0 0 0 0 56997906.14050293 55917899.50945282 0 55917899.50945282 232689516.1858139 0 0 0 0 3068313.0482924413 -4946104.9980484769 0 -4946104.9980484769 2920490.9766523167 0 0 0 0 -179047863.01439667 -76646183.297130585 0 -76646183.297130585 151427158.91170502 0 0 0 0 839811315.44044876 251556393.18984604 0 251556393.18984604 56389966.731311798 0 0 0 0 385588423.78088379 36686445.790000916 0 36686445.790000916 68512889.140777588 0 0 0 0 220276059.09781075 50630708.716568947 0 50630708.716568947 70585898.905975342 0 0 0 0 232223765.96386719 70091686.832866669 0 70091686.832866669 35776024.212684631 0 0 0 0 300957114.14693451 5659036.1378307343 0 5659036.1378307343 -9659013.6087646484 0 0 0 0 13026057.069978591 -6085097.8984750398 0 -6085097.8984750398 7059854.2122475952 0 0 0 0 171600635.30832863 -14288986.433811188 0 -14288986.433811188 -735317.95191955566 0 0 0 0 128305786.86833572 29973527.052429199 0 29973527.052429199 -35705912.20955658 0 0 0 0 65867093.773605347 77857100.201210022 0 77857100.201210022 -24554949.876613617 0 0 0 0 111139033.54025269 52427279.107872009 0 52427279.107872009 -19971351.858310699 0 0 0 0 205681295.26903534 39459009.752307892 0 39459009.752307892 8858782.7456893921 0 0 0 0 132083639.90538406 73099798.029871941 0 73099798.029871941 141438.80760192871 0 0 0 0 117532963.06288147 79885733.035041809 0 79885733.035041809 45983732.416879654 0 0 0 0 121191136.78796005 95940436.862587452 0 95940436.862587452 17699216.372436523 0 0 0 0 61725310.456954956 72307954.166999817 0 72307954.166999817 10928390.491615295 0 0 0 0 38742393.293464661 119264146.0484066 0 119264146.0484066 -15203374.283813477 0 0 0 0 50624901.145553589 72798358.065841675 0 72798358.065841675 -23362522.967468262 0 0 0 0 28629814.249649048 56596224.654083252 0 56596224.654083252 11910731.282363892 0 0 0 0 -72100852.533615112 85834580.383575439 0 85834580.383575439 6784710.5421905518 0 0 0 0 6889397.3683112729 2119432.6532083414 0 2119432.6532083414 467410.35558030009 0 0 0 0 5124388.5177764893 11109391.750045776 0 11109391.750045776 -2115499.2278823853 0 0 0 0 31027790.663447149 24067951.380504061 0 24067951.380504061 11385162.115950033 0 0 0 0 33235794.494110107 89140308.102466583 0 89140308.102466583 4447586.3698730469 0 0 0 0 -3087197.9080963135 -2126933.2388954163 0 -2126933.2388954163 947678.62232971191 0 0 0 0 29220560.172883853 13036363.394127525 0 13036363.394127525 138200.11303724349 0 0 0 0 34933206.686706543 77168966.991481781 0 77168966.991481781 -20935555.037796021 0 0 0 0 89656447.417396545 105786206.58474636 0 105786206.58474636 -7401018.4044189453 0 0 0 0 87610128.688499451 83842528.830337524 0 83842528.830337524 -53688458.775894165 0 0 0 0 142125910.90447998 -16043340.351389885 0 -16043340.351389885 -78845027.617786407 0 0 0 0 67225731.57158716 34259096.05965443 0 34259096.05965443 10680546.07869071 0 0 0 0 28781204.643781558 5100372.2366900519 0 5100372.2366900519 -11269004.120071424 0 0 0 0 54307616.344360352 16647165.331195831 0 16647165.331195831 -9023649.8772735596 0 0 0 0 17865659.33384205 12092238.040350571 0 12092238.040350571 1197624.3711427487 0 0 0 0 69470639.169219971 32033150.595837593 0 32033150.595837593 -1044352.4193153381 0 0 0 0 22391612.758177534 15395905.383183431 0 15395905.383183431 9360356.4758911505 0 0 0 0 59005283.622772217 17471495.274703979 0 17471495.274703979 9407951.4040670395 0 0 0 0 43083543.956207275 38306055.994038343 0 38306055.994038343 2814716.30509758 0 0 0 0 60344234.139129639 29646425.016054153 0 29646425.016054153 -10313169.806812286 0 0 0 0 78670426.9894104 50945515.694173813 0 50945515.694173813 -39732961.874339581 0 0 0 0 -53824434.985244751 148496557.86658669 0 148496557.86658669 15223846.501873016 0 0 0 0 81025402.963647485 36742977.912945405 0 36742977.912945405 6686688.3316440135 0 0 0 0 123790947.41505241 14419963.261701584 0 14419963.261701584 -64548261.504570007 0 0 0 0 147029057.41239929 90996554.331561089 0 90996554.331561089 -102344656.7347374 0 0 0 0 11332124.222481035 24019906.092943858 0 24019906.092943858 25181319.206556253 0 0 0 0 8095256.1093311906 14956739.73158744 0 14956739.73158744 14708662.631154701 0 0 0 0 -71816080.393974304 87519750.86538887 0 87519750.86538887 2907150.8388252258 0 0 0 0 85416796.841125488 31071183.826538086 0 31071183.826538086 1320517.3704910278 0 0 0 0 85617080.093036652 31919568.660838127 0 31919568.660838127 3317254.7336120605 0 0 0 0 26696045.723205566 67005996.740550995 0 67005996.740550995 200860.68602585793 0 0 0 0 62361112.045837402 25338965.177309036 0 25338965.177309036 14034038.144104004 0 0 0 0 29486432.243379753 -3315620.4112055004 0 -3315620.4112055004 -8879139.4437373467 0 0 0 0 128714746.51731396 52322627.915311337 0 52322627.915311337 5509304.1352844238 0 0 0 0 117311754.88726807 45954473.480239868 0 45954473.480239868 37841974.490936279 0 0 0 0 1317442.1361236572 -4231928.2030811273 0 -4231928.2030811273 -2305855.6832860466 0 0 0 0 127526812.15167236 41226341.84286499 0 41226341.84286499 1835182.4038391113 0 0 0 0 119626242.45983887 49525503.068054199 0 49525503.068054199 -2061393.8481445312 0 0 0 0 126494049.35180664 44841371.499862671 0 44841371.499862671 -7210901.4133224487 0 0 0 0 111720471.05999756 36717764.949172974 0 36717764.949172974 -5408217.4073944092 0 0 0 0 131717380.23065186 25854806.709697723 0 25854806.709697723 17146239.73097229 0 0 0 0 111721612.80347568 35806078.389199182 0 35806078.389199182 30968519.651229858 0 0 0 0 7729109.6655731201 -4777227.3185119629 0 -4777227.3185119629 -2534634.6256790161 0 0 0 0 15090576.44329834 19037422.529102325 0 19037422.529102325 9700087.287109375 0 0 0 0 22873691.204745203 17410497.078978047 0 17410497.078978047 8126399.9224718288 0 0 0 0 21306059.831676699 -8416292.8225411549 0 -8416292.8225411549 -4330683.7929568514 0 0 0 0 12272543.052246094 7772224.8640441895 0 7772224.8640441895 1850378.6475601196 0 0 0 0 18077378.3543396 -2397734.3963012695 0 -2397734.3963012695 -5390032.8183479309 0 0 0 0 19864453.619140625 12358755.297180176 0 12358755.297180176 -596174.45092773438 0 0 0 0 23321282.190402851 7010018.6541538276 0 7010018.6541538276 -1215480.0821256 0 0 0 0 5990859.6997528076 3444057.2196903229 0 3444057.2196903229 8699196.5124664307 0 0 0 0 1354123.0934917033 957895.89531999081 0 957895.89531999081 129368.0869557634 0 0 0 0 59683782.314762115 11995081.897753 0 11995081.897753 6268654.4026145935 0 0 0 0 40737540.882965088 15079901.791721344 0 15079901.791721344 10599094.660049915 0 0 0 0 34405217.016387939 12045475.069438934 0 12045475.069438934 10656652.013502121 0 0 0 0 32122296.336975098 29285685.514122009 0 29285685.514122009 -18065582.030221939 0 0 0 0 37926545.417114258 10955485.873575211 0 10955485.873575211 10908788.548168182 0 0 0 0 12965361.529615879 10598353.334724285 0 10598353.334724285 5379030.8875748664 0 0 0 0 42134061.331466675 17395008.27845335 0 17395008.27845335 11780957.541347504 0 0 0 0 32090982.605940148 -1512846.5079240575 0 -1512846.5079240575 -16563712.853475487 0 0 0 0 76223613.420883179 8784268.8431777954 0 8784268.8431777954 17517798.163951874 0 0 0 0 80302038.068191528 25158872.394035339 0 25158872.394035339 1406576.1497364044 0 0 0 0 25374984.848754883 32754042.889602661 0 32754042.889602661 20210086.652301788 0 0 0 0 55368678.335983276 28131036.414022923 0 28131036.414022923 -28333530.840446472 0 0 0 0 157191680.63967896 106280699.28390503 0 106280699.28390503 -26243357.536933899 0 0 0 0 4927996.6813088134 6252794.8278812245 0 6252794.8278812245 3590257.1931829639 0 0 0 0 6143252.698143959 5080713.1928289756 0 5080713.1928289756 2484437.1103893034 0 0 0 0 44117586.17124939 -6292865.6601896286 0 -6292865.6601896286 -23006249.69524765 0 0 0 0 17711468.747680664 22186881.26474762 0 22186881.26474762 -24911217.784317017 0 0 0 0 84297184.730255127 -30685189.355252266 0 -30685189.355252266 6005400.0159454346 0 0 0 0 175197162.75241852 82197587.870083332 0 82197587.870083332 41089501.273769379 0 0 0 0 2577067.7764177918 1745295.9222011939 0 1745295.9222011939 -1364128.3266380057 0 0 0 0 -87953574.649215698 -55387722.030439854 0 -55387722.030439854 -39328842.510015488 0 0 0 0 99876770.61730957 69592050.974386215 0 69592050.974386215 -402654660.33390749 0 0 0 0 116691515.90856934 89213419.914987564 0 89213419.914987564 -401838054.95165968 0 0 0 0 28028230.832244873 20903184.699626923 0 20903184.699626923 66552016.510135651 0 0 0 0 860145.34283509851 2315812.9418289214 0 2315812.9418289214 1549035.9840110075 0 0 0 0 -3079793.222366333 82837727.025229454 0 82837727.025229454 -56589004.453704834 0 0 0 0 104102923.21026611 210681920.96813679 0 210681920.96813679 -118279546.45603943 0 0 0 0 -11347552.037719727 -159248164.77666759 0 -159248164.77666759 -338526142.20213318 0 0 0 0 37235510.355773926 32176029.985614777 0 32176029.985614777 -28457822.498277664 0 0 0 0 24906535.201721191 -52814454.870103359 0 -52814454.870103359 -112208889.6445961 0 0 0 0 134367657.54907227 53169377.359764099 0 53169377.359764099 -305078403.68325424 0 0 0 0 118075776.73468018 111893103.14698505 0 111893103.14698505 -316268926.89082146 0 0 0 0 156528965.24424744 69540017.871777534 0 69540017.871777534 -293044710.4079628 0 0 0 0 168774713.47241211 -6745347.9076652527 0 -6745347.9076652527 -457292105.6693716 0 0 0 0 253397031.03762817 112408383.97950935 0 112408383.97950935 -324130964.34371948 0 0 0 0 280871955.7166748 180492447.16942024 0 180492447.16942024 -294954661.49872398 0 0 0 0 227885756.85585022 107193114.19715881 0 107193114.19715881 -180050205.57381821 0 0 0 0 14452253.607757568 221507550.89189911 0 221507550.89189911 -265641649.58564091 0 0 0 0 130849195.97034073 92500200.405348599 0 92500200.405348599 -139408068.79589844 0 0 0 0 39451298.778717041 8964012.3775138855 0 8964012.3775138855 -41498834.832284927 0 0 0 0 34080511.980102539 77893592.011665344 0 77893592.011665344 -129508980.12512398 0 0 0 0 31430734.236276627 27577648.273238719 0 27577648.273238719 -21289857.243839264 0 0 0 0 8401105.2207571045 6099413.3351945356 0 6099413.3351945356 176298.48326343298 0 0 0 0 81010339.117034912 42995221.233430862 0 42995221.233430862 -29866034.649095535 0 0 0 0 -260389633.00735474 271259168.65378857 0 271259168.65378857 -108231155.45231819 0 0 0 0 2296455.4271060862 2316012.2826644108 0 2316012.2826644108 93268.521098999307 0 0 0 0 -4801819.4905090332 113347879.60758603 0 113347879.60758603 -27488074.828716278 0 0 0 0 -89154638.951854706 78111903.984290957 0 78111903.984290957 180977441.06758308 0 0 0 0 -57703229.937397003 208478523.08191526 0 208478523.08191526 -201871101.89780617 0 0 0 0 947720.97266793251 -1347336.415457418 0 -1347336.415457418 -155343.72252131 0 0 0 0 652156508.59667969 -355178531.00898719 0 -355178531.00898719 -637940233.70106506 0 0 0 0 51663596.911865234 266615793.84709644 0 266615793.84709644 392243825.53586167 0 0 0 0 323505352.6566925 -50259829.89997983 0 -50259829.89997983 41502333.634696484 0 0 0 0 719278031.98654175 16594717.84625721 0 16594717.84625721 -193601723.2029953 0 0 0 0 102243363.00134277 325771297.2219038 0 325771297.2219038 -324481459.1397028 0 0 0 0 227973373.972229 96129353.347322464 0 96129353.347322464 -246444636.02084923 0 0 0 0 444599946.04660034 373199142.31260967 0 373199142.31260967 84600118.27648735 0 0 0 0 403336338.89373779 118274035.11373329 0 118274035.11373329 -185131137.0224371 0 0 0 0 197988123.43963623 -103352448.13000488 0 -103352448.13000488 18045912.32258606 0 0 0 0 139933761.19451904 38829823.102892876 0 38829823.102892876 -84010693.94323349 0 0 0 0 289880051.05813599 -265102238.13669205 0 -265102238.13669205 -63375055.360027313 0 0 0 0 -140362324.26751709 -132953276.80069733 0 -132953276.80069733 34796891.615089417 0 0 0 0 235694241.38021851 -59072310.339136124 0 -59072310.339136124 -16480203.685520172 0 0 0 0 501376411.28210449 -114764682.96812534 0 -114764682.96812534 -103251654.24285567 0 0 0 0 317685011.34362793 -155666131.72411728 0 -155666131.72411728 -105278326.52278519 0 0 0 0 554386194.66140747 -231370556.64934635 0 -231370556.64934635 -13169822.22253418 0 0 0 0 351507735.64727783 64220324.25069952 0 64220324.25069952 457919964.34679461 0 0 0 0 -429965791.82820129 430766018.1277926 0 430766018.1277926 -33111225.836075902 0 0 0 0 375315078.31500244 15761335.61309576 0 15761335.61309576 147223473.14375329 0 0 0 0 6157429.1915739775 2797083.5651227236 0 2797083.5651227236 -1171021.9451644188 0 0 0 0 -371134096.82989502 196390915.04570293 0 196390915.04570293 45826944.851632118 0 0 0 0 -634001719.28726196 -53075485.382667542 0 -53075485.382667542 24529507.75658226 0 0 0 0 109676922.33129883 -468662583.13715935 0 -468662583.13715935 -568316074.24951553 0 0 0 0 70326962.971679688 -526051.08695793152 0 -526051.08695793152 -328244559.00732803 0 0 0 0 -40801962.22479248 31757741.051230669 0 31757741.051230669 -208176740.07536292 0 0 0 0 -216413809.53430176 -95840402.500642776 0 -95840402.500642776 -291040620.35075068 0 0 0 0 -244158902.81018066 -464629406.54890823 0 -464629406.54890823 -386755467.44041443 0 0 0 0 -58817433.758972168 -49273657.408589244 0 -49273657.408589244 24092802.8978405 0 0 0 0 -356029030.17901611 11850766.472155094 0 11850766.472155094 87146969.52798605 0 0 0 0 146168026.07980347 115231667.68921664 0 115231667.68921664 42336183.379057772 0 0 0 0 -29694412.342407227 -23791075.955684185 0 -23791075.955684185 -62951321.144042969 0 0 0 0 132248030.16125488 294263142.70265341 0 294263142.70265341 -316027551.25539303 0 0 0 0 -48760610.060241699 9834966.2336616516 0 9834966.2336616516 -19035647.10284996 0 0 0 0 448558427.43447876 209809416.98433399 0 209809416.98433399 -328146643.2080164 0 0 0 0 8260126.3461005688 3285392.8505839258 0 3285392.8505839258 -2127906.1465848442 0 0 0 0 397334.54443347454 -93127.113882660866 0 -93127.113882660866 -126509.93427449651 0 0 0 0 -49038708.329727173 11816140.399936199 0 11816140.399936199 -188488.62979125977 0 0 0 0 -91798000.218200684 577321830.10037327 0 577321830.10037327 -349236607.37507153 0 0 0 0 120724986.33605957 107300764.98875093 0 107300764.98875093 -452346517.86550665 0 0 0 0 2809479.7103048563 -615620.42079250142 0 -615620.42079250142 -2342857.6678108783 0 0 0 0 -43347950.866485596 -2961071.5078191757 0 -2961071.5078191757 -26686778.570785999 0 0 0 0 53347846.61882019 230562888.79180431 0 230562888.79180431 265487277.57093859 0 0 0 0 230326732.60041046 -184355023.97436285 0 -184355023.97436285 -67712886.45413208 0 0 0 0 -257690863.13279724 69547026.009911537 0 69547026.009911537 415770827.24264622 0 0 0 0 348874469.75580215 224233378.29877782 0 224233378.29877782 -123971914.52138519 0 0 0 0 6902519.0441767126 1044832.5201060623 0 1044832.5201060623 -1846729.6489212606 0 0 0 0 455389174.82836914 -132048500.91583729 0 -132048500.91583729 -10888535.306181669 0 0 0 0 23374160.646286011 -22456927.183249474 0 -22456927.183249474 157801651.48304749 0 0 0 0 23281074.199707031 -14302774.855821609 0 -14302774.855821609 38286496.848992348 0 0 0 0 8094685.7107315063 44095707.106731415 0 44095707.106731415 139711690.19020653 0 0 0 0 14981360.494140625 78225568.229212761 0 78225568.229212761 24907164.477858067 0 0 0 0 124698379.0630722 55738647.572212458 0 55738647.572212458 23703625.290372849 0 0 0 0 205818625.03026581 53845155.749832749 0 53845155.749832749 -96869636.983484268 0 0 0 0 44401357.211624146 174933749.81475544 0 174933749.81475544 -63731898.632642269 0 0 0 0 -131948660.41275024 122115353.10032988 0 122115353.10032988 -212679492.35611153 0 0 0 0 105875935.04064941 108202527.27209926 0 108202527.27209926 -211885615.76873589 0 0 0 0 -17758515.09387207 231293963.25146866 0 231293963.25146866 -188839536.39386368 0 0 0 0 1638815.3645498157 -1822464.0789851998 0 -1822464.0789851998 -280514.46017960773 0 0 0 0 241748933.34512329 374681196.19657516 0 374681196.19657516 -426105021.34642708 0 0 0 0 20444566.054977417 188434405.36503696 0 188434405.36503696 -228262242.61530542 0 0 0 0 717806.9269361943 -1073209.8143865885 0 -1073209.8143865885 -143297.50510740487 0 0 0 0 -175642380.90112305 348798583.8219409 0 348798583.8219409 497245260.40804559 0 0 0 0 120819660.72814941 283513326.99717999 0 283513326.99717999 -174520643.49219799 0 0 0 0 279823182.49308777 141599191.88927531 0 141599191.88927531 -720403594.05619669 0 0 0 0 439218513.48298645 97484431.296358585 0 97484431.296358585 -281624751.34486103 0 0 0 0 -112962122.29192352 -95440181.346072197 0 -95440181.346072197 -60975381.43963623 0 0 0 0 93983063.247619629 167405612.06076527 0 167405612.06076527 -280627718.20636719 0 0 0 0 27070942.689865112 253779099.08180094 0 253779099.08180094 -9836979.4596176147 0 0 0 0 -8934231.0874328613 272947872.48842335 0 272947872.48842335 113680112.09784222 0 0 0 0 30245487.966552734 11025102.167417526 0 11025102.167417526 2178334.5210914612 0 0 0 0 44607606.312561035 48419321.942691088 0 48419321.942691088 30813549.209582806 0 0 0 0 13478377.578440288 17667409.494612552 0 17667409.494612552 8417082.2601243779 0 0 0 0 47650120.883422852 16267408.569133759 0 16267408.569133759 2338832.0408973694 0 0 0 0 36102668.099060059 15960956.155612946 0 15960956.155612946 3892451.4022445679 0 0 0 0 28850048.22693634 6481660.6080064774 0 6481660.6080064774 -3760815.0680561066 0 0 0 0 28081022.47911112 13745528.359799966 0 13745528.359799966 1456420.2693498302 0 0 0 0 26773761.768218994 4953574.7050151825 0 4953574.7050151825 -4689970.4577655792 0 0 0 0 18563341.643274188 5361350.5822117552 0 5361350.5822117552 -5346790.5120357508 0 0 0 0 31073764.139251709 3710461.379945755 0 3710461.379945755 -80013.831588745117 0 0 0 0 24861652.641847961 6355169.5949471667 0 6355169.5949471667 987602.01046394743 0 0 0 0 43104040.975967407 1357975.332280159 0 1357975.332280159 -1826861.0995941162 0 0 0 0 14431325.153121948 13843998.229319572 0 13843998.229319572 13041267.700778961 0 0 0 0 63539614.446502686 1893005.3135566711 0 1893005.3135566711 -2373203.4099884033 0 0 0 0 925016.21931171417 277752.49950414151 0 277752.49950414151 -588546.86877468601 0 0 0 0 33849742.979783848 13661634.335726701 0 13661634.335726701 3372347.6252522226 0 0 0 0 43177519.302734375 11590546.54473114 0 11590546.54473114 -1856366.9251556396 0 0 0 0 18452756.995161511 22145641.369857587 0 22145641.369857587 9410148.4879909642 0 0 0 0 36395416.607414246 11842494.533666134 0 11842494.533666134 2306038.9450302124 0 0 0 0 126311499.27862549 50882662.770583868 0 50882662.770583868 5914548.1386356354 0 0 0 0 21527448.560968906 10583604.397035085 0 10583604.397035085 1197829.1689887741 0 0 0 0 40203398.519714355 6967621.0319004059 0 6967621.0319004059 7105288.8880300522 0 0 0 0 49184359.959686279 7084041.0645103455 0 7084041.0645103455 -918621.21802520752 0 0 0 0 42390646.697618887 14386927.150947556 0 14386927.150947556 6508179.074052155 0 0 0 0 19938168.198151756 26046515.854803018 0 26046515.854803018 8466210.9129018839 0 0 0 0 40222602.96522522 13463776.061723709 0 13463776.061723709 2974615.2203845978 0 0 0 0 40175334.184661865 14251914.563051224 0 14251914.563051224 159728.75386333466 0 0 0 0 62634223.002548218 27753972.369957924 0 27753972.369957924 5979877.8371963501 0 0 0 0 23749174.170610506 18064806.556490097 0 18064806.556490097 1767434.1980199553 0 0 0 0 30092976.509719849 24857841.933732986 0 24857841.933732986 86613.57243347168 0 0 0 0 44845344.574081421 11648543.288520813 0 11648543.288520813 4145227.7266583443 0 0 0 0 40936461.314778328 21275258.346742004 0 21275258.346742004 1040622.5645833127 0 0 0 0 33321270.201538086 20386802.134418488 0 20386802.134418488 20278075.980430603 0 0 0 0 18898223.21735343 13386540.736652106 0 13386540.736652106 2061196.1674400866 0 0 0 0 51899429.668319702 14705577.578179359 0 14705577.578179359 -2754529.8862295151 0 0 0 0 49863336.101350784 25041597.783915639 0 25041597.783915639 9813105.2005004883 0 0 0 0 51680603.218765259 17205197.41997242 0 17205197.41997242 -5331055.3616456985 0 0 0 0 31097238.094527252 9810033.9308885187 0 9810033.9308885187 -4479334.0701242983 0 0 0 0 71220444.531860352 18648849.840118408 0 18648849.840118408 -9411480.8598899841 0 0 0 0 51431576.598701477 17624397.550106049 0 17624397.550106049 7957813.0810203552 0 0 0 0 31961998.085229918 6434743.7309569269 0 6434743.7309569269 -3667559.7056391612 0 0 0 0 25434003.899567708 2843317.5577976331 0 2843317.5577976331 -6248776.2482343214 0 0 0 0 57057408.666152954 25551164.953575134 0 25551164.953575134 6257882.2637357712 0 0 0 0 28444759.967499532 3702609.5037951767 0 3702609.5037951767 -5700782.5897868322 0 0 0 0 36175823.596969604 9916973.5309858322 0 9916973.5309858322 2779656.9879894257 0 0 0 0 36226456.156779289 10627243.342538744 0 10627243.342538744 4039827.4430618286 0 0 0 0 25450034.886641413 -7987064.6584555954 0 -7987064.6584555954 -9893286.4808487669 0 0 0 0 -64977897.662033081 -42442516.257884979 0 -42442516.257884979 -13672246.482747316 0 0 0 0 -702039.46756991744 -841035.26257579029 0 -841035.26257579029 -2305840.256776575 0 0 0 0 -42153366.477855682 52573668.993254483 0 52573668.993254483 -155674232.46945286 0 0 0 0 -145188042.64038086 104866278.48888302 0 104866278.48888302 -119222557.88248968 0 0 0 0 64564945.400100708 25756123.64022398 0 25756123.64022398 4531555.8417711258 0 0 0 0 322601248.59835815 9342880.3239412308 0 9342880.3239412308 -65355962.588931084 0 0 0 0 291319763.43484497 -32867394.794025421 0 -32867394.794025421 -70473071.774963379 0 0 0 0 128902505.86679077 -27379175.113135815 0 -27379175.113135815 -12522584.096018791 0 0 0 0 265154437.36859131 -10402171.906118393 0 -10402171.906118393 -37540406.127997398 0 0 0 0 125430668.39154053 9776302.4739069939 0 9776302.4739069939 -12335923.551614761 0 0 0 0 22511711.794586182 351818863.68720412 0 351818863.68720412 194703325.78754997 0 0 0 0 109315.52163814008 -328933.45010206848 0 -328933.45010206848 -868852.02171110129 0 0 0 0 582092773.54330444 156320477.84086418 0 156320477.84086418 -46991091.658111095 0 0 0 0 361797232.26288605 -47013201.232409239 0 -47013201.232409239 -47368763.104898453 0 0 0 0 322091076.57662964 85463347.91305542 0 85463347.91305542 16015977.72265625 0 0 0 0 148513809.19244385 6240250.391658783 0 6240250.391658783 -222876979.65843368 0 0 0 0 152137491.25524902 380202801.95794296 0 380202801.95794296 504494124.65244389 0 0 0 0 4739402.7538793981 3938506.9210976521 0 3938506.9210976521 524975.26114709675 0 0 0 0 492216008.60749054 -98499421.386116624 0 -98499421.386116624 -83588053.831766129 0 0 0 0 469106032.46420288 -673887649.85734224 0 -673887649.85734224 -219717162.8747654 0 0 0 0 882429669.67593384 311787472.51789236 0 311787472.51789236 -146768341.46956444 0 0 0 0 -496908080.26983643 123133184.95466518 0 123133184.95466518 680386347.61260319 0 0 0 0 622150279.28651428 -484107620.72919154 0 -484107620.72919154 -256091782.30098724 0 0 0 0 -215328214.74661255 -531243981.85205173 0 -531243981.85205173 -97773986.02216053 0 0 0 0 45237898.86315918 93660073.325216293 0 93660073.325216293 -143787302.99107385 0 0 0 0 -83285537.144470215 -49231902.077000618 0 -49231902.077000618 223016709.19438457 0 0 0 0 338685838.85191345 100780480.82099724 0 100780480.82099724 -404817302.00768471 0 0 0 0 50344556.372589111 7279050.6186654568 0 7279050.6186654568 4705358.0742659122 0 0 0 0 30935395.027989984 -6965240.0852517411 0 -6965240.0852517411 -7900979.5546146706 0 0 0 0 -606968256.37005615 -123194630.59929085 0 -123194630.59929085 312204945.68540478 0 0 0 0 81631882.79839325 38134088.980227828 0 38134088.980227828 319749.60593938828 0 0 0 0 66993817.483230591 19307519.516635172 0 19307519.516635172 -951920.80703777075 0 0 0 0 64501884.799514771 617069.20809975266 0 617069.20809975266 -2794858.4649653509 0 0 0 0 32606938.974884436 6625990.834556073 0 6625990.834556073 -6050411.8701953292 0 0 0 0 43000289.719931483 -1288620.3994869292 0 -1288620.3994869292 -4481042.3278616145 0 0 0 0 37178834.981562614 18534588.411437392 0 18534588.411437392 -7735146.0331096649 0 0 0 0 35848006.933456421 10503752.001683235 0 10503752.001683235 -4398873.9937992096 0 0 0 0 45474717.28664913 8167954.1104630232 0 8167954.1104630232 -12458980.645675519 0 0 0 0 89358651.263687134 76845506.642475128 0 76845506.642475128 -81392125.079287529 0 0 0 0 53712330.28961657 -20790343.231819913 0 -20790343.231819913 -21115647.719516721 0 0 0 0 96958724.951753855 -117771076.86230952 0 -117771076.86230952 5816360.3969268799 0 0 0 0 26070993.606994629 33123614.024909973 0 33123614.024909973 17346881.498413086 0 0 0 0 25815227.699785233 36891848.446907043 0 36891848.446907043 -13778848.491271973 0 0 0 0 55884180.121070862 13910622.507987976 0 13910622.507987976 2332943.1551170349 0 0 0 0 -17099945.029571533 69443457.812259674 0 69443457.812259674 -40189271.225532532 0 0 0 0 76715456.646594375 20738136.418731533 0 20738136.418731533 -5000568.4351713024 0 0 0 0 55342115.964111328 85409319.572256088 0 85409319.572256088 -111764592.44487572 0 0 0 0 93638483.211761475 88068206.629722595 0 88068206.629722595 -85959721.452285767 0 0 0 0 51280368.816512294 16521220.99864094 0 16521220.99864094 -13970992.151846979 0 0 0 0 29438928.735679626 86251569.557514191 0 86251569.557514191 -97279615.617282867 0 0 0 0 8691781.3244750611 -292407.56613013893 0 -292407.56613013893 -1787677.5914464053 0 0 0 0 70707950.647125244 -1040088.2010116577 0 -1040088.2010116577 31439869.566486359 0 0 0 0 152635016.28594208 107375340.72410583 0 107375340.72410583 -41431305.851402283 0 0 0 0 117819608.91948891 7075162.8794007301 0 7075162.8794007301 -78654160.680919647 0 0 0 0 41755899.6847229 36294019.368016243 0 36294019.368016243 63590334.355054855 0 0 0 0 44359280.570959091 25960129.883570194 0 25960129.883570194 16334675.749000549 0 0 0 0 43087547.216583252 52251321.392883301 0 52251321.392883301 40842347.385978699 0 0 0 0 25879048.954093933 68288223.65439415 0 68288223.65439415 -43334890.422794342 0 0 0 0 47381555.475160062 16160186.021444425 0 16160186.021444425 -18645739.957376357 0 0 0 0 75450456.497207642 42604658.263821602 0 42604658.263821602 41114686.200199127 0 0 0 0 68493423.844848633 17727333.359413385 0 17727333.359413385 45967653.52980423 0 0 0 0 62731476.404914856 60948289.604503632 0 60948289.604503632 46218375.138187766 0 0 0 0 -7095104.9280509949 5344791.6339683533 0 5344791.6339683533 -33728957.8829422 0 0 0 0 -580628.70207309723 52765296.603157043 0 52765296.603157043 37654003.828063965 0 0 0 0 78485319.259757996 73901347.921390533 0 73901347.921390533 -48710388.117286682 0 0 0 0 50730957.13105011 17617091.855846405 0 17617091.855846405 -109145038.46156311 0 0 0 0 46922643.942649841 24528967.751281738 0 24528967.751281738 -36278030.574476242 0 0 0 0 228154903.10336304 90899057.347564697 0 90899057.347564697 18852711.31072998 0 0 0 0 52442813.575532317 13945734.250886748 0 13945734.250886748 -19112588.837577943 0 0 0 0 283660661.13518524 13098271.081512451 0 13098271.081512451 -59452916.278457642 0 0 0 0 6059268.2980076764 416059.9159601219 0 416059.9159601219 -1039462.3955907524 0 0 0 0 136838297.76118851 89749365.239587784 0 89749365.239587784 80856726.158630371 0 0 0 0 11368208.078538626 -13542602.08677068 0 -13542602.08677068 -10989220.149647096 0 0 0 0 -60358156.799804688 -61613193.441543579 0 -61613193.441543579 -1825500.0431518555 0 0 0 0 68931746.313752547 -3644982.0368874576 0 -3644982.0368874576 -19575283.578357309 0 0 0 0 25028729.985225677 10195138.505748749 0 10195138.505748749 10557711.665794373 0 0 0 0 50142169.074108124 30862864.821853638 0 30862864.821853638 -188625.16532516479 0 0 0 0 306810483.25132751 -75846339.753454208 0 -75846339.753454208 -34575159.913848877 0 0 0 0 6612338.404045105 24285766.538299561 0 24285766.538299561 14168760.756399155 0 0 0 0 2847915.6771467626 -23300.361170576885 0 -23300.361170576885 -116752.39917330444 0 0 0 0 52721376.860450745 -30596446.185791016 0 -30596446.185791016 37245646.635089874 0 0 0 0 149311595.84078979 -21254029.174196243 0 -21254029.174196243 -42276298.566726685 0 0 0 0 119166795.13143921 44374191.648899078 0 44374191.648899078 -109686599.56021881 0 0 0 0 -5520384.0795478821 51817501.955791473 0 51817501.955791473 -7134213.9464645386 0 0 0 0 211659493.38954163 173950435.09080505 0 173950435.09080505 -65592066.512187958 0 0 0 0 13604252.878476411 4112920.204959143 0 4112920.204959143 -4562254.4471645392 0 0 0 0 35716920.387834162 845968.14272155426 0 845968.14272155426 -20065302.290984847 0 0 0 0 303236090.52609253 -28999060.604919434 0 -28999060.604919434 68426676.564376831 0 0 0 0 195430385.51206207 238248800.33317566 0 238248800.33317566 -147864846.68235016 0 0 0 0 291977748.70634079 77902363.396755695 0 77902363.396755695 -304800615.30326843 0 0 0 0 41108265.546970367 39866810.980106354 0 39866810.980106354 55507155.685089111 0 0 0 0 159185893.26261139 113971531.6169281 0 113971531.6169281 -132450067.34951019 0 0 0 0 147246302.11976624 27656155.207872391 0 27656155.207872391 -5095736.279083252 0 0 0 0 10730843.364110898 1788310.0803482682 0 1788310.0803482682 -1553590.6174654439 0 0 0 0 170856749.48973083 57670810.751079559 0 57670810.751079559 -85412862.89604187 0 0 0 0 69609864.131355286 102259637.2686615 0 102259637.2686615 218583892.67299461 0 0 0 0 129139462.36688805 88852388.579463959 0 88852388.579463959 -49119948.737945557 0 0 0 0 11908350.994720459 -48852319.681270599 0 -48852319.681270599 -54267333.171897888 0 0 0 0 -6155411.6580429077 108222572.02061081 0 108222572.02061081 1913140.9300003052 0 0 0 0 35349915.60435804 10514299.257147918 0 10514299.257147918 7735146.2890394703 0 0 0 0 63787485.240142822 104347314.58674622 0 104347314.58674622 -66452042.08637619 0 0 0 0 113329233.00846863 46377437.926269531 0 46377437.926269531 27498392.908782959 0 0 0 0 118115169.21576309 55117216.300193787 0 55117216.300193787 -29976899.913848877 0 0 0 0 88424863.87594223 58115125.149831772 0 58115125.149831772 17994098.238517761 0 0 0 0 36572928.879381098 36328494.329138711 0 36328494.329138711 12086563.117858805 0 0 0 0 106525248.17815399 82888422.681976318 0 82888422.681976318 -1614926.7713165283 0 0 0 0 21141814.234703064 80370016.749420166 0 80370016.749420166 13500417.126255035 0 0 0 0 19493265.600712173 11402607.757854603 0 11402607.757854603 856889.9980176203 0 0 0 0 10942454.314117432 21866895.339645386 0 21866895.339645386 3499024.6218490601 0 0 0 0 40601641.408257484 33141860.668366686 0 33141860.668366686 9413137.054864848 0 0 0 0 58031986.776371002 3554892.023440361 0 3554892.023440361 -8652589.2124023438 0 0 0 0 32168344.205993652 19099982.177970886 0 19099982.177970886 -1567505.8815841675 0 0 0 0 48303498.400375366 21365657.456590652 0 21365657.456590652 -7981572.3495178223 0 0 0 0 42568749.467331193 23248783.78579203 0 23248783.78579203 -630438.61051021516 0 0 0 0 69582044.997703552 31987198.923313141 0 31987198.923313141 -8724515.0386810303 0 0 0 0 48966370.842175558 32092266.018290803 0 32092266.018290803 -10278109.723717809 0 0 0 0 47252506.575134277 26299836.226135254 0 26299836.226135254 448112.56997680664 0 0 0 0 44374520.543823242 2695421.3133583069 0 2695421.3133583069 25466904.60874939 0 0 0 0 42435594.759751283 -18100242.777123932 0 -18100242.777123932 -28302867.663637251 0 0 0 0 2949958.5534098446 809417.99510024488 0 809417.99510024488 -190155.87127482146 0 0 0 0 41670951.772757448 14612376.416875208 0 14612376.416875208 -9657963.6902387906 0 0 0 0 49764745.871688843 11267247.488199234 0 11267247.488199234 -22724856.199195862 0 0 0 0 46048337.796051025 41607953.837524414 0 41607953.837524414 -39743963.629781723 0 0 0 0 52774100.231002808 9910874.1524963379 0 9910874.1524963379 33123849.174766541 0 0 0 0 61235486.479789734 39013772.718372345 0 39013772.718372345 -21547200.279922485 0 0 0 0 24072168.687133789 36271131.992744446 0 36271131.992744446 -18038098.87940979 0 0 0 0 56816870.85710144 43296565.037902832 0 43296565.037902832 -13360305.066925049 0 0 0 0 2995319.7093149293 519008.73774579912 0 519008.73774579912 -71304.773648221046 0 0 0 0 41655437.213487431 10516978.94288896 0 10516978.94288896 -19258900.167967457 0 0 0 0 27808192.093261935 14749609.726735987 0 14749609.726735987 4982042.7070920765 0 0 0 0 90108474.964849472 52026802.453464508 0 52026802.453464508 45499325.613922119 0 0 0 0 104742329.9147625 113180650.01773071 0 113180650.01773071 64678594.719479084 0 0 0 0 2872827627.201416 2209241852.1558266 0 2209241852.1558266 880219805.3744483 0 0 0 0 6599638290.8142357 5605968992.3589268 0 5605968992.3589268 3917486765.9200516 0 0 0 0 15809773.363504313 1358635.137017766 0 1358635.137017766 6285699.2852795199 0 0 0 0 2892425902.5204601 2089551634.2800341 0 2089551634.2800341 976581693.33016014 0 0 0 0 5746874.1177185699 -249629.6968791876 0 -249629.6968791876 7836529.0861811368 0 0 0 0 10224578.659301758 -3258884.0496006012 0 -3258884.0496006012 7594101.7043781281 0 0 0 0 19073671.28203059 -5884261.0859532086 0 -5884261.0859532086 8886754.1651196908 0 0 0 0 7215321.7116546631 -9023705.2599391937 0 -9023705.2599391937 465298.28064537048 0 0 0 0 1648628157.7216535 41224609.654938936 0 41224609.654938936 -204220437.29512167 0 0 0 0 1120810363.8878117 1005271504.1007887 0 1005271504.1007887 723803859.78308344 0 0 0 0 4027933790.1208553 1760860910.143585 0 1760860910.143585 729514172.89460039 0 0 0 0 2640250271.5334549 2192280098.3205938 0 2192280098.3205938 908587413.85335159 0 0 0 0 2295663677.9986267 -102089856.86609985 0 -102089856.86609985 -91638895.042626619 0 0 0 0 2858843.932786487 -61891.789999280008 0 -61891.789999280008 3072957.0008768165 0 0 0 0 2576797544.5061088 1330256191.3342371 0 1330256191.3342371 343634992.07782996 0 0 0 0 3384702759.003973 1141610786.9706821 0 1141610786.9706821 265476470.20233691 0 0 0 0 4016570546.8554521 1872539056.3144255 0 1872539056.3144255 -146364634.8549872 0 0 0 0 6617279383.6512623 3420260968.1802573 0 3420260968.1802573 464910885.44315517 0 0 0 0 6613347804.6444492 1266662911.8351414 0 1266662911.8351414 -997195265.47873247 0 0 0 0 4799366606.4787388 1746769333.5525422 0 1746769333.5525422 -135856138.11879766 0 0 0 0 6614515723.8976994 113845856.11227149 0 113845856.11227149 -1455651312.165086 0 0 0 0 5113429251.37714 961580666.0255692 0 961580666.0255692 -1059203209.9096702 0 0 0 0 5053940684.4297762 622154658.89362693 0 622154658.89362693 -736817116.13492799 0 0 0 0 2780947936.4091444 341967543.82131839 0 341967543.82131839 -121577294.32692695 0 0 0 0 2974140838.9639664 64280832.81511879 0 64280832.81511879 -264987848.4228406 0 0 0 0 4314123055.3851051 228769923.27461994 0 228769923.27461994 -473924175.29211044 0 0 0 0 3879974645.926239 257492236.64047694 0 257492236.64047694 -474691414.55067122 0 0 0 0 2761677318.8069439 507598876.37774265 0 507598876.37774265 -203245757.95384109 0 0 0 0 3742155777.7377639 621441860.75085425 0 621441860.75085425 -356985175.60104036 0 0 0 0 3713675688.1743174 696741820.50649488 0 696741820.50649488 -366335727.79713881 0 0 0 0 3718118121.5054197 866954423.08946788 0 866954423.08946788 -378603701.48771334 0 0 0 0 4470207887.898531 933856651.03582597 0 933856651.03582597 -444363993.34527469 0 0 0 0 2563254009.1714277 936636173.15595341 0 936636173.15595341 15208852.074397087 0 0 0 0 3261053283.8258724 790245683.66703629 0 790245683.66703629 -101361315.56787252 0 0 0 0 1000302133.4289484 872310553.43588507 0 872310553.43588507 427626444.94575715 0 0 0 0 489819974.82058573 266615351.80456963 0 266615351.80456963 410909896.94652706 0 0 0 0 569185358.49893904 80728349.107930422 0 80728349.107930422 304663380.17983246 0 0 0 0 982405768.92352962 157012564.27379104 0 157012564.27379104 148891581.13046607 0 0 0 0 140005722.09971142 -69546576.145387113 0 -69546576.145387113 306775559.50023955 0 0 0 0 477478051.40208912 185556917.49194503 0 185556917.49194503 219378229.34203458 0 0 0 0 902515029.41117764 390485503.53838551 0 390485503.53838551 241287021.9512496 0 0 0 0 1510765129.4777365 116067479.65280175 0 116067479.65280175 137735410.58639622 0 0 0 0 2505290694.7799034 561951286.66463494 0 561951286.66463494 -22354919.76367712 0 0 0 0 1652520574.6276674 608681779.18992567 0 608681779.18992567 89000281.024754882 0 0 0 0 2776069571.382679 371727030.26461911 0 371727030.26461911 -173516960.58720875 0 0 0 0 2304030218.3960314 493649248.98756313 0 493649248.98756313 -18718255.004559994 0 0 0 0 2036434630.4522493 -91090714.878712893 0 -91090714.878712893 -64358919.534722328 0 0 0 0 982294263.48353672 316116135.01628304 0 316116135.01628304 215528755.68222022 0 0 0 0 837346465.52697253 131315026.42297781 0 131315026.42297781 260664283.40011501 0 0 0 0 454126519.33884788 296779368.23919255 0 296779368.23919255 336673139.6455493 0 0 0 0 894209116.04575098 -312165876.23414636 0 -312165876.23414636 75996528.881376266 0 0 0 0 2567963852.5864644 -338629568.2804966 0 -338629568.2804966 -114307474.6243701 0 0 0 0 293110274.52767181 729695797.24817967 0 729695797.24817967 408205126.83584905 0 0 0 0 -180159474.61133051 -268628360.79773504 0 -268628360.79773504 730259388.55074382 0 0 0 0 -277928016.39465898 153562127.6572102 0 153562127.6572102 181343618.8921082 0 0 0 0 312094245.66474199 -290705768.22720051 0 -290705768.22720051 441011095.27587914 0 0 0 0 281485282.45850754 202124607.02186823 0 202124607.02186823 621442202.88671732 0 0 0 0 11752100.55191803 484926530.74683344 0 484926530.74683344 396853932.85245514 0 0 0 0 414375756.60909796 356792653.96824026 0 356792653.96824026 238222847.59945536 0 0 0 0 287002925.83707619 166722711.41523576 0 166722711.41523576 17109382.061323404 0 0 0 0 -7053262.1238028407 359504167.86217964 0 359504167.86217964 62242926.073976517 0 0 0 0 177743592.06498206 -118933881.91982794 0 -118933881.91982794 248854046.33822012 0 0 0 0 363440214.82607508 -456497130.14668298 0 -456497130.14668298 326572512.33357644 0 0 0 0 -426193.54614035715 -892536.4678700103 0 -892536.4678700103 3191501.7045256603 0 0 0 0 -947653929.14755249 -111825151.06820869 0 -111825151.06820869 -152268136.37905121 0 0 0 0 118865894.79025841 180220322.20940495 0 180220322.20940495 -390389470.53204346 0 0 0 0 -468273789.5915454 79658451.902913034 0 79658451.902913034 131819659.34106719 0 0 0 0 1817849.2099459642 -1961251.5499582002 0 -1961251.5499582002 6682037.8077874519 0 0 0 0 -126971.73024734994 -28931.403542127926 0 -28931.403542127926 227856.63037876703 0 0 0 0 -295998733.44548893 -295143696.85878301 0 -295143696.85878301 -392975406.46046448 0 0 0 0 -820940448.03050804 450359885.06026769 0 450359885.06026769 -221126154.96784687 0 0 0 0 502485872.27168465 8244734.9199290276 0 8244734.9199290276 82512936.284213901 0 0 0 0 -145594791.8381424 -15026140.119895935 0 -15026140.119895935 53028465.004339218 0 0 0 0 174929280.01799107 333417381.08735228 0 333417381.08735228 -230064183.42836952 0 0 0 0 132373371.48112202 14091832.593551636 0 14091832.593551636 -19819350.955030441 0 0 0 0 -251046827.24860859 -110658932.32915473 0 -110658932.32915473 176101458.36497927 0 0 0 0 288143450.3211441 -89880134.380345464 0 -89880134.380345464 124115938.14835978 0 0 0 0 140590153.25910467 96846295.22494559 0 96846295.22494559 205528146.99267006 0 0 0 0 132728792.95573235 -32443964.756978095 0 -32443964.756978095 134283292.73759639 0 0 0 0 68783101.910732746 54937490.213995755 0 54937490.213995755 175844946.54479957 0 0 0 0 -126735965.94311762 -119858071.04187596 0 -119858071.04187596 209278281.85845184 0 0 0 0 -109778323.3526721 -43661704.81548667 0 -43661704.81548667 780726.72452127934 0 0 0 0 -321703076.22879583 132911887.77373084 0 132911887.77373084 90862812.483696163 0 0 0 0 -150826905.78776443 -71267685.834044725 0 -71267685.834044725 63994288.384038329 0 0 0 0 -70312419.058933973 -118731947.79015923 0 -118731947.79015923 8351405.0439844131 0 0 0 0 -55247987.311983824 -105890370.1601603 0 -105890370.1601603 -90991134.962621212 0 0 0 0 13314714.369274139 -38006482.618286133 0 -38006482.618286133 46085666.800327301 0 0 0 0 80605277.331378937 15358203.282844543 0 15358203.282844543 -6361449.2648620605 0 0 0 0 26524227.340314757 -3788595.2768236371 0 -3788595.2768236371 3548365.6401397963 0 0 0 0 3046269.8204755783 -220626111.37117195 0 -220626111.37117195 -211911740.65068197 0 0 0 0 -81395371.193012476 -93936230.431867599 0 -93936230.431867599 -116981699.03204727 0 0 0 0 -25678408.920611858 -206885564.29292756 0 -206885564.29292756 131197690.03697383 0 0 0 0 219105324.60876942 -114511377.0193392 0 -114511377.0193392 -117927392.2606163 0 0 0 0 125292794.30362129 -106737957.99940704 0 -106737957.99940704 405413224.27046251 0 0 0 0 476395001.15217304 -283001742.31813025 0 -283001742.31813025 -219525126.42802572 0 0 0 0 216055795.15400791 1020137179.8945506 0 1020137179.8945506 1109311379.5436933 0 0 0 0 10041357.093151022 -6055321.219764105 0 -6055321.219764105 7076759.5399323739 0 0 0 0 303944986.80310726 98485819.149176598 0 98485819.149176598 -547818826.12610054 0 0 0 0 -12043024.601623535 -38841543.466376305 0 -38841543.466376305 48193791.955558538 0 0 0 0 18727979.19396342 -12811884.890470535 0 -12811884.890470535 15166106.562076928 0 0 0 0 23328507.910877228 -10866821.264129639 0 -10866821.264129639 -13431454.50371933 0 0 0 0 16316697.180053711 -14852586.382740021 0 -14852586.382740021 -3198851.2760181427 0 0 0 0 35773886.724954866 1248588.2887381501 0 1248588.2887381501 3770972.7986396104 0 0 0 0 -26882916.863218307 -97402588.557176352 0 -97402588.557176352 -29598178.863775015 0 0 0 0 -145093463.00882721 57639428.037746668 0 57639428.037746668 370200643.57324934 0 0 0 0 1661648.7472816035 -4282591.0135043189 0 -4282591.0135043189 12792220.962939022 0 0 0 0 6962098.0816116333 -12111763.282833099 0 -12111763.282833099 6670258.8125724792 0 0 0 0 32328736.462292016 -22215485.161667466 0 -22215485.161667466 11460982.933668612 0 0 0 0 35948278.133209229 -78167527.53704834 0 -78167527.53704834 -279506083.70766449 0 0 0 0 12188324.343658447 -170754078.93027496 0 -170754078.93027496 -183974292.78687 0 0 0 0 38534079.805753559 -11930645.333864417 0 -11930645.333864417 5876888.9422347071 0 0 0 0 103573962.16513062 -184828279.40363693 0 -184828279.40363693 -429462891.28690624 0 0 0 0 -15663338.570266724 2610720.2633666992 0 2610720.2633666992 32445697.471817017 0 0 0 0 27325488.890167236 -1316721.7282447815 0 -1316721.7282447815 -37115718.59604454 0 0 0 0 -827861.22952265665 470214.37062337622 0 470214.37062337622 6472177.7859113337 0 0 0 0 16887614.104160309 -6423843.075592041 0 -6423843.075592041 17417466.927072525 0 0 0 0 21256930.387090117 -24288.126167146489 0 -24288.126167146489 10471183.164639901 0 0 0 0 19852503.234474182 -13373901.623800278 0 -13373901.623800278 -14108633.451797485 0 0 0 0 40723978.648845382 13209318.033076957 0 13209318.033076957 -4044251.9764711298 0 0 0 0 46936087.978220455 6864252.4855719507 0 6864252.4855719507 -5128706.1022989834 0 0 0 0 65151456.232156754 7512129.2898044586 0 7512129.2898044586 31543440.2554245 0 0 0 0 10951284.843658447 -3363121.936088562 0 -3363121.936088562 -64966689.100727081 0 0 0 0 87135084.860165596 5262631.1759109497 0 5262631.1759109497 -12888523.444450378 0 0 0 0 48300378.314511485 -14994735.488189749 0 -14994735.488189749 3265403.1511305654 0 0 0 0 6921176.0718399882 5037775.4063482136 0 5037775.4063482136 -5716400.5658696592 0 0 0 0 100421259.88330078 177001587.10269165 0 177001587.10269165 -253294669.96984863 0 0 0 0 75832662.4958992 38786463.773681641 0 38786463.773681641 47425016.721389771 0 0 0 0 45828266.354791857 2946798.5306792818 0 2946798.5306792818 253132.61974980216 0 0 0 0 23248060.36781311 -7850839.4841480255 0 -7850839.4841480255 -47240674.087078094 0 0 0 0 58902289.706363678 37624833.542106628 0 37624833.542106628 62935404.130134583 0 0 0 0 38764472.864488006 -6675318.3822999559 0 -6675318.3822999559 4890218.1666369047 0 0 0 0 126476667.07202148 -14805311.931884766 0 -14805311.931884766 31896755.380966187 0 0 0 0 48467164.305274963 46992491.239116669 0 46992491.239116669 56537920.430835724 0 0 0 0 179976408.42053223 -211039062.00723648 0 -211039062.00723648 -316088375.73798943 0 0 0 0 176702624.13327026 -99939238.895500183 0 -99939238.895500183 -548755170.87443924 0 0 0 0 8680170.1363296509 -28127987.046228409 0 -28127987.046228409 -412275665.10077667 0 0 0 0 136425016.6446228 -67047726.038417816 0 -67047726.038417816 -419312574.04390717 0 0 0 0 65858024.686889648 -4231460.6399459839 0 -4231460.6399459839 -581438380.3540802 0 0 0 0 138640528.48764038 -114881903.67019272 0 -114881903.67019272 -470801596.64740753 0 0 0 0 33909804.204956055 -103648946.70116425 0 -103648946.70116425 -779259397.14407349 0 0 0 0 122891474.50400162 14136580.703052521 0 14136580.703052521 -632914831.54753113 0 0 0 0 87106608.105438232 -74872445.647060394 0 -74872445.647060394 -443174536.74781799 0 0 0 0 180361880.2979126 32803943.703853607 0 32803943.703853607 -819120034.73848724 0 0 0 0 52843967.675587475 -13153327.366262905 0 -13153327.366262905 -3808665.5413619336 0 0 0 0 204915897.58862305 -47977344.635124207 0 -47977344.635124207 -697153456.66128826 0 0 0 0 141699593.21411133 44240995.405403137 0 44240995.405403137 -608025252.47361755 0 0 0 0 44633426.363647461 -48658745.766242981 0 -48658745.766242981 -686408442.96809387 0 0 0 0 94738757.383644104 63749592.304570198 0 63749592.304570198 -683822266.66662598 0 0 0 0 52698204.236308463 3384449.4499183446 0 3384449.4499183446 -3459666.8498990885 0 0 0 0 365009098.22396851 16282745.862781525 0 16282745.862781525 -98634883.026924133 0 0 0 0 154956622.96160889 96691578.985309601 0 96691578.985309601 -1061818622.5935516 0 0 0 0 134571196.46484375 -62329179.248703003 0 -62329179.248703003 -735286595.32851791 0 0 0 0 54831093.41506958 210200126.31185913 0 210200126.31185913 -833316645.94904518 0 0 0 0 58120682.700939193 -1016846.3414518572 0 -1016846.3414518572 -5466769.6727174874 0 0 0 0 8997722.7619171143 -61819964.524185181 0 -61819964.524185181 -86529780.592551231 0 0 0 0 114719646.63861084 -139766194.49866867 0 -139766194.49866867 -29114260.686977029 0 0 0 0 293557441.93650055 -29891287.734844208 0 -29891287.734844208 -76880814.365371704 0 0 0 0 151669143.91749573 117579854.12643623 0 117579854.12643623 47840403.413955688 0 0 0 0 170095923.93417358 -223529638.82902527 0 -223529638.82902527 31896252.766098022 0 0 0 0 -103974829.61921692 -18774140.981380463 0 -18774140.981380463 -23130124.871109009 0 0 0 0 6098279.8456726074 -63253360.023914337 0 -63253360.023914337 20160761.707901001 0 0 0 0 93752978.242794037 28697402.882198334 0 28697402.882198334 21218376.317642212 0 0 0 0 14088528.495025635 12586047.387771606 0 12586047.387771606 -78307910.525993347 0 0 0 0 28159365.301086225 22518430.156790391 0 22518430.156790391 -11186517.573791469 0 0 0 0 -82693979.701599121 24986607.788032532 0 24986607.788032532 -24181404.816131592 0 0 0 0 -634746.61416375637 -1973405.0910653546 0 -1973405.0910653546 1019992.0450387327 0 0 0 0 91018845.04815644 8741328.11543715 0 8741328.11543715 -54030540.108657837 0 0 0 0 121981205.01982069 95361503.60657692 0 95361503.60657692 -28487250.61717701 0 0 0 0 98434612.686285496 67813455.633592606 0 67813455.633592606 103971231.39538193 0 0 0 0 95618384.958055496 116599229.33240414 0 116599229.33240414 61689349.45952034 0 0 0 0 6114907.4724851083 1292429.1838482078 0 1292429.1838482078 -417407.51138540963 0 0 0 0 53026020.168549538 59172845.750555038 0 59172845.750555038 78791383.704847336 0 0 0 0 84559415.017157555 117489013.80046082 0 117489013.80046082 113857244.6424017 0 0 0 0 72358672.082525253 35376397.600370407 0 35376397.600370407 39057203.009937286 0 0 0 0 10221497.335914964 -1591678.7782923444 0 -1591678.7782923444 2507728.5969375279 0 0 0 0 4873524.6956603527 941204.35238170624 0 941204.35238170624 5153433.4154105186 0 0 0 0 51421105.180475712 52267041.935746193 0 52267041.935746193 49871801.793586731 0 0 0 0 103440681.24331284 36300536.658945084 0 36300536.658945084 35054791.117527008 0 0 0 0 73070052.025361061 43072810.272053719 0 43072810.272053719 70339801.398323059 0 0 0 0 72141408.534017563 37272814.673305511 0 37272814.673305511 35192498.538154602 0 0 0 0 45581413.858852386 -26299619.332351685 0 -26299619.332351685 -33438360.096923828 0 0 0 0 20035305.810048059 -3562656.0790960602 0 -3562656.0790960602 3356229.3554169815 0 0 0 0 65766876.543640137 50296398.846687317 0 50296398.846687317 34355736.985626221 0 0 0 0 -6119462.9481430054 19059658.481884003 0 19059658.481884003 30516628.835122108 0 0 0 0 -449918.47743656486 -3468580.4126205277 0 -3468580.4126205277 3122527.1643334404 0 0 0 0 7164731.7486211658 -1532159.1770553589 0 -1532159.1770553589 2619970.1664199829 0 0 0 0 -94432962.133592278 -79331537.932436109 0 -79331537.932436109 -37638912.490269184 0 0 0 0 -165448202.71325636 -35093735.644468039 0 -35093735.644468039 19362621.08361873 0 0 0 0 2608425.5669244854 -4351770.7464423915 0 -4351770.7464423915 8846127.498473024 0 0 0 0 2069237.7250237465 -992474.631067276 0 -992474.631067276 3153863.7635428905 0 0 0 0 5585374.3893860579 -317418.78920459747 0 -317418.78920459747 3058985.0595293045 0 0 0 0 1703456.3065615892 4111609.456594944 0 4111609.456594944 -976186.43501758575 0 0 0 0 141072352.13645792 -87810631.248667598 0 -87810631.248667598 210235545.56751609 0 0 0 0 7033651.2105000019 5152406.8913111687 0 5152406.8913111687 -5322394.3580970764 0 0 0 0 -44463355.41639328 -128759498.80528545 0 -128759498.80528545 330447214.29608393 0 0 0 0 3207905.9674860239 289835.70181727409 0 289835.70181727409 -275611.66349506378 0 0 0 0 1006079.5877029343 2549487.9546758574 0 2549487.9546758574 1960928.9295977217 0 0 0 0 3666696.7847719193 -95985854.867669582 0 -95985854.867669582 323539114.53013521 0 0 0 0 -90274053.168623209 -187238019.90117538 0 -187238019.90117538 346074036.56209528 0 0 0 0 -133101032.06415892 44189508.484770358 0 44189508.484770358 138504055.81390494 0 0 0 0 -23190367.762416601 11151716.492822044 0 11151716.492822044 58037264.834532022 0 0 0 0 -6913631.1291999817 -119666292.08636373 0 -119666292.08636373 283970488.11875474 0 0 0 0 798970.4289906011 1931855.876524193 0 1931855.876524193 -833661.0058895346 0 0 0 0 49816081.68781662 18638468.451517701 0 18638468.451517701 -25489916.144268274 0 0 0 0 59499914.321470261 98383036.529082179 0 98383036.529082179 63174732.097002931 0 0 0 0 241673615.53329399 270581407.25032586 0 270581407.25032586 -81492365.872639179 0 0 0 0 251137418.14523935 184378573.2225365 0 184378573.2225365 170945877.49747229 0 0 0 0 211382392.79673576 -19210449.354845047 0 -19210449.354845047 29292251.3041327 0 0 0 0 46148155.865319252 67091885.926167607 0 67091885.926167607 -8609089.9345638752 0 0 0 0 205775552.29653931 172412698.88840938 0 172412698.88840938 39173355.336438179 0 0 0 0 -370138982.21519542 796841464.22953117 0 796841464.22953117 -2849446.7658133507 0 0 0 0 -97855034.728248358 131354457.15399343 0 131354457.15399343 -241897935.60006607 0 0 0 0 -195288975.79404595 5956839.2810743488 0 5956839.2810743488 115040470.62469149 0 0 0 0 -199911356.48654366 241891759.26551867 0 241891759.26551867 30590294.634588718 0 0 0 0 -1462832.1171388626 7809064.53452003 0 7809064.53452003 5447642.3994739056 0 0 0 0 -10487294.245161057 42608620.089503646 0 42608620.089503646 53373033.138353109 0 0 0 0 -12747857.480788231 -26181255.904421449 0 -26181255.904421449 45222503.720305279 0 0 0 0 72976403.51652813 47572779.866747022 0 47572779.866747022 -7510265.6585478783 0 0 0 0 1115623.4681765987 4286730.4640992833 0 4286730.4640992833 -1907617.4619008182 0 0 0 0 117159001.30767059 -84451359.749663115 0 -84451359.749663115 -111423480.17891914 0 0 0 0 -7716748.9745130539 -9509142.1010875106 0 -9509142.1010875106 -13104676.740431905 0 0 0 0 -76885938.88164711 -180720111.08042812 0 -180720111.08042812 561445137.67887068 0 0 0 0 94863995.120706558 116509832.92338896 0 116509832.92338896 84027227.505403996 0 0 0 0 -67412818.07226944 -186350231.69115686 0 -186350231.69115686 410988210.53316641 0 0 0 0 2487193.5572794634 2999510.7704617265 0 2999510.7704617265 1948651.5480557799 0 0 0 0 6718086.4954622984 6572552.274934411 0 6572552.274934411 3044358.1136312485 0 0 0 0 192139.90832233429 863279.54478263855 0 863279.54478263855 -248172.70784950256 0 0 0 0 4609607.0029129051 3445194.7100749486 0 3445194.7100749486 2076853.3958794831 0 0 0 0 6732531.615473032 7860170.9293403625 0 7860170.9293403625 -3126956.5279388428 0 0 0 0 1294954.6775959637 3503149.1612303881 0 3503149.1612303881 -1958736.5804270902 0 0 0 0 22095880.627098083 213093862.79134369 0 213093862.79134369 260054316.62222099 0 0 0 0 56408626.303254128 168636894.8346529 0 168636894.8346529 193216793.97806168 0 0 0 0 410519514.53856659 -200835899.00128365 0 -200835899.00128365 117083520.41631889 0 0 0 0 -47763291.674604416 134051470.18658638 0 134051470.18658638 869681295.5201149 0 0 0 0 -488943.67858572863 1777108.7245443538 0 1777108.7245443538 911186.43717010878 0 0 0 0 1252851.7425177116 777548.34712720988 0 777548.34712720988 -473496.39186246321 0 0 0 0 -466597126.2401886 -388976820.61098862 0 -388976820.61098862 939502154.91872025 0 0 0 0 1240814875.3472109 607134393.4778409 0 607134393.4778409 -502344959.78024101 0 0 0 0 1839393.1422424866 -1859783.2370316423 0 -1859783.2370316423 -655018.98947027139 0 0 0 0 722741773.78492737 851776745.1992979 0 851776745.1992979 -396138494.65248871 0 0 0 0 -104448778.42019272 470428305.86335564 0 470428305.86335564 224995649.90756989 0 0 0 0 359471455.08288956 -35352.50825381279 0 -35352.50825381279 -383212277.30133343 0 0 0 0 -77924520.610250473 -511518930.39387369 0 -511518930.39387369 596389935.94076204 0 0 0 0 219253143.84364319 241947666.08046532 0 241947666.08046532 -353041038.76806974 0 0 0 0 70280214.593288422 -190079220.9681673 0 -190079220.9681673 261419232.64305687 0 0 0 0 69190376.346405029 -96702341.816688538 0 -96702341.816688538 1253710348.1238365 0 0 0 0 447852580.67549038 -332976550.78873396 0 -332976550.78873396 129776281.44873619 0 0 0 0 81851369.395153046 116065857.35144782 0 116065857.35144782 -189886239.67799139 0 0 0 0 -23718546.57894516 -283556112.90285587 0 -283556112.90285587 199277057.58540368 0 0 0 0 -72219836.604892731 112005806.5020963 0 112005806.5020963 -263214032.97220659 0 0 0 0 62361.706044943421 -417144.21924010571 0 -417144.21924010571 -172939.96927614696 0 0 0 0 48009066.378005981 97182804.446374059 0 97182804.446374059 6614932.1250457764 0 0 0 0 2576457.1982069518 2752505.2234803545 0 2752505.2234803545 -1389037.9072396113 0 0 0 0 203255612.75396729 78562991.441728115 0 78562991.441728115 -320384695.77326822 0 0 0 0 81275666.686790943 -73572802.304916382 0 -73572802.304916382 -286568114.94704533 0 0 0 0 -230949638.43281364 61162886.348572671 0 61162886.348572671 102572271.31095743 0 0 0 0 -33450444.93353653 239657512.96377981 0 239657512.96377981 -235199067.0358907 0 0 0 0 67122979.286773682 -130214742.87167549 0 -130214742.87167549 145777259.78416204 0 0 0 0 995932.43092879839 1339454.6713267458 0 1339454.6713267458 -627254.19858641061 0 0 0 0 29311907.083694458 -9926649.4152207375 0 -9926649.4152207375 -26493694.06145668 0 0 0 0 24577884.682312012 -4671645.4103996754 0 -4671645.4103996754 -18594165.667174339 0 0 0 0 14926352.321250916 -10387560.300924778 0 -10387560.300924778 5944867.5642408133 0 0 0 0 2950496.7740941057 40990.525284713134 0 40990.525284713134 -1085563.8455191287 0 0 0 0 5264370.0271062851 1482161.3554686308 0 1482161.3554686308 -6233096.5267791748 0 0 0 0 378624599.72416782 78144263.138083518 0 78144263.138083518 -79513787.526420116 0 0 0 0 -102181261.92826843 -924137496.10873985 0 -924137496.10873985 147150499.94475651 0 0 0 0 3913545.1203496121 1346729.967611257 0 1346729.967611257 -1599063.1139134942 0 0 0 0 596819095.80368042 325612837.02697039 0 325612837.02697039 -172895176.9479084 0 0 0 0 2368453112.9112701 -1662050245.4900684 0 -1662050245.4900684 -109035566.88191414 0 0 0 0 696925252.96125793 624295539.50438499 0 624295539.50438499 652088377.08669662 0 0 0 0 127713421.8009491 -228851960.98556423 0 -228851960.98556423 2008644620.4769993 0 0 0 0 200130293.45558548 -129490002.78229332 0 -129490002.78229332 405119000.75618744 0 0 0 0 4298276.4848003387 142837179.21196413 0 142837179.21196413 -180468403.2991209 0 0 0 0 63973341.639381409 938888.31177282333 0 938888.31177282333 -31846286.417376995 0 0 0 0 343842031.44258118 -70038240.070380211 0 -70038240.070380211 -503967730.6720829 0 0 0 0 409185288.97875977 437575613.10431767 0 437575613.10431767 -171428221.39603519 0 0 0 0 508449022.29318237 424302289.09810638 0 424302289.09810638 -198703378.73458099 0 0 0 0 592801581.20121384 706347078.77345943 0 706347078.77345943 -317196285.70782471 0 0 0 0 437669155.99360657 380379200.48941231 0 380379200.48941231 -186736279.77951241 0 0 0 0 -80694903.568695068 -202261211.5649786 0 -202261211.5649786 214215089.25597 0 0 0 0 2621623.3961086227 -2712534.4856160823 0 -2712534.4856160823 1448813.5759328324 0 0 0 0 374614900.42688751 517049401.14193344 0 517049401.14193344 344599412.58063126 0 0 0 0 433610231.19769287 541597562.74621296 0 541597562.74621296 -745281419.97040272 0 0 0 0 285989026.87195778 101022575.48878473 0 101022575.48878473 -33770348.944155216 0 0 0 0 -123465201.19647217 49122639.198144913 0 49122639.198144913 133281839.34482288 0 0 0 0 48645974.890148163 718094123.47928047 0 718094123.47928047 -421576085.68828011 0 0 0 0 -58342925.247428894 16550459.867884874 0 16550459.867884874 136037210.72460875 0 0 0 0 155206143.07673645 5461593.9107297957 0 5461593.9107297957 -99683319.483220339 0 0 0 0 28035615.930655349 -7178186.8540144861 0 -7178186.8540144861 5373322.1859905515 0 0 0 0 -44269007.888381958 -235268813.05555248 0 -235268813.05555248 378036865.20322227 0 0 0 0 18552084.646459565 2610548.9231064292 0 2610548.9231064292 -9820570.3600208648 0 0 0 0 126538718.12338257 -76704580.918540955 0 -76704580.918540955 884851343.35240936 0 0 0 0 186539900.73435974 -46816702.752765656 0 -46816702.752765656 -167962495.20197105 0 0 0 0 -70140185.786422729 308744048.70907402 0 308744048.70907402 42040698.370456696 0 0 0 0 561939825.31954193 -377380589.81585884 0 -377380589.81585884 679349575.41259766 0 0 0 0 96802581.934110641 -94355917.158782959 0 -94355917.158782959 6709618.0653960705 0 0 0 0 -234399806.99919891 -182388976.0824604 0 -182388976.0824604 -79915177.327033997 0 0 0 0 -70230193.756057739 -219183567.01468277 0 -219183567.01468277 -862838804.99925232 0 0 0 0 -2167475.6619674936 -941640.70251681819 0 -941640.70251681819 1223486.3075299505 0 0 0 0 86615040.466865629 -33715452.656971939 0 -33715452.656971939 -9873138.3154671863 0 0 0 0 54512491.03326273 244404954.49421692 0 244404954.49421692 -28086404.478603363 0 0 0 0 295682878.47421265 -190365789.66186523 0 -190365789.66186523 -51647744.371490479 0 0 0 0 206091630.9132843 133428902.68169403 0 133428902.68169403 -883266930.71880341 0 0 0 0 286340142.54601479 -1019354388.2939465 0 -1019354388.2939465 1054801679.4181366 0 0 0 0 -123271481.8392334 258805596.34157562 0 258805596.34157562 748984897.43768311 0 0 0 0 -1334902395.8967285 1547953195.6684952 0 1547953195.6684952 -610652031.54322529 0 0 0 0 -2595088594.1517487 -429570699.41040039 0 -429570699.41040039 2385072491.7012024 0 0 0 0 171467529.63691711 139909682.18328857 0 139909682.18328857 522381172.68041611 0 0 0 0 63048265.396484375 264541108.747612 0 264541108.747612 504217545.81518745 0 0 0 0 -1451431.8548919484 3246243.2594048604 0 3246243.2594048604 5862305.0359442607 0 0 0 0 2612454611.0977783 -122195082.36270905 0 -122195082.36270905 -532936622.07455826 0 0 0 0 143128967.07510728 -1202805597.2136369 0 -1202805597.2136369 -284756733.00101471 0 0 0 0 1376965203.997467 -770969261.66054153 0 -770969261.66054153 244066198.1678009 0 0 0 0 1979387648.3847351 1121252213.7624168 0 1121252213.7624168 383704880.50595856 0 0 0 0 136201618.38708496 3143040972.2626266 0 3143040972.2626266 -1712908879.9394531 0 0 0 0 98855213.708057731 13218689.222319841 0 13218689.222319841 -28324163.348747253 0 0 0 0 70674874.152469531 -8247544.2623905493 0 -8247544.2623905493 837287.74138601869 0 0 0 0 443995.96059755236 -33127451.295694992 0 -33127451.295694992 17912927.302479148 0 0 0 0 -20981917.288719669 -13493770.198831212 0 -13493770.198831212 12099915.020168336 0 0 0 0 6535590859.9508057 -3972766318.3780365 0 -3972766318.3780365 2583086466.573822 0 0 0 0 36817408.86722751 -27326052.957555294 0 -27326052.957555294 5200312.9411033019 0 0 0 0 -49387092.5027771 -73123411.885826111 0 -73123411.885826111 -57142317.289367676 0 0 0 0 430164169.75350285 293322224.58030033 0 293322224.58030033 -75126038.544765472 0 0 0 0 -377731180.22538757 -283211839.11172867 0 -283211839.11172867 1073064197.91152 0 0 0 0 163247679.99813843 -66231453.735570908 0 -66231453.735570908 -334360520.82865334 0 0 0 0 180920847.0381546 240911145.98451614 0 240911145.98451614 -41620978.542251587 0 0 0 0 14743193.68170166 -39915431.88319397 0 -39915431.88319397 -44792791.212814331 0 0 0 0 46753460.877301171 -19442936.230787177 0 -19442936.230787177 4157595.6985341124 0 0 0 0 61500305.940765381 13821515.760814667 0 13821515.760814667 -72409115.613901138 0 0 0 0 -1618108.277856715 -778343.52681705728 0 -778343.52681705728 3512994.013621131 0 0 0 0 138474111.33618164 166377158.52681732 0 166377158.52681732 -338512036.01318097 0 0 0 0 67657687.652773783 3263648.4298476614 0 3263648.4298476614 -17288030.925273053 0 0 0 0 -1169744434.1463318 -636787753.26308632 0 -636787753.26308632 376248502.81362915 0 0 0 0 56526135.155440845 -20132700.053023938 0 -20132700.053023938 4741052.0541121326 0 0 0 0 -114136074.27128029 -19620376.337726116 0 -19620376.337726116 -65070258.975967407 0 0 0 0 -610843860.41595459 -18409452.807731628 0 -18409452.807731628 95088883.95880127 0 0 0 0 -36303487.358394623 61058364.310406685 0 61058364.310406685 92708874.309379578 0 0 0 0 -60867272.575042725 -3093707.2571258545 0 -3093707.2571258545 33990464.191543579 0 0 0 0 73999611.566818237 -65725992.533096313 0 -65725992.533096313 -66472196.302745819 0 0 0 0 -664552434.45205688 -160292471.66267395 0 -160292471.66267395 -4992640.962387085 0 0 0 0 38001754.44352866 -16615493.983361825 0 -16615493.983361825 11273533.808004018 0 0 0 0 -26865477.605743408 78316495.087783813 0 78316495.087783813 29269318.911376953 0 0 0 0 -123761693.19142151 -62669332.986865997 0 -62669332.986865997 16440763.69846344 0 0 0 0 -57114.370524510741 -171538.89410560951 0 -171538.89410560951 618009.4611716494 0 0 0 0 -120312697.73364258 48356436.423030853 0 48356436.423030853 63507746.511817932 0 0 0 0 17017027.572998047 130498864.23587036 0 130498864.23587036 -1943756198.5030289 0 0 0 0 -677888196.72399902 -174528138.10940552 0 -174528138.10940552 15731658.20072937 0 0 0 0 -473244158.98538208 -181791979.15380096 0 -181791979.15380096 -565733575.48771667 0 0 0 0 2887244.2403327525 -8725792.4209227525 0 -8725792.4209227525 -1542587.9219649369 0 0 0 0 -231467186.35644531 359773529.44789886 0 359773529.44789886 -552368121.17478943 0 0 0 0 -454984873.6192627 214586631.73539734 0 214586631.73539734 -552057228.46198273 0 0 0 0 -696235257.55200195 -154982891.76935577 0 -154982891.76935577 -765962331.32696533 0 0 0 0 -307382265.25494385 -309335170.91012573 0 -309335170.91012573 -1572488380.3814697 0 0 0 0 -238330612.98651123 24583863.362571716 0 24583863.362571716 -960120578.60559082 0 0 0 0 -39425634.781860352 209886481.99384308 0 209886481.99384308 -1348445674.6460266 0 0 0 0 -103341394.03741455 -86736093.561714172 0 -86736093.561714172 -1092313035.5908203 0 0 0 0 -193854540.05065918 42710785.858703613 0 42710785.858703613 -657765009.6121521 0 0 0 0 -245168994.31759644 -105231918.15638351 0 -105231918.15638351 -910814161.80020142 0 0 0 0 11392437.305541992 -14927375.632034302 0 -14927375.632034302 -790314675.13761902 0 0 0 0 -57497757.37512207 -89381014.761886597 0 -89381014.761886597 -851794382.39643312 0 0 0 0 -39215211.356689453 136943103.24719238 0 136943103.24719238 -979028607.91525269 0 0 0 0 -104053745.40966797 -7364722.6349182129 0 -7364722.6349182129 -853451530.48609877 0 0 0 0 378160348.381073 207966458.20163345 0 207966458.20163345 -419580395.28877258 0 0 0 0 -67071181.590332031 303611904.33535767 0 303611904.33535767 6864086.5096187592 0 0 0 0 95182760.721099854 225274012.75810242 0 225274012.75810242 -589950831.92537689 0 0 0 0 156802346.34881592 382383727.91304016 0 382383727.91304016 -250999549.12590027 0 0 0 0 405883234.91882324 300910178.79154968 0 300910178.79154968 -122708080.96997833 0 0 0 0 1043094527.1078186 283673888.13656616 0 283673888.13656616 -362787412.16211319 0 0 0 0 1259996369.9903564 -278534405.89029694 0 -278534405.89029694 -141443280.25989246 0 0 0 0 700675012.38668823 -151753569.89595795 0 -151753569.89595795 -122296924.06146812 0 0 0 0 7227849.2720802724 9348211.3548547253 0 9348211.3548547253 1366792.9140140899 0 0 0 0 292719872.65621185 -325626566.55616283 0 -325626566.55616283 402643425.71213531 0 0 0 0 6489088.0233214796 298272.79528632015 0 298272.79528632015 -2827009.3716885969 0 0 0 0 -155161689.01339722 222328422.31180239 0 222328422.31180239 994224930.04689026 0 0 0 0 1386591718.6018677 612173325.83953857 0 612173325.83953857 -42307656.756771088 0 0 0 0 374182922.4642334 315769053.39041519 0 315769053.39041519 -107747345.04482651 0 0 0 0 268016888.72357178 354119435.79114151 0 354119435.79114151 -75113368.13608551 0 0 0 0 231995789.96124268 303620423.09944534 0 303620423.09944534 7549516.0079689026 0 0 0 0 184972949.01501465 100210938.88523483 0 100210938.88523483 -38508330.526615143 0 0 0 0 429942965.08478546 -42665630.225514412 0 -42665630.225514412 -120365527.72233963 0 0 0 0 477418307.94573975 44503460.598272324 0 44503460.598272324 -28309303.880393028 0 0 0 0 427175882.44394684 287520851.32407761 0 287520851.32407761 -252965838.89857483 0 0 0 0 478771588.97357178 271727100.35174179 0 271727100.35174179 -248756081.5626297 0 0 0 0 237668834.56726074 420939117.25476837 0 420939117.25476837 -270087429.76622009 0 0 0 0 523240346.49763489 422098252.66823864 0 422098252.66823864 -396812616.84657288 0 0 0 0 -28646331.110961914 464734325.27081299 0 464734325.27081299 -368710407.49536896 0 0 0 0 238521455.30627441 412641606.10067368 0 412641606.10067368 -385591734.66873169 0 0 0 0 200640481.40057373 432861492.25897217 0 432861492.25897217 -249035780.43726349 0 0 0 0 34071863.280517578 401808821.66455078 0 401808821.66455078 -241495407.94029999 0 0 0 0 347737430.3719635 408470824.84259224 0 408470824.84259224 -268689294.60818481 0 0 0 0 -34958667.110839844 125642403.4881134 0 125642403.4881134 -660041386.42216849 0 0 0 0 -276929623.48883057 110415282.47979736 0 110415282.47979736 -409308746.12150574 0 0 0 0 18068289.465637207 177812277.1272049 0 177812277.1272049 -408185538.88596213 0 0 0 0 -78188300.719787598 220731877.07621002 0 220731877.07621002 -597703343.33673859 0 0 0 0 -175043036.53381348 255048896.5859375 0 255048896.5859375 -365709868.7696991 0 0 0 0 68759483.965942383 376930191.33191681 0 376930191.33191681 -358739320.23156166 0 0 0 0 72653977.794952393 327949518.75870132 0 327949518.75870132 -139446251.06266022 0 0 0 0 123183041.80377197 337475910.99131012 0 337475910.99131012 -238282349.04474831 0 0 0 0 -99720246.996398926 254408714.28803253 0 254408714.28803253 -264515345.36691284 0 0 0 0 82740017.90612793 222127864.73311424 0 222127864.73311424 -165650749.80836487 0 0 0 0 -17549345.376037598 214972480.50775909 0 214972480.50775909 -298610966.20962524 0 0 0 0 75205979.345397949 161007970.17850113 0 161007970.17850113 -271219444.60614014 0 0 0 0 174102948.47041321 92762901.364139557 0 92762901.364139557 -333621063.41998291 0 0 0 0 -10146237.186941147 36152120.96211195 0 36152120.96211195 -344631747.09188843 0 0 0 0 244517746.1770134 244803810.51178551 0 244803810.51178551 -163756135.19520569 0 0 0 0 238463808.23046875 196554703.02229691 0 196554703.02229691 -73331273.656204224 0 0 0 0 213685829.20870972 377956075.81869507 0 377956075.81869507 -39112722.498657227 0 0 0 0 234067802.36578369 345568960.94128036 0 345568960.94128036 -139725641.96949768 0 0 0 0 316253526.84701538 334681282.71090317 0 334681282.71090317 92104896.586387634 0 0 0 0 352190980.92651367 318229303.8507843 0 318229303.8507843 -16039980.190196991 0 0 0 0 442008948.38690186 284201908.41831589 0 284201908.41831589 -35611947.343605042 0 0 0 0 363430631.30508423 95040112.872099876 0 95040112.872099876 20137824.250854492 0 0 0 0 273678333.43798065 388503009.5366168 0 388503009.5366168 -58192485.186599731 0 0 0 0 228927106.18148804 452358003.20798874 0 452358003.20798874 -116607605.45604706 0 0 0 0 188620450.55914307 446566540.03266144 0 446566540.03266144 -32954319.270065308 0 0 0 0 214842536.83519745 386627591.32656384 0 386627591.32656384 -152006011.91003418 0 0 0 0 241080164.87878418 426607845.62916565 0 426607845.62916565 80972665.304603577 0 0 0 0 250966753.90396118 400488083.54920578 0 400488083.54920578 -14652468.218902588 0 0 0 0 226647416.94863892 445938160.89725113 0 445938160.89725113 47348205.943569183 0 0 0 0 166137090.64440918 359539571.31136703 0 359539571.31136703 111216184.65351486 0 0 0 0 174390837.80462646 386304103.40019846 0 386304103.40019846 145788428.80745697 0 0 0 0 195752255.79907227 472385782.67713356 0 472385782.67713356 307993087.46776581 0 0 0 0 125046432.87762451 336854294.99924469 0 336854294.99924469 256251855.64681911 0 0 0 0 73748030.649780273 311843418.29634476 0 311843418.29634476 224757812.22246933 0 0 0 0 448053135.39624023 440528047.66207504 0 440528047.66207504 81635571.482163429 0 0 0 0 430001440.46627808 266239457.63471222 0 266239457.63471222 114608688.13228607 0 0 0 0 633027871.22432709 235023078.49143267 0 235023078.49143267 232154322.47782898 0 0 0 0 610679833.78884888 370042936.38255119 0 370042936.38255119 154211684.86480713 0 0 0 0 1708480498.5265198 397752505.38709831 0 397752505.38709831 99865063.214179993 0 0 0 0 451944114.13648224 680349129.27979755 0 680349129.27979755 543762356.71555328 0 0 0 0 195744968.32022095 864911066.54002571 0 864911066.54002571 941092048.6473999 0 0 0 0 2849943.2671051323 -113703.64745212346 0 -113703.64745212346 -1494144.2741919849 0 0 0 0 -86717119.549957275 91346262.152296066 0 91346262.152296066 321132941.85471344 0 0 0 0 27324851.797058105 269679592.35793686 0 269679592.35793686 262761895.18327522 0 0 0 0 134596258.80447388 325847506.1432991 0 325847506.1432991 198885211.22912216 0 0 0 0 86412790.074310303 88847710.972950935 0 88847710.972950935 -127273282.93779755 0 0 0 0 36230251.248901367 92737317.56801796 0 92737317.56801796 58181968.27545929 0 0 0 0 5233338.7602844238 206367435.17594528 0 206367435.17594528 28287888.705730438 0 0 0 0 -12965679.17300415 67091056.148777008 0 67091056.148777008 -3196026.7155227661 0 0 0 0 -11696050.699699402 160236478.00830126 0 160236478.00830126 138330489.84352112 0 0 0 0 95987648.166351318 272578240.741642 0 272578240.741642 136646288.48039246 0 0 0 0 96221396.271118164 276225389.34025574 0 276225389.34025574 144270122.40856528 0 0 0 0 105437161.66216373 160325173.61710525 0 160325173.61710525 36831403.158840179 0 0 0 0 173661740.07691574 322134979.49211311 0 322134979.49211311 77487363.76599884 0 0 0 0 272337247.87371063 191768791.56255245 0 191768791.56255245 42506144.182918549 0 0 0 0 99216410.884780884 89650477.480298042 0 89650477.480298042 50595455.41254282 0 0 0 0 87727204.375473022 150182765.02549362 0 150182765.02549362 65358325.62178421 0 0 0 0 27789691.661682129 29728408.306035995 0 29728408.306035995 -187283604.72162247 0 0 0 0 24285135.621795654 170174303.90041161 0 170174303.90041161 -104343696.61136246 0 0 0 0 112839260.15533447 106607373.78776431 0 106607373.78776431 -379600622.98749924 0 0 0 0 -149305515.9524231 184432352.01290894 0 184432352.01290894 -44401161.86920929 0 0 0 0 23797160.044067383 150983537.91085052 0 150983537.91085052 -40482229.251041412 0 0 0 0 -14868894.213356018 54692029.419747829 0 54692029.419747829 -324568064.41561317 0 0 0 0 329396137.29437256 -176421605.61872292 0 -176421605.61872292 -483392718.22823882 0 0 0 0 -139604.83184814453 5965018.6998462677 0 5965018.6998462677 -15664980.664611816 0 0 0 0 5021705.0863321275 -1565829.1784250699 0 -1565829.1784250699 -4576922.949308644 0 0 0 0 304050778.26568604 218551596.7094574 0 218551596.7094574 -415239738.84114552 0 0 0 0 4061069.7764282227 56200090.20214653 0 56200090.20214653 -324577232.11305904 0 0 0 0 18617055.23739624 10994099.021766663 0 10994099.021766663 -24312934.708925247 0 0 0 0 7379273.0703528374 747406.54260951281 0 747406.54260951281 -1877814.7708336115 0 0 0 0 95995898.859985352 86858091.284860611 0 86858091.284860611 -381085938.19544899 0 0 0 0 1691655.9365119636 106362.20890056342 0 106362.20890056342 -1656330.0351714324 0 0 0 0 473563768.71807861 82646788.46398139 0 82646788.46398139 -32506567.235614419 0 0 0 0 -283783642.85235596 150566361.43051815 0 150566361.43051815 13143865.770890236 0 0 0 0 -297427580.57104492 -212581494.36524105 0 -212581494.36524105 -213351882.60056686 0 0 0 0 -524790654.21505737 81986775.456095695 0 81986775.456095695 65634209.308509827 0 0 0 0 327840005.79797363 -225618841.60973263 0 -225618841.60973263 -73810005.440947056 0 0 0 0 395099412.11181641 -39384584.098955154 0 -39384584.098955154 -186071059.30972385 0 0 0 0 618248705.43516922 -331094999.93256199 0 -331094999.93256199 -45300390.684070587 0 0 0 0 545321799.77880859 32498015.136388779 0 32498015.136388779 -283520791.87302589 0 0 0 0 771814297.18014026 -445899703.52852142 0 -445899703.52852142 118689952.18766499 0 0 0 0 775027336.91220093 -136637907.73760366 0 -136637907.73760366 -71689558.072613716 0 0 0 0 1001760802.7922821 -101151300.7093828 0 -101151300.7093828 174607532.88476992 0 0 0 0 242395491.30831909 -166477452.42854142 0 -166477452.42854142 211677646.08416319 0 0 0 0 591215189.42590332 -299359898.44297135 0 -299359898.44297135 549032656.33575296 0 0 0 0 208415740.2527771 -155423684.22769266 0 -155423684.22769266 237499373.72152352 0 0 0 0 -14569593.661956787 238207678.69481611 0 238207678.69481611 178943738.85869312 0 0 0 0 984933674.5328064 -952569788.23494244 0 -952569788.23494244 510732600.18702459 0 0 0 0 1190296650.9297791 -1036953503.7127304 0 -1036953503.7127304 404064807.54326439 0 0 0 0 1590020007.3069077 -768383615.93717468 0 -768383615.93717468 40146883.992646217 0 0 0 0 866330358.97441483 -456444450.26141989 0 -456444450.26141989 516182040.80868781 0 0 0 0 1232864020.9246521 -277591707.68338394 0 -277591707.68338394 170597576.54112482 0 0 0 0 1030681696.5649109 -299503170.32096672 0 -299503170.32096672 -108104344.23430347 0 0 0 0 911241894.81373978 -673666173.40192723 0 -673666173.40192723 97515637.485917091 0 0 0 0 1016323725.6065674 -801753886.95179129 0 -801753886.95179129 271504891.18475246 0 0 0 0 1080887979.4050598 -664663471.64725685 0 -664663471.64725685 8489986.1103286743 0 0 0 0 1055161548.088623 -901341006.07890844 0 -901341006.07890844 267979504.39733887 0 0 0 0 1086588637.5280457 -811724520.062603 0 -811724520.062603 181726304.74010849 0 0 0 0 1069996124.6964417 -626951624.3515892 0 -626951624.3515892 117583996.6218648 0 0 0 0 1063909738.5350952 -650086786.1886158 0 -650086786.1886158 39725941.776165009 0 0 0 0 728866035.80407715 -600033586.40608978 0 -600033586.40608978 143250170.04582024 0 0 0 0 516650223.90283203 -156980918.8547039 0 -156980918.8547039 -148535722.67061901 0 0 0 0 756890365.63110352 -576500801.79846191 0 -576500801.79846191 7002313.8791999817 0 0 0 0 742920334.51733398 -570150877.63771248 0 -570150877.63771248 78461964.714683533 0 0 0 0 683358285.03659058 -391710251.18918824 0 -391710251.18918824 -40470216.537509918 0 0 0 0 188075503.06307983 -520389520.01249313 0 -520389520.01249313 155392427.34552383 0 0 0 0 -73715417.937744141 -41609044.780748367 0 -41609044.780748367 120878953.11156273 0 0 0 0 -1351023.2584228516 6098943.0016517639 0 6098943.0016517639 -15570398.728399277 0 0 0 0 111631401.92071533 197553100.34985924 0 197553100.34985924 -188990533.5341835 0 0 0 0 633333933.37255859 -261686759.17617798 0 -261686759.17617798 220172118.91688633 0 0 0 0 587681242.67028809 -560451100.08769989 0 -560451100.08769989 120304469.14938354 0 0 0 0 5706187.1868914217 1135703.4479626343 0 1135703.4479626343 -788063.32162725553 0 0 0 0 28629464.237686157 277615962.10537529 0 277615962.10537529 -171204700.78665161 0 0 0 0 3825838.1999091357 -2391594.9278972186 0 -2391594.9278972186 -4758772.6320030559 0 0 0 0 12304961.717163086 256814131.64267349 0 256814131.64267349 -31826193.919343948 0 0 0 0 1373371340.8923721 -194276687.72426319 0 -194276687.72426319 483342156.86911392 0 0 0 0 1144044094.8768921 -752602203.57918358 0 -752602203.57918358 252445484.55834579 0 0 0 0 812530145.63665771 -461918829.14512634 0 -461918829.14512634 96098358.213171005 0 0 0 0 821818989.21185303 -1158156071.0680389 0 -1158156071.0680389 917677389.96686554 0 0 0 0 1787408698.3727932 -94113541.478445649 0 -94113541.478445649 419602702.44524765 0 0 0 0 1829496100.7382507 -442390264.93534851 0 -442390264.93534851 391330774.84250641 0 0 0 0 803722616.17468262 -254187616.08846092 0 -254187616.08846092 777162363.58753681 0 0 0 0 740373476.3430481 -252472260.63864517 0 -252472260.63864517 780646576.25783825 0 0 0 0 439699865.55393982 -356119580.10952759 0 -356119580.10952759 930074985.87936401 0 0 0 0 622179901.56877136 -433241055.97009897 0 -433241055.97009897 815231756.33926773 0 0 0 0 624573107.12211609 -706804323.79031706 0 -706804323.79031706 731453654.74411201 0 0 0 0 1022218046.7916565 -446319314.31188679 0 -446319314.31188679 303736799.80486012 0 0 0 0 991646777.99966431 -617332116.7144227 0 -617332116.7144227 401169120.18885422 0 0 0 0 859470722.34150696 -733727722.23365533 0 -733727722.23365533 459861462.32750511 0 0 0 0 866518454.11956787 -736782487.4085331 0 -736782487.4085331 307555045.61615276 0 0 0 0 553985357.96139526 -723778995.42497063 0 -723778995.42497063 461044103.32375163 0 0 0 0 606463230.57228088 -677549803.26405787 0 -677549803.26405787 414852849.79005444 0 0 0 0 773475425.57640076 -936421396.65270066 0 -936421396.65270066 491026473.23394549 0 0 0 0 988916581.88476562 -1027895840.6179898 0 -1027895840.6179898 529639311.78978121 0 0 0 0 626459196.99645996 -285755500.04031658 0 -285755500.04031658 82550004.100107133 0 0 0 0 404525350.59205627 -546473721.4643774 0 -546473721.4643774 452072250.0650835 0 0 0 0 671123396.07177734 -698500801.86974335 0 -698500801.86974335 431287961.48036301 0 0 0 0 1195131912.5535126 -451731871.66525877 0 -451731871.66525877 104940544.54537249 0 0 0 0 222809619.17139435 95424837.885377407 0 95424837.885377407 -7464011.5668783188 0 0 0 0 -1021255.9165553153 478041.49530225992 0 478041.49530225992 4016650.5353378067 0 0 0 0 741565042.02906036 -959147644.10534191 0 -959147644.10534191 1044159237.8794336 0 0 0 0 317982352.08756256 -448607638.45572138 0 -448607638.45572138 1408646012.1480598 0 0 0 0 482535807.03853607 -291472214.01302719 0 -291472214.01302719 869218718.62756348 0 0 0 0 301596561.65661621 -487402387.46670151 0 -487402387.46670151 720324269.29751587 0 0 0 0 206848356.72125244 -400698902.05578613 0 -400698902.05578613 401510517.34936142 0 0 0 0 98019046.156539917 -283021833.31673956 0 -283021833.31673956 597708929.25705338 0 0 0 0 391382850.39782715 -393126433.17314911 0 -393126433.17314911 517315948.80101776 0 0 0 0 313447814.9071579 -251034391.9938879 0 -251034391.9938879 164255690.66829681 0 0 0 0 253508721.70797729 -223716688.86655426 0 -223716688.86655426 384425485.51890564 0 0 0 0 405559743.26375198 -190116239.92685008 0 -190116239.92685008 705019202.49294281 0 0 0 0 513153925.94745636 -160609658.76849747 0 -160609658.76849747 851304755.18480682 0 0 0 0 394451241.90884399 -338160901.59925652 0 -338160901.59925652 944966721.68620968 0 0 0 0 555578791.68173218 -374055401.52968788 0 -374055401.52968788 713518495.37277222 0 0 0 0 691687203.68412781 -66596872.988349915 0 -66596872.988349915 422531443.95750427 0 0 0 0 923534172.57562256 114522635.65163803 0 114522635.65163803 1112162958.430748 0 0 0 0 960527720.67507935 -463662359.47063828 0 -463662359.47063828 967756095.16701031 0 0 0 0 575353955.27740479 -167042020.95155716 0 -167042020.95155716 363760210.86760712 0 0 0 0 464065312.12309265 -19272912.340234756 0 -19272912.340234756 230288223.16838837 0 0 0 0 533257583.29064941 -106713563.48586655 0 -106713563.48586655 92333506.668807983 0 0 0 0 823763550.34341431 12547261.147727013 0 12547261.147727013 96276476.863189697 0 0 0 0 483371930.49676514 153355110.49443436 0 153355110.49443436 44398716.062229156 0 0 0 0 525512396.38793945 -84942519.827877045 0 -84942519.827877045 81031390.454116821 0 0 0 0 464137465.37097168 -154268477.62257767 0 -154268477.62257767 386482296.95968246 0 0 0 0 359500964.60803223 -266123608.89482117 0 -266123608.89482117 334887067.80784225 0 0 0 0 313654516.37427902 -308408953.2011646 0 -308408953.2011646 178082266.39571381 0 0 0 0 324792674.5289917 -120537334.84845352 0 -120537334.84845352 99222910.773944855 0 0 0 0 330384293.2442379 -43614425.959524035 0 -43614425.959524035 -64430099.49597168 0 0 0 0 322569150.41759205 -222717548.08551574 0 -222717548.08551574 -66741991.153930664 0 0 0 0 218738451.71154785 -92488567.137062073 0 -92488567.137062073 -129913049.93499756 0 0 0 0 347706741.16778564 156954946.13946533 0 156954946.13946533 -71396918.717414856 0 0 0 0 351360017.93292236 -31807602.007270813 0 -31807602.007270813 -69850041.695983887 0 0 0 0 370036652.68670654 -160256968.63604736 0 -160256968.63604736 74904410.956169128 0 0 0 0 401391602.4901123 31733174.718261719 0 31733174.718261719 -5601243.2604751587 0 0 0 0 307515660.38458252 -132930914.95814133 0 -132930914.95814133 -183840836.78541565 0 0 0 0 258477108.55047607 61204385.175292969 0 61204385.175292969 -141058745.85466766 0 0 0 0 227090601.52874374 68436417.205607414 0 68436417.205607414 -134292790.4226532 0 0 0 0 172859255.77722168 137574521.13241959 0 137574521.13241959 -201753423.14304352 0 0 0 0 215404736.73473358 -22747325.295847893 0 -22747325.295847893 -246616852.06033325 0 0 0 0 209509816.65020752 65305133.707099915 0 65305133.707099915 -366055636.23745346 0 0 0 0 219492025.23769951 -100493040.45487237 0 -100493040.45487237 -408435247.64033508 0 0 0 0 92188232.172424316 11683794.511947632 0 11683794.511947632 -408929645.68338013 0 0 0 0 183976136.32409668 49221863.807739258 0 49221863.807739258 -642861350.34786987 0 0 0 0 79060194.451538086 -20637523.663406372 0 -20637523.663406372 -407692601.89868164 0 0 0 0 -2701839.1002197266 48408715.799873352 0 48408715.799873352 -550576896.18861389 0 0 0 0 130045183.61212158 57672027.7513237 0 57672027.7513237 -550113756.72518921 0 0 0 0 281522740.61888123 -211305242.79867172 0 -211305242.79867172 -236004895.86144257 0 0 0 0 157147433.87283325 -151932319.12802887 0 -151932319.12802887 -239366479.20822144 0 0 0 0 237624277.92370605 -172722410.2121582 0 -172722410.2121582 -275944112.76708984 0 0 0 0 214994250.63812256 -11624879.143997192 0 -11624879.143997192 -246517835.29378128 0 0 0 0 207290793.96885681 -104389208.70563507 0 -104389208.70563507 -556783200.77915192 0 0 0 0 186150687.32632446 -11568791.157806396 0 -11568791.157806396 -402683500.32328796 0 0 0 0 146091014.47434235 -217963224.23457527 0 -217963224.23457527 -201686604.11168671 0 0 0 0 211097646.39251709 -85619898.599124908 0 -85619898.599124908 -454519246.72540474 0 0 0 0 203712839.89208984 -168725866.36945724 0 -168725866.36945724 -179670534.4823637 0 0 0 0 172952005.25682068 -278222854.23029327 0 -278222854.23029327 -65993183.860214233 0 0 0 0 120964037.09736633 -285536601.71640587 0 -285536601.71640587 121135578.10161591 0 0 0 0 163212405.25350952 -254020410.34838963 0 -254020410.34838963 132292581.79875946 0 0 0 0 230882602.59732056 -151499676.44743729 0 -151499676.44743729 -67254082.637577057 0 0 0 0 219415165.10275269 -311017678.93200684 0 -311017678.93200684 133060967.30398941 0 0 0 0 -68773906.715667725 -103676453.7644043 0 -103676453.7644043 321340545.48731232 0 0 0 0 22042333.253982544 -176212737.28551865 0 -176212737.28551865 30090451.732913971 0 0 0 0 5443032.704788208 -284304413.84051895 0 -284304413.84051895 320164786.79175568 0 0 0 0 20031244.241958618 -181408784.81552124 0 -181408784.81552124 165662528.54615402 0 0 0 0 81511947.299316406 -346437491.16394424 0 -346437491.16394424 398245238.28771973 0 0 0 0 39852362.147613525 -118369228.3678627 0 -118369228.3678627 -146156343.88484955 0 0 0 0 113156354.84628296 -228681324.45498657 0 -228681324.45498657 -205734690.33116913 0 0 0 0 -25586832.34173584 -188655972.37643814 0 -188655972.37643814 32639526.885082245 0 0 0 0 2289488.7313537598 -134580346.50409889 0 -134580346.50409889 -146997064.96266174 0 0 0 0 -112069644.85211945 -205539668.57784653 0 -205539668.57784653 11002584.529407501 0 0 0 0 23298719.124007888 -15656134.090154007 0 -15656134.090154007 25770344.201293685 0 0 0 0 23057531.496505737 -5542961.332085371 0 -5542961.332085371 -42813706.042067058 0 0 0 0 -268660668.99983215 59736533.851844519 0 59736533.851844519 335741537.77918541 0 0 0 0 -66038055.081449032 -184770378.36808616 0 -184770378.36808616 333459627.71899033 0 0 0 0 -73243379.588470459 -12728906.423397064 0 -12728906.423397064 -45692846.716287136 0 0 0 0 -258376519.12904358 -46387183.830873489 0 -46387183.830873489 1034747545.5321274 0 0 0 0 -121078512.17919922 262291409.38944817 0 262291409.38944817 506321735.07751703 0 0 0 0 -56837918.099456787 122130896.29521537 0 122130896.29521537 -101479222.68097687 0 0 0 0 16605958.141382538 -12489293.365727067 0 -12489293.365727067 19786322.763114356 0 0 0 0 -238284801.5302124 -76870707.621000767 0 -76870707.621000767 225994439.30774879 0 0 0 0 366849626.37052917 464589166.91353416 0 464589166.91353416 1457722503.3942623 0 0 0 0 3028267.2828143239 -8169563.7963693626 0 -8169563.7963693626 4431.6892194142565 0 0 0 0 -322950046.97393799 204661079.74389172 0 204661079.74389172 1648631410.0479469 0 0 0 0 -34170922.113830566 -421250634.47362423 0 -421250634.47362423 2663519855.3870993 0 0 0 0 -308634488.27319336 -35605818.423709869 0 -35605818.423709869 1037419685.2425249 0 0 0 0 -404873797.00447083 -231704799.97468662 0 -231704799.97468662 1082814136.9645386 0 0 0 0 -393932607.82579041 -54067602.877502441 0 -54067602.877502441 1403177561.831192 0 0 0 0 -140523296.54663086 -204560778.8724556 0 -204560778.8724556 391076697.98232269 0 0 0 0 -142382629.44577026 -196037023.57621193 0 -196037023.57621193 545787736.01939392 0 0 0 0 -257168095.42645931 -15292184.975229979 0 -15292184.975229979 814202485.80904007 0 0 0 0 140440003.03479767 -319808146.34207916 0 -319808146.34207916 407923036.45830917 0 0 0 0 -34781092.765525818 -423075081.56253147 0 -423075081.56253147 808303872.42265701 0 0 0 0 -392424330.97645569 -369975917.91980743 0 -369975917.91980743 894625955.69018841 0 0 0 0 -783664312.04075623 -765454410.40775108 0 -765454410.40775108 1307227124.9102321 0 0 0 0 103769838.99624634 -726075029.09117007 0 -726075029.09117007 1146009151.3339748 0 0 0 0 -570870085.31221771 -201577218.3607434 0 -201577218.3607434 1125138555.5671539 0 0 0 0 -473608833.91087341 -384417272.21677542 0 -384417272.21677542 1441593096.5770569 0 0 0 0 -499082917.85308838 -694814204.44938803 0 -694814204.44938803 802329123.18283653 0 0 0 0 -1245689863.3988495 -381938302.27827179 0 -381938302.27827179 1104867833.9429991 0 0 0 0 -557286406.08395386 -221628688.02941269 0 -221628688.02941269 -120693046.44834135 0 0 0 0 -277640761.86972427 -831566060.19324756 0 -831566060.19324756 -1339975002.7272148 0 0 0 0 -516325172.47648621 -883847940.03544807 0 -883847940.03544807 -282557077.53646779 0 0 0 0 2483309.1567872763 -1385367.9839879721 0 -1385367.9839879721 4680113.3137260517 0 0 0 0 -87314907.280349731 -44384405.619430184 0 -44384405.619430184 105900810.32021618 0 0 0 0 789194987.43273163 166459449.71833038 0 166459449.71833038 -903236880.42654228 0 0 0 0 -638875476.0200882 -770586612.77517223 0 -770586612.77517223 425108676.03882575 0 0 0 0 556978634.98143005 -707135936.91067886 0 -707135936.91067886 320532957.96232152 0 0 0 0 611380570.99406433 -404377440.02063817 0 -404377440.02063817 597403641.48997486 0 0 0 0 2218506573.5113831 -880966948.59175611 0 -880966948.59175611 -286691431.34855437 0 0 0 0 -464890336.46316528 -478844537.86830568 0 -478844537.86830568 1307643688.5707307 0 0 0 0 -246824099.74209595 -179425458.81812859 0 -179425458.81812859 1216443596.2411683 0 0 0 0 239074299.78398514 -802575107.60275733 0 -802575107.60275733 2226307797.0751467 0 0 0 0 278950506.46417236 -729258980.68372631 0 -729258980.68372631 1736311557.0253067 0 0 0 0 522041397.10404968 -442508971.84292316 0 -442508971.84292316 1982485043.8985796 0 0 0 0 2037791488.8200378 -1018483506.385541 0 -1018483506.385541 2027609551.7436931 0 0 0 0 2095265293.5942535 -1511490815.6032791 0 -1511490815.6032791 2013101929.3903227 0 0 0 0 2532505595.0589447 -1210158663.0480094 0 -1210158663.0480094 1443708269.8500299 0 0 0 0 3007913436.4906464 -1725802189.0957122 0 -1725802189.0957122 1904064254.3068089 0 0 0 0 2060406961.9628906 -1330828139.2014971 0 -1330828139.2014971 2818945121.1457729 0 0 0 0 3323004506.7195778 -1896569276.1080527 0 -1896569276.1080527 1167100856.1681211 0 0 0 0 1641454232.5335846 -823515279.29089665 0 -823515279.29089665 1223558310.0609114 0 0 0 0 1619524835.9745331 -1270270763.4827249 0 -1270270763.4827249 1231253368.584815 0 0 0 0 2208446308.2175751 -1013127002.7483926 0 -1013127002.7483926 168532054.47038257 0 0 0 0 2680700601.3302155 -877749155.04086864 0 -877749155.04086864 43050127.290617585 0 0 0 0 3889689973.26577 -869735700.82799578 0 -869735700.82799578 -897320280.14672804 0 0 0 0 3843258912.5215836 -1030848136.3612812 0 -1030848136.3612812 -1114409442.0300117 0 0 0 0 5285492096.3475723 -1521849750.4700603 0 -1521849750.4700603 -1285517084.6950748 0 0 0 0 4961001234.7723999 -1899458550.0584378 0 -1899458550.0584378 -334137074.49172878 0 0 0 0 4318092553.2534866 -1475993570.3612652 0 -1475993570.3612652 -263935166.00875661 0 0 0 0 6613141305.706337 -2487112882.8340726 0 -2487112882.8340726 -647374179.42638266 0 0 0 0 3334028805.9890137 -2643305165.0323033 0 -2643305165.0323033 2790507300.8067307 0 0 0 0 6618850014.3361282 -3414903562.475759 0 -3414903562.475759 984592932.18543708 0 0 0 0 4628184100.6291046 -2044630217.7255044 0 -2044630217.7255044 116134886.70309848 0 0 0 0 2404002737.5549164 -2277751162.6714716 0 -2277751162.6714716 2732214507.8866634 0 0 0 0 6597141016.6149054 -5955482355.333951 0 -5955482355.333951 5940008348.7915459 0 0 0 0 11323529.143951327 -7084347.8943602759 0 -7084347.8943602759 4141577.0235833963 0 0 0 0 916854776.11302185 885531445.02300155 0 885531445.02300155 298914613.50444263 0 0 0 0 2522741052.9404621 -1820283661.9887347 0 -1820283661.9887347 2970927599.3482981 0 0 0 0 1558412087.9321289 -2145522263.634409 0 -2145522263.634409 2996419554.9895229 0 0 0 0 1327445881.6458588 -1659556781.8600998 0 -1659556781.8600998 3587863866.4863319 0 0 0 0 4221191.9517397843 -1716891.4978606664 0 -1716891.4978606664 -466340.62519580871 0 0 0 0 -17936456.793762207 575268077.45497322 0 575268077.45497322 3424558173.5515132 0 0 0 0 24819374.66130963 -7081259.7879411858 0 -7081259.7879411858 3347023.5748049412 0 0 0 0 -11748541.220840454 -117331010.70935674 0 -117331010.70935674 -249464949.19455656 0 0 0 0 -130772366.46538162 -372469455.99318242 0 -372469455.99318242 194574282.62829471 0 0 0 0 -263138476.01130676 38049100.9408364 0 38049100.9408364 249380657.68730751 0 0 0 0 370423032.48854065 136094066.44521207 0 136094066.44521207 -198295174.02652213 0 0 0 0 -43197520.763202667 -102246582.47785044 0 -102246582.47785044 11174383.793825805 0 0 0 0 -184402654.59103394 68775730.528411657 0 68775730.528411657 190588253.02557793 0 0 0 0 1020750.2484099716 -449786.3877812149 0 -449786.3877812149 -122897.73540359836 0 0 0 0 -20352782.137786865 -20105663.418475062 0 -20105663.418475062 23613080.050308585 0 0 0 0 20234417.266677856 -11193912.655807078 0 -11193912.655807078 -27644113.681595162 0 0 0 0 2869521.4063002318 -2247820.0581743666 0 -2247820.0581743666 -615294.66386565124 0 0 0 0 -3955017.51512146 -7823076.2568403482 0 -7823076.2568403482 -3121102.0006268024 0 0 0 0 441163140.00486755 367941984.57427126 0 367941984.57427126 -342895599.02569026 0 0 0 0 5816826.8996753246 5503064.8210428637 0 5503064.8210428637 6496838.2602097848 0 0 0 0 7490023.0253589675 3313360.14796005 0 3313360.14796005 5494779.6573661398 0 0 0 0 19833860.442596436 -9884485.3474058304 0 -9884485.3474058304 54637650.854736157 0 0 0 0 569814.08494743705 -1788997.7823497688 0 -1788997.7823497688 3505944.0052912855 0 0 0 0 6546432434.6782227 -1996474.5063335067 0 -1996474.5063335067 -2407911.6850822559 0 0 0 0 6374317123.6109009 335899314.58613682 0 335899314.58613682 -302912947.82631636 0 0 0 0 1242540317.3267365 -3183723116.1826048 0 -3183723116.1826048 709255569.1557045 0 0 0 0 3506238.8766390122 1976558.67974912 0 1976558.67974912 3122888.8471703576 0 0 0 0 6584224633.8404446 -1630773527.6008182 0 -1630773527.6008182 -895116328.25661194 0 0 0 0 4229133197.3977585 232797398.13168815 0 232797398.13168815 -84612279.167315841 0 0 0 0 772070899.01197147 901896999.87180257 0 901896999.87180257 490478845.65081108 0 0 0 0 -120647444.10870743 -440094502.59110653 0 -440094502.59110653 503106232.24432957 0 0 0 0 -252666561.25572014 -32339523.63140231 0 -32339523.63140231 670707668.48591805 0 0 0 0 5688900650.6654663 -509593400.78380179 0 -509593400.78380179 848013427.94893372 0 0 0 0 5071887474.0492249 -34727612.088727176 0 -34727612.088727176 1124131881.469986 0 0 0 0 5858551375.872406 485406308.01051766 0 485406308.01051766 447582869.43583554 0 0 0 0 6617373892.9968872 34494336.684118949 0 34494336.684118949 573962148.91959631 0 0 0 0 4466096117.0305481 762232124.8525759 0 762232124.8525759 508459444.81528753 0 0 0 0 5031186122.027359 37484513.363096714 0 37484513.363096714 373991260.36016488 0 0 0 0 4477055262.8248901 -199697877.67189637 0 -199697877.67189637 799280962.39930236 0 0 0 0 5624640682.1292267 -1182589708.267899 0 -1182589708.267899 91262235.385812849 0 0 0 0 5776854918.8580322 -800845305.73653817 0 -800845305.73653817 768701181.13322079 0 0 0 0 6072265221.8585968 -1642180273.4579716 0 -1642180273.4579716 -588971005.96702302 0 0 0 0 1467479.0686597228 -2070587.2267413959 0 -2070587.2267413959 2110084.9220250901 0 0 0 0 7547467009.1106873 -1754612573.3532314 0 -1754612573.3532314 421273583.68821144 0 0 0 0 6245613881.0925903 -1590282595.6439102 0 -1590282595.6439102 1341461988.2314115 0 0 0 0 7489429867.367218 -1829142293.8306813 0 -1829142293.8306813 839335545.0484271 0 0 0 0 5505363396.2917328 -559063088.86692631 0 -559063088.86692631 1070317397.5994792 0 0 0 0 6942498784.7652893 -798133364.00457525 0 -798133364.00457525 1049305941.7725434 0 0 0 0 6987173385.410141 134037697.86557508 0 134037697.86557508 1547193297.5991619 0 0 0 0 5784854658.6674347 -433007243.71204031 0 -433007243.71204031 1433226495.6276305 0 0 0 0 7959299832.3021469 -2138262053.2846694 0 -2138262053.2846694 534833296.91670704 0 0 0 0 8154866.1059538722 -347058.68367478624 0 -347058.68367478624 -1668099.7329144985 0 0 0 0 40235700.046142578 33606909.995839119 0 33606909.995839119 54366117.654338837 0 0 0 0 6747868284.509285 -1211475229.5834072 0 -1211475229.5834072 377907419.5480094 0 0 0 0 8707095482.684967 -729688583.50624299 0 -729688583.50624299 471407837.78655732 0 0 0 0 3285542508.5184708 1958897046.4877024 0 1958897046.4877024 1181584113.2365751 0 0 0 0 6792183336.87883 -342002452.95274305 0 -342002452.95274305 -723756517.03568721 0 0 0 0 5860538150.6828156 -1476863696.6545188 0 -1476863696.6545188 1725543781.6030602 0 0 0 0 6040479121.5455608 -1141285366.1262856 0 -1141285366.1262856 -20520391.945540637 0 0 0 0 5806504170.7586823 -356709078.48037612 0 -356709078.48037612 1115966132.4019871 0 0 0 0 5917869244.0657196 -301446755.93668771 0 -301446755.93668771 710639111.08143485 0 0 0 0 6053670593.8785248 -768382253.98099053 0 -768382253.98099053 926164233.93277586 0 0 0 0 6613444129.7328262 -739836384.88199484 0 -739836384.88199484 -76028414.347303376 0 0 0 0 6201253461.7351074 -1196687121.7929082 0 -1196687121.7929082 -394314069.87159693 0 0 0 0 6286575302.4216919 -872745691.65129232 0 -872745691.65129232 -635214723.24554443 0 0 0 0 5629256730.3030853 -1158943277.9824851 0 -1158943277.9824851 -741385722.45145845 0 0 0 0 6614853416.6195908 -1020791979.497951 0 -1020791979.497951 -1077234111.1836822 0 0 0 0 6020450233.8130493 -1243479874.7491958 0 -1243479874.7491958 -1481923975.1207321 0 0 0 0 6358974454.3976669 -1346895154.1781678 0 -1346895154.1781678 -1485428070.8150828 0 0 0 0 5328702992.7150879 -1503636289.2162235 0 -1503636289.2162235 -1221229276.5011561 0 0 0 0 6031145739.3316803 -1678975710.964004 0 -1678975710.964004 -1349092981.7507622 0 0 0 0 6614971407.6219864 -1466081950.3267167 0 -1466081950.3267167 -1641784636.6793106 0 0 0 0 3583757901.7588348 -1300679783.000201 0 -1300679783.000201 -1007399732.6844304 0 0 0 0 2533538608.491127 -308692306.08431292 0 -308692306.08431292 -821779771.12993336 0 0 0 0 3646702645.350174 -1138535427.2186627 0 -1138535427.2186627 -805253037.82594192 0 0 0 0 5207516268.7440128 -855806916.28448391 0 -855806916.28448391 -1322756560.0184278 0 0 0 0 4090438944.3137207 -1092817274.3190181 0 -1092817274.3190181 -1035782424.1713948 0 0 0 0 3935537533.5255594 63080845.976658821 0 63080845.976658821 -746253498.50563574 0 0 0 0 2678303037.9728394 -324107235.31315076 0 -324107235.31315076 -558081144.38086605 0 0 0 0 5791946782.8809414 -695342911.9945488 0 -695342911.9945488 -1193104725.832772 0 0 0 0 5974588177.3322544 -656697142.14785099 0 -656697142.14785099 -18810693.836478651 0 0 0 0 5376352506.3020172 -1211122287.7855349 0 -1211122287.7855349 -444804269.88290298 0 0 0 0 4810709704.5116577 743923061.97552955 0 743923061.97552955 -1051057974.8238645 0 0 0 0 1841707168.6892395 976936752.36840606 0 976936752.36840606 80731105.164390266 0 0 0 0 141493350.9354248 -4932892.7832050323 0 -4932892.7832050323 -136796421.70366323 0 0 0 0 90857350.881408691 40428364.670497417 0 40428364.670497417 93836369.169536591 0 0 0 0 140210226.3649292 133852095.57291794 0 133852095.57291794 -163815587.06411934 0 0 0 0 81518997.905517578 -91270422.132709026 0 -91270422.132709026 -47074417.611919403 0 0 0 0 14692496.249195293 -12005278.286411412 0 -12005278.286411412 -508488.56622313103 0 0 0 0 16033377.713256836 -72964485.282198191 0 -72964485.282198191 -22494893.551521301 0 0 0 0 349873708.98004913 -308795019.41235173 0 -308795019.41235173 82900034.12776947 0 0 0 0 -471540846.82971954 -447839563.6838429 0 -447839563.6838429 -25011677.385989904 0 0 0 0 1864773322.3788452 -960392209.39108896 0 -960392209.39108896 -713087488.87465954 0 0 0 0 1416937009.821476 165366407.16632837 0 165366407.16632837 -90354099.896891117 0 0 0 0 1712299190.702774 -1259488067.0537519 0 -1259488067.0537519 -1386294584.1628742 0 0 0 0 -207670256.90708923 27287607.556792498 0 27287607.556792498 -2469588.3170173168 0 0 0 0 17389313.195431009 -6264968.8899814207 0 -6264968.8899814207 -3628996.2100189649 0 0 0 0 15981299.205337524 -9304433.159596324 0 -9304433.159596324 27438053.651535988 0 0 0 0 21939784.123397827 106600133.38267994 0 106600133.38267994 -63350706.658605099 0 0 0 0 348990.7510124743 -7475700.6079017222 0 -7475700.6079017222 -1077007.4211889319 0 0 0 0 13748671.21182251 7141518.6987075806 0 7141518.6987075806 -7130695.1253452301 0 0 0 0 13248761.818358362 -11803745.275224663 0 -11803745.275224663 2413245.5157668814 0 0 0 0 35837010.398017883 7254654.7154168487 0 7254654.7154168487 -10273938.3647964 0 0 0 0 4442664.0124206543 -5974474.9248790741 0 -5974474.9248790741 -4738530.1832590103 0 0 0 0 27525448.741363525 -1417488.6768732071 0 -1417488.6768732071 -24156697.805764198 0 0 0 0 16298296.081420898 -1924270.8440403938 0 -1924270.8440403938 -20033909.223696232 0 0 0 0 -10884663.162750244 -7930124.6607212424 0 -7930124.6607212424 -19273086.91639328 0 0 0 0 15115845.036132812 -2272051.5483217239 0 -2272051.5483217239 -14970368.401665688 0 0 0 0 12861428.102783203 141981.76446771622 0 141981.76446771622 -17093077.602530956 0 0 0 0 13904085.211700439 -4573679.4424130917 0 -4573679.4424130917 -19221164.384165764 0 0 0 0 28771105.903991699 -4472884.2510871887 0 -4472884.2510871887 -23782325.484889984 0 0 0 0 121289210.4596405 47548580.836244583 0 47548580.836244583 -3039231.5817642212 0 0 0 0 26090432.634010315 35599790.48327589 0 35599790.48327589 -4886282.8966217041 0 0 0 0 6836.0550129264593 -92390.267809568904 0 -92390.267809568904 -12172.709562679462 0 0 0 0 -138808.34996311367 -277072.40874796361 0 -277072.40874796361 112457.43770141457 0 0 0 0 47301029.368530273 -59333959.924443245 0 -59333959.924443245 10713942.711426735 0 0 0 0 14020331.955566406 20083666.42276001 0 20083666.42276001 44941518.195480347 0 0 0 0 -1438222.9457654804 -1432204.5167955756 0 -1432204.5167955756 219996.89303135898 0 0 0 0 -6513379.6011962891 17197289.525920033 0 17197289.525920033 -4969549.0149755478 0 0 0 0 -4198586.0609436035 -4500240.1657681465 0 -4500240.1657681465 -4011523.1816355884 0 0 0 0 -752019.80248042941 -1165150.1100026444 0 -1165150.1100026444 870742.51861929591 0 0 0 0 -1165232.0481334776 -665573.42276892811 0 -665573.42276892811 763978.84182298882 0 0 0 0 44403647.895126343 -9527482.6930294037 0 -9527482.6930294037 5948757.9105062485 0 0 0 0 -4415295.2739257812 -4667662.8411178589 0 -4667662.8411178589 -3290866.7860984802 0 0 0 0 139784617.1071167 -41356644.738990307 0 -41356644.738990307 8017081.2880878448 0 0 0 0 61591852.903625488 -39939608.917099953 0 -39939608.917099953 23077235.548715591 0 0 0 0 1289009.0996440798 -630745.43857906759 0 -630745.43857906759 -65936.185690453975 0 0 0 0 -96177.0185546875 -1244791.2685937881 0 -1244791.2685937881 -2148411.0476732254 0 0 0 0 -1327438.0157203823 -8129734.9075712049 0 -8129734.9075712049 -184738.50115157728 0 0 0 0 -8159716.6997425556 -17710808.523391884 0 -17710808.523391884 -9452911.1956810951 0 0 0 0 526020.56295776367 -6690398.7954564095 0 -6690398.7954564095 -8210635.0290994644 0 0 0 0 3392889.7044540644 116491.62725643814 0 116491.62725643814 -348749.84952205 0 0 0 0 -949634.61938476562 -2430256.635887146 0 -2430256.635887146 -3626420.2092895508 0 0 0 0 601675.44488753378 51559.68927616626 0 51559.68927616626 -139643.57170661539 0 0 0 0 -644198.00163821876 -4035778.9159117313 0 -4035778.9159117313 189959.31406557231 0 0 0 0 -8515655.642791748 -2216850.7866988331 0 -2216850.7866988331 -24579387.76793766 0 0 0 0 5674120.427585125 -3407982.9066589326 0 -3407982.9066589326 -755126.86818462936 0 0 0 0 1861631.2063293457 -9350641.4626822472 0 -9350641.4626822472 -5184843.0539088249 0 0 0 0 1497409.5616855845 -4544818.952537097 0 -4544818.952537097 -1994317.5730430195 0 0 0 0 -9710487.4947052002 -8681870.7072763443 0 -8681870.7072763443 -2264914.5461864471 0 0 0 0 -1591413.8537597656 -17090690.676487684 0 -17090690.676487684 8457300.0204181671 0 0 0 0 12334007.647644043 -18609283.310012817 0 -18609283.310012817 7924178.5636566877 0 0 0 0 -6078096.9516906738 -24897318.367143154 0 -24897318.367143154 -14475592.942681789 0 0 0 0 75716215.048736572 -67249419.602712631 0 -67249419.602712631 -6750301.8005990982 0 0 0 0 -35771083.802886963 -54138283.388245463 0 -54138283.388245463 101563016.43758583 0 0 0 0 -14239438.331817627 -5601180.4449341297 0 -5601180.4449341297 17332309.703100204 0 0 0 0 -1846201.9504055977 -1145870.2994392812 0 -1145870.2994392812 1084749.7752292149 0 0 0 0 19025054.077575684 -50427837.102609634 0 -50427837.102609634 -8242499.9431209564 0 0 0 0 -550326.30797091126 -214624.55018979311 0 -214624.55018979311 424693.61870031036 0 0 0 0 -2618628.0725708008 -5470697.4339604378 0 -5470697.4339604378 -4886195.8721289635 0 0 0 0 -58229473.846588135 44439839.138332129 0 44439839.138332129 3509486.0376663208 0 0 0 0 44053795.549621582 -71374204.065235615 0 -71374204.065235615 82728782.391717911 0 0 0 0 87823252.428894043 213035368.58486938 0 213035368.58486938 44975364.700741768 0 0 0 0 -45642773.414581299 -19715090.389498711 0 -19715090.389498711 302283086.13498878 0 0 0 0 -288348.57804200053 -385749.03072073311 0 -385749.03072073311 340508.37898252322 0 0 0 0 124071494.90124512 227035243.72157001 0 227035243.72157001 -96904965.596953869 0 0 0 0 62333759.381896973 -86060477.310301781 0 -86060477.310301781 45677490.516293526 0 0 0 0 39525156.361938477 -5610529.7725315094 0 -5610529.7725315094 -459293.90972900391 0 0 0 0 17625752.136897281 -11099241.601663001 0 -11099241.601663001 -5654210.6255563069 0 0 0 0 59095735.818908691 19287975.497716904 0 19287975.497716904 -145669370.69964951 0 0 0 0 -35130450.080078125 -94092331.066781044 0 -94092331.066781044 43342195.067568779 0 0 0 0 7365826.6165789999 -194497.46444562078 0 -194497.46444562078 -883791.36905430106 0 0 0 0 9899206.0108642578 -2215244.1081142426 0 -2215244.1081142426 -3233054.6768894196 0 0 0 0 25017763.119815797 276301.09296709299 0 276301.09296709299 -8397844.298505811 0 0 0 0 57407323.589813232 6357203.4469227791 0 6357203.4469227791 32875981.05670166 0 0 0 0 7735936.739643909 -12444732.0698497 0 -12444732.0698497 3656817.7101328475 0 0 0 0 12500384.090189707 -2980780.2773584649 0 -2980780.2773584649 -2205843.1155008557 0 0 0 0 33112141.681396484 45715943.204881668 0 45715943.204881668 -78870109.972599804 0 0 0 0 80784757.322998047 -2509516.2695612907 0 -2509516.2695612907 -84311386.811665535 0 0 0 0 17574280.542554989 -10495461.135110062 0 -10495461.135110062 -8880950.1809665859 0 0 0 0 59573600.794891357 9869506.966296196 0 9869506.966296196 -47223359.755041122 0 0 0 0 2010689.7966918945 -55990901.561132431 0 -55990901.561132431 -19246882.637178421 0 0 0 0 82141024.965698242 29610744.21118784 0 29610744.21118784 -251703551.76782894 0 0 0 0 49718868.371459961 -14509543.657932281 0 -14509543.657932281 -19933496.172608137 0 0 0 0 1505221508.8940582 -1819807045.5438161 0 -1819807045.5438161 2187910901.6946201 0 0 0 0 -6089282.8200836182 -61221178.057879686 0 -61221178.057879686 -35367746.229658127 0 0 0 0 8787974.4870819077 -4326584.5492086634 0 -4326584.5492086634 2267382.6518082838 0 0 0 0 14917245.944549561 -75581737.474035025 0 -75581737.474035025 -122122639.4812355 0 0 0 0 92499731.004119873 -152011804.51422143 0 -152011804.51422143 -85579499.604185581 0 0 0 0 95573004.551696777 -161371012.77712536 0 -161371012.77712536 -303751943.33725929 0 0 0 0 112477186.69609833 -100379585.26655996 0 -100379585.26655996 -421006735.39377427 0 0 0 0 -13057158.069152832 43066508.978394508 0 43066508.978394508 -57168985.917359352 0 0 0 0 50207435.45022583 266787962.62303436 0 266787962.62303436 -307239108.33448386 0 0 0 0 -47266944.376068115 179299854.07969809 0 179299854.07969809 -341993955.44491953 0 0 0 0 294128784.79849243 72365392.057158709 0 72365392.057158709 -713943026.62494993 0 0 0 0 14492899.113746762 -7732744.4919167804 0 -7732744.4919167804 -7008442.3261778969 0 0 0 0 -214388.58873672783 2080309.5476007569 0 2080309.5476007569 -1291487.0766545464 0 0 0 0 22253393.124130249 -14553826.817672491 0 -14553826.817672491 -9343879.5568223 0 0 0 0 16082577.544326782 -9206523.6760770082 0 -9206523.6760770082 2231504.1985969543 0 0 0 0 9735373.9303131104 -32097172.006576538 0 -32097172.006576538 -24828215.654640198 0 0 0 0 15695661.737733662 -5202110.5115920492 0 -5202110.5115920492 -6571206.725223029 0 0 0 0 18638386.497772217 -7853762.9076766968 0 -7853762.9076766968 -27473911.945539474 0 0 0 0 4553148.6279907227 9381636.3622405529 0 9381636.3622405529 -35947980.451890945 0 0 0 0 4842122.2965545654 24270573.547128201 0 24270573.547128201 15777184.791063309 0 0 0 0 -15710428.345565796 10605201.386901855 0 10605201.386901855 11675569.468738556 0 0 0 0 2724636.1329865754 -5346357.0829594806 0 -5346357.0829594806 -1034748.9314580029 0 0 0 0 6727270.5277846754 -3055755.8345669955 0 -3055755.8345669955 -2272470.3829042595 0 0 0 0 43573029.273071289 7951423.6670804024 0 7951423.6670804024 -475810.76882082224 0 0 0 0 4329782.523817271 -593890.50244517438 0 -593890.50244517438 -1007519.7250990639 0 0 0 0 34585208.197235107 -26519990.400360107 0 -26519990.400360107 -45874678.718939364 0 0 0 0 38224978.931121826 85754335.307129383 0 85754335.307129383 79008630.775590688 0 0 0 0 234572593.4302063 334133144.30493784 0 334133144.30493784 462648301.03787243 0 0 0 0 1558764.3892329186 -66915.652380933985 0 -66915.652380933985 -254425.07738901081 0 0 0 0 74675600.794139862 -128632143.70106891 0 -128632143.70106891 88824774.101102829 0 0 0 0 89378562.286911011 25042512.618400574 0 25042512.618400574 2283960.3406887054 0 0 0 0 22029996.486207962 -23482606.663382709 0 -23482606.663382709 45830268.224252701 0 0 0 0 208993788.29748535 12452405.043444633 0 12452405.043444633 11428543.986699581 0 0 0 0 473322281.1506958 -96339872.540863037 0 -96339872.540863037 -44765215.33648634 0 0 0 0 223013529.80992508 -32252689.916162848 0 -32252689.916162848 -57357839.84967804 0 0 0 0 17520163.737945557 -43376303.063360214 0 -43376303.063360214 347615.83285236359 0 0 0 0 18136898.776702881 16712769.457707882 0 16712769.457707882 48065301.60398531 0 0 0 0 35791674.846099854 -16387624.274933577 0 -16387624.274933577 -15057691.601817131 0 0 0 0 7268357.1349182129 -33898165.924774647 0 -33898165.924774647 13683965.640115738 0 0 0 0 -2595961.553527832 -17906429.036177158 0 -17906429.036177158 -6765512.9233207703 0 0 0 0 25579657.345428467 -5768295.053563118 0 -5768295.053563118 10940089.815377057 0 0 0 0 -4679521.0382385254 1489935.8840327263 0 1489935.8840327263 40009651.848203659 0 0 0 0 -5317303.276763916 -4797012.2568502426 0 -4797012.2568502426 -4317122.7476763725 0 0 0 0 -8594291.2369384766 -12525219.800024033 0 -12525219.800024033 10760315.164029121 0 0 0 0 -3188275.2713623047 -22544058.383255005 0 -22544058.383255005 -5448990.670463562 0 0 0 0 -126626.05910645425 -5404338.6332949288 0 -5404338.6332949288 -1272391.0760682344 0 0 0 0 1743026.8141784668 -13750038.053339481 0 -13750038.053339481 -17116771.521320343 0 0 0 0 5496691.7524108887 -20812973.726912975 0 -20812973.726912975 -34506496.256634712 0 0 0 0 -8111085.9096069336 -30851926.050971985 0 -30851926.050971985 -606152.09477305412 0 0 0 0 -6561585.2545776367 -4545084.4044628143 0 -4545084.4044628143 -17370176.52472496 0 0 0 0 -4316188.2835083008 -28830004.767066002 0 -28830004.767066002 -15589665.955490112 0 0 0 0 -376706.45362854004 -9323615.8191617727 0 -9323615.8191617727 -17711226.783390284 0 0 0 0 2754954.7135900706 -3208844.2667894773 0 -3208844.2667894773 73929.937595427968 0 0 0 0 37058812.086975098 -12263315.317153931 0 -12263315.317153931 -32313305.917082787 0 0 0 0 8792516.7273593694 -82000.751181006432 0 -82000.751181006432 -1275040.288555505 0 0 0 0 12416836.209686279 6181648.6263620853 0 6181648.6263620853 -22262655.047750473 0 0 0 0 -21427464.354675293 23573403.018127441 0 23573403.018127441 10486096.941191196 0 0 0 0 15470510.990600586 -4280834.2377691269 0 -4280834.2377691269 -11840622.304764271 0 0 0 0 3119454.4312912673 -2185296.5750461631 0 -2185296.5750461631 -150337.59921580635 0 0 0 0 6291534.2718662918 -2003172.4993392825 0 -2003172.4993392825 81145.325622875011 0 0 0 0 1265932.4832611084 -7586095.7872093916 0 -7586095.7872093916 -10978628.123229027 0 0 0 0 -268809.91528320312 -6727789.5735654831 0 -6727789.5735654831 -11185098.17247963 0 0 0 0 970016.93703186512 683023.8420441784 0 683023.8420441784 -286176.80517809582 0 0 0 0 -2754370.4388427734 -5389842.2485103607 0 -5389842.2485103607 -46209912.493329525 0 0 0 0 1136996.9377225935 510299.89966087043 0 510299.89966087043 -211649.55232450273 0 0 0 0 2790520.5376434326 -28096621.046683788 0 -28096621.046683788 -35249333.903709412 0 0 0 0 20975229.49621582 12616241.463184357 0 12616241.463184357 -9037990.0405769348 0 0 0 0 8535255.2714233398 -12360034.8303442 0 -12360034.8303442 -43830881.70759964 0 0 0 0 -29546869.477722168 -15824958.378918648 0 -15824958.378918648 -15750034.726945877 0 0 0 0 10071511.834991455 15805662.101219177 0 15805662.101219177 -5927464.4416663498 0 0 0 0 -27353197.780151367 -1900385.5852575302 0 -1900385.5852575302 -37226943.12858963 0 0 0 0 -3709344.7987060547 -18783392.853916168 0 -18783392.853916168 -26385155.217778206 0 0 0 0 47520021.779968262 -18161389.579349041 0 -18161389.579349041 -18749578.402209401 0 0 0 0 7362889.6422119141 -56090707.968475103 0 -56090707.968475103 -16700214.343183875 0 0 0 0 -13544003.000030518 -60157911.649421334 0 -60157911.649421334 -13875484.371826172 0 0 0 0 -41386623.429351807 -8838327.8549056053 0 -8838327.8549056053 -18204363.186862946 0 0 0 0 -8338201.6828155518 -10106315.638814211 0 -10106315.638814211 18063018.794643879 0 0 0 0 234597.84121754766 145856.21421708912 0 145856.21421708912 51585.92047113576 0 0 0 0 190203.85221001506 154504.03977986798 0 154504.03977986798 21125.414701639209 0 0 0 0 -8070142.6545410156 -17225248.9658041 0 -17225248.9658041 22857601.303972244 0 0 0 0 41179878.203857422 17897252.217659473 0 17897252.217659473 -11972054.797372818 0 0 0 0 33801250.217071533 -19615270.87030673 0 -19615270.87030673 -19530325.867314339 0 0 0 0 27010106.290588379 4678158.3900337219 0 4678158.3900337219 -13289135.336711884 0 0 0 0 19815584.392059326 -9933501.786806345 0 -9933501.786806345 21993966.258954048 0 0 0 0 10649590.693627894 -5148838.5638279468 0 -5148838.5638279468 -1895669.3569716346 0 0 0 0 232037111.12471008 -42667301.540988922 0 -42667301.540988922 -110362875.55032253 0 0 0 0 38385113.136077881 -80169427.168794155 0 -80169427.168794155 148029035.48707199 0 0 0 0 177697139.2986145 -705672213.08620429 0 -705672213.08620429 846875237.77397966 0 0 0 0 694509439.61627197 -994285451.63935375 0 -994285451.63935375 987208699.99890518 0 0 0 0 312378564.95780182 -586059699.04868531 0 -586059699.04868531 515131429.52399635 0 0 0 0 17473187.158966064 -288838252.98519802 0 -288838252.98519802 403351686.8246479 0 0 0 0 166885445.93331909 115048926.07106972 0 115048926.07106972 -50603854.614112854 0 0 0 0 5522676.7891599685 -8334221.4318993986 0 -8334221.4318993986 -1630580.0277033518 0 0 0 0 -614221.92669677734 -14004958.575409651 0 -14004958.575409651 -2258543.7411427498 0 0 0 0 23424459.864082336 -13504417.21520254 0 -13504417.21520254 -16276014.017655373 0 0 0 0 -38791146.604675293 -19658378.390023232 0 -19658378.390023232 -16832550.916200638 0 0 0 0 703977.61356806755 464207.58238747716 0 464207.58238747716 -445764.32420158188 0 0 0 0 14385721.207763672 -2532229.1305627823 0 -2532229.1305627823 -8108013.4735450745 0 0 0 0 12170053.767604977 -1079326.6599563733 0 -1079326.6599563733 -2060703.7745270685 0 0 0 0 -239312939.42320251 -107587585.26973462 0 -107587585.26973462 1456419641.5009613 0 0 0 0 -474646354.32897949 -464596423.62081528 0 -464596423.62081528 -510855427.46317339 0 0 0 0 341135.50775498152 -893731.36310631782 0 -893731.36310631782 -383593.55369306216 0 0 0 0 -51619901.710662842 -178010852.24703646 0 -178010852.24703646 -196353984.780159 0 0 0 0 -241375193.20892334 -56169937.358024597 0 -56169937.358024597 204125342.57320023 0 0 0 0 218999210.25 34952882.584434032 0 34952882.584434032 36431538.00888443 0 0 0 0 -71048215.736236572 7008105.4194111824 0 7008105.4194111824 117581296.38719225 0 0 0 0 -44179230.956939697 -56493999.71432972 0 -56493999.71432972 -44408778.836326599 0 0 0 0 -67115687.823059082 -34987566.017136574 0 -34987566.017136574 42770071.973613739 0 0 0 0 -54277574.725158691 -5703629.3427729607 0 -5703629.3427729607 22127429.419954538 0 0 0 0 -54421883.74118042 382801.50023603439 0 382801.50023603439 34020988.605986595 0 0 0 0 40749708.954772949 -14504608.759034395 0 -14504608.759034395 -89590717.635926723 0 0 0 0 1184.2733093649149 -1843728.4386682017 0 -1843728.4386682017 -549461.56523619709 0 0 0 0 257158089.94381714 -12636858.230839729 0 -12636858.230839729 -17666226.617004871 0 0 0 0 189002925.40403748 173717303.15291715 0 173717303.15291715 31402250.431497574 0 0 0 0 81393.234226465225 -516444.27365844231 0 -516444.27365844231 -161071.3448041481 0 0 0 0 823128977.9046936 97889160.694124699 0 97889160.694124699 -81663894.968181849 0 0 0 0 817039986.92245483 -52771512.036817074 0 -52771512.036817074 51576646.932893753 0 0 0 0 800905265.94488525 -306098426.49322319 0 -306098426.49322319 -1778874.563357085 0 0 0 0 1780798756.2032394 -619382109.51761043 0 -619382109.51761043 27688654.431821823 0 0 0 0 1345523143.7259674 69980684.721856713 0 69980684.721856713 -137193103.70979214 0 0 0 0 653108797.37026978 254446501.07509422 0 254446501.07509422 -775736.61866855621 0 0 0 0 156336825.16606903 158847957.23529482 0 158847957.23529482 111655923.91180801 0 0 0 0 1196460703.6226196 9986112.3340973854 0 9986112.3340973854 -7118829.3510303497 0 0 0 0 1135083472.0565491 464336379.13323832 0 464336379.13323832 43228236.636241913 0 0 0 0 -25886444.612060547 471145219.89169466 0 471145219.89169466 240689959.25689697 0 0 0 0 1452914505.6134338 476083313.92368937 0 476083313.92368937 87985838.544418097 0 0 0 0 3973266.9853245318 -4516841.9085989203 0 -4516841.9085989203 1102801.6457436983 0 0 0 0 202921576.05560303 -736812304.28878212 0 -736812304.28878212 2304974654.7883396 0 0 0 0 91476237.342437744 193452975.82186508 0 193452975.82186508 510744495.09557509 0 0 0 0 1877037723.3045807 -1898459903.0016491 0 -1898459903.0016491 2735927069.9521346 0 0 0 0 2891718747.2219849 -303576160.72771597 0 -303576160.72771597 -87466700.359299064 0 0 0 0 2344590220.2651439 251308666.90298575 0 251308666.90298575 1054595434.3602595 0 0 0 0 1467290036.8834839 -509070738.3670187 0 -509070738.3670187 484086857.77460647 0 0 0 0 690975868.41769409 -1443453874.4362459 0 -1443453874.4362459 2026483444.917038 0 0 0 0 2295112032.641119 -1551263620.4145274 0 -1551263620.4145274 753751023.34478092 0 0 0 0 495026813.04858398 -518301344.42193413 0 -518301344.42193413 714969369.82804298 0 0 0 0 387027625.21032715 104206688.1781593 0 104206688.1781593 605532529.51267433 0 0 0 0 487719067.29788208 -480914382.86909032 0 -480914382.86909032 1670011860.4873338 0 0 0 0 1117620232.4663391 111017226.81421351 0 111017226.81421351 868570260.75127959 0 0 0 0 1361154605.5510712 -897394252.03126442 0 -897394252.03126442 793565551.7502737 0 0 0 0 168816123.64479065 -330795030.62822855 0 -330795030.62822855 826374299.55226803 0 0 0 0 696785254.71529388 -825716103.28603816 0 -825716103.28603816 697680682.6715827 0 0 0 0 855794534.91461182 -644576729.00203919 0 -644576729.00203919 406296505.8231926 0 0 0 0 1032981894.0871277 -940759275.20441771 0 -940759275.20441771 887329226.61941767 0 0 0 0 829442384.79492188 -666792169.45926642 0 -666792169.45926642 408520639.27444911 0 0 0 0 807949314.30880737 -623557737.98710084 0 -623557737.98710084 322010289.7928381 0 0 0 0 1065444973.1412354 -274264432.21670556 0 -274264432.21670556 237120347.87304401 0 0 0 0 1912776996.9848881 -769453269.76161814 0 -769453269.76161814 290031454.71899748 0 0 0 0 -592427171.25190735 138446465.22080708 0 138446465.22080708 77608945.265278816 0 0 0 0 386000.73716137558 -386943.03597257286 0 -386943.03597257286 159124.55809921771 0 0 0 0 1038459721.5488968 -464762628.34912217 0 -464762628.34912217 -14277871.08809185 0 0 0 0 561525885.25065613 -20225456.681351185 0 -20225456.681351185 -29768249.856653214 0 0 0 0 371783258.2371521 65074364.231014729 0 65074364.231014729 -38255814.839146674 0 0 0 0 452442634.40841675 67917962.317290306 0 67917962.317290306 -141697506.57143784 0 0 0 0 334146213.51654053 -345359279.00893497 0 -345359279.00893497 19088422.095065594 0 0 0 0 781179982.82089233 -104289049.11409187 0 -104289049.11409187 -169333496.87092495 0 0 0 0 455564469.59963989 4672271.7532281876 0 4672271.7532281876 -205333476.81780529 0 0 0 0 382915546.32756042 -339056638.84403849 0 -339056638.84403849 190124883.15296459 0 0 0 0 586136030.54946899 -363881655.53988504 0 -363881655.53988504 53728263.528480053 0 0 0 0 196642451.71592712 193336283.74304271 0 193336283.74304271 499740386.17482185 0 0 0 0 -524738238.46003723 123066627.59740067 0 123066627.59740067 157521673.2426582 0 0 0 0 710361.44309207052 -1846625.041293934 0 -1846625.041293934 340188.09114152938 0 0 0 0 1599385575.0827408 -390472499.79911393 0 -390472499.79911393 212945710.9843092 0 0 0 0 22952781.35124588 -200796513.98532593 0 -200796513.98532593 -7217627.6774349213 0 0 0 0 -32514136.578125 -46916937.018892288 0 -46916937.018892288 -89831203.165424824 0 0 0 0 8310955.2747802734 -190828419.38574755 0 -190828419.38574755 -39727341.074579239 0 0 0 0 882798.21436183155 -3733408.7865503058 0 -3733408.7865503058 257188.4566321224 0 0 0 0 -396662403.96803284 -97015808.075183511 0 -97015808.075183511 70271068.130784988 0 0 0 0 1864971689.3348198 -22121136.011374056 0 -22121136.011374056 -202139173.17870045 0 0 0 0 -71483740.694213867 -271589989.62482166 0 -271589989.62482166 81458032.071825504 0 0 0 0 101768171.42153931 -151699526.64064384 0 -151699526.64064384 -75597732.329589844 0 0 0 0 110961598.76443481 -180757922.45325899 0 -180757922.45325899 15294846.630021095 0 0 0 0 220240707.01277161 62699833.60218215 0 62699833.60218215 -85454356.042989731 0 0 0 0 786415375.72842407 144045426.59315431 0 144045426.59315431 -79055247.938129425 0 0 0 0 404909580.80522156 -142684896.71586204 0 -142684896.71586204 -157963952.38428116 0 0 0 0 137921338.18777466 -61409355.040560246 0 -61409355.040560246 -170418302.78396845 0 0 0 0 176694858.64355469 -165579541.77154255 0 -165579541.77154255 -120003724.36429882 0 0 0 0 77315384.33757019 -113082934.44678521 0 -113082934.44678521 -138937434.50742912 0 0 0 0 549982.71734905243 561126.86187088117 0 561126.86187088117 -93271.519699660887 0 0 0 0 38518027.377655029 67370710.339281082 0 67370710.339281082 -149499750.96455956 0 0 0 0 147419906.10151672 54346881.22550559 0 54346881.22550559 -168702806.2928009 0 0 0 0 -27553840.72833252 -29635686.673918724 0 -29635686.673918724 -127799387.17993927 0 0 0 0 75994679.168151855 -33032646.108473778 0 -33032646.108473778 -136331905.42144585 0 0 0 0 39229327.485641479 56854383.165701866 0 56854383.165701866 -161143567.45100021 0 0 0 0 1542330.4495479017 1099946.2809753409 0 1099946.2809753409 -94107.751103382732 0 0 0 0 -33354551.420928955 117206174.74305332 0 117206174.74305332 -57927897.551480293 0 0 0 0 2754059.5715304762 -210108.41187752038 0 -210108.41187752038 -1795023.4204512192 0 0 0 0 5688873.0693054199 -15599341.449406147 0 -15599341.449406147 -22351645.01099968 0 0 0 0 20421366.288482666 36369602.861762524 0 36369602.861762524 131099614.12743235 0 0 0 0 57289927.222595215 68170697.619457245 0 68170697.619457245 -39742815.049414396 0 0 0 0 40642794.272331238 -93872985.962618828 0 -93872985.962618828 -4193290.3384847641 0 0 0 0 87848403.041137695 -72481810.559761047 0 -72481810.559761047 -22159755.647016525 0 0 0 0 16068284.097869873 -18073452.007371187 0 -18073452.007371187 -27699386.315028191 0 0 0 0 149314615.82128906 53315113.871523857 0 53315113.871523857 9084567.8549785614 0 0 0 0 83739025.121368408 -116131685.69988537 0 -116131685.69988537 -144414065.7774744 0 0 0 0 101149360.18817139 -65723917.896714687 0 -65723917.896714687 -87726509.52149117 0 0 0 0 1284334.1946164258 -5385029.456475094 0 -5385029.456475094 807551.90662595956 0 0 0 0 -140343338.03555298 -10294451.710614204 0 -10294451.710614204 96314192.083240032 0 0 0 0 2194378569.7605057 -332829131.41860795 0 -332829131.41860795 -495053053.69670105 0 0 0 0 2516133.9858513549 -5694473.0075139925 0 -5694473.0075139925 1358692.36302709 0 0 0 0 1028807301.3478241 -680125716.03879249 0 -680125716.03879249 1371923366.326231 0 0 0 0 -35272007.221725464 -44107645.832129717 0 -44107645.832129717 -16302687.433237553 0 0 0 0 12585211.060590088 -465306.45243147574 0 -465306.45243147574 -1548066.6405993856 0 0 0 0 45252763.985473633 -21548050.68373692 0 -21548050.68373692 -58612778.111334562 0 0 0 0 26896514.188201904 377851.13079558313 0 377851.13079558313 -50208648.852727175 0 0 0 0 669104.37283325195 7060097.123384878 0 7060097.123384878 -9319598.4451264963 0 0 0 0 -29093118.920715332 44567123.875578031 0 44567123.875578031 -48406340.40892309 0 0 0 0 2171866.1242300458 -1243329.27296298 0 -1243329.27296298 -286678.7676564065 0 0 0 0 36369209.612483978 49196828.259042211 0 49196828.259042211 -115619330.65056866 0 0 0 0 50352880.484916687 -9296157.7076208293 0 -9296157.7076208293 -46248716.379838943 0 0 0 0 39097758.317871094 -30068521.196608745 0 -30068521.196608745 -65957585.871683873 0 0 0 0 38230896.363311768 -64962205.609194383 0 -64962205.609194383 -12428.045496854036 0 0 0 0 130514153.27442932 -16721125.863783017 0 -16721125.863783017 -110117874.34519783 0 0 0 0 93260179.025421143 -74766820.718863696 0 -74766820.718863696 -35350787.763913028 0 0 0 0 -44965419.802246094 -30578096.841487449 0 -30578096.841487449 -45271.992685901299 0 0 0 0 -35834961.567359924 -35248229.583458811 0 -35248229.583458811 926524.04448157549 0 0 0 0 -21164759.5677948 -7866983.0306560285 0 -7866983.0306560285 11375770.349100634 0 0 0 0 9865759.1898193359 -41979913.726802431 0 -41979913.726802431 -18267091.354771048 0 0 0 0 2550630.1100158691 -48763086.390301853 0 -48763086.390301853 -7895527.6495121066 0 0 0 0 38981445.624387264 -45276252.835891061 0 -45276252.835891061 -20161397.903185725 0 0 0 0 12933587.925598145 -26796681.645529911 0 -26796681.645529911 -32805091.110657275 0 0 0 0 10554039.178527832 -21720735.355971836 0 -21720735.355971836 -7919691.2888973057 0 0 0 0 -1577621.895111084 -24476374.970697612 0 -24476374.970697612 1859316.2709334567 0 0 0 0 -10318951.743530273 -9315784.7211450599 0 -9315784.7211450599 2364979.8348824084 0 0 0 0 4808249.4122772217 -7358172.7278953865 0 -7358172.7278953865 -1282580.6924566329 0 0 0 0 10989530.398132324 -2345770.5533515289 0 -2345770.5533515289 -2895984.725410074 0 0 0 0 7998934.7921600342 -11606187.603545878 0 -11606187.603545878 -13365507.504694372 0 0 0 0 13401067.938781738 -5852020.4585917741 0 -5852020.4585917741 -7431537.4837519079 0 0 0 0 21079625.626266479 -10859896.148106493 0 -10859896.148106493 -19838300.921904892 0 0 0 0 10771742.677295029 359844.94380086102 0 359844.94380086102 -598449.61558623309 0 0 0 0 -12054754.63873291 35194385.140568018 0 35194385.140568018 -42119083.739859104 0 0 0 0 9021377.4862365723 -5280649.970437631 0 -5280649.970437631 -6842043.6560098678 0 0 0 0 6121844.7096037567 -1518152.1477060467 0 -1518152.1477060467 -183446.23587651551 0 0 0 0 3342962.1288757324 165425.22709238529 0 165425.22709238529 -2103432.508528471 0 0 0 0 5832526.4027984738 -513665.4828392379 0 -513665.4828392379 -516752.1881852462 0 0 0 0 13534703.758544922 -257026.57737827301 0 -257026.57737827301 -13371944.711221457 0 0 0 0 3546117.8323669434 -295009.02570432425 0 -295009.02570432425 -1453989.0895042419 0 0 0 0 3004328.1498413086 -136662.61410933733 0 -136662.61410933733 3093.8150622844696 0 0 0 0 3569703.5611572266 -908421.35521921515 0 -908421.35521921515 335806.30978298187 0 0 0 0 3357426.5278511047 -172720.86231851578 0 -172720.86231851578 -258990.79686117172 0 0 0 0 4483835.7788085938 -6719440.1692178324 0 -6719440.1692178324 2529008.1900140233 0 0 0 0 5691680.8182144165 -3631304.4684436861 0 -3631304.4684436861 808936.88304072618 0 0 0 0 3944306.6282653809 -6982806.1487363577 0 -6982806.1487363577 -531326.9431938976 0 0 0 0 3055388.6137695312 -2235285.3668159246 0 -2235285.3668159246 4687119.0095005035 0 0 0 0 3942469.1222571135 -1136571.6754603237 0 -1136571.6754603237 1047118.5813468694 0 0 0 0 3613906.7887878418 -727242.10070222616 0 -727242.10070222616 625688.26794147491 0 0 0 0 3594491.5153503418 -842595.89085423946 0 -842595.89085423946 12248.268072128296 0 0 0 0 3302687.9219581932 -1488307.5340468846 0 -1488307.5340468846 1388681.4379219892 0 0 0 0 1026455.4216510653 -1157902.8880282938 0 -1157902.8880282938 144800.39297276293 0 0 0 0 3962396.633850053 -800967.00797172636 0 -800967.00797172636 -403934.27178665227 0 0 0 0 3471589.9589271545 -406295.32551643008 0 -406295.32551643008 336.09293184488342 0 0 0 0 3957444.0068359375 -500701.53326131299 0 -500701.53326131299 -10376.501903747732 0 0 0 0 4108120.9876403809 -1252516.6434954284 0 -1252516.6434954284 519434.33854689798 0 0 0 0 249210.92085389793 -318197.50339291245 0 -318197.50339291245 104204.82198988007 0 0 0 0 373677.73114013672 -8118741.2340062605 0 -8118741.2340062605 -14539863.700280137 0 0 0 0 13397349.366851807 -4994016.3518033996 0 -4994016.3518033996 -1312.5034556908263 0 0 0 0 11839663.848022461 -4233822.3235724717 0 -4233822.3235724717 191482.93371657934 0 0 0 0 3982523.1403808594 -1336128.2146520615 0 -1336128.2146520615 -720674.07110238075 0 0 0 0 14921608.075592041 -4103589.6805258137 0 -4103589.6805258137 -853791.23667347431 0 0 0 0 20482609.239746094 -2278611.4535872294 0 -2278611.4535872294 -2563732.933601927 0 0 0 0 5345700.4880086239 -660694.79431182146 0 -660694.79431182146 -964502.26115467912 0 0 0 0 8035881.9393483996 -1513718.4373215213 0 -1513718.4373215213 48717.175386953226 0 0 0 0 12606124.31237793 -3155582.5697230091 0 -3155582.5697230091 -244525.41326194629 0 0 0 0 7939624.9928351343 -1076125.9247596934 0 -1076125.9247596934 1131729.1675089721 0 0 0 0 11447250.288787842 -5405622.7090951884 0 -5405622.7090951884 2110370.9701308301 0 0 0 0 12002367.590187073 -4680952.6183825834 0 -4680952.6183825834 -69942.940707331523 0 0 0 0 7738085.2230128646 -2346137.1595497131 0 -2346137.1595497131 1472961.5546469577 0 0 0 0 4594860.277469635 -148405.41904988885 0 -148405.41904988885 -249799.44163894653 0 0 0 0 4374959.9398498535 -727959.16388511658 0 -727959.16388511658 -48871.545795440674 0 0 0 0 2869376.3942246982 -2211979.283531554 0 -2211979.283531554 51361.39417403494 0 0 0 0 15412979.326477051 1360665.0928237438 0 1360665.0928237438 -1222642.2106618881 0 0 0 0 3821721.7005310059 2648805.5767955184 0 2648805.5767955184 3456204.991809845 0 0 0 0 3518071.7715148926 176212.62372851372 0 176212.62372851372 -199721.78176277876 0 0 0 0 30549546.107666016 -2372881.9867067337 0 -2372881.9867067337 -11606300.16735363 0 0 0 0 1692471.1547698895 -2017820.5193166435 0 -2017820.5193166435 1094021.7152812202 0 0 0 0 19840861.571166992 -6264267.952381134 0 -6264267.952381134 2875369.6898750067 0 0 0 0 26133127.266113281 182429.93820810318 0 182429.93820810318 -12089634.355504513 0 0 0 0 31866148.383544922 -12158155.647733688 0 -12158155.647733688 14201792.386177063 0 0 0 0 -4440295.3637542725 -3512398.9867664576 0 -3512398.9867664576 1693060.147008419 0 0 0 0 6823561.635941565 -3209669.1928886697 0 -3209669.1928886697 1783190.3748085806 0 0 0 0 2485333.29296875 9890301.4116826057 0 9890301.4116826057 -8085536.5703573227 0 0 0 0 72771061.241210938 -11073382.273245811 0 -11073382.273245811 338060718.42167664 0 0 0 0 -166919051.09006119 74418127.07672286 0 74418127.07672286 308765385.2482338 0 0 0 0 -154841089.72654724 -14474819.395931065 0 -14474819.395931065 3232709.4845752716 0 0 0 0 -167890073.2923584 -50254944.858170748 0 -50254944.858170748 375361915.26408005 0 0 0 0 -32457231.89453125 117343919.0063467 0 117343919.0063467 236076754.11640835 0 0 0 0 -265052455.4079895 -6012215.3189525604 0 -6012215.3189525604 170680187.19065809 0 0 0 0 -534116476.48395538 833282260.28713107 0 833282260.28713107 606108932.15335846 0 0 0 0 -149257731.49215698 59561277.557732344 0 59561277.557732344 -936435684.56861782 0 0 0 0 -839335643.21923828 -62928128.381743431 0 -62928128.381743431 433126848.37616348 0 0 0 0 255320160.72299194 131089618.19003963 0 131089618.19003963 401176217.86916471 0 0 0 0 508904.06865736842 428737.78826677054 0 428737.78826677054 -17318.786916953046 0 0 0 0 156387031.66871643 974414229.90049922 0 974414229.90049922 516784519.04077053 0 0 0 0 -301686265.1990509 43855035.815842152 0 43855035.815842152 953759913.43447304 0 0 0 0 -39144.036281585693 -374504.79691094067 0 -374504.79691094067 367327.13460508035 0 0 0 0 -7237487.3962402344 -29804543.060172081 0 -29804543.060172081 32864041.424184799 0 0 0 0 3981433.3021586239 -1427616.6800237074 0 -1427616.6800237074 1756962.9043104257 0 0 0 0 217611.0945288653 -292058.35938821733 0 -292058.35938821733 29561.4566313955 0 0 0 0 -14408206.386108398 42435500.325942039 0 42435500.325942039 145854331.86453629 0 0 0 0 50218081.158237457 22439237.830554903 0 22439237.830554903 17353935.495178223 0 0 0 0 79034.520250380039 -204668.50369562209 0 -204668.50369562209 18209.46571913478 0 0 0 0 2480383.3303793967 847000.20694750641 0 847000.20694750641 237633.63584961265 0 0 0 0 4087232.6706451625 683596.12561167218 0 683596.12561167218 -569155.52879898762 0 0 0 0 5334114.4967041016 1413654.504322052 0 1413654.504322052 -5396620.2968597412 0 0 0 0 21750599.826766968 42378041.432926774 0 42378041.432926774 -15520669.772024632 0 0 0 0 6335844.1627197266 12324193.384170532 0 12324193.384170532 3208094.3688807487 0 0 0 0 19361657.854003906 -9122528.2783503532 0 -9122528.2783503532 -6354081.1839079857 0 0 0 0 -25357669.051727295 35608864.450104237 0 35608864.450104237 61398439.94636631 0 0 0 0 84832843.949142456 118116812.80446076 0 118116812.80446076 -124717379.82520103 0 0 0 0 -64076880.292724609 92237498.197443962 0 92237498.197443962 -128265567.03714371 0 0 0 0 6155642.6729125977 -2272516.1795325279 0 -2272516.1795325279 5721351.0013999939 0 0 0 0 -37787196.587852478 -23502879.032416761 0 -23502879.032416761 1380052.3592729568 0 0 0 0 -130092648.63131714 51992295.633051872 0 51992295.633051872 -17786425.959163189 0 0 0 0 151505.8659581691 321568.19541233033 0 321568.19541233033 -320867.69800920924 0 0 0 0 412865691.00787354 -119516541.94091082 0 -119516541.94091082 -596261500.67824554 0 0 0 0 551574582.81572723 346976156.96823311 0 346976156.96823311 -148463535.52143383 0 0 0 0 -88272921.81918335 211813146.22282314 0 211813146.22282314 -175302911.9178009 0 0 0 0 276133405.04364014 115728463.0326829 0 115728463.0326829 -206251930.90043116 0 0 0 0 54133350.208602905 61982062.358932495 0 61982062.358932495 61318467.631269455 0 0 0 0 59692706.621673584 188290837.59834242 0 188290837.59834242 81373948.301584244 0 0 0 0 72807404.137786865 201404639.11670208 0 201404639.11670208 -171780856.51825333 0 0 0 0 64899653.640583038 71296044.408132911 0 71296044.408132911 26469459.606807709 0 0 0 0 47685000.948390961 7318073.4087661505 0 7318073.4087661505 -7349329.6340551376 0 0 0 0 5692606.6937831864 -2747147.8269635215 0 -2747147.8269635215 -6688307.0616812734 0 0 0 0 -21774430.676971436 309772271.98113072 0 309772271.98113072 -279377437.04462695 0 0 0 0 -240692820.26091003 283709834.86909086 0 283709834.86909086 -250430650.97741413 0 0 0 0 90190320.276489258 315715248.52391499 0 315715248.52391499 -483763714.81348038 0 0 0 0 -541623210.87463379 245552414.17947483 0 245552414.17947483 -121224341.52847099 0 0 0 0 76730001.437759399 -48934663.331898689 0 -48934663.331898689 -45020785.283723831 0 0 0 0 1723993.0717579424 -656830.22988814116 0 -656830.22988814116 -2301230.1136692539 0 0 0 0 -825848669.70507812 774456115.34674501 0 774456115.34674501 -333029529.50289059 0 0 0 0 1336012100.5183411 212619581.96478653 0 212619581.96478653 -96191989.2083354 0 0 0 0 55955064.463281631 76061364.33402203 0 76061364.33402203 66796631.640035629 0 0 0 0 395183517.41638184 370650380.74314153 0 370650380.74314153 -272917646.18439841 0 0 0 0 -32348873.518156052 202294935.23384392 0 202294935.23384392 -279825164.65384412 0 0 0 0 360124266.52148438 -47277045.937072515 0 -47277045.937072515 -125188675.16578203 0 0 0 0 880038143.30764771 -77200612.251113653 0 -77200612.251113653 -427820850.61043739 0 0 0 0 35245092.754943848 -832355357.93787622 0 -832355357.93787622 -46408817.022179604 0 0 0 0 6588262273.771431 -1995032603.7248156 0 -1995032603.7248156 -350568140.56356084 0 0 0 0 -738486300.46781921 -363662699.98442018 0 -363662699.98442018 37370289.024121404 0 0 0 0 3322778.4208796322 -257342.53094322979 0 -257342.53094322979 894945.51214024436 0 0 0 0 3642087810.2787943 -1274568641.1593246 0 -1274568641.1593246 -436477935.55172348 0 0 0 0 5053340302.7436829 -2237793963.9919634 0 -2237793963.9919634 150730916.28623196 0 0 0 0 3581512088.1104126 -412446636.88455868 0 -412446636.88455868 -332430563.2522707 0 0 0 0 1734788118.820282 -1146715859.7374077 0 -1146715859.7374077 -10389102.576435924 0 0 0 0 3708762415.6541748 -701900659.86407375 0 -701900659.86407375 -331859023.75694174 0 0 0 0 3882592368.4308472 -406544153.29352045 0 -406544153.29352045 -341488882.19292164 0 0 0 0 5136216988.6636353 -976701361.53432345 0 -976701361.53432345 -635015221.14272356 0 0 0 0 4182107287.6713562 -630934253.90294933 0 -630934253.90294933 812279725.12298775 0 0 0 0 5614091579.4056625 -197428638.38913655 0 -197428638.38913655 -388939144.63602829 0 0 0 0 5406053357.1757812 -925054910.27627087 0 -925054910.27627087 40981596.120960236 0 0 0 0 1847089780.2233276 147045504.16279507 0 147045504.16279507 420007852.31733227 0 0 0 0 3945739060.8211975 101371854.15446377 0 101371854.15446377 -183798967.47268963 0 0 0 0 552881852.2940979 277694591.17981052 0 277694591.17981052 570801146.50989819 0 0 0 0 1808287226.3335266 -26014481.576641798 0 -26014481.576641798 143075984.87588501 0 0 0 0 555284388.95251465 -7659966.2192659378 0 -7659966.2192659378 459888986.04129744 0 0 0 0 590378343.26452637 163458038.75742149 0 163458038.75742149 -21541743.486357689 0 0 0 0 -15449319.044586182 37434382.185687065 0 37434382.185687065 513850815.90429878 0 0 0 0 180166216.89199829 -168280613.2878809 0 -168280613.2878809 434908050.00630474 0 0 0 0 101098116.6578064 -260653038.36475754 0 -260653038.36475754 -25530228.70353651 0 0 0 0 159016875.79191589 151780172.64621878 0 151780172.64621878 -124659683.16923332 0 0 0 0 745323283.05523682 -462116530.58349419 0 -462116530.58349419 489231603.07442105 0 0 0 0 2526837763.6867981 798099965.39072275 0 798099965.39072275 -653811901.02306652 0 0 0 0 1058614928.0217171 -365760181.08223903 0 -365760181.08223903 796612875.68018055 0 0 0 0 1013405749.0623474 40681888.671031952 0 40681888.671031952 8578934.9066486359 0 0 0 0 10997023.809205517 -5513222.3774888888 0 -5513222.3774888888 2907378.3116075145 0 0 0 0 1040240.1061193347 -2811800.988485124 0 -2811800.988485124 -187454.12995789945 0 0 0 0 11499075.133065224 -4946317.2140275268 0 -4946317.2140275268 -104942.59339503385 0 0 0 0 7975340.3088111877 -5255389.6302044066 0 -5255389.6302044066 -10291.381139411707 0 0 0 0 8512018.0791015625 -3739984.9236821407 0 -3739984.9236821407 254968.69428138755 0 0 0 0 11246064.654045105 -5122398.6112457775 0 -5122398.6112457775 2486.3453209937379 0 0 0 0 6300795792.1893311 -1579172714.8249793 0 -1579172714.8249793 -521889405.630476 0 0 0 0 5066497774.24646 -1671060974.0404449 0 -1671060974.0404449 3103307.1931998637 0 0 0 0 7198094854.1517992 -760248923.37744355 0 -760248923.37744355 -623464521.4240284 0 0 0 0 7215153941.6055145 1191110606.021991 0 1191110606.021991 -278595711.95203686 0 0 0 0 9331667.5006981939 -1585705.0773607716 0 -1585705.0773607716 -1418178.8528748413 0 0 0 0 4236128437.7472839 1163573554.1926613 0 1163573554.1926613 -225535045.18437576 0 0 0 0 6156227177.0146484 -887683014.60806227 0 -887683014.60806227 -470698750.72982979 0 0 0 0 5153812440.0911713 24831097.428948641 0 24831097.428948641 -65571964.976827621 0 0 0 0 6205558415.5927792 -153000167.35161889 0 -153000167.35161889 -96857670.810891151 0 0 0 0 6351319803.4661102 -1370006785.2040334 0 -1370006785.2040334 -280245842.39242458 0 0 0 0 7914853805.4371185 -417156433.59212399 0 -417156433.59212399 -841762584.13671398 0 0 0 0 4728079915.0447388 -881377680.16286421 0 -881377680.16286421 67657280.038291931 0 0 0 0 3821973913.9484711 -930435819.09059048 0 -930435819.09059048 723416476.65957832 0 0 0 0 4869830224.7857971 -218059076.77892876 0 -218059076.77892876 -172992130.45444477 0 0 0 0 6898990990.0462952 -1808269855.6357994 0 -1808269855.6357994 917141253.45049858 0 0 0 0 5785415503.7923279 -226727994.61714077 0 -226727994.61714077 443982387.78308105 0 0 0 0 14604330199.086487 -598134865.80487251 0 -598134865.80487251 336331756.56292343 0 0 0 0 6209534805.1510773 -1263340532.4569397 0 -1263340532.4569397 2813289757.6029625 0 0 0 0 3824718399.2082367 -2215185714.3318381 0 -2215185714.3318381 1298678423.785675 0 0 0 0 872764717.67504883 -5539593744.6785164 0 -5539593744.6785164 2357576670.2875829 0 0 0 0 3780928750.5021362 -1874720781.6453819 0 -1874720781.6453819 -746096598.05187225 0 0 0 0 3779915.3846183419 -671483.97763561085 0 -671483.97763561085 -670807.68832776323 0 0 0 0 -2142018906.913208 3055216414.2645864 0 3055216414.2645864 -3248961572.8263245 0 0 0 0 144242803.14306641 -5525029665.7315979 0 -5525029665.7315979 2357851211.083065 0 0 0 0 6815532918.5292091 10617833.573751986 0 10617833.573751986 452962587.48097038 0 0 0 0 -111480398.87515259 609375768.81597519 0 609375768.81597519 -1598782622.6286058 0 0 0 0 13179351.229139403 -11561707.745249994 0 -11561707.745249994 4855306.4333331622 0 0 0 0 -1121238599.3135986 1659183179.3513565 0 1659183179.3513565 -1249190610.3372312 0 0 0 0 961166961.64294434 -546096630.62683487 0 -546096630.62683487 -441716618.45565033 0 0 0 0 35144521.437561035 -13813197.372516558 0 -13813197.372516558 -16198748.86852131 0 0 0 0 6072720.4292512629 1427562.1768971309 0 1427562.1768971309 -6296901.013053677 0 0 0 0 2631012.3806782067 -1909875.7826020345 0 -1909875.7826020345 -349647.27144038305 0 0 0 0 6558500168.2144775 -653887717.76184654 0 -653887717.76184654 -762766059.65792751 0 0 0 0 4528428679.4044647 42842590.608790368 0 42842590.608790368 433816595.93623376 0 0 0 0 4617161860.9736633 23656763.349094152 0 23656763.349094152 373507893.43227196 0 0 0 0 82171079.397689819 -7455284.9752169456 0 -7455284.9752169456 -14841981.818795865 0 0 0 0 10719912.344604492 -12085743.064065102 0 -12085743.064065102 6733035.9289089516 0 0 0 0 26203429.486791611 -35709742.916093051 0 -35709742.916093051 70437.143912065949 0 0 0 0 5182398.6007413566 -3489055.2619726807 0 -3489055.2619726807 -729531.71170264843 0 0 0 0 6724634197.8053284 -1823100798.6948402 0 -1823100798.6948402 -9134713.6969996057 0 0 0 0 5654627.5827594884 325571.00965122133 0 325571.00965122133 -2266745.1099133156 0 0 0 0 3377923649.0983124 -1029981470.3393699 0 -1029981470.3393699 497636678.46897006 0 0 0 0 1595178742.1092682 -1487249747.5526621 0 -1487249747.5526621 1924725701.3276894 0 0 0 0 6594018366.6553955 -1868437204.0209117 0 -1868437204.0209117 113541575.91112313 0 0 0 0 12585062.148034133 -1823060.9179943874 0 -1823060.9179943874 -969703.98580840125 0 0 0 0 4135091339.10495 39907748.828354143 0 39907748.828354143 -2645554.2098607928 0 0 0 0 -26055419.165908813 -23236189.959250167 0 -23236189.959250167 15680291.597275108 0 0 0 0 24106872.642562866 -17047440.587428119 0 -17047440.587428119 -2479011.1387169957 0 0 0 0 12816.453765869141 -34929896.067595541 0 -34929896.067595541 -56835.578473074122 0 0 0 0 11917747.721162796 -23119201.670846842 0 -23119201.670846842 -16409741.558463782 0 0 0 0 -11875167.931884766 -9253083.2694360763 0 -9253083.2694360763 8369382.3709807843 0 0 0 0 6606802701.1559753 2376271333.6021805 0 2376271333.6021805 748494380.70513177 0 0 0 0 2735780336.4251099 -2540018718.9403048 0 -2540018718.9403048 1271523471.5367229 0 0 0 0 7800258.3427915275 -280354.93606093526 0 -280354.93606093526 -3691255.6671054405 0 0 0 0 4424348582.7574615 1253097461.453042 0 1253097461.453042 241942824.74785933 0 0 0 0 19028366.356098592 -11542756.537227906 0 -11542756.537227906 2025715.6256982647 0 0 0 0 10480871.018968591 2818598.7221679688 0 2818598.7221679688 -10548910.697968975 0 0 0 0 96788719.740829468 -43069990.875174999 0 -43069990.875174999 -8534683.2655677795 0 0 0 0 -1189688664.9797668 756531162.33794165 0 756531162.33794165 -174630964.31960911 0 0 0 0 -221487554.28086472 -332900934.40323591 0 -332900934.40323591 -272368482.93824196 0 0 0 0 6614191041.7320099 537438038.57816589 0 537438038.57816589 -483191058.70777303 0 0 0 0 4794419669.605835 -382493663.57996053 0 -382493663.57996053 -678789474.54127145 0 0 0 0 5557194399.9497986 -67982092.670439363 0 -67982092.670439363 -919077384.88068366 0 0 0 0 5087691678.1726379 -33650673.418738842 0 -33650673.418738842 -695590910.76760864 0 0 0 0 6616292226.7354336 -964437656.36425507 0 -964437656.36425507 -1561565784.2068088 0 0 0 0 4328990828.545929 -577520261.33211684 0 -577520261.33211684 -457611473.10112363 0 0 0 0 5275473176.213562 -713907063.21282625 0 -713907063.21282625 -1124399877.7566347 0 0 0 0 1464984398.4764404 2294470157.734951 0 2294470157.734951 -3037400253.9550457 0 0 0 0 1722787075.655304 120446443.50456858 0 120446443.50456858 -1398208632.7088175 0 0 0 0 9495394.8731292784 3279705.9538598135 0 3279705.9538598135 -4126485.2029963741 0 0 0 0 -117621331.90083313 415776415.59335089 0 415776415.59335089 -2738404452.3869629 0 0 0 0 1200332849.6084595 -1273142316.5084031 0 -1273142316.5084031 -1334217300.462611 0 0 0 0 3173932.1886865105 2469758.1132925376 0 2469758.1132925376 -3832243.8774797739 0 0 0 0 -1202552680.5434456 1024788356.2478232 0 1024788356.2478232 -696408662.6696291 0 0 0 0 5036445.4310172647 1442105.1579197496 0 1442105.1579197496 -2781348.196940274 0 0 0 0 3880559762.9121284 -2091538358.8746252 0 -2091538358.8746252 821115760.12438774 0 0 0 0 3071415431.5643921 -2177702989.9027157 0 -2177702989.9027157 830280280.77594972 0 0 0 0 9102571063.5741501 -4132997222.1446762 0 -4132997222.1446762 485581347.96257019 0 0 0 0 8165360956.5628052 156536840.4206543 0 156536840.4206543 450996371.53797722 0 0 0 0 4837895449.1237183 -1963779276.7107792 0 -1963779276.7107792 168409378.20594028 0 0 0 0 4742721398.7861938 -2036243361.5861397 0 -2036243361.5861397 168222934.13451496 0 0 0 0 5953905934.8538513 -984949190.87678671 0 -984949190.87678671 -794363669.01333046 0 0 0 0 4763569515.548172 -1133796293.8982964 0 -1133796293.8982964 -939536826.1796639 0 0 0 0 4973594074.9017639 -1334210164.1418428 0 -1334210164.1418428 -918743016.82659841 0 0 0 0 1420245297.2490692 -724731250.72901165 0 -724731250.72901165 148244595.88993454 0 0 0 0 4324625852.1159973 -1237250275.441252 0 -1237250275.441252 -620730774.56327057 0 0 0 0 3968457562.5256042 -1631084980.4259212 0 -1631084980.4259212 -588688632.9856286 0 0 0 0 3693789545.1216736 -694655269.44284272 0 -694655269.44284272 -1389674975.7664814 0 0 0 0 2720598252.2999268 -1142857580.991142 0 -1142857580.991142 -725543060.93285954 0 0 0 0 4235320892.8398247 -785179425.67350364 0 -785179425.67350364 -818476194.27585053 0 0 0 0 4513678740.586792 -1708115074.0516534 0 -1708115074.0516534 -803569039.66819286 0 0 0 0 5484021845.5727539 -1295212204.0845065 0 -1295212204.0845065 -728953628.45385957 0 0 0 0 4347680071.1461182 -1069177065.1183176 0 -1069177065.1183176 87940824.618302464 0 0 0 0 4244102135.3730469 -1398381871.1969726 0 -1398381871.1969726 -454468503.38783121 0 0 0 0 3047878599.29599 209991795.0615378 0 209991795.0615378 370659249.45077574 0 0 0 0 2666337274.8539124 -257780041.6525653 0 -257780041.6525653 -201286583.13202882 0 0 0 0 6600395076.7541962 1678456482.9754853 0 1678456482.9754853 -484643281.05202466 0 0 0 0 2936276689.0064087 2989471932.6611257 0 2989471932.6611257 -707888976.47293448 0 0 0 0 7290921.0513093174 1869180.6020417064 0 1869180.6020417064 -3612099.0612107371 0 0 0 0 -827055504.10995483 3108336110.0269604 0 3108336110.0269604 -302901150.05718422 0 0 0 0 6606276448.611908 -1910180570.7010369 0 -1910180570.7010369 117302674.51583648 0 0 0 0 -858777161.50289917 -618911447.11786354 0 -618911447.11786354 -232832595.51850462 0 0 0 0 2901032906.4794006 -721605385.57552934 0 -721605385.57552934 -1608755285.9921761 0 0 0 0 1055702859.4465332 455405327.74428147 0 455405327.74428147 -340578887.88962221 0 0 0 0 4924239.3291894346 -1023828.1759603694 0 -1023828.1759603694 868975.0098881186 0 0 0 0 22276728.512580872 -110032.60980910063 0 -110032.60980910063 50148411.638282776 0 0 0 0 29201101.039276123 2542184.2070503235 0 2542184.2070503235 9078031.4824676514 0 0 0 0 2807881.8067016602 -17372421.808803082 0 -17372421.808803082 2305485.9589424133 0 0 0 0 -1643979.2579803467 10378202.413336396 0 10378202.413336396 29930588.243848324 0 0 0 0 26164447.605133057 5992740.9548835754 0 5992740.9548835754 -26006878.296372592 0 0 0 0 -58798579.198760986 -13226792.437105179 0 -13226792.437105179 32377427.881811619 0 0 0 0 -12859672.009307861 -37035712.700077534 0 -37035712.700077534 -21997903.528325558 0 0 0 0 25054908.16394043 4629812.7223482132 0 4629812.7223482132 9305248.928691864 0 0 0 0 14908812.854217529 12389814.14629364 0 12389814.14629364 4200990.2875590324 0 0 0 0 17777184.805023193 4018835.8139410019 0 4018835.8139410019 14834381.217253208 0 0 0 0 1490218.0487711728 1997265.6258546636 0 1997265.6258546636 -361716.15872324212 0 0 0 0 60333737.999534607 55757239.584657133 0 55757239.584657133 12360662.186862469 0 0 0 0 50727124.240203857 19201259.811117947 0 19201259.811117947 -29852324.124925613 0 0 0 0 -181753049.79772949 61298678.517839193 0 61298678.517839193 61751216.082087278 0 0 0 0 286353.08737756312 634580.21671246737 0 634580.21671246737 -142962.52243192308 0 0 0 0 5092119.8921508789 717386.87073469162 0 717386.87073469162 10422922.360118866 0 0 0 0 24528021.331939697 -7448400.0222477913 0 -7448400.0222477913 16170254.369655609 0 0 0 0 16390222.180664062 -842148.30710029602 0 -842148.30710029602 15058757.736953735 0 0 0 0 18575141.409545898 -2053591.9951019287 0 -2053591.9951019287 15705788.857910156 0 0 0 0 13499456.97845459 1843130.8773870468 0 1843130.8773870468 17645576.465240479 0 0 0 0 5077750.9973754883 4239320.5734233856 0 4239320.5734233856 18307052.314053774 0 0 0 0 8519327.7242431641 -3850099.8803086281 0 -3850099.8803086281 20716844.266384125 0 0 0 0 13440612.561035156 -6037361.5156764984 0 -6037361.5156764984 19031609.947423935 0 0 0 0 14249623.008911133 22639875.641167402 0 22639875.641167402 -37360368.666536808 0 0 0 0 13488730.174255371 17172520.456657648 0 17172520.456657648 104032.2718026638 0 0 0 0 24973235.749912262 15453217.840878069 0 15453217.840878069 -30303181.39325428 0 0 0 0 828774.64500433952 -561856.40725212544 0 -561856.40725212544 -450597.94602508238 0 0 0 0 3263773.5829052553 -1453514.6093341112 0 -1453514.6093341112 1072787.2576073068 0 0 0 0 4676102.0264568329 34474660.493122458 0 34474660.493122458 -43621761.302791595 0 0 0 0 -77077288.431694031 104478171.40635002 0 104478171.40635002 -56105259.351333618 0 0 0 0 -28246352.359817505 23575613.176635504 0 23575613.176635504 22665651.13515377 0 0 0 0 -103188801.84783936 -7824152.7334742546 0 -7824152.7334742546 122937030.99400783 0 0 0 0 -86734849.518707275 25071317.489201546 0 25071317.489201546 23347890.187201142 0 0 0 0 4295421.4051486552 -2791062.5948463455 0 -2791062.5948463455 395689.22673905431 0 0 0 0 -10543351.684997559 -5673656.3289005756 0 -5673656.3289005756 3150452.9243159294 0 0 0 0 -2383610.0502471924 2625369.1492887735 0 2625369.1492887735 7119130.0143914223 0 0 0 0 977930.10614013672 -4282055.7757854462 0 -4282055.7757854462 -5280850.9913873672 0 0 0 0 1237263.8431181759 -1270198.1967352703 0 -1270198.1967352703 945981.79101892735 0 0 0 0 -9078762.7878036499 -4802089.7441715002 0 -4802089.7441715002 8323849.4156322479 0 0 0 0 -11756362.724472046 -10611355.691633463 0 -10611355.691633463 4150794.984998703 0 0 0 0 -1118756.4520568848 -9352327.0727319717 0 -9352327.0727319717 -2274686.0417222977 0 0 0 0 -471766.60739135742 -10221469.337099954 0 -10221469.337099954 -7395688.5763010439 0 0 0 0 -1056745.5946960449 611213.12694584904 0 611213.12694584904 5927148.2968863426 0 0 0 0 -17648405.380187988 -3357931.6477435604 0 -3357931.6477435604 8951328.9740673974 0 0 0 0 477879025.65148926 237330696.46401 0 237330696.46401 -186672161.15777588 0 0 0 0 1210556829.5513306 -449372458.55128896 0 -449372458.55128896 -155503927.21650124 0 0 0 0 99043099.032043457 282840464.69934464 0 282840464.69934464 85284414.093146324 0 0 0 0 -368880279.98486328 13020297.85071373 0 13020297.85071373 352685196.51218033 0 0 0 0 507986.73617973924 616780.29750055075 0 616780.29750055075 1270414.3599968194 0 0 0 0 870631916.14480591 3920078.2846589088 0 3920078.2846589088 -52795654.692602158 0 0 0 0 1016370392.3446045 -257803682.79072857 0 -257803682.79072857 48010820.961391449 0 0 0 0 1416344953.4308472 116126728.81834316 0 116126728.81834316 -390193525.80741549 0 0 0 0 329877958.41134644 349188480.24756575 0 349188480.24756575 103140927.33500987 0 0 0 0 648467513.43660736 205886435.79710636 0 205886435.79710636 -166118268.48596364 0 0 0 0 1016514.5668945312 -12015151.82115078 0 -12015151.82115078 11495782.454459906 0 0 0 0 -11722676.48626709 -3470146.9296075292 0 -3470146.9296075292 10904551.008071661 0 0 0 0 -136878.7921855757 -40744.667481102049 0 -40744.667481102049 10222.437830254523 0 0 0 0 2060619.1699660271 -1606553.6096163243 0 -1606553.6096163243 1281138.3082134782 0 0 0 0 18446261.385986328 -3549641.643063277 0 -3549641.643063277 -12112692.292990759 0 0 0 0 854410.20992199332 -588915.08165042102 0 -588915.08165042102 365229.38964579545 0 0 0 0 83858311.248321533 24287877.584803768 0 24287877.584803768 276534452.43590838 0 0 0 0 304809120.48275757 -291148605.0785116 0 -291148605.0785116 672439958.777668 0 0 0 0 -11192411.583892822 758522.92097906768 0 758522.92097906768 -12812268.344350487 0 0 0 0 -73913592.393569946 -67224440.193785608 0 -67224440.193785608 -73049112.899885178 0 0 0 0 1735224.7699358612 -320054.03313744813 0 -320054.03313744813 -171363.73758412758 0 0 0 0 111518058.4694519 187998852.64005566 0 187998852.64005566 97228654.650280952 0 0 0 0 -56209658.281272888 -127190812.79667592 0 -127190812.79667592 -102724255.61344624 0 0 0 0 222299341.24356079 153508904.9687838 0 153508904.9687838 107876660.95877892 0 0 0 0 239061036.33999634 167535589.6803875 0 167535589.6803875 -2719302.4306622744 0 0 0 0 184605664.79953766 76521067.831351265 0 76521067.831351265 -25588632.593222618 0 0 0 0 4391984.630640924 -538646.42595091462 0 -538646.42595091462 676068.56199135818 0 0 0 0 268530331.28604889 119911140.95087592 0 119911140.95087592 -53831822.457469225 0 0 0 0 301878241.94178009 178645880.83934295 0 178645880.83934295 -1885240.5207620263 0 0 0 0 360057524.33969116 151201992.64653742 0 151201992.64653742 -54410604.359478951 0 0 0 0 251926019.47912598 127693201.81300783 0 127693201.81300783 10652388.338204861 0 0 0 0 266134474.06948853 154321075.35247421 0 154321075.35247421 4233173.4585604668 0 0 0 0 289748819.50009155 107523004.31580353 0 107523004.31580353 -33226770.423572063 0 0 0 0 306478410.95285034 153076048.76010269 0 153076048.76010269 -33642319.586909294 0 0 0 0 -22619373.544952393 -13693141.061292648 0 -13693141.061292648 22273085.138436794 0 0 0 0 255884045.80990601 9058827.168943882 0 9058827.168943882 2166596.2161588669 0 0 0 0 393555080.3894043 -149700512.72345889 0 -149700512.72345889 -475983749.15083921 0 0 0 0 364.93547713756561 29040.855354808271 0 29040.855354808271 68479.592523144311 0 0 0 0 439088972.98086548 164597859.81552175 0 164597859.81552175 -113652043.38697243 0 0 0 0 531531342.81201172 59547398.108435005 0 59547398.108435005 -206592552.37993073 0 0 0 0 352478564.78887939 127356488.83821845 0 127356488.83821845 -128968571.4748199 0 0 0 0 364298860.75146484 13853422.743143082 0 13853422.743143082 -203757790.51442623 0 0 0 0 295774653.17285156 -2944352.1447033882 0 -2944352.1447033882 -116509651.63883686 0 0 0 0 395848393.44525146 87347317.799378455 0 87347317.799378455 -114172586.91228819 0 0 0 0 254501482.31790161 26762071.832037449 0 26762071.832037449 -41975586.438668251 0 0 0 0 303630486.52191925 48025276.953333348 0 48025276.953333348 -69043490.024237156 0 0 0 0 290592180.70654297 67428626.91424036 0 67428626.91424036 -36469346.777138233 0 0 0 0 267732508.83773804 56289344.852932692 0 56289344.852932692 21103308.104092598 0 0 0 0 1254449.0386302806 -1876679.6247677803 0 -1876679.6247677803 1430154.4505743652 0 0 0 0 84427746.593475342 28533219.738002539 0 28533219.738002539 -36852789.854253769 0 0 0 0 -19474457.165008545 101477612.07516336 0 101477612.07516336 -55709382.287765503 0 0 0 0 -81470502.645812988 -89288778.649797916 0 -89288778.649797916 35279888.268789768 0 0 0 0 -163815362.6721344 61670190.294361353 0 61670190.294361353 -1934463.3839893341 0 0 0 0 95139591.50151062 -6418470.7284460068 0 -6418470.7284460068 -19032070.022390366 0 0 0 0 -32027853.25743866 -2690355.9372375607 0 -2690355.9372375607 8892949.0725860596 0 0 0 0 265447395.14697266 12153890.367102146 0 12153890.367102146 44393700.858535767 0 0 0 0 496445.20938272215 -929918.52220368385 0 -929918.52220368385 325433.8701616805 0 0 0 0 46788533.122207642 74531711.470096707 0 74531711.470096707 120507226.98913288 0 0 0 0 215804357.61746216 51080463.236331463 0 51080463.236331463 20806528.733939171 0 0 0 0 223216975.79746246 85077932.790057003 0 85077932.790057003 111643364.62437439 0 0 0 0 130931723.00915527 196458176.72264099 0 196458176.72264099 -211231732.59547138 0 0 0 0 131955964.22854614 -66768638.778021812 0 -66768638.778021812 137369459.02090836 0 0 0 0 -132377763.83734131 119908841.12014389 0 119908841.12014389 6347221.7548046112 0 0 0 0 91810381.213745117 155024686.67339325 0 155024686.67339325 8825400.7795438766 0 0 0 0 70708890.962768555 -150757342.37309837 0 -150757342.37309837 -122241062.61440992 0 0 0 0 258691234.0032196 -131608672.43795443 0 -131608672.43795443 -122160583.71416855 0 0 0 0 -18706925.265411377 -117324089.9697957 0 -117324089.9697957 146524630.51921272 0 0 0 0 -33900869.242858887 -67857293.930733681 0 -67857293.930733681 -14255202.307728767 0 0 0 0 -40421757.701782227 -47805985.333539963 0 -47805985.333539963 -34650538.571617126 0 0 0 0 -65891949.640716553 -55356929.445795059 0 -55356929.445795059 73164410.161647797 0 0 0 0 -31165421.275756836 7241113.5436859131 0 7241113.5436859131 99456105.920267105 0 0 0 0 523969374.05465698 461334637.65348601 0 461334637.65348601 172875832.43685341 0 0 0 0 248247960.59161377 206219639.672719 0 206219639.672719 29402195.660725355 0 0 0 0 -108763491.5713501 -68519490.754256248 0 -68519490.754256248 -21386089.419527054 0 0 0 0 120455793.82855225 186623458.30505252 0 186623458.30505252 186788433.11778736 0 0 0 0 121834134.76119995 311281882.47728157 0 311281882.47728157 395380079.25469208 0 0 0 0 473283321.6161499 -301086112.03830242 0 -301086112.03830242 200201517.58915424 0 0 0 0 1333997.669941619 533862.90447530523 0 533862.90447530523 20360.212838139851 0 0 0 0 807218383.83009338 -86944332.702738762 0 -86944332.702738762 -78140872.767243385 0 0 0 0 452018830.10801399 22273518.545397043 0 22273518.545397043 -69826558.414937973 0 0 0 0 452035169.19439697 -154242234.58399963 0 -154242234.58399963 -37762335.491280556 0 0 0 0 4292083.9088977724 328646.76681246981 0 328646.76681246981 -903039.53876090515 0 0 0 0 83731325.023895264 -125246946.67431831 0 -125246946.67431831 132096071.8384285 0 0 0 0 65435645.97743988 11014679.463636041 0 11014679.463636041 -29349553.437543869 0 0 0 0 22953732.026611328 -79957157.90104866 0 -79957157.90104866 26978953.055967331 0 0 0 0 90032616.218688965 -100197134.92459679 0 -100197134.92459679 8627107.2475471497 0 0 0 0 65984070.644210815 -33540384.567914486 0 -33540384.567914486 5695740.0906639099 0 0 0 0 113811905.03029633 -41643413.571519613 0 -41643413.571519613 -18139597.802717209 0 0 0 0 110359601.6912384 -26191290.183210492 0 -26191290.183210492 -13502680.300731659 0 0 0 0 203430633.15197754 -46156660.550838947 0 -46156660.550838947 -33887022.046368599 0 0 0 0 230387889.28016663 -99883101.891051054 0 -99883101.891051054 -39942753.154670715 0 0 0 0 365556000.90988159 -22933087.511649132 0 -22933087.511649132 -72928649.549686432 0 0 0 0 344841547.78102112 -2505959.8617653847 0 -2505959.8617653847 -75252054.401711464 0 0 0 0 70882859.320831299 -20928067.353917599 0 -20928067.353917599 -214985981.37288475 0 0 0 0 -6164625.9235229492 -267076.42231059074 0 -267076.42231059074 -20163306.642758369 0 0 0 0 8650336.0307501256 -3295956.4618860073 0 -3295956.4618860073 -4243183.7779053971 0 0 0 0 1379659.6052246094 -10219189.086296082 0 -10219189.086296082 -6576655.1837072372 0 0 0 0 -747699.10374203324 -15869815.678161906 0 -15869815.678161906 -7412430.6880858177 0 0 0 0 17424846.855374932 2452257.5344936997 0 2452257.5344936997 -2721850.4740710417 0 0 0 0 2680464.5620117188 -7077304.046877265 0 -7077304.046877265 -7168736.4346055984 0 0 0 0 5967352.7853086144 -10857223.962615322 0 -10857223.962615322 -8005771.2596020214 0 0 0 0 5245342.5451231301 -2263951.3834727034 0 -2263951.3834727034 -2179793.0905944817 0 0 0 0 -28213490.536882401 -41144228.897733152 0 -41144228.897733152 -41442459.459300995 0 0 0 0 -27809973.353515625 -50775838.441206932 0 -50775838.441206932 -39134139.091815948 0 0 0 0 -71699222.147460938 -14999865.236536026 0 -14999865.236536026 18043402.021711349 0 0 0 0 45912432.604797363 -2243329.3984537125 0 -2243329.3984537125 -39216320.764111519 0 0 0 0 -23998162.233398438 9765623.9805269241 0 9765623.9805269241 -24089425.125786304 0 0 0 0 1002781.6281728595 -2528315.6587218903 0 -2528315.6587218903 -2009263.3136603769 0 0 0 0 -49202184.490600586 -31203533.169178009 0 -31203533.169178009 31540375.657131195 0 0 0 0 -42432397.920837402 17203763.935620308 0 17203763.935620308 7560329.6108188629 0 0 0 0 -1327903.7416992188 -12935753.259580612 0 -12935753.259580612 8328476.0186920166 0 0 0 0 -355643.62719726562 -11158694.560289383 0 -11158694.560289383 2174864.7811806202 0 0 0 0 27729380.911560059 15337789.447832108 0 15337789.447832108 -18128302.767028332 0 0 0 0 -35013363.234588623 -11510826.004870892 0 -11510826.004870892 23352035.649997711 0 0 0 0 -33389703.534851074 -13614166.422998428 0 -13614166.422998428 -6850893.2286586761 0 0 0 0 -3834442.3087079972 -1489609.5135243386 0 -1489609.5135243386 -2976445.8585059354 0 0 0 0 -31171572.954208374 -7634827.6641058922 0 -7634827.6641058922 2419195.9331299067 0 0 0 0 49314659.387298584 17943658.679610252 0 17943658.679610252 1920858.0416071415 0 0 0 0 24420523.665568501 -5611484.386286661 0 -5611484.386286661 -9978720.6938725766 0 0 0 0 -25674313.943511963 -19081754.465964079 0 -19081754.465964079 -8877199.406578064 0 0 0 0 40472603.566223145 8385661.3424024582 0 8385661.3424024582 -3952342.0451488495 0 0 0 0 19628086.954181194 1241324.3843767904 0 1241324.3843767904 -7669243.2602069527 0 0 0 0 4970760.1306152344 -4188210.7329130173 0 -4188210.7329130173 -12496596.331445694 0 0 0 0 25804243.098999023 12651954.058338165 0 12651954.058338165 3243222.5043113232 0 0 0 0 26922514.848065056 4758800.1288612336 0 4758800.1288612336 -533513.65937404335 0 0 0 0 14568187.923110962 8815085.4783644676 0 8815085.4783644676 -5934307.5138511658 0 0 0 0 15647211.271453857 6496290.9009180069 0 6496290.9009180069 -7747058.5930328369 0 0 0 0 30348948.201462463 14482554.337842286 0 14482554.337842286 3605172.6513465093 0 0 0 0 28283467.71763435 1732069.9318192676 0 1732069.9318192676 -11095163.711075887 0 0 0 0 5091105.2942006141 4717633.8362383349 0 4717633.8362383349 -2984753.2273444468 0 0 0 0 3356057.4051317722 3233072.0855124518 0 3233072.0855124518 -4149696.1925496804 0 0 0 0 -84723.727783203125 7451661.1177101135 0 7451661.1177101135 -16313042.162015498 0 0 0 0 254289.67184448242 7833780.7126903534 0 7833780.7126903534 -16304523.507539749 0 0 0 0 22706449.569464117 1050578.901302211 0 1050578.901302211 -12794057.658401517 0 0 0 0 15277625.158637866 893473.48567454517 0 893473.48567454517 -4801745.6730380375 0 0 0 0 9594561.0998840332 3252380.3963644505 0 3252380.3963644505 -4687640.3135652542 0 0 0 0 35689128.66418457 13298286.69356513 0 13298286.69356513 -3690363.2687416077 0 0 0 0 20873738.419393882 8066188.213105984 0 8066188.213105984 -1667294.5062017764 0 0 0 0 9220897.4142456055 6283063.6899307966 0 6283063.6899307966 -6046797.4554178715 0 0 0 0 34845093.528198242 9149947.4678754807 0 9149947.4678754807 -3719704.5839366913 0 0 0 0 6798248.3989835232 -4231789.3721399345 0 -4231789.3721399345 -7867215.3507688055 0 0 0 0 4852698.1715087891 -4490642.0642172098 0 -4490642.0642172098 -12565933.363460362 0 0 0 0 8258143.2763671875 -2678230.5341522694 0 -2678230.5341522694 -6939800.1850981712 0 0 0 0 11587946.197723389 -125689.407127738 0 -125689.407127738 -4985431.4366259575 0 0 0 0 -702336.00103759766 -2556462.0063015223 0 -2556462.0063015223 -1899108.4875221252 0 0 0 0 9958576.8153709322 3092475.5136217251 0 3092475.5136217251 -326124.81367600476 0 0 0 0 7291376.732759729 -3416340.1746544763 0 -3416340.1746544763 -2290216.3742114892 0 0 0 0 3973701.0896049142 667631.51968390495 0 667631.51968390495 -240642.21297728829 0 0 0 0 8912285.4966340661 -1596057.2989264801 0 -1596057.2989264801 -1592751.6964117661 0 0 0 0 -44662041.707519531 -38540468.172235966 0 -38540468.172235966 -36982145.455249786 0 0 0 0 -57892341.594909668 -50207581.604557276 0 -50207581.604557276 1677293.7643280029 0 0 0 0 -73773877.474060059 -26905564.457221031 0 -26905564.457221031 -21480010.632069588 0 0 0 0 9634720.3538447395 2043284.9594058096 0 2043284.9594058096 -362243.70576387411 0 0 0 0 8176965.0399780273 1139907.4744791985 0 1139907.4744791985 -2517058.268037796 0 0 0 0 9121278.1705591977 1050206.7683024555 0 1050206.7683024555 -1754355.69260444 0 0 0 0 8213318.9831542969 1096525.2455606461 0 1096525.2455606461 -2599090.9808292389 0 0 0 0 9915419.0196026787 4069109.963258028 0 4069109.963258028 -776608.263379029 0 0 0 0 5677304.5609130859 2817636.8885383606 0 2817636.8885383606 858252.93751907349 0 0 0 0 10325932.720521301 2370813.0561165735 0 2370813.0561165735 -455367.27370576491 0 0 0 0 14379488.75846304 5504177.7499001697 0 5504177.7499001697 -1136085.394136521 0 0 0 0 9711992.25 3542238.1409678459 0 3542238.1409678459 -4168142.2998409271 0 0 0 0 22113158.093658447 20564538.910250425 0 20564538.910250425 5271193.9570646286 0 0 0 0 25148906.223068237 11883352.023667574 0 11883352.023667574 273968.60402870178 0 0 0 0 35759656.821472168 15423039.526330471 0 15423039.526330471 1255836.1440525055 0 0 0 0 37555483.369506836 16630505.253835678 0 16630505.253835678 25904.595113754272 0 0 0 0 30885159.442993164 22905435.347502708 0 22905435.347502708 5738621.3338534832 0 0 0 0 20344570.92691803 8292932.710344553 0 8292932.710344553 3563250.8183202744 0 0 0 0 5564781.7592126727 3835479.3172847927 0 3835479.3172847927 -1448513.8435166343 0 0 0 0 39468161.744750977 22662442.841445446 0 22662442.841445446 3764099.5312199593 0 0 0 0 21420034.131942749 10698794.063541889 0 10698794.063541889 -560989.58896923065 0 0 0 0 8591627.8129130751 -285144.01665169746 0 -285144.01665169746 556934.14927516598 0 0 0 0 22378796.694580078 -3288257.8176236153 0 -3288257.8176236153 -5910938.6729373932 0 0 0 0 2688230.1521462128 -12329.432440407574 0 -12329.432440407574 -1072269.1510971114 0 0 0 0 -119362609.63220215 13468932.289987564 0 13468932.289987564 31790537.489295959 0 0 0 0 -87145570.404541016 -24048951.345662117 0 -24048951.345662117 16028493.428990841 0 0 0 0 1930315.5667190105 -3578633.5066091791 0 -3578633.5066091791 -2135716.1384719145 0 0 0 0 7231300.554530561 4660362.2470447943 0 4660362.2470447943 -1475595.1143265236 0 0 0 0 6554793.1141357422 -130006.25729799271 0 -130006.25729799271 -1107306.1339187622 0 0 0 0 33523092.508850098 20926174.878178835 0 20926174.878178835 3915029.7939610481 0 0 0 0 3777627.5403747559 18414704.73847127 0 18414704.73847127 4921242.0175290108 0 0 0 0 33929613.590057373 21505583.462883055 0 21505583.462883055 -20690728.970789909 0 0 0 0 32907097.455871582 16922789.855221748 0 16922789.855221748 13844626.906786174 0 0 0 0 40184052.079345703 13254876.090881109 0 13254876.090881109 5722030.2728595734 0 0 0 0 38401629.096252441 18340225.099769592 0 18340225.099769592 2157909.0100450516 0 0 0 0 43283064.045959473 16512554.237939119 0 16512554.237939119 2734529.3391399384 0 0 0 0 37242872.417663574 17226963.793622971 0 17226963.793622971 4723360.8848150969 0 0 0 0 37726034.166381836 13138952.068418503 0 13138952.068418503 -2747587.5744808912 0 0 0 0 40121560.128845215 15786336.842979908 0 15786336.842979908 -2829006.6284704208 0 0 0 0 37749646.511810303 12918993.855285406 0 12918993.855285406 -3335203.867193222 0 0 0 0 37805394.491638184 12987227.286211014 0 12987227.286211014 -3375663.7041583061 0 0 0 0 38259199.557373047 11695400.952100217 0 11695400.952100217 -7660548.0720863342 0 0 0 0 38449724.369567871 13167990.814877987 0 13167990.814877987 -3619513.2821846008 0 0 0 0 37850190.479919434 12439257.119339943 0 12439257.119339943 -4266962.255484581 0 0 0 0 33998245.584899902 9416641.5507678986 0 9416641.5507678986 -3541771.2028961182 0 0 0 0 4106174.1191375703 5016403.8709073663 0 5016403.8709073663 1057988.543508607 0 0 0 0 30201979.194580078 8243516.3769712448 0 8243516.3769712448 -3892205.461271286 0 0 0 0 -49983424.654174805 218690373.76699853 0 218690373.76699853 134231032.18759793 0 0 0 0 30920672.347442627 6440619.2964312434 0 6440619.2964312434 -8530934.4991674423 0 0 0 0 32370654.37689209 11811769.976999998 0 11811769.976999998 843644.76350402832 0 0 0 0 37513170.907974243 17624430.925182164 0 17624430.925182164 -8300299.3281869888 0 0 0 0 36589469.216552734 9663629.0249109268 0 9663629.0249109268 -10057962.817754745 0 0 0 0 115933514.82977295 58422464.987053394 0 58422464.987053394 11683806.092064619 0 0 0 0 2081288.79246521 -213945413.71449971 0 -213945413.71449971 208666524.46192226 0 0 0 0 34273508.938598633 139859619.24633682 0 139859619.24633682 -57505998.866874829 0 0 0 0 33526888.263793945 13663457.13308239 0 13663457.13308239 2873453.1272964478 0 0 0 0 322960198.39163208 114512843.80599394 0 114512843.80599394 -475130300.32642192 0 0 0 0 39695894.865478516 66055459.496824265 0 66055459.496824265 -35852739.00482893 0 0 0 0 83154410.29486084 86768561.913551927 0 86768561.913551927 -74289325.352423012 0 0 0 0 77820848.81829834 41884222.979937196 0 41884222.979937196 -21771090.085346222 0 0 0 0 132243478.53607178 73397024.642818093 0 73397024.642818093 -72154236.191142619 0 0 0 0 68067886.31137085 65113928.611618817 0 65113928.611618817 -58575180.168646336 0 0 0 0 211112157.90264893 155150810.72317827 0 155150810.72317827 -18710130.73029542 0 0 0 0 13773519.240372434 9228718.8492482528 0 9228718.8492482528 99440.973490674514 0 0 0 0 40256903.165771484 16557394.111886501 0 16557394.111886501 446890.86910820007 0 0 0 0 35028723.360675812 12279894.631425917 0 12279894.631425917 -3096151.9398765564 0 0 0 0 37613758.791931152 11583969.13965416 0 11583969.13965416 -3758788.7218790054 0 0 0 0 36063641.740112305 16165152.995038033 0 16165152.995038033 2325138.4012954235 0 0 0 0 39221000.404174805 14166058.952376366 0 14166058.952376366 -2022714.7320566177 0 0 0 0 36829388.76184082 11587452.303668022 0 11587452.303668022 -3415561.2558870316 0 0 0 0 37854878.321971893 13600215.799920499 0 13600215.799920499 -1430703.6384315491 0 0 0 0 37016455.378479004 12445086.240846634 0 12445086.240846634 -1141855.5243644714 0 0 0 0 35871520.389923096 12261331.291052461 0 12261331.291052461 1481104.7565746307 0 0 0 0 42625296.346740723 13416825.055132866 0 13416825.055132866 -372322.86505937576 0 0 0 0 38392106.7421875 14704383.013651848 0 14704383.013651848 -595048.09362792969 0 0 0 0 39223896.338684082 13910711.821151733 0 13910711.821151733 -2847951.3286454678 0 0 0 0 41030605.446105957 8009829.893860817 0 8009829.893860817 4695828.7894830704 0 0 0 0 -982883.45294189453 8392686.0891075134 0 8392686.0891075134 -21858567.895599365 0 0 0 0 16402099.538045853 8144377.9729227275 0 8144377.9729227275 -5820911.8933557682 0 0 0 0 2871596.2769915462 3780297.2589896675 0 3780297.2589896675 -4992393.1536869342 0 0 0 0 8079092.3107910156 5521461.0979366302 0 5521461.0979366302 -8006635.3025221825 0 0 0 0 116712535.50500488 78406632.464920521 0 78406632.464920521 138027992.52101398 0 0 0 0 107128633.52191162 97685414.642687738 0 97685414.642687738 100091682.98227763 0 0 0 0 154730651.21020508 20582416.205457211 0 20582416.205457211 164213946.31028217 0 0 0 0 -995590.52502189577 3935658.8906726921 0 3935658.8906726921 1237593.8305397527 0 0 0 0 119619745.0345459 90222275.268516183 0 90222275.268516183 41455982.431468725 0 0 0 0 24706466.498215213 4054505.1044387147 0 4054505.1044387147 -9295881.4018680826 0 0 0 0 12424040.577026367 901708.16960525513 0 901708.16960525513 -3949173.8917703629 0 0 0 0 15046715.039916992 3850139.4206180573 0 3850139.4206180573 -4884546.8606414795 0 0 0 0 133681829.81933594 18775444.20755291 0 18775444.20755291 -9667269.579968214 0 0 0 0 28080790.201440535 16700471.845827356 0 16700471.845827356 4356991.6442322843 0 0 0 0 20813332.999625996 2512486.9197240323 0 2512486.9197240323 -6118453.9755216986 0 0 0 0 47180322.276000977 39397109.24237752 0 39397109.24237752 -2418692.0309400558 0 0 0 0 6711325.4631282687 2230095.3670207188 0 2230095.3670207188 149553.72872436373 0 0 0 0 65839722.305847168 -6429.7835540771484 0 -6429.7835540771484 20271924.08599472 0 0 0 0 44685384.138793945 16827914.500394821 0 16827914.500394821 15668040.454369545 0 0 0 0 51775296.450439453 19466198.533438683 0 19466198.533438683 14065531.046005249 0 0 0 0 148915130.39538574 -12039787.271157861 0 -12039787.271157861 -21871218.519845247 0 0 0 0 90955361.826065063 31215587.198346317 0 31215587.198346317 -54091758.945267677 0 0 0 0 79097049.788574219 12718570.478781581 0 12718570.478781581 -1791998.9644126892 0 0 0 0 47017067.818677902 31544012.162520386 0 31544012.162520386 16437850.491775513 0 0 0 0 44443979.179931641 33096026.404901505 0 33096026.404901505 22330232.394325256 0 0 0 0 64414980.529296875 28907880.571697235 0 28907880.571697235 -19607969.591577768 0 0 0 0 46982315.077331543 32952661.103172474 0 32952661.103172474 5205460.2571735382 0 0 0 0 50497650.461914062 25117698.831062317 0 25117698.831062317 13648501.573267937 0 0 0 0 43490914.644287109 26002459.361544609 0 26002459.361544609 18565718.178585052 0 0 0 0 42372068.669921875 30510710.277867317 0 30510710.277867317 24291002.74395752 0 0 0 0 37663513.152099609 28998385.668729782 0 28998385.668729782 26903141.846330643 0 0 0 0 36596533.05078125 19352419.87735939 0 19352419.87735939 24920635.382629395 0 0 0 0 46349694.860717773 20016323.778443813 0 20016323.778443813 21550711.661741257 0 0 0 0 32642911.020339966 8721275.5431213379 0 8721275.5431213379 2134118.4658508301 0 0 0 0 27583697.358886719 18709894.472586632 0 18709894.472586632 25399460.752548218 0 0 0 0 31246011.964599609 26049656.81469059 0 26049656.81469059 25548791.321883202 0 0 0 0 28991758.276430488 13663722.281948013 0 13663722.281948013 -6582968.1014242563 0 0 0 0 37307392.241149902 31433103.243272305 0 31433103.243272305 29800232.348159313 0 0 0 0 -3399871.110757634 7490868.3661473291 0 7490868.3661473291 4189587.4068099125 0 0 0 0 147176309.77532959 112930750.38980961 0 112930750.38980961 68539159.292716026 0 0 0 0 107463118.44885254 -37682542.547139645 0 -37682542.547139645 40974909.082091808 0 0 0 0 48044595.985046387 5618432.9890911579 0 5618432.9890911579 20430465.169835567 0 0 0 0 234879505.095047 63290581.545283884 0 63290581.545283884 -100087208.53595722 0 0 0 0 5198945.3145148307 3580561.7736000419 0 3580561.7736000419 1020693.2089280123 0 0 0 0 -122667364.9256134 -155691162.40076783 0 -155691162.40076783 14800029.956337132 0 0 0 0 132188643.86003494 61847062.570970833 0 61847062.570970833 74312917.759485722 0 0 0 0 154249569.31037426 115095103.69583012 0 115095103.69583012 -133306570.5321275 0 0 0 0 -7848027.8459472656 222968137.6175825 0 222968137.6175825 -117832876.87081623 0 0 0 0 59211758.120574951 182801383.60464111 0 182801383.60464111 -153504125.01051199 0 0 0 0 -311331599.76713562 172146140.25723973 0 172146140.25723973 102162881.16446984 0 0 0 0 -144658631.58023071 43060518.706926167 0 43060518.706926167 -53812797.284462571 0 0 0 0 -22314955.5965271 416626988.99941593 0 416626988.99941593 20031629.536888957 0 0 0 0 -167339719.45126152 457781750.10219079 0 457781750.10219079 290139733.93545294 0 0 0 0 -15806084.619567871 291138553.3072409 0 291138553.3072409 255716299.36563385 0 0 0 0 -24669297.749557495 236644941.16260689 0 236644941.16260689 130044326.88542819 0 0 0 0 159590043.13611221 275149529.16801131 0 275149529.16801131 137179624.25017512 0 0 0 0 31641066.638244629 113944231.20861697 0 113944231.20861697 405120586.26895654 0 0 0 0 6994794.7859191895 207342465.00554374 0 207342465.00554374 122609331.53810132 0 0 0 0 281394381.90460205 105421764.10171032 0 105421764.10171032 143174487.50611472 0 0 0 0 177344170.70037842 -34531792.36687088 0 -34531792.36687088 227852222.81574547 0 0 0 0 485702064.44028473 731409.74695330858 0 731409.74695330858 23546841.857037067 0 0 0 0 183660360.28009033 52241178.634976149 0 52241178.634976149 27801787.493874311 0 0 0 0 -180723574.79792023 245133453.45701206 0 245133453.45701206 -38847669.106017113 0 0 0 0 -461685628.93539429 -19995850.650337696 0 -19995850.650337696 159496479.16417098 0 0 0 0 742872.75817683339 1597762.2371305525 0 1597762.2371305525 554163.76092378423 0 0 0 0 4782344.8005442619 87527468.808022052 0 87527468.808022052 -194797601.75445557 0 0 0 0 -47160581.129990816 92289530.105208501 0 92289530.105208501 126038737.69917023 0 0 0 0 -218866744.35076904 42778295.152141809 0 42778295.152141809 135372806.48446193 0 0 0 0 -241006737.80053711 83650055.150409281 0 83650055.150409281 212889704.40917003 0 0 0 0 23237058.781265259 -61259229.506915018 0 -61259229.506915018 312787456.52435815 0 0 0 0 211008667.32795715 -367354249.38091183 0 -367354249.38091183 431702962.50730491 0 0 0 0 -120592324.00299072 -5345807.3793920577 0 -5345807.3793920577 455996067.04810387 0 0 0 0 -137833065.18823242 128246216.35117829 0 128246216.35117829 -13562858.439275861 0 0 0 0 -131841962.50640869 -95277826.251728863 0 -95277826.251728863 350218826.65294498 0 0 0 0 87201220.572052002 86837575.276092052 0 86837575.276092052 -339149731.41944361 0 0 0 0 -42997889.70513916 -329603865.62325847 0 -329603865.62325847 599155613.87245286 0 0 0 0 161858812.63529205 181281903.8835406 0 181281903.8835406 404836771.06976545 0 0 0 0 -268528948.40844727 33506352.228138298 0 33506352.228138298 354153280.31331414 0 0 0 0 850855932.97885132 -659680619.56611538 0 -659680619.56611538 -54620302.200341254 0 0 0 0 2599570.0936746895 1041495.3606818989 0 1041495.3606818989 -714958.17448958685 0 0 0 0 -219176667.10279846 5480494.9779187441 0 5480494.9779187441 51469889.647669315 0 0 0 0 1050955121.0251465 261888949.19160616 0 261888949.19160616 88156960.686748415 0 0 0 0 133970150.18349838 236381423.26242739 0 236381423.26242739 706859909.92039013 0 0 0 0 715176416.12715149 -21589617.377883792 0 -21589617.377883792 194923233.01485229 0 0 0 0 415894673.36669922 -170143166.39346176 0 -170143166.39346176 516483511.95447999 0 0 0 0 552898242.89453125 -147822430.5290482 0 -147822430.5290482 234801664.46528149 0 0 0 0 618109717.43984985 -119528367.28901303 0 -119528367.28901303 199797847.42533112 0 0 0 0 620502896.64675903 82987799.395079374 0 82987799.395079374 415549051.59673417 0 0 0 0 289026224.44395447 -129298105.73668885 0 -129298105.73668885 392282800.43139982 0 0 0 0 499676846.08197021 -330257378.72371554 0 -330257378.72371554 535760300.44218576 0 0 0 0 705315755.66696167 -261432567.01458812 0 -261432567.01458812 378346308.26593411 0 0 0 0 847802624.88711548 -548534596.12641644 0 -548534596.12641644 451364601.06998008 0 0 0 0 393047360.67778015 -460743123.74430025 0 -460743123.74430025 449545780.47539139 0 0 0 0 1057746455.3138885 -448118632.21756554 0 -448118632.21756554 358568933.50580597 0 0 0 0 848123019.03231812 -472042263.29661751 0 -472042263.29661751 440200145.43687248 0 0 0 0 651398825.99524689 -299168208.01138735 0 -299168208.01138735 380446773.3540163 0 0 0 0 710687023.82038116 -327512556.86032295 0 -327512556.86032295 355110212.94205666 0 0 0 0 761504374.10079956 -333680700.57088351 0 -333680700.57088351 231822222.017959 0 0 0 0 619410405.61488342 -134971238.78482592 0 -134971238.78482592 123192859.08316517 0 0 0 0 689296699.52352905 -334245100.76999283 0 -334245100.76999283 230610679.833951 0 0 0 0 1051287604.9234524 -210038922.05318433 0 -210038922.05318433 217579308.86454868 0 0 0 0 786593140.41975403 -610946824.25368452 0 -610946824.25368452 525284418.48861504 0 0 0 0 1008321922.8535099 -612282790.24009478 0 -612282790.24009478 368874176.24304581 0 0 0 0 822965122.27896118 -500279952.8208127 0 -500279952.8208127 310327570.59431612 0 0 0 0 855268270.18975067 -430315517.38453078 0 -430315517.38453078 461273645.90499973 0 0 0 0 498244216.37817383 -414278411.94315839 0 -414278411.94315839 473762092.23107004 0 0 0 0 1089796969.6791382 -42895476.535179615 0 -42895476.535179615 160052817.34094942 0 0 0 0 -182161709.0480957 79817454.998124599 0 79817454.998124599 171300899.40760636 0 0 0 0 2698633.794128418 -196829924.35156751 0 -196829924.35156751 -118347618.35930252 0 0 0 0 -303621818.43701172 209125384.20963311 0 209125384.20963311 72361893.384292126 0 0 0 0 205904473.849823 24279297.289836407 0 24279297.289836407 94140886.904490471 0 0 0 0 440960568.07925415 -231238944.00589752 0 -231238944.00589752 111485685.51874483 0 0 0 0 350543521.82107544 -186518984.44966364 0 -186518984.44966364 64805060.543952882 0 0 0 0 566392761.84197998 -345946107.68429852 0 -345946107.68429852 311003535.06353426 0 0 0 0 500286114.96205139 -46978498.143088341 0 -46978498.143088341 168899076.29384804 0 0 0 0 633443502.87651062 -207680109.60223746 0 -207680109.60223746 594578291.9539752 0 0 0 0 377523871.98928833 -347055691.33780956 0 -347055691.33780956 330136167.7132833 0 0 0 0 398853624.43940735 -77606233.573597074 0 -77606233.573597074 99201920.664299965 0 0 0 0 162729278.47146606 -150600341.99672556 0 -150600341.99672556 88379633.886182308 0 0 0 0 71341403.672758102 57037291.481299415 0 57037291.481299415 -43775775.963502884 0 0 0 0 48350981.981826782 -134587365.47837877 0 -134587365.47837877 294459914.70296478 0 0 0 0 -208083630.24703979 100116373.73910093 0 100116373.73910093 85153869.432207108 0 0 0 0 -141577041.6758728 -109078262.36095238 0 -109078262.36095238 160601302.60585833 0 0 0 0 7070493.0382385254 -121048644.5346241 0 -121048644.5346241 111859416.66082144 0 0 0 0 -60662287.567199707 10691881.814274788 0 10691881.814274788 98164444.540980339 0 0 0 0 -28776982.384054184 -203268132.96070087 0 -203268132.96070087 -38737527.265336514 0 0 0 0 -49126354.256317139 -46592332.838653564 0 -46592332.838653564 93931320.318783998 0 0 0 0 250803119.2611084 1765967.8344497681 0 1765967.8344497681 13743847.482051134 0 0 0 0 219478400.72599792 -92961033.384053826 0 -92961033.384053826 68213210.275098801 0 0 0 0 526392582.04086304 -301905436.48881912 0 -301905436.48881912 113618584.8421917 0 0 0 0 795981058.73451233 -397974718.4777298 0 -397974718.4777298 6539050.1706604958 0 0 0 0 804120065.60593033 -442299321.22167164 0 -442299321.22167164 103132825.59962988 0 0 0 0 1000467844.1192322 -453174895.43534279 0 -453174895.43534279 -76302931.076074272 0 0 0 0 585975151.90808105 -276953926.32786822 0 -276953926.32786822 -48973651.967598915 0 0 0 0 1019505024.886795 -541934197.90235722 0 -541934197.90235722 66870975.417153478 0 0 0 0 875372327.34295654 -451533033.93570715 0 -451533033.93570715 138488834.14012218 0 0 0 0 739163158.66720581 -74005970.902948618 0 -74005970.902948618 384019607.2031039 0 0 0 0 896788939.79205322 -546371767.05726695 0 -546371767.05726695 266710025.74638152 0 0 0 0 632652306.89306641 -604173288.45471215 0 -604173288.45471215 376857436.97735828 0 0 0 0 -30691077.571472168 -30939490.350671321 0 -30939490.350671321 410732659.302876 0 0 0 0 82579940.199569702 -1477395.697196722 0 -1477395.697196722 -6377151.8037180901 0 0 0 0 917051838.57679558 37779003.093738407 0 37779003.093738407 -178565497.14109945 0 0 0 0 1058907.263482362 -944827.83755744994 0 -944827.83755744994 758612.97224245989 0 0 0 0 1273999099.2214661 -464233091.09125042 0 -464233091.09125042 272855115.75789976 0 0 0 0 923888115.19662476 -186863554.82112694 0 -186863554.82112694 211783997.01877987 0 0 0 0 684367613.41242218 193527423.77626157 0 193527423.77626157 -190274856.83683777 0 0 0 0 2877463.7457434386 -2842118.3088083565 0 -2842118.3088083565 1635329.9714965441 0 0 0 0 92807775.061645508 -640026969.02022314 0 -640026969.02022314 -193504827.80777985 0 0 0 0 677644145.92576599 146707861.95104182 0 146707861.95104182 -180853852.6744566 0 0 0 0 1367869.0377142131 -1347415.4559574053 0 -1347415.4559574053 905128.76875169016 0 0 0 0 1826434881.9116669 -77753900.924741268 0 -77753900.924741268 -137993491.01215506 0 0 0 0 -529470768.66131592 -532116880.7897048 0 -532116880.7897048 523885801.46891701 0 0 0 0 1413254506.1500549 -878215729.84576297 0 -878215729.84576297 411433806.55205733 0 0 0 0 1150944759.4022675 -510556089.99111402 0 -510556089.99111402 -51643808.682052851 0 0 0 0 831745591.89476395 -306702302.44766766 0 -306702302.44766766 -179655918.97396255 0 0 0 0 673264803.81433105 -135628054.10440993 0 -135628054.10440993 93495187.989791989 0 0 0 0 522762605.56762695 -91067746.755173504 0 -91067746.755173504 100551711.46478963 0 0 0 0 520693571.41117859 -174143847.40888178 0 -174143847.40888178 60291558.642407537 0 0 0 0 147349948.38831329 -351273985.42369807 0 -351273985.42369807 -157445253.26426792 0 0 0 0 130950411.68331909 174115954.96700358 0 174115954.96700358 -244893609.56108409 0 0 0 0 2175599313.0092773 -70398457.755511761 0 -70398457.755511761 -382192063.29161787 0 0 0 0 1671697.7115878314 -1491989.6506489962 0 -1491989.6506489962 662352.31587485876 0 0 0 0 -351267726.21411133 -761866433.47017562 0 -761866433.47017562 352162448.34554958 0 0 0 0 762125620.19769287 311514645.70176268 0 311514645.70176268 -108020744.80930233 0 0 0 0 1796703886.4846191 -1919935.9675121307 0 -1919935.9675121307 -373283732.4905467 0 0 0 0 469555896.56135559 182211860.06064701 0 182211860.06064701 78137535.778388262 0 0 0 0 1442889.5030093789 -1530570.888192188 0 -1530570.888192188 -39271.065029675112 0 0 0 0 1059701197.2311096 -823655840.04344845 0 -823655840.04344845 334078937.55358839 0 0 0 0 1526175200.5319061 -1145203860.1695089 0 -1145203860.1695089 -15527823.517096519 0 0 0 0 1271176421.3881226 -847545121.00822866 0 -847545121.00822866 -242022419.31421518 0 0 0 0 1137017698.2337418 -308722697.54250705 0 -308722697.54250705 308724473.00284553 0 0 0 0 4574760.4473571777 -453870547.35288012 0 -453870547.35288012 454082602.38116992 0 0 0 0 681836247.44760132 -482196804.04383892 0 -482196804.04383892 330527171.83999115 0 0 0 0 608935388.20239258 -229657314.61898142 0 -229657314.61898142 149501443.68428472 0 0 0 0 520693005.66238403 -142458375.22881114 0 -142458375.22881114 190848459.25402665 0 0 0 0 446853908.2033844 -57722313.301995695 0 -57722313.301995695 97804973.754658222 0 0 0 0 603620452.4770813 -102943670.23109186 0 -102943670.23109186 108363609.5583396 0 0 0 0 654910156.44237518 -206407577.47336805 0 -206407577.47336805 49691072.431141317 0 0 0 0 702285298.49324036 -198891867.09550416 0 -198891867.09550416 50861497.86835748 0 0 0 0 670948548.76048279 -242233762.47130296 0 -242233762.47130296 -132020.70073566661 0 0 0 0 648699812.71586609 -254931515.34344655 0 -254931515.34344655 58463840.060758159 0 0 0 0 568441253.05162048 -299286761.05861187 0 -299286761.05861187 43436309.971596956 0 0 0 0 216592912.20675659 -129994532.12953787 0 -129994532.12953787 -63653.536593814642 0 0 0 0 674336592.84101677 -78168877.637191877 0 -78168877.637191877 -259213452.1171577 0 0 0 0 918233409.73269653 -328363652.17724228 0 -328363652.17724228 -98078834.070086539 0 0 0 0 773454007.76020813 -258731706.98638797 0 -258731706.98638797 60863860.679236054 0 0 0 0 603331843.71841431 -289606773.65515089 0 -289606773.65515089 59703944.491489008 0 0 0 0 734919197.82138062 -236390859.17436385 0 -236390859.17436385 63799532.188629165 0 0 0 0 322681215.7208252 -333115541.03668731 0 -333115541.03668731 152252851.7705934 0 0 0 0 586975245.63237 -409025177.21443856 0 -409025177.21443856 156474717.52428281 0 0 0 0 113764984.4644928 -306803752.68037039 0 -306803752.68037039 288524630.85705185 0 0 0 0 1102319903.7766113 -188890823.26377276 0 -188890823.26377276 51153747.945781827 0 0 0 0 699131454.05447388 -183883370.44105178 0 -183883370.44105178 109710441.93853068 0 0 0 0 637140103.33294678 -156768028.00436819 0 -156768028.00436819 133976064.86375678 0 0 0 0 592124518.84507751 -102380675.18750104 0 -102380675.18750104 95032241.893144906 0 0 0 0 958105111.48719788 -217672683.24068218 0 -217672683.24068218 -15928238.373356402 0 0 0 0 349388.59847063571 -223511.4669175446 0 -223511.4669175446 11154.84672863828 0 0 0 0 755479666.77633667 -140509624.92171797 0 -140509624.92171797 19827402.677998066 0 0 0 0 679484370.54652405 -142304986.46717525 0 -142304986.46717525 13513553.276443005 0 0 0 0 874336392.82965088 -150782714.53968054 0 -150782714.53968054 1026935.7467471124 0 0 0 0 732160774.0376358 -215914229.50626302 0 -215914229.50626302 138006.58092883328 0 0 0 0 709362.42699814215 -434216.22050686926 0 -434216.22050686926 19929.2973633199 0 0 0 0 503640041.04902077 -177666699.6552529 0 -177666699.6552529 14660653.098607183 0 0 0 0 565613183.05917358 -202310641.07303348 0 -202310641.07303348 -122146.56389521887 0 0 0 0 567166534.19192505 -244970035.10945678 0 -244970035.10945678 12247064.416576564 0 0 0 0 425779142.10444641 -195311117.6341455 0 -195311117.6341455 66045.179480566818 0 0 0 0 540479630.67503357 -273405476.88657504 0 -273405476.88657504 15381374.703845143 0 0 0 0 387771152.3425827 -253892418.1702325 0 -253892418.1702325 46448039.849882066 0 0 0 0 233868910.23788452 -182049313.6560902 0 -182049313.6560902 62524911.241032541 0 0 0 0 289220796.05175781 -171004661.66286471 0 -171004661.66286471 25506.894242692884 0 0 0 0 232825031.06625366 -145608590.62383473 0 -145608590.62383473 39557836.042296767 0 0 0 0 232971949.12921143 -203088525.1600464 0 -203088525.1600464 101601474.77138063 0 0 0 0 437014.71547275782 51045.163734704256 0 51045.163734704256 178028.89256694986 0 0 0 0 215250098.26983643 -138176245.08385408 0 -138176245.08385408 44180.530077001953 0 0 0 0 235347613.02281189 -113073263.78494957 0 -113073263.78494957 31209100.368944496 0 0 0 0 347152.73662398756 214851.88925379515 0 214851.88925379515 516011.44650441012 0 0 0 0 28810463.071914673 -56434395.112644389 0 -56434395.112644389 42680318.980751216 0 0 0 0 121897086.78656006 -30095545.957995623 0 -30095545.957995623 -6164228.2806210369 0 0 0 0 26364702.813079834 22553166.762082845 0 22553166.762082845 12233686.836939827 0 0 0 0 133364590.32995605 -184072723.69272694 0 -184072723.69272694 209454209.79653102 0 0 0 0 305168108.67585754 -229770186.00493336 0 -229770186.00493336 103445517.53038371 0 0 0 0 144834137.76370239 -105873145.83210969 0 -105873145.83210969 58244456.561417878 0 0 0 0 127164411.09762383 -135173398.50671259 0 -135173398.50671259 117939627.28702796 0 0 0 0 38064179.689056396 -34490723.204894036 0 -34490723.204894036 86882473.113360137 0 0 0 0 121993062.56092739 -96239317.103099614 0 -96239317.103099614 104328284.96302652 0 0 0 0 109274880.32814026 -111395645.8863008 0 -111395645.8863008 86580975.42524457 0 0 0 0 -16158207.353179932 -56034026.766014636 0 -56034026.766014636 84017310.787070751 0 0 0 0 -65510098.500167847 -5421202.7360152304 0 -5421202.7360152304 34469000.969448864 0 0 0 0 205945.70926634222 96334.245000734925 0 96334.245000734925 -268142.74258655187 0 0 0 0 7808818.0728759766 -45568981.004621536 0 -45568981.004621536 -25038925.612746 0 0 0 0 -6014395.3519287109 -55909550.806536198 0 -55909550.806536198 -1621444.6425415277 0 0 0 0 49285451.391342163 -4329622.5047393963 0 -4329622.5047393963 -14366229.521499068 0 0 0 0 9642080.5009765625 -4096775.9549344778 0 -4096775.9549344778 -8369326.8103053123 0 0 0 0 20305649.256286621 -17062104.805909067 0 -17062104.805909067 -19804859.107292473 0 0 0 0 64839864.394180298 -29436960.505871519 0 -29436960.505871519 29006968.481042683 0 0 0 0 22722209.975921631 14979966.500073284 0 14979966.500073284 17670023.898513667 0 0 0 0 -20486606.436019897 -208069.03493507206 0 -208069.03493507206 22182987.727429718 0 0 0 0 242908.47174276039 439210.47813153267 0 439210.47813153267 777272.4308100919 0 0 0 0 15190712.366157532 16147154.86244946 0 16147154.86244946 -1415114.7820622325 0 0 0 0 22245933.807540894 6334577.5140850395 0 6334577.5140850395 -6152169.2805388868 0 0 0 0 13479517.780761719 4444780.8421310037 0 4444780.8421310037 -8556246.8528942168 0 0 0 0 9088588.1905822754 6391333.5114803314 0 6391333.5114803314 -5873834.1447109319 0 0 0 0 3707157.7698974609 11589192.81824398 0 11589192.81824398 -1471447.6719687581 0 0 0 0 10194247.496574402 8647058.9406563602 0 8647058.9406563602 -2429707.7815444022 0 0 0 0 6516347.2836151123 -1054423.5854014121 0 -1054423.5854014121 -298359.46785190701 0 0 0 0 -4550417.9752502441 -6915872.4190251678 0 -6915872.4190251678 -10140672.120271936 0 0 0 0 4915575.350402832 1913118.4373134072 0 1913118.4373134072 -5504720.2281060722 0 0 0 0 -1863000.5534057617 -13476458.330598399 0 -13476458.330598399 -14636570.995302111 0 0 0 0 -73158.719130277634 -1035710.6609305441 0 -1035710.6609305441 974395.59543094155 0 0 0 0 -4460353.7520751953 -1754788.4609098434 0 -1754788.4609098434 -242852.909907341 0 0 0 0 2750947.1195278689 -1476323.284222804 0 -1476323.284222804 -1030953.9581599599 0 0 0 0 -181641504.97317505 -53612003.710981369 0 -53612003.710981369 47145867.543779969 0 0 0 0 -107494860.38009644 15729863.6040411 0 15729863.6040411 30766854.967988014 0 0 0 0 -70675781.674255371 -13137540.401141167 0 -13137540.401141167 -37647147.483783245 0 0 0 0 2488992.629782632 -2084109.6863363758 0 -2084109.6863363758 738452.06063111289 0 0 0 0 -2464556.0593261719 -2694343.5820188522 0 -2694343.5820188522 -1572848.0341091156 0 0 0 0 -31174392.778076172 -43843609.433747306 0 -43843609.433747306 -10325534.934838414 0 0 0 0 31836799.626098633 9979402.1758294106 0 9979402.1758294106 -2150667.5217876434 0 0 0 0 1185456.2502010763 -297737.9852842465 0 -297737.9852842465 -1306041.1069705789 0 0 0 0 3009875.0916748047 -15928808.853554487 0 -15928808.853554487 -21866380.886594713 0 0 0 0 2201419.6639180928 -2507075.3401884213 0 -2507075.3401884213 2169296.4907596917 0 0 0 0 48013714.746414185 -13938486.620406091 0 -13938486.620406091 -53286209.414321899 0 0 0 0 -159959.17330765724 -1665150.1998774633 0 -1665150.1998774633 1922574.9252084889 0 0 0 0 850741.76237406582 -584758.52515617758 0 -584758.52515617758 -674099.54813993454 0 0 0 0 -4133371.6671295166 -5213339.6920914873 0 -5213339.6920914873 -15051332.042724669 0 0 0 0 -27517620.608848572 -21997309.037595745 0 -21997309.037595745 -12968859.395373464 0 0 0 0 9289716.7920837402 -13313239.818969585 0 -13313239.818969585 -18977755.247274213 0 0 0 0 341225228.82159424 -19884423.733874321 0 -19884423.733874321 38258848.775106192 0 0 0 0 369708515.14190674 -55344957.793840647 0 -55344957.793840647 -25130850.409342766 0 0 0 0 1711422.1101014838 2014897.2463130355 0 2014897.2463130355 2586940.6969455369 0 0 0 0 -69451750.035858154 -30978999.055867672 0 -30978999.055867672 -88025627.437048912 0 0 0 0 69016838.861419678 -57794829.73443985 0 -57794829.73443985 -135551888.3818779 0 0 0 0 52383526.715484619 -40520482.063434362 0 -40520482.063434362 -124327505.483325 0 0 0 0 49136959.317108154 -48227774.906886101 0 -48227774.906886101 -102027890.48024607 0 0 0 0 -27001792.566436768 -62924439.598644733 0 -62924439.598644733 -93938745.181460381 0 0 0 0 134267266.8862915 -9576212.3766441345 0 -9576212.3766441345 -331860860.22085953 0 0 0 0 -70025033.989066839 52087369.018848173 0 52087369.018848173 -164510101.76473904 0 0 0 0 20660004.586547852 -117068669.73611259 0 -117068669.73611259 -108537543.54722786 0 0 0 0 -20079494.55480957 -68759660.56230545 0 -68759660.56230545 -150989296.49726868 0 0 0 0 348080419.61444855 -102615412.31618777 0 -102615412.31618777 180034709.0887394 0 0 0 0 748431437.03173828 -284500312.93672943 0 -284500312.93672943 -369586564.30363607 0 0 0 0 831315478.33764648 -440220707.0865202 0 -440220707.0865202 220420157.94305992 0 0 0 0 573146466.49597168 -346770040.17261696 0 -346770040.17261696 342771540.13231122 0 0 0 0 482760417.00891113 -245792839.75947094 0 -245792839.75947094 330114816.28225249 0 0 0 0 536205572.10205078 -98213047.916348457 0 -98213047.916348457 118582458.02649879 0 0 0 0 763053117.89294434 -263920714.99914551 0 -263920714.99914551 195769154.27386856 0 0 0 0 679614907.31744385 -85053511.622901082 0 -85053511.622901082 16769162.032094002 0 0 0 0 500259094.51773071 148542431.63846397 0 148542431.63846397 10436663.713490486 0 0 0 0 680159816.67169189 -60588324.773830652 0 -60588324.773830652 64668103.221184254 0 0 0 0 552654025.78375244 40912859.402173042 0 40912859.402173042 13381200.398288488 0 0 0 0 458154706.70385742 12267427.836336613 0 12267427.836336613 24845959.85005188 0 0 0 0 442474114.6819458 -4116548.7491798401 0 -4116548.7491798401 14370483.853283882 0 0 0 0 528524318.52490997 -99953316.848782539 0 -99953316.848782539 121094194.70686913 0 0 0 0 -456847.31913288683 -335874.14486410469 0 -335874.14486410469 36258.598146718548 0 0 0 0 232790628.21188354 89422675.337697625 0 89422675.337697625 83998911.1881845 0 0 0 0 19355578.489807129 3998088.2650755122 0 3998088.2650755122 -4279768.1064684317 0 0 0 0 474435.19039191306 553144.23156321049 0 553144.23156321049 1431723.5653237791 0 0 0 0 349962643.01699829 18482975.514442146 0 18482975.514442146 37849532.683690071 0 0 0 0 467383068.75622559 53168792.287884474 0 53168792.287884474 -32599356.729165316 0 0 0 0 396254629.37451172 83303683.60876298 0 83303683.60876298 -8973153.8341357708 0 0 0 0 -273420.34705466405 -131728.56457002461 0 -131728.56457002461 260936.72684148722 0 0 0 0 104215528.80889893 31342108.597277999 0 31342108.597277999 11848347.476753235 0 0 0 0 202428.94609897211 601768.85471390188 0 601768.85471390188 961944.09167872067 0 0 0 0 422222008.96582031 84072262.115483284 0 84072262.115483284 -29972895.551271439 0 0 0 0 408207106.98397827 69352238.387051046 0 69352238.387051046 6429505.2005252838 0 0 0 0 461305428.65319824 -7788956.6746764183 0 -7788956.6746764183 -2939723.1785395145 0 0 0 0 456170713.33563232 56046835.763934612 0 56046835.763934612 -22296338.164407611 0 0 0 0 437176617.49972534 50107256.349991083 0 50107256.349991083 198929.02851676941 0 0 0 0 403990619.73968506 58228311.737948656 0 58228311.737948656 -21942475.485737801 0 0 0 0 344043498.67346191 10342518.530066967 0 10342518.530066967 -542630.23803031445 0 0 0 0 412044436.8833313 50487837.707199574 0 50487837.707199574 -19480520.930056095 0 0 0 0 344187138.87609863 14480863.747392535 0 14480863.747392535 -14046709.842609346 0 0 0 0 383291600.47816467 72426113.918320894 0 72426113.918320894 14657941.200244188 0 0 0 0 319901517.256073 32065650.08415401 0 32065650.08415401 -11501237.137866974 0 0 0 0 551221946.52813721 80912908.02721107 0 80912908.02721107 -20781437.438366055 0 0 0 0 -57948.3757296931 61224.87888802588 0 61224.87888802588 82337.754140241188 0 0 0 0 180088749.35220337 -103704238.96954215 0 -103704238.96954215 -3563450.6834492683 0 0 0 0 441683723.61419678 31130490.370532274 0 31130490.370532274 7544724.3192524761 0 0 0 0 408436165.97857666 27515095.937160492 0 27515095.937160492 -6247325.8368023634 0 0 0 0 367158211.3162384 45682937.148615032 0 45682937.148615032 -2763356.0636312962 0 0 0 0 299360575.67306519 162893077.43974215 0 162893077.43974215 36048751.681045532 0 0 0 0 359043203.94232178 54817495.435453773 0 54817495.435453773 43907196.65568909 0 0 0 0 410492710.72918701 111528723.74529207 0 111528723.74529207 51017532.737540245 0 0 0 0 373309830.02209473 35443791.430076361 0 35443791.430076361 -14882569.228047609 0 0 0 0 264923775.4992981 -23038647.428557932 0 -23038647.428557932 -5717612.0944466591 0 0 0 0 331153529.11065674 20287910.857574254 0 20287910.857574254 -22478670.800642014 0 0 0 0 324142640.62631226 28045199.571038485 0 28045199.571038485 29238775.378630877 0 0 0 0 244480425.5664978 1371602.2069917321 0 1371602.2069917321 6551129.1711333394 0 0 0 0 242904792.13150024 -27305873.238141477 0 -27305873.238141477 -20841347.055010408 0 0 0 0 129132114.0486145 6346493.2300809622 0 6346493.2300809622 8553443.5789806843 0 0 0 0 179394106.71542358 -35603669.775837004 0 -35603669.775837004 2143547.1854357719 0 0 0 0 217319028.30841064 13309739.772744179 0 13309739.772744179 -6907934.0251991451 0 0 0 0 86399994.354073524 -9184239.9940590058 0 -9184239.9940590058 33502034.259057999 0 0 0 0 200930870.72589111 -84544033.083481431 0 -84544033.083481431 -5462280.643441081 0 0 0 0 334944364.53259277 79974193.535767555 0 79974193.535767555 -137349308.87470055 0 0 0 0 2498585.1779205874 2799362.3531835675 0 2799362.3531835675 2879548.5226711249 0 0 0 0 499355794.6338501 320636925.18270969 0 320636925.18270969 74462171.895738602 0 0 0 0 87595286.610282898 22876511.929120611 0 22876511.929120611 5986073.9095951319 0 0 0 0 273561960.89013672 442304886.55690193 0 442304886.55690193 974150205.07762909 0 0 0 0 80241328.144805908 -54547039.093681663 0 -54547039.093681663 -6624700.4386993051 0 0 0 0 114224579.55889893 -24120573.051306844 0 -24120573.051306844 -38999433.545585632 0 0 0 0 83185205.740814209 -38572882.715793312 0 -38572882.715793312 8210257.7571712509 0 0 0 0 9338640.974861145 30646309.350340754 0 30646309.350340754 9901346.7267322242 0 0 0 0 157160979.23413086 15405055.746115923 0 15405055.746115923 -5560756.3530726433 0 0 0 0 185708622.03198242 -33845113.48797559 0 -33845113.48797559 -15562711.655703075 0 0 0 0 93997682.27456665 23521116.364904985 0 23521116.364904985 9183950.740155369 0 0 0 0 64398707.281280518 -27270711.780006096 0 -27270711.780006096 -18211159.735351264 0 0 0 0 302147164.48522949 20435985.166133136 0 20435985.166133136 1256573.6409238419 0 0 0 0 350416859.85110474 48669740.881894648 0 48669740.881894648 3082875.7129939198 0 0 0 0 312378774.35247803 12492684.3075611 0 12492684.3075611 -4038869.5175471157 0 0 0 0 303539635.50180054 -8762063.1749928296 0 -8762063.1749928296 -22763703.414775845 0 0 0 0 309990498.14660645 19595555.479294434 0 19595555.479294434 -25075232.581049204 0 0 0 0 218289992.00221252 25741223.754608944 0 25741223.754608944 1620574.1497196853 0 0 0 0 377202632.51963425 42333890.152084991 0 42333890.152084991 -24179586.602839202 0 0 0 0 282028505.77929688 38994328.837365508 0 38994328.837365508 7507540.3131470568 0 0 0 0 266389144.85423279 -873472.47487555631 0 -873472.47487555631 -21838677.404525951 0 0 0 0 249975153.5863533 29107780.505013343 0 29107780.505013343 -87220.716999062672 0 0 0 0 327573484.37108612 12601777.317261951 0 12601777.317261951 -13951631.388952531 0 0 0 0 249973001.17541504 29114198.951153059 0 29114198.951153059 75528.246570838572 0 0 0 0 159621512.53459167 5348753.5786060579 0 5348753.5786060579 17443142.670638982 0 0 0 0 145741673.21282959 -27810057.075100418 0 -27810057.075100418 -16562426.664727595 0 0 0 0 67403328.029388428 31275832.306214932 0 31275832.306214932 47480.393966053351 0 0 0 0 28640270.906219482 -16526300.485076074 0 -16526300.485076074 -5905992.9323440641 0 0 0 0 1582460.5561433136 638092.92061098665 0 638092.92061098665 -287332.60034557508 0 0 0 0 -25486294.376358032 28340994.40528645 0 28340994.40528645 -2302.9665069375314 0 0 0 0 1006564553.8059845 -223475907.85299623 0 -223475907.85299623 -59140962.418937683 0 0 0 0 456734125.66769409 328218230.62191248 0 328218230.62191248 749301.87792740925 0 0 0 0 -187583673.38999939 349732680.91056842 0 349732680.91056842 -460762.97025880375 0 0 0 0 113120308.22053528 42565881.695427597 0 42565881.695427597 38774126.704210401 0 0 0 0 93683227.1015625 279818868.23478913 0 279818868.23478913 49278980.479870439 0 0 0 0 -142976939.19073486 132338138.1710856 0 132338138.1710856 96739652.126856089 0 0 0 0 251794420.28948975 -59772162.338286996 0 -59772162.338286996 154550922.28853965 0 0 0 0 385054374.85610962 74358998.347900093 0 74358998.347900093 -38105939.192695856 0 0 0 0 84337314.168487549 156919816.14868426 0 156919816.14868426 1183795.0813570023 0 0 0 0 79163087.631958008 72720043.160598278 0 72720043.160598278 50887509.932660818 0 0 0 0 -59094916.403442383 139057529.1963402 0 139057529.1963402 4284240.2554750443 0 0 0 0 83405137.067520142 164184483.83550292 0 164184483.83550292 619716.302693367 0 0 0 0 79127646.99987793 118777426.91968083 0 118777426.91968083 -84492168.79767704 0 0 0 0 -58088743.496887207 74228695.977859497 0 74228695.977859497 -86267703.832779542 0 0 0 0 231193109.05986023 7581761.0823808908 0 7581761.0823808908 -104903336.36039352 0 0 0 0 10566167.018432617 67862088.392360687 0 67862088.392360687 -83657449.659220934 0 0 0 0 93412038.688751221 -79406042.424044013 0 -79406042.424044013 139010024.71199703 0 0 0 0 2736090.8395422399 2604277.5695006922 0 2604277.5695006922 1772648.4367620393 0 0 0 0 294660017.67037964 65044917.732029438 0 65044917.732029438 -96458412.858860016 0 0 0 0 375751381.67108154 -126508125.73125625 0 -126508125.73125625 -290393103.17251492 0 0 0 0 -10227803.800750732 35382358.242348015 0 35382358.242348015 2516813.0571621358 0 0 0 0 2166097.4472648278 1548399.7466806099 0 1548399.7466806099 471832.65025046794 0 0 0 0 504099686.90908813 -158115344.498873 0 -158115344.498873 22844813.587083101 0 0 0 0 22735851.280410767 14396950.878336474 0 14396950.878336474 6493018.1776516736 0 0 0 0 33048073.063262939 3997437.0365414023 0 3997437.0365414023 7635699.0602936745 0 0 0 0 4130599.312122643 1738364.5186558589 0 1738364.5186558589 587329.08788774849 0 0 0 0 2720235.2269495237 211075.11632068455 0 211075.11632068455 -8775.3000757296468 0 0 0 0 -30526153.759069443 8921341.9058484677 0 8921341.9058484677 14770118.197237186 0 0 0 0 77196322.747619629 36610287.536989704 0 36610287.536989704 -100346.58728690729 0 0 0 0 17605482.073547363 -5914112.0194614306 0 -5914112.0194614306 1530424.9835139737 0 0 0 0 19764632.269958496 27530803.309934825 0 27530803.309934825 4513979.1023121439 0 0 0 0 19353804.817993164 23276331.17455912 0 23276331.17455912 2176.1848461787904 0 0 0 0 1376230.2508155778 1357449.3587037548 0 1357449.3587037548 128054.43646175455 0 0 0 0 61437412.886108398 17565301.625396736 0 17565301.625396736 -13963309.603993267 0 0 0 0 -650434995.9087677 3125206.9325426817 0 3125206.9325426817 167793363.94943261 0 0 0 0 -108403388.94558716 77103616.075636983 0 77103616.075636983 -50523123.291709423 0 0 0 0 -151618893.23913574 98302661.086759329 0 98302661.086759329 45379461.359940529 0 0 0 0 -71912129.902770996 106207309.01216197 0 106207309.01216197 2076936.0995345116 0 0 0 0 43548680.78604126 28331071.57313633 0 28331071.57313633 -40331047.272347808 0 0 0 0 14944551.638702393 17793258.066714466 0 17793258.066714466 5462845.1873924062 0 0 0 0 5771395.9480836764 3234811.8154373467 0 3234811.8154373467 -1585442.9853362432 0 0 0 0 2535987.1712536067 2159047.1953056306 0 2159047.1953056306 -727630.46327292488 0 0 0 0 50721261.421722412 22570331.653629005 0 22570331.653629005 -9408612.9605544209 0 0 0 0 26989592.254898071 -7962609.5478658229 0 -7962609.5478658229 -1953674.6552444696 0 0 0 0 47867125.614501953 6244233.1858521216 0 6244233.1858521216 -2582789.141338706 0 0 0 0 4055628.9823385873 647425.77609884739 0 647425.77609884739 -50127.268543654223 0 0 0 0 -11563893.213195801 12563777.59139736 0 12563777.59139736 13710203.113047034 0 0 0 0 7430597.6819368284 2537880.5962066948 0 2537880.5962066948 -232815.21207218029 0 0 0 0 24722177.756958008 8648595.1629064381 0 8648595.1629064381 -9607418.5750507712 0 0 0 0 18301231.684417725 4087597.5740255713 0 4087597.5740255713 -1026666.3331329674 0 0 0 0 35616186.901336312 5313312.2775624115 0 5313312.2775624115 -3292146.636464119 0 0 0 0 35528165.87121582 14824533.491166115 0 14824533.491166115 -2413189.1561408043 0 0 0 0 28181044.252315521 4808808.3431913257 0 4808808.3431913257 -1978080.3640623093 0 0 0 0 30323041.560276031 12731383.181876689 0 12731383.181876689 -2724920.9630360603 0 0 0 0 18672131.45077163 9441931.1683473475 0 9441931.1683473475 -438246.68466951163 0 0 0 0 4247239.8884472996 6442200.0332094952 0 6442200.0332094952 539175.43204881623 0 0 0 0 6657468.8448925018 613444.41184389591 0 613444.41184389591 -228942.8334274292 0 0 0 0 27107813.822296143 12250907.038125992 0 12250907.038125992 -1794457.9970235825 0 0 0 0 7416510.8474638723 7400135.289160341 0 7400135.289160341 -100015.42994826473 0 0 0 0 7186636.7022859305 6129195.7701869309 0 6129195.7701869309 -676776.26680361852 0 0 0 0 80406774.754882812 17889758.297311783 0 17889758.297311783 1610019.2046146393 0 0 0 0 82097229.34942627 19436310.007781982 0 19436310.007781982 -4737567.6515212059 0 0 0 0 54046135.525054932 179351.94469332695 0 179351.94469332695 260182.42122268677 0 0 0 0 35436952.300537109 -7178036.5085220337 0 -7178036.5085220337 1576244.047642231 0 0 0 0 55357676.732574463 -3207397.5469946861 0 -3207397.5469946861 9000584.7003116608 0 0 0 0 80061914.968994141 -5878154.5669517517 0 -5878154.5669517517 8909424.7810916901 0 0 0 0 92047667.625335693 -18632972.257644176 0 -18632972.257644176 21548932.002578735 0 0 0 0 148443033.66833496 -10283648.839578152 0 -10283648.839578152 19878540.70972538 0 0 0 0 68509291.972381592 73804837.657765746 0 73804837.657765746 -33976986.828493118 0 0 0 0 27941887.738037109 9339204.0865002275 0 9339204.0865002275 -1237226.598408699 0 0 0 0 -512141.96530991793 463798.9530919902 0 463798.9530919902 370244.88589230692 0 0 0 0 146777621.01147461 77522342.450716019 0 77522342.450716019 -7078561.4024581909 0 0 0 0 49839565.603813171 7848718.6218577623 0 7848718.6218577623 30819441.002342224 0 0 0 0 59765721.83605957 -2767887.8201293945 0 -2767887.8201293945 40780958.026004791 0 0 0 0 40143628.336791992 -6929721.0048027039 0 -6929721.0048027039 7775298.5655155182 0 0 0 0 17744990.770446777 -12021926.524747372 0 -12021926.524747372 12101662.218085289 0 0 0 0 9490361.3045806885 116122709.66002107 0 116122709.66002107 -167005665.83947134 0 0 0 0 152264.57322615385 -814332.05886470526 0 -814332.05886470526 -281507.41045426123 0 0 0 0 50347283.752563477 5565397.9808188677 0 5565397.9808188677 16211238.077209473 0 0 0 0 18563088.336547852 -16087421.617387772 0 -16087421.617387772 12800952.285412312 0 0 0 0 33583098.464416504 -7729503.830974102 0 -7729503.830974102 2365651.6109924316 0 0 0 0 35084654.024353027 -13191653.231249809 0 -13191653.231249809 10797029.38980031 0 0 0 0 19203477.160217285 -10847347.828783035 0 -10847347.828783035 5184728.8818330765 0 0 0 0 13329098.767578125 -8619004.5922470093 0 -8619004.5922470093 5798098.8578739166 0 0 0 0 20134332.424324036 -14711791.764064908 0 -14711791.764064908 -10961303.940254211 0 0 0 0 -858306.90825653076 -26137853.647435784 0 -26137853.647435784 -7340982.642124176 0 0 0 0 24738503.104434013 -246226.69895724952 0 -246226.69895724952 597104.09238433838 0 0 0 0 -5793475.6449279785 -6688686.4687490463 0 -6688686.4687490463 1268793.7048149109 0 0 0 0 24851949.837890625 -13763502.86484623 0 -13763502.86484623 -9827816.2905101776 0 0 0 0 6895174.4912109375 11810194.68842268 0 11810194.68842268 -11751587.5717659 0 0 0 0 21085640.862426758 11965153.384449005 0 11965153.384449005 -22348066.041322708 0 0 0 0 57885662.558044434 45616835.814558864 0 45616835.814558864 30999529.505475998 0 0 0 0 48488816.211114883 41999110.025662929 0 41999110.025662929 30836961.944332123 0 0 0 0 35789533.726501465 39443062.67445755 0 39443062.67445755 28936316.461504936 0 0 0 0 49117578.862392426 52483003.858290881 0 52483003.858290881 37209740.66317749 0 0 0 0 872137.30832284689 523866.63804576546 0 523866.63804576546 -447437.78804198443 0 0 0 0 53433100.04296875 55041850.939782858 0 55041850.939782858 36609532.015475273 0 0 0 0 31876904.474853516 -27374470.311587334 0 -27374470.311587334 72482868.076239586 0 0 0 0 39897275.074523926 -5697882.7528352737 0 -5697882.7528352737 -13361213.861270905 0 0 0 0 36645227.557983398 1244557.4053401947 0 1244557.4053401947 -26808266.343091011 0 0 0 0 13985629.685376644 150019.70017632842 0 150019.70017632842 -1138361.2526528011 0 0 0 0 37551739.940856934 -9317524.3986558914 0 -9317524.3986558914 -19300810.918087959 0 0 0 0 10866804.398803711 17188193.722688675 0 17188193.722688675 9247637.3117141724 0 0 0 0 2730116.2015990764 1653251.6166496128 0 1653251.6166496128 -1387445.926595109 0 0 0 0 33672342.841918945 -11157071.377685547 0 -11157071.377685547 -7055548.366481781 0 0 0 0 38186272.040740967 1037588.5796647072 0 1037588.5796647072 4736407.6257972717 0 0 0 0 42830828.400634766 -4122511.3531951904 0 -4122511.3531951904 -16714528.970680237 0 0 0 0 45830555.767150879 10809622.780200005 0 10809622.780200005 -12309930.458496332 0 0 0 0 39987085.64855957 336726.69495391846 0 336726.69495391846 -19380488.930610657 0 0 0 0 40553316.401062012 2927807.3515806198 0 2927807.3515806198 -10393599.764572144 0 0 0 0 20258302.143035889 113592.91447353363 0 113592.91447353363 -9695758.3429641724 0 0 0 0 51235727.693359375 -4601134.0960292816 0 -4601134.0960292816 -9031304.9333972931 0 0 0 0 53737565.572967529 5074972.554980278 0 5074972.554980278 -9829605.3327159882 0 0 0 0 53307105.136901855 15183970.086683273 0 15183970.086683273 -516123.86227464676 0 0 0 0 27299035.17199707 3127410.9856009483 0 3127410.9856009483 -1888015.1302890778 0 0 0 0 8477989.1842688657 5157420.8878966048 0 5157420.8878966048 -915809.08717451245 0 0 0 0 64891435.978302002 14013061.866808891 0 14013061.866808891 -11723826.977064133 0 0 0 0 3575828.9034660156 7726573.0132928044 0 7726573.0132928044 -1274553.0138680772 0 0 0 0 29124444.325904846 16811908.805425763 0 16811908.805425763 1420311.7191762924 0 0 0 0 7074218.1110504474 6984208.8168974742 0 6984208.8168974742 -2425348.5938907592 0 0 0 0 17251223.113189697 4615517.6320295334 0 4615517.6320295334 463032.375426054 0 0 0 0 40681293.781280518 -1521606.1686043739 0 -1521606.1686043739 -9553953.656003952 0 0 0 0 18752286.417358398 22469611.914787292 0 22469611.914787292 6922903.197479248 0 0 0 0 61395789.900474548 7593541.1829171181 0 7593541.1829171181 -4480330.5603852272 0 0 0 0 31894033.01373291 10410566.688783646 0 10410566.688783646 15410948.047907829 0 0 0 0 47995285.323028564 24413862.138056755 0 24413862.138056755 1023749.472700119 0 0 0 0 42201623.520324707 14180917.837895393 0 14180917.837895393 -2381434.1442570686 0 0 0 0 39968063.258842468 9757783.0489032269 0 9757783.0489032269 -4686506.2896733284 0 0 0 0 37606770.320892334 62997824.676841736 0 62997824.676841736 161793162.05943775 0 0 0 0 21847571.893188477 56964998.420198441 0 56964998.420198441 165868800.56135178 0 0 0 0 39653111.975799561 86005667.226070881 0 86005667.226070881 113023025.27984524 0 0 0 0 38160863.966003418 98886011.743073463 0 98886011.743073463 122551079.63116837 0 0 0 0 36677707.126811981 106760980.05391145 0 106760980.05391145 233839548.16437721 0 0 0 0 101127863.93652344 172890152.87347317 0 172890152.87347317 98246993.167844772 0 0 0 0 16285390.75201416 213922579.36506891 0 213922579.36506891 676736357.03792381 0 0 0 0 150132891.29058838 280119467.65262699 0 280119467.65262699 321753367.23620236 0 0 0 0 32597009.005615234 50743425.740286827 0 50743425.740286827 305719471.07160473 0 0 0 0 38034223.074523926 46134226.259062767 0 46134226.259062767 183510430.67383766 0 0 0 0 283963674.32660675 -88493818.778769016 0 -88493818.778769016 -388799152.78258705 0 0 0 0 1112633.3753377497 -200368.81119485199 0 -200368.81119485199 -132041.027840061 0 0 0 0 -275957968.34908295 -894948719.8607105 0 -894948719.8607105 339701273.2632513 0 0 0 0 272214382.14663696 -127711993.25765562 0 -127711993.25765562 -268209150.05505896 0 0 0 0 3417770.8129108697 -558583.47656849399 0 -558583.47656849399 -522531.42022073199 0 0 0 0 -28252956.815063477 79295713.567626953 0 79295713.567626953 -197576954.81612206 0 0 0 0 2837804.4819335938 -107501517.18132257 0 -107501517.18132257 -198154496.50081158 0 0 0 0 -72533219.099273682 -104760762.40090084 0 -104760762.40090084 -514375008.94189644 0 0 0 0 158293.59754358232 136740.55250996351 0 136740.55250996351 -180682.46293945517 0 0 0 0 83872177.529251099 111105496.04889214 0 111105496.04889214 -285192804.43976212 0 0 0 0 104502323.63105774 97107597.947968006 0 97107597.947968006 -358478505.5184803 0 0 0 0 254443.40405523777 -2523115.9061068092 0 -2523115.9061068092 -823057.46943638369 0 0 0 0 111791969.71498108 26389734.043491364 0 26389734.043491364 -312216547.74232912 0 0 0 0 -6936588.7680969238 -3032283.9703960419 0 -3032283.9703960419 9634082.9174008369 0 0 0 0 12557462.371124268 -13084011.073521137 0 -13084011.073521137 -19099499.2736063 0 0 0 0 -8329120.5960388184 -7862875.7864770889 0 -7862875.7864770889 -2226539.388256669 0 0 0 0 5425597.0196798891 -394523.31839176267 0 -394523.31839176267 195541.74444244616 0 0 0 0 27703090.632225037 54649350.164918065 0 54649350.164918065 102720156.51504612 0 0 0 0 44489844.092285156 79804177.885064125 0 79804177.885064125 90016901.170733452 0 0 0 0 57860663.061981201 55555119.489706039 0 55555119.489706039 63573101.68956995 0 0 0 0 70660477.453674316 78862670.996175766 0 78862670.996175766 30277395.020814896 0 0 0 0 6460966.2585449219 -29810191.771120071 0 -29810191.771120071 -15074193.689844131 0 0 0 0 48403494.182159424 79070118.306100845 0 79070118.306100845 31974002.651525259 0 0 0 0 59833510.310821533 66012677.119015694 0 66012677.119015694 46223464.316184998 0 0 0 0 7680828.4601268172 -1010890.5361466557 0 -1010890.5361466557 781050.87520372402 0 0 0 0 67352467.28326416 59754764.642608166 0 59754764.642608166 24185893.018985271 0 0 0 0 50385489.981567383 49736363.959238052 0 49736363.959238052 45352367.876769006 0 0 0 0 62454194.510040283 42712268.213866234 0 42712268.213866234 2622736.7890958786 0 0 0 0 61632654.570678711 49202206.939131737 0 49202206.939131737 17605021.122374535 0 0 0 0 65166991.189605713 48549443.574881077 0 48549443.574881077 7928464.5508117676 0 0 0 0 80821354.000640869 54446172.420098066 0 54446172.420098066 -10153122.089659691 0 0 0 0 74171447.898376465 27986568.2263484 0 27986568.2263484 -51155649.067490578 0 0 0 0 105426827.30288696 79529891.852004051 0 79529891.852004051 -16951524.152280807 0 0 0 0 69530775.107282639 68304872.435792446 0 68304872.435792446 23932437.608317375 0 0 0 0 90806444.033233643 114807309.82924986 0 114807309.82924986 54830650.836308479 0 0 0 0 90797716.939979911 116419319.74250202 0 116419319.74250202 59303554.511231422 0 0 0 0 196526246.18249512 140441151.87120247 0 140441151.87120247 -7545342.7117195129 0 0 0 0 225853336.56219482 23343929.297022343 0 23343929.297022343 -126184891.55190659 0 0 0 0 142936050.49224854 21202630.349949837 0 21202630.349949837 -89376238.910835266 0 0 0 0 31026997.225891113 -18930448.942695141 0 -18930448.942695141 -72584495.353060007 0 0 0 0 91307522.077041626 47764592.97889924 0 47764592.97889924 -52458702.907382965 0 0 0 0 48358383.607559204 -35727588.265093327 0 -35727588.265093327 -97601009.572719574 0 0 0 0 10136716.827835083 -16287103.185658216 0 -16287103.185658216 -59262582.03519249 0 0 0 0 53102459.173065186 -27037540.082820177 0 -27037540.082820177 -93947109.391261578 0 0 0 0 62553081.909332275 7239243.0095310211 0 7239243.0095310211 -59017974.403608322 0 0 0 0 64859874.325637817 23012229.603439331 0 23012229.603439331 -38726918.177379608 0 0 0 0 25527231.364059448 -16085058.925967574 0 -16085058.925967574 -43738082.079606533 0 0 0 0 11479786.156486511 -5960570.3281698823 0 -5960570.3281698823 -28036270.646683693 0 0 0 0 -11534031.320526123 -50281325.745803833 0 -50281325.745803833 -60470883.721627325 0 0 0 0 17286510.122894287 -16338310.462006748 0 -16338310.462006748 -32110569.214020461 0 0 0 0 16416538.259080887 -9910776.3918422759 0 -9910776.3918422759 -18908017.542855263 0 0 0 0 47043675.728210449 3185464.5292806625 0 3185464.5292806625 -33195747.601960182 0 0 0 0 108765020.75352478 -40640172.189152002 0 -40640172.189152002 -62783609.05297184 0 0 0 0 130520830.99108887 -147349898.05521727 0 -147349898.05521727 -150966652.80273533 0 0 0 0 7312612.4823096395 200406.28837414831 0 200406.28837414831 2575765.0795353013 0 0 0 0 43296293.976928711 5523259.1279946566 0 5523259.1279946566 -4542728.0659373086 0 0 0 0 43438793.604797363 5535090.5171477199 0 5535090.5171477199 -10208662.672989249 0 0 0 0 31314649.649200439 3654841.9451380968 0 3654841.9451380968 -11730420.421414375 0 0 0 0 32393073.157653809 1122124.192595005 0 1122124.192595005 -10477545.924709439 0 0 0 0 54353691.59979248 14539887.107768059 0 14539887.107768059 -21511914.990750551 0 0 0 0 49042064.878967285 4956748.6821155548 0 4956748.6821155548 -25050034.766394615 0 0 0 0 47079110.77256012 11141110.992686063 0 11141110.992686063 -12375758.424752235 0 0 0 0 56882738.771148682 19692652.841732025 0 19692652.841732025 -15712908.097399235 0 0 0 0 53135129.809562683 18113047.10509342 0 18113047.10509342 -15578512.794092178 0 0 0 0 63619563.160705566 32780897.036360264 0 32780897.036360264 -12024207.807019234 0 0 0 0 60136801.998382568 24160089.302572012 0 24160089.302572012 -21500666.878965378 0 0 0 0 61542336.632293701 26557028.20840168 0 26557028.20840168 -19497982.056180954 0 0 0 0 63934946.373413086 24322734.796477795 0 24322734.796477795 -32019869.239545941 0 0 0 0 45653296.594192505 5549178.5272555351 0 5549178.5272555351 -29512741.626013279 0 0 0 0 66712985.987854004 28272632.999099731 0 28272632.999099731 -28845639.648859024 0 0 0 0 58699670.717906952 25825172.5010463 0 25825172.5010463 -23830708.401520729 0 0 0 0 72479966.024459839 38983163.416456461 0 38983163.416456461 -17234864.307357788 0 0 0 0 61485301.976348877 33833589.432269096 0 33833589.432269096 -12538591.241276741 0 0 0 0 63896494.137985229 42327657.211982012 0 42327657.211982012 2724431.0830116272 0 0 0 0 57423528.297912598 37653797.668852329 0 37653797.668852329 3829742.6335029602 0 0 0 0 60208832.492332458 39555135.772896051 0 39555135.772896051 2088897.044968605 0 0 0 0 55151366.096832275 32712016.971307278 0 32712016.971307278 -6362726.7788600922 0 0 0 0 53978252.677001953 34165719.89737463 0 34165719.89737463 3772120.2584249973 0 0 0 0 43445593.076934814 32403496.458291054 0 32403496.458291054 5157092.0015802383 0 0 0 0 55394732.931350708 43511780.603744507 0 43511780.603744507 15458401.742212296 0 0 0 0 30495236.174758911 32350916.122559309 0 32350916.122559309 21077134.137637138 0 0 0 0 45255522.115905762 22321570.937131166 0 22321570.937131166 6149636.0028604269 0 0 0 0 34734383.353721619 19918697.435158432 0 19918697.435158432 4782518.0507688522 0 0 0 0 12980770.775512695 8258907.8704147339 0 8258907.8704147339 571956.93461608887 0 0 0 0 47870051.779304504 21928251.585174859 0 21928251.585174859 -1445066.3551259041 0 0 0 0 52375620.948822021 29212188.293341398 0 29212188.293341398 -1541353.9006824493 0 0 0 0 55378837.026275635 26531612.547072411 0 26531612.547072411 -9164730.0387313366 0 0 0 0 58225435.016555786 29615824.967731953 0 29615824.967731953 -5962776.9360218048 0 0 0 0 105942591.54281616 66278075.701269627 0 66278075.701269627 54714107.836522579 0 0 0 0 45578141.917282104 29120605.320667505 0 29120605.320667505 40697722.084942818 0 0 0 0 -51972084.502090454 76845153.527767658 0 76845153.527767658 -56778943.146014929 0 0 0 0 19214738.909179688 5235883.92415452 0 5235883.92415452 -3372531.4543323517 0 0 0 0 5011087.4085482769 4320279.9138033539 0 4320279.9138033539 -397324.60694688279 0 0 0 0 21782157.478201941 494959.32349681854 0 494959.32349681854 -5499081.9498190107 0 0 0 0 25741073.864559874 4385386.1910743043 0 4385386.1910743043 -7439153.5319489418 0 0 0 0 681809597.30807495 633015296.71273422 0 633015296.71273422 -5596907.4417247772 0 0 0 0 5621057.5489273071 -254409708.15333009 0 -254409708.15333009 73375582.261014938 0 0 0 0 11200415.645764066 9429336.4631517082 0 9429336.4631517082 -856273.91577413585 0 0 0 0 -104905389.38316345 -11909417.695847273 0 -11909417.695847273 433660867.2963028 0 0 0 0 14138950.682067871 -62382424.50039959 0 -62382424.50039959 -125165950.22946358 0 0 0 0 249776535.31243896 133579403.85505486 0 133579403.85505486 -7371968.6528496742 0 0 0 0 4678071.238672033 911650.43179549277 0 911650.43179549277 138809.07862387039 0 0 0 0 46327890.253860474 -322144720.71315736 0 -322144720.71315736 -280020820.82535076 0 0 0 0 3245879.4026926607 1335871.7220355496 0 1335871.7220355496 -1739831.0390663021 0 0 0 0 -17107512.01763916 24790637.071488857 0 24790637.071488857 10396720.775657177 0 0 0 0 -112980705.36447144 -156070715.62270808 0 -156070715.62270808 75047024.083375931 0 0 0 0 154808863.6656847 20502078.202800795 0 20502078.202800795 2876390.3090076447 0 0 0 0 397978501.09738159 400102342.54449272 0 400102342.54449272 325921476.46293783 0 0 0 0 62399683.838079214 -10401268.883663394 0 -10401268.883663394 -7120065.7025089264 0 0 0 0 1872186.7976471484 351165.66994602978 0 351165.66994602978 -179340.79033024423 0 0 0 0 216968798.63092041 169270598.9350462 0 169270598.9350462 33978925.083396435 0 0 0 0 64452658.10483408 111470504.98051998 0 111470504.98051998 84914446.181870461 0 0 0 0 274607445.92245483 33898834.48818922 0 33898834.48818922 -127454488.54872322 0 0 0 0 154517915.41448975 19823949.891342163 0 19823949.891342163 -68918151.501102924 0 0 0 0 1152003270.2194214 55789616.010480881 0 55789616.010480881 -272870846.29147339 0 0 0 0 1017723551.8933449 -995327256.79884791 0 -995327256.79884791 -439447314.31488419 0 0 0 0 -6718663.8097229004 -776202829.96140766 0 -776202829.96140766 -19094210.344555855 0 0 0 0 11743532.355165735 9064676.9591185004 0 9064676.9591185004 1509015.2256436683 0 0 0 0 -471194417.89894104 -164266928.62718582 0 -164266928.62718582 148651377.37411785 0 0 0 0 -101520463.9282074 203427316.77520478 0 203427316.77520478 -124438757.67123127 0 0 0 0 93483808.422210693 -1853037.0573773384 0 -1853037.0573773384 -99862416.022618294 0 0 0 0 149321674.01062012 74686393.264805317 0 74686393.264805317 -74611196.093481541 0 0 0 0 194025291.64027405 79167514.198631287 0 79167514.198631287 -109910778.53050709 0 0 0 0 276016368.36044312 -52681298.391176224 0 -52681298.391176224 -139415436.15455467 0 0 0 0 58088887.834594727 17361329.060940266 0 17361329.060940266 -12201516.052223444 0 0 0 0 56805324.327331543 20058955.120725155 0 20058955.120725155 -6219062.9020746946 0 0 0 0 56738843.792678833 14134307.840039849 0 14134307.840039849 516633.04477581382 0 0 0 0 75760020.990585327 19409245.797441244 0 19409245.797441244 -7176451.1122649908 0 0 0 0 53881041.292114258 18301953.223069668 0 18301953.223069668 -4840634.2006678581 0 0 0 0 49890825.794979095 10955637.155290529 0 10955637.155290529 3672874.1186993122 0 0 0 0 48136333.076065063 5048976.9544245899 0 5048976.9544245899 -8778412.134067893 0 0 0 0 67694791.931594849 13714354.559622943 0 13714354.559622943 -5543465.9965457022 0 0 0 0 41112154.120448574 9570337.1580656637 0 9570337.1580656637 -6255090.8415653743 0 0 0 0 126652867.68487549 -42447738.937458038 0 -42447738.937458038 -53539368.674101353 0 0 0 0 35593927.770797729 91272139.501243472 0 91272139.501243472 89467034.446892977 0 0 0 0 138186826.1028595 -60774667.894685507 0 -60774667.894685507 40191660.111700535 0 0 0 0 1979331.9958816022 8145276.3210485233 0 8145276.3210485233 -974331.81308656884 0 0 0 0 101024998.91836548 -200453606.09284031 0 -200453606.09284031 162485396.22152233 0 0 0 0 21618180.462175652 8487225.3118380085 0 8487225.3118380085 996021.29215120559 0 0 0 0 223888587.14587784 132702504.99504197 0 132702504.99504197 -238668458.36020565 0 0 0 0 -78643745.614123344 -7656990.8962052129 0 -7656990.8962052129 38103495.673459053 0 0 0 0 122273958.21687317 -44822749.032429636 0 -44822749.032429636 -107180219.72772431 0 0 0 0 146498256.50951958 95077343.583429977 0 95077343.583429977 -32427541.080919504 0 0 0 0 32193073.539978027 8818291.877825141 0 8818291.877825141 -40701898.082021691 0 0 0 0 39762421.238998413 10018265.713521659 0 10018265.713521659 -10140008.26188755 0 0 0 0 63547560.11038208 42169696.758450627 0 42169696.758450627 -61704568.496099949 0 0 0 0 58386075.837142944 12858238.863050222 0 12858238.863050222 -9629726.5877758265 0 0 0 0 40944329.89791856 7216295.4460884146 0 7216295.4460884146 -4272135.5243749153 0 0 0 0 41026939.365280151 14200649.527853966 0 14200649.527853966 -349158.82974338531 0 0 0 0 40141237.638490677 8201580.4836014509 0 8201580.4836014509 -1509851.7909321785 0 0 0 0 -29455049.201477051 33870323.890207767 0 33870323.890207767 22793433.643465996 0 0 0 0 11604802.356781006 8679635.3099904209 0 8679635.3099904209 29790478.754098892 0 0 0 0 31694100.911651611 19815991.22348094 0 19815991.22348094 12382058.569041252 0 0 0 0 90647896.093658447 -17270823.503397226 0 -17270823.503397226 4927816.8962972164 0 0 0 0 151809943.64642334 -33088565.366504669 0 -33088565.366504669 -7926393.0403389931 0 0 0 0 821030.51080100052 -538938.67619853467 0 -538938.67619853467 36029.840395690175 0 0 0 0 -561355.23391723633 -23049011.089127541 0 -23049011.089127541 57110425.852696419 0 0 0 0 1142269.7506564334 -568154.17299650609 0 -568154.17299650609 397579.64760479634 0 0 0 0 44489706.447753906 -26557415.343727112 0 -26557415.343727112 26860931.601390839 0 0 0 0 29479859.76087537 5131737.9752753228 0 5131737.9752753228 -3390567.5128483893 0 0 0 0 -19530709.365478516 26884401.275621891 0 26884401.275621891 26446118.003488541 0 0 0 0 53363035.176147461 54090494.437006712 0 54090494.437006712 -10064276.777128756 0 0 0 0 67919854.531463623 31862682.358384132 0 31862682.358384132 -9648308.3861061782 0 0 0 0 140775039.19608307 5230941.9929512739 0 5230941.9929512739 -8363184.1459736824 0 0 0 0 61212632.000442505 14875460.284622192 0 14875460.284622192 -20160302.898290157 0 0 0 0 35150824.0912323 -2694695.431895256 0 -2694695.431895256 -4554344.5405626297 0 0 0 0 14974592.3387146 1551041.7786586285 0 1551041.7786586285 5700452.4088330269 0 0 0 0 61087979.190414429 14112095.357250214 0 14112095.357250214 3378123.4462251663 0 0 0 0 29695922.192441881 -2728721.2342188135 0 -2728721.2342188135 -4061663.1601399849 0 0 0 0 69359305.371368408 449975.62278795242 0 449975.62278795242 -9770387.6253242493 0 0 0 0 11327738.752868652 -1918582.9221019745 0 -1918582.9221019745 -1009872.7547969818 0 0 0 0 12048850.448055156 -7076843.5111228973 0 -7076843.5111228973 -473575.84337664046 0 0 0 0 -4396235.3022413477 6177853.6181396395 0 6177853.6181396395 244210.69669876993 0 0 0 0 34389936.100953974 8435629.2406781316 0 8435629.2406781316 1017339.9907282549 0 0 0 0 -56688625.548858643 60323649.808572292 0 60323649.808572292 17176313.512015462 0 0 0 0 9132543.318778865 19512122.554371148 0 19512122.554371148 5347450.9647394093 0 0 0 0 -70509888.699920654 15982954.987439632 0 15982954.987439632 9790463.1390081644 0 0 0 0 12563124.100954533 18810864.687138204 0 18810864.687138204 -1063390.8200025437 0 0 0 0 -57929747.435806274 45691479.273369789 0 45691479.273369789 61240440.714198112 0 0 0 0 -94579337.240386963 -28838840.444246292 0 -28838840.444246292 10573568.332681656 0 0 0 0 -969954.74749755859 58469251.340139389 0 58469251.340139389 19557012.401517868 0 0 0 0 -47310537.564025879 46339088.607897282 0 46339088.607897282 24505986.713773727 0 0 0 0 162689114.57788086 75437073.906066418 0 75437073.906066418 -6336483.3478794098 0 0 0 0 -3459755.9748744965 107224794.0206885 0 107224794.0206885 67382271.288537979 0 0 0 0 360607245.43817139 13614496.938915014 0 13614496.938915014 -76558810.942038536 0 0 0 0 233153788.59533691 156969825.81880665 0 156969825.81880665 17842288.985654831 0 0 0 0 157927168.95239258 117023561.66756105 0 117023561.66756105 48256476.813613653 0 0 0 0 577152943.93628693 382820783.0074842 0 382820783.0074842 163310356.22253132 0 0 0 0 153771616.23864746 144401422.49067497 0 144401422.49067497 62748950.53850317 0 0 0 0 -97216839.952453613 147892591.90900373 0 147892591.90900373 211892323.35972881 0 0 0 0 -262518918.23608398 -20934962.967524529 0 -20934962.967524529 169052685.06446552 0 0 0 0 91435675.10484314 74691966.073989868 0 74691966.073989868 -44319181.054080009 0 0 0 0 100005260.65026855 -32078571.744434834 0 -32078571.744434834 532005400.30262351 0 0 0 0 804073188.19752502 -52177923.743510604 0 -52177923.743510604 -38131516.855309486 0 0 0 0 204884135.35021973 61090510.240501404 0 61090510.240501404 -7917742.4259309769 0 0 0 0 267562108.60955811 -49265223.824762821 0 -49265223.824762821 -157848589.40998912 0 0 0 0 -192328190.31278992 -194707111.46917045 0 -194707111.46917045 132107123.7371397 0 0 0 0 29502461.504577637 -2017426.8846808225 0 -2017426.8846808225 -9774888.1064750254 0 0 0 0 -256322385.91920471 -81740185.046195745 0 -81740185.046195745 -17821187.893659592 0 0 0 0 13277732.284034401 2820082.4791846499 0 2820082.4791846499 4579915.9983432041 0 0 0 0 29635369.377166748 2562229.4858880714 0 2562229.4858880714 -5390981.8345590122 0 0 0 0 44174199.742416382 27183902.460874081 0 27183902.460874081 -31972632.105258942 0 0 0 0 32032000.12147373 5628867.0203701276 0 5628867.0203701276 -4115242.9706328367 0 0 0 0 5633829.1408505291 13760747.761785116 0 13760747.761785116 4826368.5713989381 0 0 0 0 41322399.704299927 8536975.1924160589 0 8536975.1924160589 -3510476.8415893912 0 0 0 0 -117750786.56344604 -64847898.135718346 0 -64847898.135718346 36343584.510735035 0 0 0 0 -171979779.85214233 -180058067.88863683 0 -180058067.88863683 -173027813.12608147 0 0 0 0 1121323.818851456 3143722.4407428754 0 3143722.4407428754 630158.70818641153 0 0 0 0 -80241116.178329468 181979585.44418681 0 181979585.44418681 166368780.66681623 0 0 0 0 267255308.40698242 70536356.560515642 0 70536356.560515642 -326722376.99020243 0 0 0 0 -64927838.539245605 -107736189.7292614 0 -107736189.7292614 613054665.37115765 0 0 0 0 -115918204.84422302 -36051814.891917229 0 -36051814.891917229 310498531.46433878 0 0 0 0 114207106.56437683 -170789526.12986577 0 -170789526.12986577 -302244723.25647378 0 0 0 0 -110081170.65974426 -254148759.87744415 0 -254148759.87744415 40421338.566491008 0 0 0 0 124883996.1946106 111087961.40072775 0 111087961.40072775 11080642.551376343 0 0 0 0 8464564.7366627008 -517007.05230030115 0 -517007.05230030115 -899780.76742413407 0 0 0 0 318371771.88241577 51024891.66120863 0 51024891.66120863 -62327742.856495619 0 0 0 0 2524314.4286816716 -160113.20709112263 0 -160113.20709112263 -168210.17318252401 0 0 0 0 -92719922.988037109 220566288.30043006 0 220566288.30043006 -336634633.00286508 0 0 0 0 -623901688.18429565 437056849.47371292 0 437056849.47371292 626950405.96780634 0 0 0 0 149013255.97716522 -181101461.83817434 0 -181101461.83817434 -32735125.512514114 0 0 0 0 -13359108.924468994 -179068899.68002552 0 -179068899.68002552 -580661.84229707718 0 0 0 0 7116858.9890558422 -1061111.8460957259 0 -1061111.8460957259 -4187187.8813359905 0 0 0 0 449280911.10542297 -618347409.29154992 0 -618347409.29154992 -241739249.07377672 0 0 0 0 636471199.89974976 526791532.78534031 0 526791532.78534031 -303736348.59599829 0 0 0 0 37749581.853305325 -9622610.4058126081 0 -9622610.4058126081 -3010143.2029090044 0 0 0 0 -165871502.27799988 70619016.216257453 0 70619016.216257453 497975572.20923996 0 0 0 0 598909138.33505249 250711227.08473778 0 250711227.08473778 75354103.019993305 0 0 0 0 -193146878.87640381 91359974.541749477 0 91359974.541749477 44056880.191071987 0 0 0 0 391101147.05657959 -409204437.70279932 0 -409204437.70279932 91517314.035435677 0 0 0 0 439100756.40660858 -279216118.24255621 0 -279216118.24255621 -538288046.57561588 0 0 0 0 9126596.2153434753 -70349950.786563873 0 -70349950.786563873 -37235259.530477524 0 0 0 0 38376682.684867859 129105485.40120494 0 129105485.40120494 -236096311.88552904 0 0 0 0 49938603.623786233 -16644410.212682605 0 -16644410.212682605 -280064.58321322862 0 0 0 0 34798003.202266693 -80586737.735108376 0 -80586737.735108376 -55070480.299295425 0 0 0 0 37059458.390613556 -69138577.305929184 0 -69138577.305929184 -103164483.63557339 0 0 0 0 52879256.415412918 -13072217.748271368 0 -13072217.748271368 -193633.50945358514 0 0 0 0 -8626923.0640144348 -139629680.13642311 0 -139629680.13642311 -183844456.6257515 0 0 0 0 140744044.68016052 223950484.76777077 0 223950484.76777077 -77421290.89392662 0 0 0 0 -146156771.2656498 7800917.6620435715 0 7800917.6620435715 -23852178.010990143 0 0 0 0 52709787.580566466 -11813231.308151485 0 -11813231.308151485 -960006.68409251096 0 0 0 0 152971369.56389618 65893819.500762939 0 65893819.500762939 -54720897.529374123 0 0 0 0 153331195.79652023 70201051.410153389 0 70201051.410153389 -88626357.521341324 0 0 0 0 454584207.40749359 -19153356.467136383 0 -19153356.467136383 -131381631.37527275 0 0 0 0 282810638.55935669 130607334.0906868 0 130607334.0906868 -125134178.62552261 0 0 0 0 304412350.72811127 -5784190.6723723412 0 -5784190.6723723412 -61668411.102725983 0 0 0 0 348510830.00533295 -130563965.49984264 0 -130563965.49984264 -22028681.801701069 0 0 0 0 446927184.74233246 83769160.19383812 0 83769160.19383812 -145419941.21358824 0 0 0 0 23842882.529045105 32807581.468641281 0 32807581.468641281 5597795.5731124878 0 0 0 0 22221372.732744694 53226132.512353182 0 53226132.512353182 1962317.369430542 0 0 0 0 -436290.62174961716 2365994.3324088287 0 2365994.3324088287 -648256.45068813302 0 0 0 0 -133250599.81767273 264664852.06308937 0 264664852.06308937 -169764657.75253487 0 0 0 0 -139100913.91620255 -123006228.79049873 0 -123006228.79049873 269219668.27373505 0 0 0 0 -7016689.053237915 40584714.473463058 0 40584714.473463058 17802608.745847702 0 0 0 0 -442248155.03849792 175988562.4614296 0 175988562.4614296 317421212.67157841 0 0 0 0 725491051.84422302 -427824705.61989212 0 -427824705.61989212 -428236400.74407673 0 0 0 0 31548749.01940918 10952683.075126171 0 10952683.075126171 -3245836.8434779644 0 0 0 0 30540662.364895754 6114890.9464561529 0 6114890.9464561529 -6554432.2397093903 0 0 0 0 46489350.203834534 11506219.995404243 0 11506219.995404243 562904.02180624008 0 0 0 0 -38715391.997764587 58997118.451957703 0 58997118.451957703 21211666.0625 0 0 0 0 30104422.927476622 12286811.781705491 0 12286811.781705491 -1311913.1224089172 0 0 0 0 -7859884.9302139282 70957281.828016281 0 70957281.828016281 13131089.511113405 0 0 0 0 -35780279.556236267 62227049.055638313 0 62227049.055638313 20303972.236831665 0 0 0 0 54205271.384712219 15554332.337799072 0 15554332.337799072 -117906058.80222511 0 0 0 0 49363437.320331573 7383840.4617376328 0 7383840.4617376328 -4618508.3268356323 0 0 0 0 5491727.095387077 13371804.016966868 0 13371804.016966868 -7348082.5524176983 0 0 0 0 38330973.717300415 144051.18110537529 0 144051.18110537529 1390025.2293063402 0 0 0 0 -23313689.269515991 56715411.367053986 0 56715411.367053986 12086605.941012383 0 0 0 0 -29641008.993270874 53389105.958990097 0 53389105.958990097 7905607.9484176636 0 0 0 0 -7304300.4443511963 46502889.747116089 0 46502889.747116089 15212128.321300507 0 0 0 0 -12878687.420562744 64430870.228481293 0 64430870.228481293 14240238.007240295 0 0 0 0 -20303747.97271347 64126109.934352875 0 64126109.934352875 4084321.6082077026 0 0 0 0 41645668.134929627 10337839.342988119 0 10337839.342988119 -6118261.8138137413 0 0 0 0 33001669.22724808 25338744.677808564 0 25338744.677808564 -9036713.0192636419 0 0 0 0 33397282.66996095 9570357.6254813671 0 9570357.6254813671 -2482438.9480216056 0 0 0 0 31201117.200576782 33284002.719886422 0 33284002.719886422 8570719.6592752934 0 0 0 0 53147789.490821838 17875656.922666788 0 17875656.922666788 -4932086.7474441528 0 0 0 0 31904258.387481689 20954689.150561094 0 20954689.150561094 2486907.1411514282 0 0 0 0 4284159.4817262292 1612525.9508574232 0 1612525.9508574232 -611296.39881246071 0 0 0 0 43281482.105621338 9525718.4232807159 0 9525718.4232807159 1569758.2240941525 0 0 0 0 1151966.0479383022 3156319.1421174975 0 3156319.1421174975 -656795.19810304849 0 0 0 0 -50404760.821140289 -18009360.068461716 0 -18009360.068461716 -45854502.295687675 0 0 0 0 23123770.225764051 2215639.3267862517 0 2215639.3267862517 -5201373.4961859044 0 0 0 0 -25660695.383422852 -469104.40883255005 0 -469104.40883255005 -15493091.499673843 0 0 0 0 12579324.282348633 -12526967.394297123 0 -12526967.394297123 -29519232.658275068 0 0 0 0 95462577.169616699 -68831482.807692528 0 -68831482.807692528 -35936940.893400192 0 0 0 0 -2181652.16365242 -15330414.443136271 0 -15330414.443136271 -8752177.0942287445 0 0 0 0 61190736.907592773 13857357.512632847 0 13857357.512632847 -26729953.262385368 0 0 0 0 14327982.368822098 -2027503.6546972441 0 -2027503.6546972441 -14013061.187738895 0 0 0 0 17238405.716193095 2077774.125139378 0 2077774.125139378 -3503372.9418707513 0 0 0 0 94171329.751983643 66652113.068391323 0 66652113.068391323 -106694586.14108562 0 0 0 0 -51796005.947296143 -95758587.991001844 0 -95758587.991001844 68888082.361689568 0 0 0 0 55526848.512397766 68883026.730120659 0 68883026.730120659 -263268689.29147339 0 0 0 0 50960572.657796092 -6439091.6483046301 0 -6439091.6483046301 -5122832.5846018316 0 0 0 0 66587370.389984131 -71016314.12441349 0 -71016314.12441349 -107711920.27693653 0 0 0 0 61942527.048828125 24283785.587804794 0 24283785.587804794 10154889.688857079 0 0 0 0 -13951656.479919434 -109656297.59966564 0 -109656297.59966564 -22020060.892755508 0 0 0 0 15481243.024665967 -520484.60136920784 0 -520484.60136920784 -2309001.4470180376 0 0 0 0 46949968.614379883 -17215674.395410538 0 -17215674.395410538 -89598505.72130537 0 0 0 0 -49206407.639434814 -34126930.808382988 0 -34126930.808382988 118204618.30125904 0 0 0 0 -1404306.9403991699 2338387.8070658445 0 2338387.8070658445 -36392941.652589798 0 0 0 0 10522372.220611572 -24203178.443882108 0 -24203178.443882108 -6910076.2464447021 0 0 0 0 40983258.893218994 -34673940.390648961 0 -34673940.390648961 -65785029.438208818 0 0 0 0 54127412.189056396 78875978.821944952 0 78875978.821944952 2005679.3295338154 0 0 0 0 24421841.987686157 -26385016.137109399 0 -26385016.137109399 61417864.156289101 0 0 0 0 147064986.99507713 -1873932.3100732751 0 -1873932.3100732751 -9798203.3758897781 0 0 0 0 5062178.462677002 3387766.2816112041 0 3387766.2816112041 16551808.253369207 0 0 0 0 11169378.088775635 -34280077.176207066 0 -34280077.176207066 16021763.403392076 0 0 0 0 127891182.59146118 -1414749.2907036543 0 -1414749.2907036543 -23890179.89342308 0 0 0 0 73191393.790878296 53554332.602578163 0 53554332.602578163 28489099.953101158 0 0 0 0 1071324.6408859342 1894706.7532348968 0 1894706.7532348968 -781022.40223776945 0 0 0 0 1986935.8603820801 18001524.563557386 0 18001524.563557386 7082324.085460186 0 0 0 0 11109857.647705078 -1870999.6885635853 0 -1870999.6885635853 1411179.4878234863 0 0 0 0 -6042513.3641357422 4102814.1527166367 0 4102814.1527166367 4927262.9621129036 0 0 0 0 -1129651.3051163107 172731.8224734515 0 172731.8224734515 569783.56495995726 0 0 0 0 3485903.6076011658 -8055240.1024148762 0 -8055240.1024148762 3848979.869980216 0 0 0 0 5396892.8176574707 -8729561.9867138863 0 -8729561.9867138863 -2073073.2943381071 0 0 0 0 5451255.2687683105 -3738735.295927763 0 -3738735.295927763 -3075979.0668132305 0 0 0 0 256612.96105957031 6818440.5484580994 0 6818440.5484580994 2464909.2382936478 0 0 0 0 2926185.9737548828 -2073773.2491726875 0 -2073773.2491726875 12461792.365769863 0 0 0 0 2757258.2536140382 4654254.8363519795 0 4654254.8363519795 -1954037.9054856994 0 0 0 0 14120427.646107081 1159728.2494464368 0 1159728.2494464368 -1957446.6426218292 0 0 0 0 -5333719.8055143356 2070772.820799917 0 2070772.820799917 -2575227.193107605 0 0 0 0 27477194.384216309 -98880249.82498455 0 -98880249.82498455 97537327.506307602 0 0 0 0 6117308.2008629888 2322508.2322199941 0 2322508.2322199941 -1145549.076431999 0 0 0 0 -227929.11272335052 1564896.1510496736 0 1564896.1510496736 -208990.04266357422 0 0 0 0 3615950.9076689631 3108499.4652850628 0 3108499.4652850628 1475701.8764709057 0 0 0 0 11528742.286701646 -674041.43934763223 0 -674041.43934763223 -1230971.8799453774 0 0 0 0 1459165.7924883366 8972856.8236341234 0 8972856.8236341234 -1262241.9178581443 0 0 0 0 43636468.716278076 3427035.4826917648 0 3427035.4826917648 -201182744.11716366 0 0 0 0 11145788.602371216 9680328.0207257271 0 9680328.0207257271 -779190.31081318855 0 0 0 0 15450593.67288208 -218182654.72283983 0 -218182654.72283983 13940937.665506363 0 0 0 0 1462530.2920231302 25791.949287898839 0 25791.949287898839 -591340.05091384705 0 0 0 0 772637631.16412354 -408232526.2716589 0 -408232526.2716589 -640623675.67403412 0 0 0 0 -403294486.64801025 802739807.33960342 0 802739807.33960342 945722052.48186874 0 0 0 0 191038180.47338867 -196515869.88118458 0 -196515869.88118458 -45546835.934247017 0 0 0 0 10764484.827514648 -85599570.105903149 0 -85599570.105903149 -24411485.305635452 0 0 0 0 30552936.764556885 -9978909.0469369888 0 -9978909.0469369888 4771377.1587996483 0 0 0 0 12330037.7927064 2778576.9075614363 0 2778576.9075614363 3278976.7870531837 0 0 0 0 25776388.030080199 -4696086.4296202362 0 -4696086.4296202362 15916460.226168633 0 0 0 0 55843510.273895264 -18616767.670724392 0 -18616767.670724392 4926019.8604848459 0 0 0 0 102167387.24478149 5880004.2541999817 0 5880004.2541999817 -2553499.9944090843 0 0 0 0 56565520.215942383 -5557533.3364329338 0 -5557533.3364329338 7630254.2875175476 0 0 0 0 154739564.18096924 -7148790.085506916 0 -7148790.085506916 -4954870.9674730301 0 0 0 0 8361812.9032249451 17082888.557285666 0 17082888.557285666 12703281.420199394 0 0 0 0 52985524.446372986 -7603689.6832873821 0 -7603689.6832873821 -18512920.019252777 0 0 0 0 62227357.048141479 5179189.0619769096 0 5179189.0619769096 -4315877.7385129929 0 0 0 0 46038468.182907104 14833273.842315674 0 14833273.842315674 -3916572.2521284521 0 0 0 0 -163355379.17642212 32245192.586361408 0 32245192.586361408 367387980.61724329 0 0 0 0 248788370.78964233 -137539083.5409013 0 -137539083.5409013 -151482153.93466568 0 0 0 0 138940763.73770142 74550360.479740381 0 74550360.479740381 -216204597.50260735 0 0 0 0 736193.77065953612 -479061.26970262825 0 -479061.26970262825 144576.53183537629 0 0 0 0 -174908890.21092224 -96008071.21654284 0 -96008071.21654284 153114938.01132679 0 0 0 0 -135021341.78988647 -142991945.09368753 0 -142991945.09368753 139329209.89827767 0 0 0 0 16025381.366027832 241404950.10361898 0 241404950.10361898 113740733.61086178 0 0 0 0 135994974.21948242 131959888.11076379 0 131959888.11076379 -224800255.62420082 0 0 0 0 212457238.48840332 232112086.45409548 0 232112086.45409548 -120172165.73986816 0 0 0 0 -126079289.91287231 -83726191.367598891 0 -83726191.367598891 -107736125.06731522 0 0 0 0 24692895.78667751 -16611625.508564368 0 -16611625.508564368 -3982051.0661065551 0 0 0 0 -59167748.287353516 140366832.48615265 0 140366832.48615265 -1202761.9983501434 0 0 0 0 11167866.729614258 -14502781.016886652 0 -14502781.016886652 77162728.079446733 0 0 0 0 29013394.073181912 -17186303.460897312 0 -17186303.460897312 -2634860.8514179518 0 0 0 0 29299444.738891602 -271498905.79229659 0 -271498905.79229659 118864661.03845334 0 0 0 0 184458840.00598526 147133627.86549151 0 147133627.86549151 -8691923.1002262831 0 0 0 0 -3523992.0214727521 -4313894.8537696451 0 -4313894.8537696451 2744073.8483802672 0 0 0 0 65630366.700775146 42818070.601917095 0 42818070.601917095 -77137144.631632924 0 0 0 0 96367294.063751221 12810109.099496007 0 12810109.099496007 -59440656.244528621 0 0 0 0 14403270.674316406 -47703709.535960495 0 -47703709.535960495 7012210.1671278477 0 0 0 0 125816055.48614502 62800455.114100188 0 62800455.114100188 -11319970.579090893 0 0 0 0 140521425.78778934 82430680.217845291 0 82430680.217845291 6207324.1599333286 0 0 0 0 21991127.040756345 3624577.5845091939 0 3624577.5845091939 -5070567.7673638994 0 0 0 0 -4331490.7288513184 -190096925.05879235 0 -190096925.05879235 24861343.400678277 0 0 0 0 125417036.83673096 72376920.586111367 0 72376920.586111367 -54286173.604220867 0 0 0 0 37367772.575251803 -12513409.099115118 0 -12513409.099115118 -3116564.8349314523 0 0 0 0 65946548.405334473 -97423687.333291173 0 -97423687.333291173 -109014814.70995015 0 0 0 0 5209666.2742546499 1081310.7853814512 0 1081310.7853814512 -295017.69475213916 0 0 0 0 -32335490.392669678 48116045.687900126 0 48116045.687900126 -72365297.139223099 0 0 0 0 742655.76832717657 -446264.74818212539 0 -446264.74818212539 81548.319552249741 0 0 0 0 -159125934.18761444 -106836780.00668502 0 -106836780.00668502 20054975.176777482 0 0 0 0 291214447.81518555 33175337.486391187 0 33175337.486391187 -249681020.33511353 0 0 0 0 378406865.41931152 5109770.6209254265 0 5109770.6209254265 -244457070.40453386 0 0 0 0 -171531017.15963745 -81536594.687251568 0 -81536594.687251568 -46570292.41069603 0 0 0 0 311265367.77789307 -238515789.66273403 0 -238515789.66273403 4060734.3346788883 0 0 0 0 218420680.65771484 -93863334.669285655 0 -93863334.669285655 1964602.8560590744 0 0 0 0 1387178.8702590615 -952921.93529830128 0 -952921.93529830128 294486.14737556037 0 0 0 0 -7186614.1962280273 -382201153.86860561 0 -382201153.86860561 -80511722.279937267 0 0 0 0 6664070.2077217102 -390305415.97213626 0 -390305415.97213626 19110425.332666516 0 0 0 0 -99193278.739074707 28047989.933851242 0 28047989.933851242 513075752.20734549 0 0 0 0 4675690.4511108398 89060629.099068642 0 89060629.099068642 -135847485.05479047 0 0 0 0 -284640.15765736997 -664783.18931873143 0 -664783.18931873143 13192.388842719374 0 0 0 0 83682478.091522217 -246022691.71957445 0 -246022691.71957445 -312110237.81381845 0 0 0 0 33497454.292266846 -281708443.48204947 0 -281708443.48204947 261336862.03678703 0 0 0 0 281883798.90551758 -73656019.934171438 0 -73656019.934171438 33898604.523504734 0 0 0 0 357615299.37521362 272366881.98464727 0 272366881.98464727 47489905.87133956 0 0 0 0 212767722.88238525 372198221.13581169 0 372198221.13581169 612674196.633358 0 0 0 0 -87951501.725875854 -20590534.401867628 0 -20590534.401867628 369964773.33974981 0 0 0 0 1198594.41015625 6485010.5639028549 0 6485010.5639028549 53552344.673331261 0 0 0 0 -122872718.46560669 7120283.2599730492 0 7120283.2599730492 59062137.930026054 0 0 0 0 -100889145.39941406 57713699.693147421 0 57713699.693147421 110921278.69872665 0 0 0 0 -233845893.02667236 29069283.416928291 0 29069283.416928291 152197489.05041456 0 0 0 0 -1983127.4747170955 -2631441.5005191825 0 -2631441.5005191825 675573.00829846936 0 0 0 0 -109279222.73925781 -107364134.53744888 0 -107364134.53744888 152248558.35389549 0 0 0 0 250716161.35131836 -213106107.80528307 0 -213106107.80528307 -258488372.82359123 0 0 0 0 -245094318.93075562 -124313902.06310327 0 -124313902.06310327 75315817.577544212 0 0 0 0 -178761735.94299316 239330050.10766506 0 239330050.10766506 91584376.333539963 0 0 0 0 34660699.209228516 -41664415.838252544 0 -41664415.838252544 -149019979.18871686 0 0 0 0 -8590101.8296941519 -7237302.6193844117 0 -7237302.6193844117 4294229.9944775924 0 0 0 0 -28608262.341552734 7378386.2564258575 0 7378386.2564258575 -24231782.555999756 0 0 0 0 217133838.16784668 41212001.783445358 0 41212001.783445358 -144045212.26126003 0 0 0 0 195436453.68497467 143619160.09138435 0 143619160.09138435 2939805.6942310333 0 0 0 0 -43275873.107543945 -151799032.01668453 0 -151799032.01668453 138485243.72080356 0 0 0 0 218470679.52059937 69116354.805995703 0 69116354.805995703 -109948645.70615292 0 0 0 0 -52735856.625732422 -100930437.87192392 0 -100930437.87192392 -83239548.930127144 0 0 0 0 -29198572.839477539 -21296715.019113541 0 -21296715.019113541 -4848825.3962633181 0 0 0 0 -137411659.52758789 -98169395.012173653 0 -98169395.012173653 -4754059.7522573471 0 0 0 0 -244608142.29071045 37790733.986102104 0 37790733.986102104 91227977.282449722 0 0 0 0 32287961.231567383 11401700.001727581 0 11401700.001727581 -3724980.2658319473 0 0 0 0 -32190540.31652832 -6063653.8795208931 0 -6063653.8795208931 37263150.640165329 0 0 0 0 4586874.5554504395 -28878046.940666676 0 -28878046.940666676 42261261.878236771 0 0 0 0 -24354757.212997437 -26648932.451230526 0 -26648932.451230526 693943.93106269836 0 0 0 0 -34616694.077880859 -29685684.634545326 0 -29685684.634545326 13517056.191316605 0 0 0 0 -41459026.555603027 -23134747.361645699 0 -23134747.361645699 7894983.8106870651 0 0 0 0 40001.520228818059 259335.90355236828 0 259335.90355236828 680713.19612428173 0 0 0 0 45515364.843811035 -26525534.098576546 0 -26525534.098576546 15625285.943840981 0 0 0 0 127350228.76779175 156642795.67207932 0 156642795.67207932 -31161272.058526516 0 0 0 0 -26964444.573730469 -78642663.822353363 0 -78642663.822353363 76910594.399619609 0 0 0 0 52563324.717468262 -19862982.915054798 0 -19862982.915054798 3766532.7090444565 0 0 0 0 -1876164.7709960938 3002728.3157269955 0 3002728.3157269955 8081939.3309540749 0 0 0 0 192832.60065879673 611928.78722774237 0 611928.78722774237 2045140.9613421606 0 0 0 0 2893574.0125160217 26054.396212756634 0 26054.396212756634 -295689.85827255249 0 0 0 0 -389725.73873618245 842933.82857427746 0 842933.82857427746 878780.99827351794 0 0 0 0 11486260.578338623 14561014.311524987 0 14561014.311524987 17014919.171262503 0 0 0 0 -12909119.07147789 -3756661.0538633689 0 -3756661.0538633689 16223293.052122116 0 0 0 0 -24018712.495178223 -3250272.1200032234 0 -3250272.1200032234 24412867.469831467 0 0 0 0 -12504093.292236328 10287892.425779819 0 10287892.425779819 47474546.514432818 0 0 0 0 -7331612.1642150879 2221140.3997461796 0 2221140.3997461796 18337214.511106968 0 0 0 0 215338.14239004254 -138992.30047232658 0 -138992.30047232658 1992510.7206514971 0 0 0 0 -2830937.0618591309 -3117265.6174613629 0 -3117265.6174613629 2550543.7635282185 0 0 0 0 1830406.7743225098 2624783.2686274052 0 2624783.2686274052 3141610.0909485817 0 0 0 0 3600682.9422149658 2600332.1516268253 0 2600332.1516268253 4494672.7214355469 0 0 0 0 11962149.917816162 1408244.7692043781 0 1408244.7692043781 2730668.2491221428 0 0 0 0 712136866.9538269 769190352.5926013 0 769190352.5926013 529832116.42048824 0 0 0 0 457733.91798095405 182638.13198017329 0 182638.13198017329 204633.51031709928 0 0 0 0 751145611.0290451 706278845.15965974 0 706278845.15965974 350783395.22681141 0 0 0 0 754266374.05183411 617074756.27600169 0 617074756.27600169 375185222.0951314 0 0 0 0 -4924524.9066772461 13177484.607220173 0 13177484.607220173 -21767435.060824394 0 0 0 0 7432813.0146484375 -7704844.1352208853 0 -7704844.1352208853 -2860271.4339694977 0 0 0 0 -30876281.634490967 49269173.51161623 0 49269173.51161623 -25573806.552136421 0 0 0 0 -128072.6609480083 271419.50755879283 0 271419.50755879283 257281.47385643981 0 0 0 0 -26977967.523803711 26796932.97252655 0 26796932.97252655 8490211.5649662018 0 0 0 0 42687875.218109131 -3616063.1253314018 0 -3616063.1253314018 -1942219.3301682472 0 0 0 0 46455340.808609009 6449735.2393772602 0 6449735.2393772602 -4214882.3311982155 0 0 0 0 62695273.6118927 -6879747.8297778368 0 -6879747.8297778368 -4072214.6024827957 0 0 0 0 52876569.90763855 3970756.769579649 0 3970756.769579649 -1640862.6440792084 0 0 0 0 31880627.521270752 -11737543.34552598 0 -11737543.34552598 8866041.6864938736 0 0 0 0 42084172.242706299 -4750582.606048584 0 -4750582.606048584 -3092711.2827885151 0 0 0 0 42000068.422424316 -4298126.343644619 0 -4298126.343644619 -4755015.9838399887 0 0 0 0 48260906.276000977 -10519001.072759628 0 -10519001.072759628 -2226208.3447551727 0 0 0 0 11778881.469146729 -4571314.7031536102 0 -4571314.7031536102 2443038.9637465477 0 0 0 0 12182066.200511985 1380321.4025561512 0 1380321.4025561512 -126114.67565067741 0 0 0 0 47602072.52444458 1896137.7276477814 0 1896137.7276477814 -4822489.7493362427 0 0 0 0 -1779823.4934185743 -1432852.1226748526 0 -1432852.1226748526 1145833.1889978957 0 0 0 0 33840238.249069214 -9366360.7786487341 0 -9366360.7786487341 547349.09299135208 0 0 0 0 19955059.486756459 5056713.7553403974 0 5056713.7553403974 2349971.3356507965 0 0 0 0 27589737.721191406 -1314132.9187555909 0 -1314132.9187555909 1132367.6391205788 0 0 0 0 -175801422.3828125 -76795375.446852207 0 -76795375.446852207 81169745.755757332 0 0 0 0 21938008.106521167 -14186703.751476511 0 -14186703.751476511 -4946139.0853178268 0 0 0 0 -70228765.505554199 13617679.963240623 0 13617679.963240623 -67956834.495283723 0 0 0 0 -67878097.986755371 4317714.2590026855 0 4317714.2590026855 -69732874.556250572 0 0 0 0 -58636636.550048828 11108130.246186256 0 11108130.246186256 -68445270.590779305 0 0 0 0 -34914382.573699951 -8766376.3670072556 0 -8766376.3670072556 -65267068.828560829 0 0 0 0 6895085.6726226807 -2159488.8661262989 0 -2159488.8661262989 -3880670.9311618805 0 0 0 0 -9300778.4448242188 -28576132.502410889 0 -28576132.502410889 -52931475.773715019 0 0 0 0 -9300778.4447021484 -28576132.502660751 0 -28576132.502660751 -52931475.773742437 0 0 0 0 -9300778.4444580078 -28576132.502612114 0 -28576132.502612114 -52931475.773872375 0 0 0 0 13211875.790372565 -14098190.847130544 0 -14098190.847130544 -3485094.079926379 0 0 0 0 -6689737.3775024414 -19422449.860685825 0 -19422449.860685825 -4288118.5697312355 0 0 0 0 10250928.076007247 -7404278.0089728422 0 -7404278.0089728422 -3021647.6958453455 0 0 0 0 -26540067.559326172 -25705901.088973045 0 -25705901.088973045 4076519.4681818485 0 0 0 0 -6276290.358001709 -17084633.596514225 0 -17084633.596514225 -23971916.433940887 0 0 0 0 -32473544.792633057 -42331362.758699417 0 -42331362.758699417 -25424799.918535233 0 0 0 0 -10235948.690647125 -7019187.7095463276 0 -7019187.7095463276 5111122.663028717 0 0 0 0 -8778308.0613555908 -11665792.948545814 0 -11665792.948545814 9356107.6237618923 0 0 0 0 -19937332.150512695 -20646615.129369259 0 -20646615.129369259 2649368.0759950876 0 0 0 0 116779.57905578613 -4979563.6884771548 0 -4979563.6884771548 -224269.77192769572 0 0 0 0 -2350019.2611694336 -4831451.5269625001 0 -4831451.5269625001 5663427.2321929717 0 0 0 0 2054986.0414428711 -8186193.9618415833 0 -8186193.9618415833 -812158.72800118476 0 0 0 0 30639021.002288818 -15343056.987315655 0 -15343056.987315655 -370014.07641077042 0 0 0 0 15309232.301604681 -4988272.416033335 0 -4988272.416033335 -27637.717426873278 0 0 0 0 6921380.9060211182 -8947473.9140472412 0 -8947473.9140472412 -710529.30981016159 0 0 0 0 1170725.1755981445 -20772509.31667769 0 -20772509.31667769 -5241044.2238820791 0 0 0 0 31685029.81439209 1974698.4720516205 0 1974698.4720516205 -1421012.8286800385 0 0 0 0 26506392.854034424 -3151404.0146312714 0 -3151404.0146312714 3455106.5574369431 0 0 0 0 35290172.294128418 -8053723.7774496078 0 -8053723.7774496078 6106954.3334560394 0 0 0 0 39404212.296386719 -1393060.0285713673 0 -1393060.0285713673 -552060.4389333725 0 0 0 0 34842182.842697144 2888098.4086575508 0 2888098.4086575508 -3307659.7303007841 0 0 0 0 35877057.750946045 2266019.4700055122 0 2266019.4700055122 -3050729.9847738743 0 0 0 0 35712794.024749756 5557322.6900126934 0 5557322.6900126934 -3494548.6387114525 0 0 0 0 15785687.097259521 7430742.46498584 0 7430742.46498584 1616734.1565352008 0 0 0 0 8624510.7852394059 2085136.1495591328 0 2085136.1495591328 -565743.89455314982 0 0 0 0 14872978.638479233 -13901907.809583971 0 -13901907.809583971 -14693084.638733953 0 0 0 0 34465961.711730957 2625831.1162600517 0 2625831.1162600517 -1396693.8923537731 0 0 0 0 15439194.548427582 16290704.550183211 0 16290704.550183211 -5023198.8849149644 0 0 0 0 22643469.167498112 5972610.2177119441 0 5972610.2177119441 -2529523.74097759 0 0 0 0 6469774.748626709 -5728237.6674757004 0 -5728237.6674757004 -1950485.2327608168 0 0 0 0 16824686.669983312 -3894704.5197416395 0 -3894704.5197416395 -1376636.3922827016 0 0 0 0 9171094.7270267308 -2950540.9408174232 0 -2950540.9408174232 -735453.37411291944 0 0 0 0 16812474.474060059 2877367.9366755486 0 2877367.9366755486 -5107674.1129921898 0 0 0 0 3372210.6214599609 -5058771.6586116999 0 -5058771.6586116999 -2052456.3626942039 0 0 0 0 3411063.6561126709 -4793443.3364270125 0 -4793443.3364270125 -241780.26064268127 0 0 0 0 1744705.1768098474 -772051.89210201055 0 -772051.89210201055 1809210.2924466426 0 0 0 0 3479672.6703338623 -1228966.7473584712 0 -1228966.7473584712 -837037.75460770726 0 0 0 0 989360.59700012207 -306729.66675204039 0 -306729.66675204039 752842.886064291 0 0 0 0 776201.98883056641 -6444.6374089717865 0 -6444.6374089717865 916550.2403421402 0 0 0 0 3977401.5312240422 -1201864.9943695553 0 -1201864.9943695553 201731.39807720456 0 0 0 0 350095.92117264867 -329067.57992627844 0 -329067.57992627844 -283871.65030123445 0 0 0 0 -10509661.001739502 18349455.855568469 0 18349455.855568469 83757206.98323752 0 0 0 0 35439834.184082031 18148550.363639552 0 18148550.363639552 -115292831.27742808 0 0 0 0 123606628.26318359 23262943.924019963 0 23262943.924019963 51193700.423727952 0 0 0 0 254649867.6300354 107397780.45291673 0 107397780.45291673 175354.85496907437 0 0 0 0 30564248.149475098 50721203.678585105 0 50721203.678585105 154431850.25662249 0 0 0 0 30111034.761505127 182970535.04536805 0 182970535.04536805 322289414.24799353 0 0 0 0 43776994.639785767 74497972.440805167 0 74497972.440805167 26523230.204913236 0 0 0 0 27289358.292449951 -53895454.05336798 0 -53895454.05336798 18545724.338988263 0 0 0 0 9019279.4549713135 7819281.7245706245 0 7819281.7245706245 1974958.2752034515 0 0 0 0 24157239.136688232 -2754305.6241801828 0 -2754305.6241801828 -19302955.700811565 0 0 0 0 1699885.6782642007 772976.71952300519 0 772976.71952300519 -148423.9430106316 0 0 0 0 1370116.9249390662 371738.96288386732 0 371738.96288386732 -623415.94190610212 0 0 0 0 20281080.181762695 7699977.8745521009 0 7699977.8745521009 -8615360.4229530767 0 0 0 0 7730981.1669311523 -82466.242795005441 0 -82466.242795005441 22139354.649553403 0 0 0 0 36736760.689453125 16333994.091553852 0 16333994.091553852 -4199680.471129179 0 0 0 0 38791000.957550049 46987623.906835519 0 46987623.906835519 15833858.942304544 0 0 0 0 -5600378.8744277954 11434885.498285782 0 11434885.498285782 78395.634202731118 0 0 0 0 715149.93587628007 449056.69777530432 0 449056.69777530432 236851.2450497112 0 0 0 0 62068818.723968506 -36382598.238703385 0 -36382598.238703385 -6411.3826084864913 0 0 0 0 -19617367.536621094 -17732847.752319254 0 -17732847.752319254 7531249.4837257117 0 0 0 0 46235808.743209839 -7539927.1764822118 0 -7539927.1764822118 -20926008.922959507 0 0 0 0 696071563.95742035 416028728.59443098 0 416028728.59443098 132300542.03322339 0 0 0 0 691998443.4855957 456999295.55004346 0 456999295.55004346 140584191.66136813 0 0 0 0 784874576.35757446 545315470.42246807 0 545315470.42246807 215498872.30166578 0 0 0 0 724067730.61628723 539896850.0063045 0 539896850.0063045 225005852.0099864 0 0 0 0 802206567.45576859 502081359.39628029 0 502081359.39628029 69216243.731782436 0 0 0 0 588641959.9871521 543526883.10613108 0 543526883.10613108 539795379.82488823 0 0 0 0 490256166.91674042 346000185.12658775 0 346000185.12658775 230224286.91747451 0 0 0 0 1303432.4821245223 410197.603143543 0 410197.603143543 538689.68739119638 0 0 0 0 -203614.00051879883 643429.6737639904 0 643429.6737639904 1797861.1223883629 0 0 0 0 1070905.2005495578 1194820.9162947237 0 1194820.9162947237 1939548.9280086015 0 0 0 0 1669455.9125460237 544324.09215165675 0 544324.09215165675 964638.29828000441 0 0 0 0 784365.88011790812 791349.1646784395 0 791349.1646784395 1528808.2019318473 0 0 0 0 5072181.7125549316 2902352.7372618914 0 2902352.7372618914 -17024391.530139685 0 0 0 0 415333871.84337616 237600422.4371168 0 237600422.4371168 140536721.80285287 0 0 0 0 613176828.04373169 405823952.39467466 0 405823952.39467466 229332525.54790175 0 0 0 0 719297962.79052734 421931128.00672829 0 421931128.00672829 133311672.66099091 0 0 0 0 697429688.54039001 407054914.93801081 0 407054914.93801081 193095536.87849939 0 0 0 0 723416083.84234619 330825193.05282545 0 330825193.05282545 163703417.33971569 0 0 0 0 973882865.33056641 460159819.80071437 0 460159819.80071437 153277973.57316101 0 0 0 0 -58667257.036987305 16571707.195693225 0 16571707.195693225 118117374.25768942 0 0 0 0 285040.51597055793 256508.94160270691 0 256508.94160270691 531441.60791015439 0 0 0 0 27074966.501602173 49650455.376260847 0 49650455.376260847 -40278583.677723765 0 0 0 0 796205840.61151123 326921802.34218323 0 326921802.34218323 98722036.877171874 0 0 0 0 741727511.21881104 421807084.88551491 0 421807084.88551491 305911510.78292024 0 0 0 0 631511785.6963501 335429720.45024574 0 335429720.45024574 97568902.135876521 0 0 0 0 628613939.46146727 227866320.02187604 0 227866320.02187604 212954404.63293022 0 0 0 0 777260301.95422363 276815570.42723191 0 276815570.42723191 175214.44721043319 0 0 0 0 748996889.02740479 347864039.13754183 0 347864039.13754183 122345877.2881892 0 0 0 0 794558575.79246521 398576237.41822469 0 398576237.41822469 -256679.02627347014 0 0 0 0 761538351.65991211 376987565.65705794 0 376987565.65705794 104820974.10494864 0 0 0 0 771945346.90182495 466304853.06431282 0 466304853.06431282 125462808.09720612 0 0 0 0 724147215.77536011 428091793.04153305 0 428091793.04153305 105028855.71298134 0 0 0 0 800182218.64045715 444178541.34758574 0 444178541.34758574 53881815.193821549 0 0 0 0 810219807.69056702 429663192.8403973 0 429663192.8403973 60198523.88035059 0 0 0 0 823244443.58398438 432034304.52669704 0 432034304.52669704 1340553.9349540304 0 0 0 0 832449217.28285217 457637898.13957262 0 457637898.13957262 63461066.40071559 0 0 0 0 785569307.3704834 408314465.5153234 0 408314465.5153234 56114618.103093058 0 0 0 0 837757420.95849609 478257806.62920731 0 478257806.62920731 84377639.214957714 0 0 0 0 840576375.8444519 433886674.71339536 0 433886674.71339536 -27920263.828262091 0 0 0 0 906957379.51899719 532015793.49173033 0 532015793.49173033 46863484.115134716 0 0 0 0 875545968.74661255 637816434.26887655 0 637816434.26887655 197072868.39310217 0 0 0 0 870167072.17514038 581858179.08722019 0 581858179.08722019 3962244.5700998306 0 0 0 0 644980649.90820312 263672720.75043511 0 263672720.75043511 -148250386.78221679 0 0 0 0 117762085.40292239 -87308450.09409076 0 -87308450.09409076 -295805219.74166775 0 0 0 0 872897537.48019409 379193350.10148132 0 379193350.10148132 -201757165.86733437 0 0 0 0 1122176607.4637756 574723101.45822453 0 574723101.45822453 -119466213.81861961 0 0 0 0 770835904.20450211 346893886.48469806 0 346893886.48469806 -71972183.324501514 0 0 0 0 689643384.90750122 371889834.80833685 0 371889834.80833685 -47398454.556177139 0 0 0 0 569964719.56991577 122780755.43636376 0 122780755.43636376 -187348171.5547905 0 0 0 0 115519610.37582397 136336110.10871923 0 136336110.10871923 40606752.644206047 0 0 0 0 523302.17109046876 278365.79219346493 0 278365.79219346493 117713.75698196076 0 0 0 0 95765454.498962402 63549642.876711018 0 63549642.876711018 249723.43810427253 0 0 0 0 370114761.77985859 144898418.11906257 0 144898418.11906257 16127261.432295799 0 0 0 0 359540982.79232788 316981014.57123631 0 316981014.57123631 165777766.87394238 0 0 0 0 729830291.04592133 625840074.75669193 0 625840074.75669193 412614379.32606816 0 0 0 0 610938.22407919168 415922.11983960867 0 415922.11983960867 191718.7278730339 0 0 0 0 189208520.99052429 174322449.29660392 0 174322449.29660392 131525780.18883042 0 0 0 0 213889296.76014709 197954226.48619407 0 197954226.48619407 -50888.171654171922 0 0 0 0 229195131.6239624 111767422.70720176 0 111767422.70720176 137007531.84211355 0 0 0 0 97739781.839515686 71480276.681463405 0 71480276.681463405 -113720912.14527071 0 0 0 0 -46870982.194076538 278684315.83046931 0 278684315.83046931 -47478639.460022688 0 0 0 0 -151095631.08460999 359067999.61640143 0 359067999.61640143 -275941475.85674906 0 0 0 0 -119196159.65283203 280431340.11453974 0 280431340.11453974 698858591.84640479 0 0 0 0 276613021.90606689 462059337.99238533 0 462059337.99238533 -488367970.11775088 0 0 0 0 458074.05192385614 483189.4223864805 0 483189.4223864805 84417.77849840722 0 0 0 0 38211708.341186523 441028194.35325241 0 441028194.35325241 -125923924.49678743 0 0 0 0 93312494.269348145 442632223.52163982 0 442632223.52163982 195113059.90112495 0 0 0 0 292601821.71496582 627014426.22178602 0 627014426.22178602 141540609.81493378 0 0 0 0 59991752.013977051 251322163.53713441 0 251322163.53713441 -48771349.880760431 0 0 0 0 217638041.42318726 278313469.97615051 0 278313469.97615051 -316177513.84770679 0 0 0 0 6035381.7599639893 73630613.403201461 0 73630613.403201461 64065622.578905106 0 0 0 0 101378289.00357056 -20059876.121268153 0 -20059876.121268153 -200021885.79662132 0 0 0 0 139086433.82012939 -11836765.878627419 0 -11836765.878627419 -320500533.5161438 0 0 0 0 147914.42140862346 95559.866968341172 0 95559.866968341172 94752.787914921704 0 0 0 0 26022154.421936035 94949803.82251668 0 94949803.82251668 -166936472.56638598 0 0 0 0 346757782.39117432 213500778.70228338 0 213500778.70228338 140919472.77310371 0 0 0 0 310776645.73596191 528844464.60495526 0 528844464.60495526 252902681.98248988 0 0 0 0 621887627.47686768 352347431.97129774 0 352347431.97129774 -155458705.70018721 0 0 0 0 281617566.97314453 314890511.34669018 0 314890511.34669018 52236636.322652817 0 0 0 0 214854816.36755371 194968986.97793102 0 194968986.97793102 -326363055.96200258 0 0 0 0 264753664.5534668 172893202.40067482 0 172893202.40067482 -172104445.47694063 0 0 0 0 283456814.81933212 334708088.10179752 0 334708088.10179752 -162875998.43982601 0 0 0 0 85345721.831687927 165803801.39384139 0 165803801.39384139 -85262522.894254684 0 0 0 0 83879107.34564209 171119470.50400555 0 171119470.50400555 -90572957.651947021 0 0 0 0 391853021.1072998 402337778.97554111 0 402337778.97554111 -95172829.87267971 0 0 0 0 157312537.31518555 325233790.39720011 0 325233790.39720011 -47854946.275069952 0 0 0 0 235900376.18127441 268407428.05343461 0 268407428.05343461 -123564420.65764809 0 0 0 0 293927710.64202881 347048496.11182642 0 347048496.11182642 -118539117.97287083 0 0 0 0 91803339.19921875 376377950.90046978 0 376377950.90046978 -113744085.76264167 0 0 0 0 69973118.671020508 211353444.43514729 0 211353444.43514729 -110197739.51432717 0 0 0 0 68481664.625274658 245250828.50607681 0 245250828.50607681 -221523005.69306612 0 0 0 0 -63742448.984039307 159039924.19665313 0 159039924.19665313 -85149627.422079086 0 0 0 0 31712349.510437012 47175331.034034252 0 47175331.034034252 -292345082.35560894 0 0 0 0 24722089.940608978 46000255.836228043 0 46000255.836228043 -49887231.770760536 0 0 0 0 115151423.21588135 160244309.20260572 0 160244309.20260572 -140645044.29381728 0 0 0 0 -37040062.973999023 394172724.51780462 0 394172724.51780462 -931414018.14969301 0 0 0 0 -299698766.81072998 307662318.8917048 0 307662318.8917048 -210055377.55994785 0 0 0 0 -63610636.491790771 199230268.44112682 0 199230268.44112682 -228721755.61166972 0 0 0 0 40833634.746520996 416907159.00050515 0 416907159.00050515 -366971657.02316904 0 0 0 0 -4085356.9593505859 39640086.003808975 0 39640086.003808975 83572614.605504513 0 0 0 0 -1543909.5556229055 692851.92769352347 0 692851.92769352347 -182069.62498287228 0 0 0 0 132312775.26883698 -16355602.648410559 0 -16355602.648410559 -1350416742.210372 0 0 0 0 -13352729.445098877 73409099.343803644 0 73409099.343803644 -517742043.40240383 0 0 0 0 55480432.571275711 323305401.36257362 0 323305401.36257362 -318706231.13500714 0 0 0 0 -241824199.44406128 277049144.99791139 0 277049144.99791139 -220532326.4302665 0 0 0 0 43268848.627288818 195491833.61146879 0 195491833.61146879 -598904762.62105823 0 0 0 0 18092270.666412354 125674519.05329108 0 125674519.05329108 -467250951.82157755 0 0 0 0 -3461046.6526850164 4546465.1600188781 0 4546465.1600188781 -1490300.8086786999 0 0 0 0 39254278.328948975 13677750.602187753 0 13677750.602187753 539162.03883123398 0 0 0 0 2320758.6213651299 1335850.5665420219 0 1335850.5665420219 -1176263.4088709229 0 0 0 0 -90145193.303894043 182596494.87150443 0 182596494.87150443 -377552906.13249207 0 0 0 0 5476293.4468002319 -2635795.8485620618 0 -2635795.8485620618 2499530.0752220154 0 0 0 0 1679086.7315911651 191813.73153565452 0 191813.73153565452 -1108372.9692026214 0 0 0 0 8477280.0940704346 -9874486.8086913228 0 -9874486.8086913228 -3887251.6435301304 0 0 0 0 4439901.743347168 9123103.6956830025 0 9123103.6956830025 -24523148.860618591 0 0 0 0 6077473.7684860229 -2274204.0437866449 0 -2274204.0437866449 -11543260.595020771 0 0 0 0 14076429.818192959 916282.70217459649 0 916282.70217459649 -5731431.8399489708 0 0 0 0 6052310.7948303223 42705203.992519379 0 42705203.992519379 -1120893.2458167076 0 0 0 0 22102061.969155326 8488864.6826145463 0 8488864.6826145463 -5322675.2703435719 0 0 0 0 577261719.46575928 1085618682.539619 0 1085618682.539619 1132216434.9132376 0 0 0 0 9074073.2796325684 -9636261.7907519341 0 -9636261.7907519341 -17639754.835341454 0 0 0 0 251364015.73397827 770657788.29822397 0 770657788.29822397 1244064006.2419243 0 0 0 0 1568115.9226480871 231449.567482844 0 231449.567482844 -1088122.6992932549 0 0 0 0 -145311444.58850098 683155537.69720078 0 683155537.69720078 2764910464.1071625 0 0 0 0 17303319.041461945 78072196.007514477 0 78072196.007514477 -32757097.505716324 0 0 0 0 49026864.703796387 8288169.6210212708 0 8288169.6210212708 -73807329.692902565 0 0 0 0 17286268.875273779 -411388.95407440886 0 -411388.95407440886 -3432987.752751404 0 0 0 0 538230872.83148193 704423942.55290508 0 704423942.55290508 1835636892.9482899 0 0 0 0 465946409.83117676 1095217580.9705658 0 1095217580.9705658 2682271057.3209991 0 0 0 0 459446288.63430786 1437110349.8096142 0 1437110349.8096142 2405947000.971941 0 0 0 0 956084173.60948181 1090864033.4594824 0 1090864033.4594824 1601710107.3161812 0 0 0 0 24237571.644578934 58464263.229020953 0 58464263.229020953 -257334485.22778893 0 0 0 0 925220323.55384827 2199145446.8766332 0 2199145446.8766332 4151567786.0343475 0 0 0 0 5684188.3834625185 275188.5440264456 0 275188.5440264456 -725598.92599186068 0 0 0 0 1239247657.9705353 12949820.289625168 0 12949820.289625168 1489459830.6324224 0 0 0 0 778215056.86889648 -303006783.74897337 0 -303006783.74897337 609053827.91454482 0 0 0 0 2616889942.0918884 1296215519.205749 0 1296215519.205749 1093128706.1518774 0 0 0 0 606340994.04586792 1039257829.3938346 0 1039257829.3938346 1480544554.0638704 0 0 0 0 505622713.65444946 443436742.80073643 0 443436742.80073643 1265544224.6821547 0 0 0 0 356245395.57336426 -53673258.629672527 0 -53673258.629672527 630339808.42358637 0 0 0 0 213563204.32785034 62586582.567228317 0 62586582.567228317 537317728.78791761 0 0 0 0 423691571.05340576 634788513.90770769 0 634788513.90770769 889636671.07861447 0 0 0 0 666304186.85803223 928965965.55556774 0 928965965.55556774 1872712043.8869767 0 0 0 0 642422968.12691116 699628943.98037958 0 699628943.98037958 605429386.67542267 0 0 0 0 672042279.802948 679676159.94735837 0 679676159.94735837 356426221.1488049 0 0 0 0 681779477.79077148 853683170.7045784 0 853683170.7045784 699205210.08915758 0 0 0 0 1118625001.7717133 939366385.58830214 0 939366385.58830214 25508781.347007275 0 0 0 0 939599005.19223022 658446738.91655517 0 658446738.91655517 85532480.412329197 0 0 0 0 974536694.02186584 211013938.24649596 0 211013938.24649596 -360300322.36706877 0 0 0 0 -86760375.486824036 -396568029.81628627 0 -396568029.81628627 -491904077.07250118 0 0 0 0 876867340.91751099 312815970.29313612 0 312815970.29313612 -171849579.59360409 0 0 0 0 879190879.11029053 202316568.24366283 0 202316568.24366283 -335959001.99025881 0 0 0 0 1653533669.1690979 222075719.26349354 0 222075719.26349354 -924864433.63461876 0 0 0 0 1480876668.3074341 1550322480.8096626 0 1550322480.8096626 878938671.31130695 0 0 0 0 2096487980.6742401 963616443.82214546 0 963616443.82214546 -625420798.30030632 0 0 0 0 1497666504.0728607 133382497.55363768 0 133382497.55363768 -630622.13208285812 0 0 0 0 6612546215.6754684 -185160585.69502047 0 -185160585.69502047 926291007.88083553 0 0 0 0 6868065286.8478432 -1667898361.7551057 0 -1667898361.7551057 -450701462.80038458 0 0 0 0 3550992732.1291962 -4032693642.5395193 0 -4032693642.5395193 908093818.98883724 0 0 0 0 7770701147.5502052 1421117643.6148727 0 1421117643.6148727 -348804717.03004813 0 0 0 0 -692776592.80288696 871640459.77980494 0 871640459.77980494 -364083327.09636217 0 0 0 0 6226469.9099903703 1327356.6346805543 0 1327356.6346805543 -314930.30933140684 0 0 0 0 122611276.21076202 28115458.175572678 0 28115458.175572678 69355769.65861392 0 0 0 0 12417371.625169516 4316703.997407224 0 4316703.997407224 176496.20165545039 0 0 0 0 995455894.76501465 475798315.14747167 0 475798315.14747167 -1470727806.8652778 0 0 0 0 3686981077.5748801 554219631.23805249 0 554219631.23805249 -3125344307.8501091 0 0 0 0 564925264.94061279 -589341282.76753998 0 -589341282.76753998 -275304227.03472596 0 0 0 0 321994163.94029236 3538784573.5838881 0 3538784573.5838881 453814611.54244685 0 0 0 0 6084490.3289179057 3015926.1989189535 0 3015926.1989189535 773564.28177263413 0 0 0 0 1637403742.3453979 3829910447.78053 0 3829910447.78053 -1717865947.5646234 0 0 0 0 4399249130.793457 -751765807.64490545 0 -751765807.64490545 -683242085.08321178 0 0 0 0 4114362067.7721558 1917923141.7340584 0 1917923141.7340584 -217745721.09550774 0 0 0 0 1321324058.0082092 2080602049.2314284 0 2080602049.2314284 839900003.05574346 0 0 0 0 1870243936.1749268 -915840681.74365842 0 -915840681.74365842 504457814.86812413 0 0 0 0 1306154046.5168762 737766668.36294174 0 737766668.36294174 -619601080.34903574 0 0 0 0 2683375458.7842865 1131028679.2220011 0 1131028679.2220011 -808887556.01836109 0 0 0 0 3207782169.3090363 495580479.03493953 0 495580479.03493953 -304133774.18800175 0 0 0 0 1972617317.0776062 -585228510.03628588 0 -585228510.03628588 -655978400.02867508 0 0 0 0 1618259480.8482795 1062118115.5396318 0 1062118115.5396318 123194422.32065856 0 0 0 0 1582271603.8974304 95979160.87927644 0 95979160.87927644 15828062.614324953 0 0 0 0 1682911591.742157 66585411.788275868 0 66585411.788275868 -193606053.87079948 0 0 0 0 253846463.48674011 122925471.75563975 0 122925471.75563975 500592.10406573996 0 0 0 0 986987.03957828879 618579.75000039674 0 618579.75000039674 5410.0811523375451 0 0 0 0 -345121039.84649658 402158166.9715929 0 402158166.9715929 -270720651.09515905 0 0 0 0 -529353345.26287842 339282668.64629591 0 339282668.64629591 -151135275.34044242 0 0 0 0 1422531.9133344591 1146970.8747454565 0 1146970.8747454565 151262.5131973754 0 0 0 0 1757228383.5049438 537143895.7580812 0 537143895.7580812 -1067877316.9772695 0 0 0 0 -524741154.66925049 39266289.998905778 0 39266289.998905778 -433718876.39276779 0 0 0 0 281977.91647881269 261963.33723060042 0 261963.33723060042 -12872.822513357271 0 0 0 0 -367804487.1385498 -217920159.59904003 0 -217920159.59904003 57582538.452554941 0 0 0 0 1329434888.1666107 488926506.04635549 0 488926506.04635549 350385090.58797216 0 0 0 0 -322718646.18948364 429432050.29043329 0 429432050.29043329 -158091561.61812258 0 0 0 0 -374070188.78352356 263516440.96234381 0 263516440.96234381 -156761365.93750978 0 0 0 0 157221717.04289246 -49726880.160958767 0 -49726880.160958767 -23968716.192806721 0 0 0 0 995977.06978805363 797496.08843293786 0 797496.08843293786 -218432.87420676579 0 0 0 0 95144007.334320068 70259526.925946236 0 70259526.925946236 -57086067.623134315 0 0 0 0 -18193444.142211914 4267172.4761664271 0 4267172.4761664271 -12708402.456310987 0 0 0 0 84549653.361053467 131466568.18213904 0 131466568.18213904 -69685297.062754869 0 0 0 0 78259676.609699249 1486266.8369524926 0 1486266.8369524926 -85206846.069942474 0 0 0 0 32875370.231536865 26364022.446312785 0 26364022.446312785 -15293119.257862568 0 0 0 0 80031752.836853027 13137699.878516674 0 13137699.878516674 -20743963.443536207 0 0 0 0 93527672.196289062 167330802.13005829 0 167330802.13005829 433415891.99520874 0 0 0 0 28042659.216644287 -40487743.643849373 0 -40487743.643849373 -37232594.950160503 0 0 0 0 29550652.429620013 4322407.4665826447 0 4322407.4665826447 -7110525.3803373873 0 0 0 0 13823430.297729492 -10744293.29887116 0 -10744293.29887116 -15694361.838682175 0 0 0 0 17609829.46832931 4984885.0543405563 0 4984885.0543405563 -4468439.2695608428 0 0 0 0 215229757.40090942 -133080079.32074571 0 -133080079.32074571 -105086337.88264441 0 0 0 0 8448967.5611495972 4846326.969857797 0 4846326.969857797 -7139669.6534030437 0 0 0 0 59953357.266021729 45215765.174969196 0 45215765.174969196 -153354750.25850105 0 0 0 0 -14155606.06149292 -24616619.500073671 0 -24616619.500073671 92261407.938638687 0 0 0 0 42271114.171340942 94927542.404278159 0 94927542.404278159 118153034.14449859 0 0 0 0 423197.00139093399 -184610.12182993814 0 -184610.12182993814 -186239.43644239823 0 0 0 0 15290951.293980874 1886433.1114525571 0 1886433.1114525571 -13177656.182987234 0 0 0 0 -28363572.450012207 -79927903.506618261 0 -79927903.506618261 280176496.68185043 0 0 0 0 -201797296.58934021 -170703148.60189867 0 -170703148.60189867 -87247439.258663177 0 0 0 0 20768753.789342448 8847565.3955552727 0 8847565.3955552727 -4031448.217714143 0 0 0 0 -617143240.30554199 -86950018.955198765 0 -86950018.955198765 425893971.90087867 0 0 0 0 728751769.58099365 480934042.65380526 0 480934042.65380526 -272824324.67710781 0 0 0 0 280505763.40258789 -400875568.41026413 0 -400875568.41026413 1025543897.023695 0 0 0 0 24674595.581793427 14261209.400825977 0 14261209.400825977 -271494.05441860855 0 0 0 0 87580573.380157471 -28629640.698163033 0 -28629640.698163033 -569901084.03598404 0 0 0 0 362263740.94622803 -374323462.26403999 0 -374323462.26403999 -386738646.16071701 0 0 0 0 -273765492.3813324 -129026697.73090959 0 -129026697.73090959 1185819893.3321199 0 0 0 0 374550525.96185875 1467534898.6867344 0 1467534898.6867344 2188123687.4925499 0 0 0 0 -137653021.55950928 -349735853.75316668 0 -349735853.75316668 222844374.25066566 0 0 0 0 463227586.77255249 444156916.16940546 0 444156916.16940546 -120806706.63396096 0 0 0 0 -474323809.05226517 -199212285.57386923 0 -199212285.57386923 932133907.01535797 0 0 0 0 4370906.5642579645 -735425.97938543558 0 -735425.97938543558 -4062379.8023865735 0 0 0 0 1174161070.0190277 1122405773.4359798 0 1122405773.4359798 354140307.04166412 0 0 0 0 1407836865.4499512 2160019286.0111551 0 2160019286.0111551 1002964841.1485739 0 0 0 0 4310688425.5224304 1794716300.9397869 0 1794716300.9397869 -207277634.71228874 0 0 0 0 1042150120.8217773 1485750021.9810963 0 1485750021.9810963 -191229553.64702392 0 0 0 0 1646559810.950592 2107773193.1463737 0 2107773193.1463737 913984951.74236822 0 0 0 0 5572859625.8213196 762299121.02051735 0 762299121.02051735 546704485.86739159 0 0 0 0 5804137142.2824097 644092829.87803102 0 644092829.87803102 -127138523.75693178 0 0 0 0 5404349509.8538208 73137173.269965649 0 73137173.269965649 281140301.61250257 0 0 0 0 8164142401.3545532 -1976072234.2484446 0 -1976072234.2484446 2867004123.8463507 0 0 0 0 5340799760.8851318 536564312.86146355 0 536564312.86146355 1680611647.4664154 0 0 0 0 6249843472.0170593 -1037552548.4022527 0 -1037552548.4022527 6398436266.1636562 0 0 0 0 1538136112.6007538 2203543139.1947255 0 2203543139.1947255 2258262444.7918291 0 0 0 0 6281120820.9799805 2504039497.1492181 0 2504039497.1492181 1538627463.7804079 0 0 0 0 988031525.53427124 1811680631.8573933 0 1811680631.8573933 2776231516.3877954 0 0 0 0 2536908740.27948 -2309297796.8754444 0 -2309297796.8754444 1064333943.8276722 0 0 0 0 6333034224.6837769 -3575735519.8524876 0 -3575735519.8524876 1450958962.8201923 0 0 0 0 9489493.7767953724 5521347.2981827743 0 5521347.2981827743 1370527.4351887903 0 0 0 0 6466779082.6444397 -863680439.20706224 0 -863680439.20706224 -417374036.08098507 0 0 0 0 3231456899.2167664 -987644194.34493637 0 -987644194.34493637 -137414291.48651099 0 0 0 0 3224217849.6298218 -852787421.4149344 0 -852787421.4149344 -288608254.46007824 0 0 0 0 6051404032.5631409 129542660.06597042 0 129542660.06597042 -601812407.44883347 0 0 0 0 6198507869.4888992 -123622943.35493004 0 -123622943.35493004 -1174651601.9399977 0 0 0 0 5389370.3347491007 683765.65717439353 0 683765.65717439353 3877909.8318708641 0 0 0 0 9394329845.5235291 -880328639.71845698 0 -880328639.71845698 -1256190525.2707319 0 0 0 0 2589153.4617805206 -15370.328876972198 0 -15370.328876972198 2597683.7235976085 0 0 0 0 5578198809.8539219 316619783.69143391 0 316619783.69143391 597449862.4679594 0 0 0 0 5732946860.255661 -304878957.88463545 0 -304878957.88463545 372003590.3985002 0 0 0 0 4891720370.1453667 -1567136846.6575606 0 -1567136846.6575606 2683336183.6906767 0 0 0 0 6614275750.8490372 38703658.549037732 0 38703658.549037732 -266031167.79840869 0 0 0 0 5913897176.0671158 394468311.67165643 0 394468311.67165643 -234538286.63360447 0 0 0 0 5920792565.537117 41498339.144451752 0 41498339.144451752 -245356089.36245346 0 0 0 0 5894404377.1750946 93749567.284214735 0 93749567.284214735 -16319902.751044795 0 0 0 0 6351954148.3858948 -282059957.42180008 0 -282059957.42180008 -55375643.717203438 0 0 0 0 5979991477.655899 53121692.821959212 0 53121692.821959212 -4765127.4900905676 0 0 0 0 5655469223.4506664 -113558720.84628256 0 -113558720.84628256 -131297804.1235851 0 0 0 0 4461507316.4170227 -459864361.57729304 0 -459864361.57729304 144291929.23938251 0 0 0 0 5357109255.2265472 -131448971.06671575 0 -131448971.06671575 169974836.42759991 0 0 0 0 5348603.5821130192 650302.64917517453 0 650302.64917517453 1582863.6378343052 0 0 0 0 3278635760.8981476 -298191048.55732805 0 -298191048.55732805 509066720.05946541 0 0 0 0 2394127.646945063 1139978.1419427842 0 1139978.1419427842 306531.85307827499 0 0 0 0 2886613380.1156006 -997413615.0146656 0 -997413615.0146656 -35857785.016613007 0 0 0 0 3734280539.9563293 -760491018.57271266 0 -760491018.57271266 -167937934.33278775 0 0 0 0 3086325398.7740936 -100593059.6458478 0 -100593059.6458478 329213306.54039872 0 0 0 0 2666702763.145401 -111422368.96256697 0 -111422368.96256697 257028601.2219981 0 0 0 0 4015193134.1225815 -44137737.378546864 0 -44137737.378546864 198545612.74035716 0 0 0 0 3422891502.7379475 -494606368.51612103 0 -494606368.51612103 -350250209.99077511 0 0 0 0 3965070.2008541021 1361281.4793642536 0 1361281.4793642536 1134173.3067138547 0 0 0 0 2526426.0451357183 239757.29952204227 0 239757.29952204227 306825.1741619251 0 0 0 0 5248626666.1404114 -200947135.71808812 0 -200947135.71808812 -274968164.95220405 0 0 0 0 4660858827.9877167 170282134.90035558 0 170282134.90035558 -248027402.41799986 0 0 0 0 5294748412.2755051 308447557.02163881 0 308447557.02163881 288801451.91600662 0 0 0 0 4488682472.6748962 -585072561.8729316 0 -585072561.8729316 -327910006.63826758 0 0 0 0 4005410447.3891602 -229108032.17243052 0 -229108032.17243052 366595755.32303548 0 0 0 0 3139186347.3574829 -468592594.15727139 0 -468592594.15727139 374454085.81759226 0 0 0 0 2101597933.9364014 482635775.93690228 0 482635775.93690228 1286085206.4413118 0 0 0 0 2177013367.2967682 555759885.7204392 0 555759885.7204392 1007120818.0608745 0 0 0 0 3701876495.6757812 1122056486.559413 0 1122056486.559413 1113419104.5756845 0 0 0 0 774418930.74315643 977922769.91316819 0 977922769.91316819 1862521756.358243 0 0 0 0 734269517.63461304 989102586.47051907 0 989102586.47051907 2518865919.4313273 0 0 0 0 274337270.03792191 1353010294.2920303 0 1353010294.2920303 2233013485.8018179 0 0 0 0 1360506770.3802948 73829741.53821516 0 73829741.53821516 1949016369.1616426 0 0 0 0 382217041.21096802 -411095786.2246331 0 -411095786.2246331 912804174.52975774 0 0 0 0 634386754.96459961 986851041.10929012 0 986851041.10929012 825513229.33264089 0 0 0 0 1273032249.2106934 -27272009.826525688 0 -27272009.826525688 -373221344.5520587 0 0 0 0 2609054929.9564056 -330332061.90037847 0 -330332061.90037847 -563397745.87342739 0 0 0 0 1158447255.1224365 211919313.46666861 0 211919313.46666861 -95490725.851714373 0 0 0 0 2811918759.7600403 -714575793.40595222 0 -714575793.40595222 -70399438.321264267 0 0 0 0 1749371753.6504669 247206495.31515253 0 247206495.31515253 -171645651.66916466 0 0 0 0 1069543708.6703796 -895903990.41546416 0 -895903990.41546416 453765505.34850645 0 0 0 0 4936654.153514266 5024477.7826128462 0 5024477.7826128462 -1948260.3011147536 0 0 0 0 95121208.764396667 -407863395.65058613 0 -407863395.65058613 765813289.086483 0 0 0 0 -257826826.65129852 -211491378.34720024 0 -211491378.34720024 441725514.07493591 0 0 0 0 6209596.7001497671 1603101.587571241 0 1603101.587571241 -4315354.2383694528 0 0 0 0 285185903.82339478 330711843.41322088 0 330711843.41322088 129721664.75852489 0 0 0 0 435977107.859375 111782391.37240362 0 111782391.37240362 444660677.57943439 0 0 0 0 1071730364.9623108 935072917.4182694 0 935072917.4182694 654804642.63632667 0 0 0 0 570911585.37880325 629493674.96886098 0 629493674.96886098 745165769.66803074 0 0 0 0 502392895.99536133 104185386.64446831 0 104185386.64446831 -296248093.6245966 0 0 0 0 19427839.66823335 8364747.8230118128 0 8364747.8230118128 -6653682.7920025419 0 0 0 0 205246495.07696533 -208991630.15855789 0 -208991630.15855789 -309783257.8165766 0 0 0 0 88942692.98210144 335942121.40713263 0 335942121.40713263 456357680.02696228 0 0 0 0 425144702.13554382 415997904.95761967 0 415997904.95761967 215331276.95085526 0 0 0 0 199266235.92480469 567134795.35436821 0 567134795.35436821 385323993.6895771 0 0 0 0 -156466434.14889526 149031306.11748791 0 149031306.11748791 215415780.63962746 0 0 0 0 -203862482.85687256 425403640.27397346 0 425403640.27397346 -503129835.87139893 0 0 0 0 1048814.7417918146 -851201.6086945124 0 -851201.6086945124 -1112611.4876253149 0 0 0 0 386916388.83300781 445610596.70087719 0 445610596.70087719 283942699.6060431 0 0 0 0 278485592.90618896 643679632.1474781 0 643679632.1474781 492467530.09597015 0 0 0 0 454608548.55340576 636196475.6323967 0 636196475.6323967 324441524.12253284 0 0 0 0 494918558.93536377 577065632.23989201 0 577065632.23989201 411169292.73370361 0 0 0 0 381766141.58905029 551848136.87238312 0 551848136.87238312 557112283.4821043 0 0 0 0 514992526.74019623 849719535.88035548 0 849719535.88035548 752606292.85819244 0 0 0 0 619365206.51504517 388362980.51413083 0 388362980.51413083 378501203.33047014 0 0 0 0 483112188.60638428 692885440.31955242 0 692885440.31955242 963748661.73176551 0 0 0 0 908627974.41201782 821259875.41855001 0 821259875.41855001 998093640.68756902 0 0 0 0 556771037.95875549 758365304.8191098 0 758365304.8191098 1740910536.0097628 0 0 0 0 1167108087.3424377 1893372690.4328523 0 1893372690.4328523 2184947211.9472456 0 0 0 0 2147367963.1225281 1055609496.3079495 0 1055609496.3079495 634376931.27811861 0 0 0 0 885898597.85941315 688106968.10863543 0 688106968.10863543 1069267965.4606693 0 0 0 0 1056500929.7179871 445264667.49177027 0 445264667.49177027 389871846.96735674 0 0 0 0 3097262075.829895 133677844.07482433 0 133677844.07482433 918458762.04285145 0 0 0 0 317445479.16796875 1612343151.6171246 0 1612343151.6171246 3343185702.068222 0 0 0 0 3936153.5380316377 2716892.4488378987 0 2716892.4488378987 -2494767.9982391289 0 0 0 0 -319329331.46228027 -232546296.25295734 0 -232546296.25295734 1200844741.1050768 0 0 0 0 -231045035.15914917 1229900478.5804129 0 1229900478.5804129 3131642717.5284653 0 0 0 0 7473592.0464460403 244709.1636107238 0 244709.1636107238 -156155.19435744872 0 0 0 0 -909382841.94247437 33983795.092218399 0 33983795.092218399 523813262.21824431 0 0 0 0 2120458021.5085449 -374597961.99749851 0 -374597961.99749851 387727664.67893267 0 0 0 0 1703314807.9009705 2364594876.5151868 0 2364594876.5151868 1919262272.9232535 0 0 0 0 1217394351.4603119 1465502503.1188016 0 1465502503.1188016 446120907.12929249 0 0 0 0 15626324.55142723 -5498871.4572446905 0 -5498871.4572446905 512993.77181089204 0 0 0 0 -277313944.85461426 -196887292.46499634 0 -196887292.46499634 535722103.85095596 0 0 0 0 1158323197.5501099 -361798800.33466721 0 -361798800.33466721 -1838381285.8786092 0 0 0 0 55980489.29856205 -237096074.94456708 0 -237096074.94456708 32909293.868591309 0 0 0 0 207994180.82032967 620481649.21642458 0 620481649.21642458 -161629156.43740082 0 0 0 0 505696685.60340881 828556640.16600132 0 828556640.16600132 1228301719.2158146 0 0 0 0 1861663403.9472961 23219966.492403984 0 23219966.492403984 -87579233.282874584 0 0 0 0 761406569.20044708 -282843726.28304386 0 -282843726.28304386 -1651336617.2944641 0 0 0 0 484928082.38821411 -751002789.42898083 0 -751002789.42898083 1280020346.5083263 0 0 0 0 -698895528.30119324 -591343110.51067781 0 -591343110.51067781 1271354785.4367428 0 0 0 0 4306764752.4221191 -1186172002.975584 0 -1186172002.975584 86917405.34633255 0 0 0 0 3269281107.8470459 749110374.00561905 0 749110374.00561905 -321832048.98737049 0 0 0 0 7898389.3352928907 -2263715.0481528547 0 -2263715.0481528547 72840.444422095083 0 0 0 0 808088605.44709778 -1899892425.8221288 0 -1899892425.8221288 771648762.50593948 0 0 0 0 4191250336.9586182 -206308913.58795071 0 -206308913.58795071 513289240.33206177 0 0 0 0 3334735049.4998779 664588277.58747625 0 664588277.58747625 -6719724.6637706757 0 0 0 0 3387173764.8027344 207483280.8929348 0 207483280.8929348 1715624686.5586247 0 0 0 0 2780660724.6730347 971299787.7807982 0 971299787.7807982 2106672820.8179312 0 0 0 0 3813990647.3560486 1770411468.4774389 0 1770411468.4774389 2020348500.2635546 0 0 0 0 2544712707.9320679 1493519055.0541389 0 1493519055.0541389 1022319250.820307 0 0 0 0 2677633432.1904907 547632554.14424419 0 547632554.14424419 1445760983.1651039 0 0 0 0 1601467190.0474548 1865155303.7166128 0 1865155303.7166128 93185413.009749651 0 0 0 0 -450861810.34538269 1359972619.8745375 0 1359972619.8745375 1596450064.3844719 0 0 0 0 1471369530.4750538 1127876316.7198784 0 1127876316.7198784 1152825804.6759663 0 0 0 0 764762234.33370972 1645241822.379595 0 1645241822.379595 1686763329.9817443 0 0 0 0 515318022.96221924 1427351789.6346085 0 1427351789.6346085 2253783172.4709454 0 0 0 0 1610683885.4167786 1115866812.0965846 0 1115866812.0965846 1880881674.6140199 0 0 0 0 2354069775.5744171 1503231967.1081119 0 1503231967.1081119 1365416998.4529457 0 0 0 0 2504350664.0049744 1046000072.8967185 0 1046000072.8967185 1492776964.4789395 0 0 0 0 3801477808.0517144 1715580714.9602425 0 1715580714.9602425 1262439270.8913002 0 0 0 0 1430050287.5527649 1393455189.3487077 0 1393455189.3487077 1935816356.5581837 0 0 0 0 3098845795.8226013 -92684156.994674325 0 -92684156.994674325 1055345886.5773898 0 0 0 0 2099937.4618845005 257560.58527901769 0 257560.58527901769 814020.87030058808 0 0 0 0 5298387188.5158539 829228157.46607542 0 829228157.46607542 355813183.70199299 0 0 0 0 4193033669.1192245 569542039.08825469 0 569542039.08825469 1347681717.7980413 0 0 0 0 3793634631.8080935 1449222464.8867669 0 1449222464.8867669 1877060562.8651505 0 0 0 0 4677738807.7176514 105188934.57648341 0 105188934.57648341 346485991.51009405 0 0 0 0 4073635591.0515747 318579005.59633708 0 318579005.59633708 1241095687.8809214 0 0 0 0 4300863783.5166206 1428049557.5992362 0 1428049557.5992362 1113161503.1933599 0 0 0 0 4513456339.4263153 860734088.14877152 0 860734088.14877152 1602967622.317683 0 0 0 0 4341067757.1405334 491222663.07339048 0 491222663.07339048 1187430524.4025159 0 0 0 0 4332326303.8943481 1210087952.4625912 0 1210087952.4625912 2618535186.096314 0 0 0 0 4458805894.464119 802426488.20701182 0 802426488.20701182 1437056170.0080261 0 0 0 0 5281975241.4256592 -373625556.32325506 0 -373625556.32325506 2689972235.2783871 0 0 0 0 6172504366.9935303 801078391.92235756 0 801078391.92235756 1653919464.2027631 0 0 0 0 1691786.4384143986 -652970.67668896914 0 -652970.67668896914 4183898.981253095 0 0 0 0 3946447890.1481152 -2432422020.390183 0 -2432422020.390183 2591886565.3248329 0 0 0 0 4602587541.027977 1779505216.6230042 0 1779505216.6230042 1387753976.1506286 0 0 0 0 2517397002.0371246 -1082788429.717134 0 -1082788429.717134 1777958756.2556133 0 0 0 0 3876686895.6764679 1654794823.4713163 0 1654794823.4713163 -1588789582.8640232 0 0 0 0 2867384801.2494125 970291900.2596122 0 970291900.2596122 216777348.80081636 0 0 0 0 4633806845.0374756 1580903163.1981592 0 1580903163.1981592 347384973.17684299 0 0 0 0 4410408218.7417221 1553179608.3327558 0 1553179608.3327558 1157386546.6787851 0 0 0 0 4646240436.9003143 2034455677.8062701 0 2034455677.8062701 96004311.57967937 0 0 0 0 4742036959.0382156 1646376758.2446823 0 1646376758.2446823 141044994.62360692 0 0 0 0 6615057299.1639042 759061940.80017745 0 759061940.80017745 -202125661.64682794 0 0 0 0 5641425021.4548798 1532801461.4130266 0 1532801461.4130266 332365692.90632659 0 0 0 0 4874520332.8809662 545402107.5298543 0 545402107.5298543 795575551.09515738 0 0 0 0 -152050991.90655518 136739770.91949654 0 136739770.91949654 -108857516.99189293 0 0 0 0 2159284.566513896 4908459.8374223821 0 4908459.8374223821 -1516354.10484944 0 0 0 0 44558562.327703327 -2409982.3335782066 0 -2409982.3335782066 -7484588.0324153928 0 0 0 0 305376882.92480469 22909426.6755867 0 22909426.6755867 -98188348.077790976 0 0 0 0 786294.91836547852 151878616.44080257 0 151878616.44080257 -352342698.82100153 0 0 0 0 -166689941.32722473 325648353.21149349 0 325648353.21149349 -142890266.45792007 0 0 0 0 -167225758.12574005 217341337.86823201 0 217341337.86823201 212801821.18553162 0 0 0 0 -166297358.11145782 195146439.20571899 0 195146439.20571899 34514864.358652115 0 0 0 0 -7211167.5963134766 76830100.755222797 0 76830100.755222797 -144402364.99013901 0 0 0 0 18202236.593837731 15214540.646902584 0 15214540.646902584 -5493631.0456749806 0 0 0 0 13134189.997344971 49976297.641843915 0 49976297.641843915 2830343.3676815033 0 0 0 0 -2144775.8979492188 96102738.020082712 0 96102738.020082712 466397.07446789742 0 0 0 0 106606014.10821533 57813428.453271031 0 57813428.453271031 -148202400.3186388 0 0 0 0 -18907465.938354492 78483598.947359085 0 78483598.947359085 73269750.181575775 0 0 0 0 19839758.237060547 32899637.24714613 0 32899637.24714613 64718699.190972805 0 0 0 0 54015921.954833984 36025384.471785545 0 36025384.471785545 23371249.430362225 0 0 0 0 1450803.0455932617 66730186.474749565 0 66730186.474749565 26987626.914923668 0 0 0 0 -86106.789611816406 67581788.252005339 0 67581788.252005339 37017389.946244955 0 0 0 0 299335555.15197754 36829058.991880715 0 36829058.991880715 -182334238.00594187 0 0 0 0 148461385.19708252 164353583.40675747 0 164353583.40675747 95522903.809455931 0 0 0 0 97819258.961242676 -65713716.975224733 0 -65713716.975224733 210742184.7295239 0 0 0 0 407196857.75888062 -137573337.64789915 0 -137573337.64789915 -87007463.765672684 0 0 0 0 260388532.60968018 15169087.720164537 0 15169087.720164537 -242799846.85349226 0 0 0 0 344012344.99719238 -21909742.774557114 0 -21909742.774557114 -243419291.31905508 0 0 0 0 -34347835.291748047 124849779.17514729 0 124849779.17514729 -67507602.688512325 0 0 0 0 -57517659.19342041 12724312.140303612 0 12724312.140303612 13713506.423683167 0 0 0 0 45486709.651977539 48015549.637893677 0 48015549.637893677 5923085.4932370186 0 0 0 0 42845342.27154541 34933742.584282875 0 34933742.584282875 24976739.92656374 0 0 0 0 240608671.18347168 -22945726.106709003 0 -22945726.106709003 -116392893.97520447 0 0 0 0 290971733.24612427 69790234.209843874 0 69790234.209843874 -395106777.46709299 0 0 0 0 134141117.5604248 86120558.032565057 0 86120558.032565057 -197509136.37819862 0 0 0 0 129331906.19604874 124789784.70666301 0 124789784.70666301 -183948246.72161579 0 0 0 0 -95750035.069396973 312271034.30903864 0 312271034.30903864 -336350410.42349625 0 0 0 0 375638456.66427612 52126420.055521965 0 52126420.055521965 -670975055.00784183 0 0 0 0 346302057.73331833 -83311753.137598217 0 -83311753.137598217 -322629630.8555479 0 0 0 0 181997361.93215942 310754914.36615956 0 310754914.36615956 -1008350556.6932316 0 0 0 0 359269263.71713257 -22933204.945055485 0 -22933204.945055485 -274342811.87850523 0 0 0 0 351423132.65756226 -63240707.68135047 0 -63240707.68135047 -289898153.11594772 0 0 0 0 371410376.58700562 -113356665.68740892 0 -113356665.68740892 -223527941.22396994 0 0 0 0 211017495.17736816 -314875173.77845812 0 -314875173.77845812 426311020.64125013 0 0 0 0 207935246.18041992 -227768568.30382681 0 -227768568.30382681 21052375.505044937 0 0 0 0 386916995.39082336 -383697491.16213459 0 -383697491.16213459 -121277185.05593395 0 0 0 0 213554440.26756287 21595636.991746008 0 21595636.991746008 428673308.71786404 0 0 0 0 -2125758.3153972626 910223062.56632674 0 910223062.56632674 179269348.96436787 0 0 0 0 -97375490.635009766 -701472991.03946733 0 -701472991.03946733 -501954361.53819251 0 0 0 0 6814687.4878346287 903587.89051659405 0 903587.89051659405 -2573379.5857373606 0 0 0 0 -391210181.67626953 441618970.27609158 0 441618970.27609158 -426046206.44550514 0 0 0 0 -378744779.81707764 -278143853.25002921 0 -278143853.25002921 -227155859.42518926 0 0 0 0 554854338.63210678 590784919.52143693 0 590784919.52143693 435694997.48469019 0 0 0 0 449000799.13796997 -137698481.11457157 0 -137698481.11457157 -1040507890.2823954 0 0 0 0 726719114.67901611 297902691.49933672 0 297902691.49933672 645244086.88620043 0 0 0 0 1264493830.1678238 1258344243.5757911 0 1258344243.5757911 406643823.09772491 0 0 0 0 555056143.73049927 964804164.840868 0 964804164.840868 1602089965.438931 0 0 0 0 641330227.7126255 1441357669.5395 0 1441357669.5395 756391131.37962627 0 0 0 0 3844205.1713413149 3207737.9944918007 0 3207737.9944918007 -3218533.0936584272 0 0 0 0 204136679.27841187 1388029822.1249666 0 1388029822.1249666 1848194250.8573837 0 0 0 0 792790846.8122406 582894085.23538315 0 582894085.23538315 -70324112.279542387 0 0 0 0 168569125.64126587 80337871.275569916 0 80337871.275569916 -79105706.569250584 0 0 0 0 854448875.29801941 968893459.33308041 0 968893459.33308041 645865074.6136744 0 0 0 0 363702060.31018066 733414920.08055258 0 733414920.08055258 1214687697.6873379 0 0 0 0 511801512.77868652 877598983.56424809 0 877598983.56424809 755007655.5395925 0 0 0 0 226118523.43383789 446215627.10144567 0 446215627.10144567 616517971.01504517 0 0 0 0 477515018.29808044 767780163.36687982 0 767780163.36687982 774203675.95723045 0 0 0 0 505418662.15707397 854089478.47544861 0 854089478.47544861 753953151.70043373 0 0 0 0 454506373.00822449 778296827.3268218 0 778296827.3268218 933889383.94913197 0 0 0 0 560536070.08389282 1083531847.186902 0 1083531847.186902 1149797024.8372416 0 0 0 0 482109357.61941528 842914315.64604473 0 842914315.64604473 1249534071.6869998 0 0 0 0 6882454.5245557576 5247125.7770810202 0 5247125.7770810202 -5046346.6630251156 0 0 0 0 692996559.11465454 1132219163.2099302 0 1132219163.2099302 1142923713.341001 0 0 0 0 570821609.51416016 1023149764.5237679 0 1023149764.5237679 1272735310.0616586 0 0 0 0 721493051.1226387 556622026.30969751 0 556622026.30969751 1390852745.1995254 0 0 0 0 694012587.78225708 814691343.94678783 0 814691343.94678783 1103287641.3029022 0 0 0 0 22921171.854637504 -932813.46430363972 0 -932813.46430363972 -1301050.5440608079 0 0 0 0 -225700296.80178833 -623814318.8741703 0 -623814318.8741703 -190954693.60449791 0 0 0 0 36098875.001904517 -2435383.554328165 0 -2435383.554328165 -3479326.1107482361 0 0 0 0 565035097.06121826 49745465.178479195 0 49745465.178479195 -176567370.22042561 0 0 0 0 -46372291.610321045 878278818.69221401 0 878278818.69221401 1266591691.4579945 0 0 0 0 -563379008.61680603 -839865544.35989618 0 -839865544.35989618 489623254.0262661 0 0 0 0 1512473433.2317505 -41615362.383085251 0 -41615362.383085251 -1314446766.100359 0 0 0 0 -252085023.0792923 359187970.26332951 0 359187970.26332951 740512111.93090534 0 0 0 0 73928309.804840088 -470067573.12717438 0 -470067573.12717438 679357243.24516296 0 0 0 0 1135194717.688076 -212542370.95870948 0 -212542370.95870948 -107653358.91334724 0 0 0 0 817008591.2161808 623168235.84292781 0 623168235.84292781 103070945.964571 0 0 0 0 4144460.1540523171 -1970931.723613672 0 -1970931.723613672 640950.33128201589 0 0 0 0 480258674.76733398 299588805.29149818 0 299588805.29149818 -93862178.81306839 0 0 0 0 43836706.316116333 57370696.028770447 0 57370696.028770447 -173103566.51515913 0 0 0 0 609957092.45761108 15779203.130007744 0 15779203.130007744 -540710704.14339161 0 0 0 0 -48779755.121391296 -1218484880.3313138 0 -1218484880.3313138 -726183033.10843468 0 0 0 0 9856947.3198623657 33949712.892480135 0 33949712.892480135 -8714352.7418608665 0 0 0 0 -385287696.77667236 -328118059.0604291 0 -328118059.0604291 21903977.369752169 0 0 0 0 -490182123.34089661 -237710881.19763279 0 -237710881.19763279 728000219.9432981 0 0 0 0 150291680.71817017 214116917.16535282 0 214116917.16535282 -33374981.833427429 0 0 0 0 256547938.22244263 321664756.54014492 0 321664756.54014492 -39106225.560458183 0 0 0 0 311417004.5125885 115950969.21394157 0 115950969.21394157 -892278430.18168926 0 0 0 0 12048587.940216348 -5018640.2931175251 0 -5018640.2931175251 915647.27062449674 0 0 0 0 265346903.07368469 302340295.4881916 0 302340295.4881916 -120913482.76028442 0 0 0 0 273369419.35016251 270443951.18863916 0 270443951.18863916 -3506893.3189582825 0 0 0 0 92705651.63633728 337604833.35794544 0 337604833.35794544 363018507.16888237 0 0 0 0 16204360.77834256 -5167334.6162180342 0 -5167334.6162180342 1345308.5733705703 0 0 0 0 160038848.97621155 224936869.68793488 0 224936869.68793488 396315783.25304413 0 0 0 0 133789054.04547119 429565786.08318615 0 429565786.08318615 100735200.29636002 0 0 0 0 1185591.7161138058 1197324.0909148026 0 1197324.0909148026 -282825.8352197241 0 0 0 0 1789471.0322418213 1723798.4727106094 0 1723798.4727106094 86411015.692934036 0 0 0 0 139147524.44134521 227251795.35280418 0 227251795.35280418 53278524.654713631 0 0 0 0 246465604.25110435 -52533282.311420202 0 -52533282.311420202 -67086794.826503754 0 0 0 0 159133959.24450684 -103516273.37339783 0 -103516273.37339783 -156104577.00351524 0 0 0 0 26499751.106300905 -6961946.46714334 0 -6961946.46714334 730170.55441945232 0 0 0 0 24960569.652709961 -16762653.422279358 0 -16762653.422279358 -25213336.196662903 0 0 0 0 91243896.311126709 -15645090.023275375 0 -15645090.023275375 -173817391.30629063 0 0 0 0 36020002.267485797 -8012014.1762419902 0 -8012014.1762419902 -641610.88440498617 0 0 0 0 30284920.090774536 4145606.9866361618 0 4145606.9866361618 -53758320.316570282 0 0 0 0 27502924.122886658 -4706650.884991169 0 -4706650.884991169 -10608115.974113464 0 0 0 0 26542622.961486816 -4218903.4529662132 0 -4218903.4529662132 -3116826.4883842468 0 0 0 0 11179320.768585205 -878728.87793445587 0 -878728.87793445587 4577439.9791717529 0 0 0 0 24731892.040817261 -172684.5063419342 0 -172684.5063419342 -2447880.446105957 0 0 0 0 26502007.308258057 2380008.7275648117 0 2380008.7275648117 -718484.7320098877 0 0 0 0 -5128138.4531745911 -24208028.50879097 0 -24208028.50879097 16321737.712892532 0 0 0 0 10966737.761108398 10641526.555149078 0 10641526.555149078 36650325.277639389 0 0 0 0 2992232.5351618379 3859816.7022515591 0 3859816.7022515591 -599876.39438296389 0 0 0 0 90741365.428796768 -463652000.05138445 0 -463652000.05138445 -347916082.54934502 0 0 0 0 -158927553.128685 -112497347.34841442 0 -112497347.34841442 -103966780.83517838 0 0 0 0 22284454.736282349 8711712.0751972198 0 8711712.0751972198 12143577.027932167 0 0 0 0 7103989.3154466301 10626519.473096183 0 10626519.473096183 -3114992.1835411992 0 0 0 0 29867774.326141357 7232622.5371437073 0 7232622.5371437073 406732.7286529541 0 0 0 0 -149026901.77622986 2142508.2329506874 0 2142508.2329506874 56271362.239671707 0 0 0 0 -229052549.01934814 41653856.640013695 0 41653856.640013695 110519685.07188272 0 0 0 0 -229022069.48247528 69190411.427486897 0 69190411.427486897 306448522.60583878 0 0 0 0 -213600969.45097351 -99811108.15773654 0 -99811108.15773654 147742427.74546432 0 0 0 0 -190019252.21411133 -72628782.108478546 0 -72628782.108478546 99077229.912998199 0 0 0 0 131943871.24407959 -15356966.599195004 0 -15356966.599195004 -197900776.87879843 0 0 0 0 36734208.706103072 -610280.6080633197 0 -610280.6080633197 -7784681.2938177269 0 0 0 0 115862577.1651001 -22454749.972330958 0 -22454749.972330958 3954309.1777895093 0 0 0 0 9026231.5095911101 -1619337.0800461918 0 -1619337.0800461918 36549.04064858146 0 0 0 0 -30265781.848205566 128216089.06887019 0 128216089.06887019 -111517936.7377876 0 0 0 0 20998922.603861127 15217413.971872151 0 15217413.971872151 -5544230.8812336531 0 0 0 0 115385438.26376343 -9277720.0195821524 0 -9277720.0195821524 -72343725.301962316 0 0 0 0 38877370.999918565 -4640885.4227652997 0 -4640885.4227652997 -1327787.241454686 0 0 0 0 42775116.107589155 -10657091.175350118 0 -10657091.175350118 -8433254.6558430176 0 0 0 0 31106713.83895874 4532444.1578874588 0 4532444.1578874588 -3343977.0326728821 0 0 0 0 69169426.038848877 7988308.7524652481 0 7988308.7524652481 -5812814.985414505 0 0 0 0 30522470.922241211 -343161.61567878723 0 -343161.61567878723 -1714265.4639225006 0 0 0 0 4722988.7170249596 -60218.084151960909 0 -60218.084151960909 -145390.75958952494 0 0 0 0 1747457.9710001647 39048.037100359797 0 39048.037100359797 -1331204.8843471324 0 0 0 0 31343187.667591318 2937847.3434924781 0 2937847.3434924781 -8488605.7242996804 0 0 0 0 20947833.612548828 4780446.1223459244 0 4780446.1223459244 -9297369.6199998856 0 0 0 0 -204905876.45469284 -67247606.696509302 0 -67247606.696509302 31393034.305001736 0 0 0 0 59328158.603471301 -10037809.655177213 0 -10037809.655177213 -6433899.1631124914 0 0 0 0 -29787834.619842529 57061541.752229571 0 57061541.752229571 11545579.404541224 0 0 0 0 58497763.241943359 -6005803.5520820618 0 -6005803.5520820618 -24082749.483938217 0 0 0 0 14646775.979667664 -11321032.018298626 0 -11321032.018298626 3555939.7277870178 0 0 0 0 46182257.753566802 -6094274.8647670606 0 -6094274.8647670606 -4451200.5616607172 0 0 0 0 60161580.702758789 -5580350.276802063 0 -5580350.276802063 24795017.636810303 0 0 0 0 29669890.482437134 714351.0775346756 0 714351.0775346756 -10232819.707145691 0 0 0 0 69857141.172546387 -27469411.110004425 0 -27469411.110004425 -37223213.072040558 0 0 0 0 54372035.223571777 23555647.465990067 0 23555647.465990067 -57772477.556353092 0 0 0 0 28993454.124001756 -3703570.882287126 0 -3703570.882287126 -6939822.7063772045 0 0 0 0 58498298.728940964 13641606.225566864 0 13641606.225566864 -39775162.372612 0 0 0 0 -11254653.34249115 -78752059.87013483 0 -78752059.87013483 -39603313.885865211 0 0 0 0 45006835.129653931 29210353.59360981 0 29210353.59360981 -29902156.010924816 0 0 0 0 74118931.597351074 38403831.799847126 0 38403831.799847126 -93829212.548473358 0 0 0 0 26448041.306976318 25644526.297287464 0 25644526.297287464 -23830845.644790649 0 0 0 0 21076103.30260849 99879760.352720022 0 99879760.352720022 -262023709.03485012 0 0 0 0 -3576974.875541687 -353227736.93706501 0 -353227736.93706501 -409548880.41919994 0 0 0 0 30266790.276824951 -220192232.28015113 0 -220192232.28015113 109781350.19088256 0 0 0 0 94483555.102005005 -178079962.28903723 0 -178079962.28903723 -86131438.642181396 0 0 0 0 23671830.473876953 -182356646.23664856 0 -182356646.23664856 147953437.90418684 0 0 0 0 -567238324.7063446 -376347759.49491715 0 -376347759.49491715 308567703.24464607 0 0 0 0 30852314.151100159 -100123329.47151256 0 -100123329.47151256 277845581.60829604 0 0 0 0 306012624.05696869 -87734493.845420361 0 -87734493.845420361 109141254.18733978 0 0 0 0 39567414.675453186 -203914215.38751972 0 -203914215.38751972 153344956.06195661 0 0 0 0 103939420.2349472 -108869412.14953899 0 -108869412.14953899 266639360.05036759 0 0 0 0 167826161.22146988 -168009463.80180359 0 -168009463.80180359 95513119.314620018 0 0 0 0 111719510.30130005 -92838222.046033859 0 -92838222.046033859 127468721.5022471 0 0 0 0 325401495.60085058 -293711915.00071502 0 -293711915.00071502 185203426.08630848 0 0 0 0 158984056.26938629 -54630879.225676537 0 -54630879.225676537 19166385.9128685 0 0 0 0 110733471.90774345 -143938684.05550289 0 -143938684.05550289 226824575.46113586 0 0 0 0 102174240.79049683 -37042180.048753738 0 -37042180.048753738 75519326.051506996 0 0 0 0 119086074.08220673 -16154255.585314751 0 -16154255.585314751 -29383247.79168129 0 0 0 0 81209448.725479126 31849482.076393127 0 31849482.076393127 -52685895.734043121 0 0 0 0 45241753.967043877 32611288.051981211 0 32611288.051981211 -15008214.447122574 0 0 0 0 47032550.532852173 -15103375.147031307 0 -15103375.147031307 40135503.461212158 0 0 0 0 58051099.832176208 51969406.74051857 0 51969406.74051857 -76721745.49700737 0 0 0 0 9309863.3365974426 -80406573.071563244 0 -80406573.071563244 55114426.734710693 0 0 0 0 -6856695.2787322998 -34765967.855246067 0 -34765967.855246067 174917667.75059986 0 0 0 0 98907916.339271545 -286549738.41262543 0 -286549738.41262543 394003130.99951363 0 0 0 0 435876689.07284546 -394145193.90435553 0 -394145193.90435553 284731174.9526968 0 0 0 0 171809658.83831787 -80944542.617243767 0 -80944542.617243767 46751413.981875896 0 0 0 0 -2189818.6374740601 -302427875.7891202 0 -302427875.7891202 579818273.45809269 0 0 0 0 168650842.81815338 -325754169.92588139 0 -325754169.92588139 351422854.14678979 0 0 0 0 567724888.26494789 -599505273.53413332 0 -599505273.53413332 165451095.05682182 0 0 0 0 524122732.64749146 -667462370.78731465 0 -667462370.78731465 629173597.19100368 0 0 0 0 220391396.97441864 -499545392.59916878 0 -499545392.59916878 684187643.44705582 0 0 0 0 635833077.76115417 -1042152687.068825 0 -1042152687.068825 879793466.45891118 0 0 0 0 248966313.8839798 -295144139.16467953 0 -295144139.16467953 -799444771.74402332 0 0 0 0 2869992.8717649952 -2459102.437965231 0 -2459102.437965231 -3169123.1767095691 0 0 0 0 373994608.59572601 69791800.957095623 0 69791800.957095623 -960336806.81358671 0 0 0 0 258411590.53541279 -402141087.67210603 0 -402141087.67210603 389624428.717906 0 0 0 0 276306341.79556274 -233868401.86200166 0 -233868401.86200166 128754792.89851856 0 0 0 0 443126190.99295807 -574912730.30964696 0 -574912730.30964696 121195882.94768775 0 0 0 0 520882161.86449432 -379406046.81232095 0 -379406046.81232095 -84899367.272927046 0 0 0 0 518313671.25014496 -187851517.48882174 0 -187851517.48882174 237799132.99370289 0 0 0 0 137654305.42510223 -512232736.68372059 0 -512232736.68372059 1007750609.7495108 0 0 0 0 1032993792.0105743 66949418.420324802 0 66949418.420324802 241459733.75884628 0 0 0 0 9567227.8761068657 986224.30427972181 0 986224.30427972181 -1169607.2071049344 0 0 0 0 1355384351.3721695 606170829.33124828 0 606170829.33124828 -938600147.60948086 0 0 0 0 233929444.73229408 -632100765.26724339 0 -632100765.26724339 245635268.87708282 0 0 0 0 -278182456.16732788 37534246.436099052 0 37534246.436099052 195926363.74836111 0 0 0 0 465452990.85340881 709879470.96433067 0 709879470.96433067 -380410409.78950882 0 0 0 0 11370562.717133924 323546.3270898629 0 323546.3270898629 -1036873.0839217535 0 0 0 0 429787597.22398376 -158884107.08252871 0 -158884107.08252871 -1434525964.2653 0 0 0 0 -1027860509.0103912 -153990907.91829586 0 -153990907.91829586 1211985695.2966008 0 0 0 0 3765093.6300840154 -944118.31134775328 0 -944118.31134775328 -513975.86240621435 0 0 0 0 533210124.39414597 -768909866.80877948 0 -768909866.80877948 -254298049.2960391 0 0 0 0 42995773.958328247 -327862690.57488251 0 -327862690.57488251 -321709713.25584793 0 0 0 0 8104053.2109934241 1169969.7315085987 0 1169969.7315085987 -762680.88580039656 0 0 0 0 120184351.30163574 -44856646.088539124 0 -44856646.088539124 -532712491.4747448 0 0 0 0 -35140721.688205719 -203819593.4797101 0 -203819593.4797101 120587032.67623901 0 0 0 0 6021905.0820922852 -376345809.99459076 0 -376345809.99459076 79765625.746541977 0 0 0 0 -58004384.562110901 -11750948.813960075 0 -11750948.813960075 339914985.60921955 0 0 0 0 739026.80804999173 -1127255.9203326032 0 -1127255.9203326032 999718.34371557459 0 0 0 0 662448443.77412033 72445155.579447746 0 72445155.579447746 -27966859.032121658 0 0 0 0 19195671.658818007 -34687973.551157027 0 -34687973.551157027 9570219.2069244385 0 0 0 0 -35283902.199440002 -72183650.126955032 0 -72183650.126955032 65285173.338866234 0 0 0 0 -4551452.3787384033 -47349433.41061306 0 -47349433.41061306 2863572.7589149475 0 0 0 0 -241590121.23065853 590309149.80453563 0 590309149.80453563 297716768.06286621 0 0 0 0 4524001.0083933175 14520.939901634119 0 14520.939901634119 -754803.51357111894 0 0 0 0 -146519203.42623901 -11460916.226552963 0 -11460916.226552963 253453955.57000732 0 0 0 0 610854670.55892944 499649898.94232464 0 499649898.94232464 -799190355.32832909 0 0 0 0 285487145.49306107 274655900.78871155 0 274655900.78871155 -249296246.17814636 0 0 0 0 621118456.74393463 -123214434.43858528 0 -123214434.43858528 116180102.14455128 0 0 0 0 382287898.05884552 508480938.07096863 0 508480938.07096863 280931034.98266888 0 0 0 0 736992657.73223877 -855167622.52754211 0 -855167622.52754211 -465601622.94796944 0 0 0 0 805065727.56873035 474304594.95342672 0 474304594.95342672 -392664298.89578247 0 0 0 0 -296713639.59039307 432250051.3205843 0 432250051.3205843 684181180.07945752 0 0 0 0 -463808776.61274719 -754935711.67323971 0 -754935711.67323971 769298553.90112495 0 0 0 0 -549007675.94700623 -383881696.18033218 0 -383881696.18033218 -81850563.542910159 0 0 0 0 -1323731752.670105 -1304326549.9695387 0 -1304326549.9695387 -140213869.13207245 0 0 0 0 252708149.97164536 412181871.20695019 0 412181871.20695019 678639083.83401871 0 0 0 0 -1175577083.8534088 -1624722572.4540119 0 -1624722572.4540119 -547908979.50695992 0 0 0 0 -229592.28489950299 -863549.09568527341 0 -863549.09568527341 2149042.1997529846 0 0 0 0 3708567.7570335567 333237.06129247695 0 333237.06129247695 -2316290.0704599414 0 0 0 0 35935786.433731079 776995005.86534405 0 776995005.86534405 -138846873.29212761 0 0 0 0 1587798378.1804657 610094817.82094812 0 610094817.82094812 -126872595.4655304 0 0 0 0 1418714958.4002838 675933081.04285574 0 675933081.04285574 132814028.70218849 0 0 0 0 -760129.64466020465 -384430.28029667959 0 -384430.28029667959 2204037.9123386983 0 0 0 0 -1605001840.1456528 -611862621.8159852 0 -611862621.8159852 200370819.58224487 0 0 0 0 -491392049.22961426 -835247315.42153072 0 -835247315.42153072 -1112230083.4156713 0 0 0 0 -623995637.60474396 -744185815.86485434 0 -744185815.86485434 131132098.36612129 0 0 0 0 62383343.377586365 -328041010.50202084 0 -328041010.50202084 251334064.44868374 0 0 0 0 384538312.71649933 -102905610.73849571 0 -102905610.73849571 249068413.50674057 0 0 0 0 -81425651.2643013 -160817653.63605225 0 -160817653.63605225 267098831.58969736 0 0 0 0 -14493684.138185501 -318217242.8305397 0 -318217242.8305397 266326333.29861283 0 0 0 0 -128666350.50648499 -300904985.22905493 0 -300904985.22905493 307388494.81309843 0 0 0 0 -80785217.484519958 8225266.5569787025 0 8225266.5569787025 247110960.94768333 0 0 0 0 440843766.43723297 -407198259.40001059 0 -407198259.40001059 453486539.00691223 0 0 0 0 461556927.07567596 -173439564.09487867 0 -173439564.09487867 216050641.11555195 0 0 0 0 1039109508.131936 156020885.39825398 0 156020885.39825398 243307016.16587925 0 0 0 0 1019417974.5265427 -748520727.98389482 0 -748520727.98389482 96896032.125627279 0 0 0 0 6606133019.3865032 3839309076.285111 0 3839309076.285111 -280024942.61947167 0 0 0 0 8568809.2311919779 4344641.4344947636 0 4344641.4344947636 1887485.621027437 0 0 0 0 2590179267.7483215 -2451893367.1863503 0 -2451893367.1863503 2062725991.1866992 0 0 0 0 1487680939.9685271 2019559081.5705514 0 2019559081.5705514 481438608.81269264 0 0 0 0 1441113691.7210999 4578257650.1861296 0 4578257650.1861296 5933874640.5567293 0 0 0 0 4634956681.445694 1902343155.8340561 0 1902343155.8340561 -76449273.412923545 0 0 0 0 4503884110.9211178 2481077215.3002925 0 2481077215.3002925 -18185351.537811011 0 0 0 0 -640133296.36855316 1116744314.7848358 0 1116744314.7848358 1312522634.5182898 0 0 0 0 1139401.3721967749 103312.99822317809 0 103312.99822317809 2755248.5386286685 0 0 0 0 3557964230.5549164 2129770127.0031836 0 2129770127.0031836 182944907.79329029 0 0 0 0 1187474888.7595673 1281490763.2502813 0 1281490763.2502813 238081525.51655674 0 0 0 0 2054426.8346937243 300910.2260633558 0 300910.2260633558 7353165.4569967063 0 0 0 0 2092741800.444458 613523784.76295185 0 613523784.76295185 564383449.34960175 0 0 0 0 1882090281.8819809 526165928.44936967 0 526165928.44936967 594802339.3781805 0 0 0 0 982532897.69841003 583436424.78699589 0 583436424.78699589 726789023.35291433 0 0 0 0 195743643.66744995 428381958.70004272 0 428381958.70004272 591139855.50840759 0 0 0 0 532886919.42941284 955065428.82964325 0 955065428.82964325 -575708824.4317379 0 0 0 0 1064659653.6896057 465300374.83546734 0 465300374.83546734 -134705039.47843742 0 0 0 0 1082363389.467391 1467231685.1215138 0 1467231685.1215138 -259288912.31295395 0 0 0 0 -185984249.43911743 1822562244.0695076 0 1822562244.0695076 1934292380.7124081 0 0 0 0 3669405444.8291473 2515657535.9371414 0 2515657535.9371414 184229194.60894108 0 0 0 0 737506093.2505188 1924264750.5431995 0 1924264750.5431995 787558790.65592957 0 0 0 0 24544181.32950829 5572568.5901681241 0 5572568.5901681241 -267224.94755928783 0 0 0 0 831411793.65240479 -388849322.06692743 0 -388849322.06692743 -310810292.28730607 0 0 0 0 -499207673.33877563 -132769300.66366386 0 -132769300.66366386 606913528.11246109 0 0 0 0 -749377795.46136475 -1061237020.1575173 0 -1061237020.1575173 836593392.85863376 0 0 0 0 -791136426.67463589 550847060.70502162 0 550847060.70502162 249157057.96216643 0 0 0 0 703601479.96334839 467240288.68416977 0 467240288.68416977 -2696771454.5349174 0 0 0 0 33035362.769056983 4484839.6451363843 0 4484839.6451363843 -3743192.4534065248 0 0 0 0 83304527.175842285 391067016.34355545 0 391067016.34355545 -438129564.24842721 0 0 0 0 -521133753.25476074 833001878.49665833 0 833001878.49665833 -2083055851.0232491 0 0 0 0 -546306014.93408203 -124217558.49414825 0 -124217558.49414825 -2960660894.127182 0 0 0 0 229748949.78005981 846274681.41501999 0 846274681.41501999 -2088939266.1349373 0 0 0 0 539383923.33377075 361680302.20596695 0 361680302.20596695 -1676882782.0807114 0 0 0 0 -273014434.71255493 324017147.74228382 0 324017147.74228382 -772054446.5772438 0 0 0 0 -789690903.03320312 417911074.21548843 0 417911074.21548843 -1516061100.7092628 0 0 0 0 533462067.53363037 816109199.54340553 0 816109199.54340553 -42597713.434720993 0 0 0 0 471989363.59768677 -386374923.30968094 0 -386374923.30968094 -2192834546.642189 0 0 0 0 352334716.23617554 351433430.11420655 0 351433430.11420655 -2507882705.1690907 0 0 0 0 19261374.694465235 10757036.551245214 0 10757036.551245214 379675.46280392428 0 0 0 0 241572109.83123779 195870186.97376823 0 195870186.97376823 -1579435337.8253078 0 0 0 0 187267977.80218506 -206662123.24041748 0 -206662123.24041748 -1444040763.1037478 0 0 0 0 243059687.20794678 91139938.032489777 0 91139938.032489777 -1568804110.8571477 0 0 0 0 -369442582.19442749 138439968.79238129 0 138439968.79238129 -752540562.44176292 0 0 0 0 -193366965.13653564 757440305.87281036 0 757440305.87281036 -1354988059.471693 0 0 0 0 -417327616.96821594 -295988456.38181996 0 -295988456.38181996 -1359790737.6988754 0 0 0 0 -357402763.83392334 147985858.6785202 0 147985858.6785202 -1829422091.609375 0 0 0 0 -278743252.48138428 -254496196.92945671 0 -254496196.92945671 -1681955859.1056771 0 0 0 0 -168437439.77389526 206462412.91448498 0 206462412.91448498 -2380738765.8348026 0 0 0 0 -767414114.65161133 763424946.97461319 0 763424946.97461319 -1755379438.3248062 0 0 0 0 -1633876608.4725342 -40544329.938831329 0 -40544329.938831329 -2287990283.2652245 0 0 0 0 -853363958.6361084 -474623702.76338196 0 -474623702.76338196 -2589091512.3709869 0 0 0 0 -722378296.75390625 991279031.73972702 0 991279031.73972702 -3407927433.1445427 0 0 0 0 -903600333.3046875 -473995334.20834732 0 -473995334.20834732 -4274912061.9165573 0 0 0 0 -1064206488.2419434 -339349351.76298523 0 -339349351.76298523 -2501224348.9072533 0 0 0 0 1523821.4387259781 234598.04039045796 0 234598.04039045796 -1227891.2553648413 0 0 0 0 -823211593.28942871 1433758840.6064415 0 1433758840.6064415 -5309752103.2999363 0 0 0 0 271846763.20175171 -104095266.46304035 0 -104095266.46304035 -2360697795.696434 0 0 0 0 72576672.922271729 649330776.83035707 0 649330776.83035707 -2141002350.4443033 0 0 0 0 398774446.65344238 199762470.53663635 0 199762470.53663635 -2056596598.6129856 0 0 0 0 -457868322.02352905 -119095565.85613012 0 -119095565.85613012 -1350379515.2130406 0 0 0 0 -302256112.61813354 586214098.30027819 0 586214098.30027819 -1720236831.5112543 0 0 0 0 -105600055.63146973 -118934451.07795787 0 -118934451.07795787 -487461513.15890121 0 0 0 0 -66366763.766784668 217265797.60501957 0 217265797.60501957 -743065653.39689255 0 0 0 0 -111293669.82333374 242351770.48412514 0 242351770.48412514 -1369578864.414032 0 0 0 0 406890923.56036377 212087594.74460506 0 212087594.74460506 -1397688489.691977 0 0 0 0 612688621.11287689 272079964.54956245 0 272079964.54956245 -765181208.86403084 0 0 0 0 482297817.35848236 -505679825.93277973 0 -505679825.93277973 -478587091.3419342 0 0 0 0 -100547863.12805176 211695559.88097429 0 211695559.88097429 317072735.26376534 0 0 0 0 693502167.99935913 138122354.36259937 0 138122354.36259937 306703902.06408024 0 0 0 0 -138807799.98184204 741047777.6799407 0 741047777.6799407 319271643.51333427 0 0 0 0 271715628.94235229 216188511.00998402 0 216188511.00998402 -818153597.17852449 0 0 0 0 596521181.79753113 1137499806.651598 0 1137499806.651598 638112777.51958501 0 0 0 0 1067170894.7535248 112896172.95124632 0 112896172.95124632 1132199061.1269569 0 0 0 0 1261362095.7478027 -228704492.7416296 0 -228704492.7416296 -201759918.32272625 0 0 0 0 918234071.28256989 -282320780.29706478 0 -282320780.29706478 802321599.60122299 0 0 0 0 385861364.51759338 534777184.64464474 0 534777184.64464474 910391826.58071804 0 0 0 0 1231245902.6617966 917012763.42951107 0 917012763.42951107 380015783.29635763 0 0 0 0 970642588.41020393 -788959635.34937727 0 -788959635.34937727 788524631.40181255 0 0 0 0 2530536.1140243486 -1636645.8497380726 0 -1636645.8497380726 -2155696.1622798983 0 0 0 0 285875398.12805939 -840920960.4414196 0 -840920960.4414196 2630683036.1481361 0 0 0 0 5300898.2659553364 -2305990.8738681814 0 -2305990.8738681814 975504.73048157524 0 0 0 0 96265756.622392654 -692841988.46373057 0 -692841988.46373057 2115598869.5056953 0 0 0 0 789678799.41705322 -1332452565.9132352 0 -1332452565.9132352 799284062.10204124 0 0 0 0 238209480.64558411 -815439240.16189718 0 -815439240.16189718 427991110.69176364 0 0 0 0 4745919.9610307738 -3682093.1037486382 0 -3682093.1037486382 -4709706.173936029 0 0 0 0 -130320304.23600769 -75739404.546332359 0 -75739404.546332359 599979396.2528801 0 0 0 0 544726172.31699371 -32114300.490830183 0 -32114300.490830183 -487039521.84186983 0 0 0 0 27129631.462646484 -221811732.49903381 0 -221811732.49903381 -555585805.86246586 0 0 0 0 45398770.831085205 218937409.37781096 0 218937409.37781096 -1155275199.4101057 0 0 0 0 258227604.22219086 -63372632.865538359 0 -63372632.865538359 -1553432759.4465361 0 0 0 0 -54460735.016540527 -296287730.75763392 0 -296287730.75763392 -1672249790.9987209 0 0 0 0 81237649.901062012 104659526.73513341 0 104659526.73513341 -271483087.11757565 0 0 0 0 -22663035.259643555 -356170807.38572443 0 -356170807.38572443 -816364436.4788866 0 0 0 0 -68504589.590423584 467419466.51884568 0 467419466.51884568 -1432032665.9712811 0 0 0 0 3001212.1532451361 278443.13579166587 0 278443.13579166587 -324429.84796146024 0 0 0 0 -439706916.78712463 -111755584.06573629 0 -111755584.06573629 61681967.112768173 0 0 0 0 485260606.94648743 -391730537.87164879 0 -391730537.87164879 191624765.31912231 0 0 0 0 395234124.70951843 172666052.92357707 0 172666052.92357707 -2086163328.9530916 0 0 0 0 17919090.692922354 3727515.1440502452 0 3727515.1440502452 -964410.05731140566 0 0 0 0 1854974404.5099487 314093000.37770462 0 314093000.37770462 39285622.573451281 0 0 0 0 1228517938.5705414 -31215737.43791008 0 -31215737.43791008 -199278948.1977787 0 0 0 0 603712300.54789734 1315631626.2266693 0 1315631626.2266693 401026948.33837128 0 0 0 0 276077890.48612976 86352229.844503403 0 86352229.844503403 -171213298.98078322 0 0 0 0 126431180.63555908 18498141.267715454 0 18498141.267715454 -108289320.08213806 0 0 0 0 419215654.01554108 -128596703.96360683 0 -128596703.96360683 -152672698.67230606 0 0 0 0 83107439.452194214 -200650566.42274094 0 -200650566.42274094 112589324.01033306 0 0 0 0 -10088110.53086853 -29429582.688130379 0 -29429582.688130379 -134564515.10517502 0 0 0 0 16131867.701885223 -232223777.63340473 0 -232223777.63340473 -115649614.98932076 0 0 0 0 117351337.78350067 -135576824.65554237 0 -135576824.65554237 -40938500.431596756 0 0 0 0 30892571.684371948 -72192639.606140137 0 -72192639.606140137 -47464974.233157635 0 0 0 0 126228015.92440796 -115766533.56705284 0 -115766533.56705284 -151693790.69074166 0 0 0 0 72250801.321876526 -36403425.382363319 0 -36403425.382363319 -26507867.712024689 0 0 0 0 19193732.418609619 -34963641.515651703 0 -34963641.515651703 -9729647.7005348206 0 0 0 0 51500037.897132874 18058232.863519669 0 18058232.863519669 -101888059.45779341 0 0 0 0 23534029.43510437 3683326.0322635211 0 3683326.0322635211 -15363360.752698302 0 0 0 0 9297348.4337784387 1729217.1139937006 0 1729217.1139937006 -11539620.023041572 0 0 0 0 194889772.16684341 -19379251.932040691 0 -19379251.932040691 -104125045.52780914 0 0 0 0 23104759.45160675 7263941.0774799064 0 7263941.0774799064 -40695057.345166713 0 0 0 0 14151762.399478912 -5668431.9927851558 0 -5668431.9927851558 -34569229.079666853 0 0 0 0 10320205.50308609 -3728675.2334937155 0 -3728675.2334937155 -5502752.0002403259 0 0 0 0 22554256.039108276 -7304673.3012026548 0 -7304673.3012026548 -7623739.6718139946 0 0 0 0 8946900.0916330405 -271659.18154213764 0 -271659.18154213764 -4688964.5798656475 0 0 0 0 -134987215.94635773 -77812113.946344078 0 -77812113.946344078 26913184.679145753 0 0 0 0 -79711587.669052124 63683630.189969152 0 63683630.189969152 -22992929.274442405 0 0 0 0 -6772122.3980178833 418370849.17345452 0 418370849.17345452 31405506.95255661 0 0 0 0 10071170.817434683 3312133.3362995163 0 3312133.3362995163 -9313152.6015233882 0 0 0 0 -127633580.04901123 103782163.91943264 0 103782163.91943264 -39509249.5025177 0 0 0 0 2713152.5085289478 -61018.242610704154 0 -61018.242610704154 -2514697.4804609651 0 0 0 0 -692449327.42523193 -273229069.38200569 0 -273229069.38200569 -130339391.43876266 0 0 0 0 -746675159.03848267 -134604475.25156403 0 -134604475.25156403 19852125.760454655 0 0 0 0 -730983123.62103271 200239255.597826 0 200239255.597826 123134831.76897812 0 0 0 0 248395290.38510132 675512126.49846268 0 675512126.49846268 114262183.43330765 0 0 0 0 -549797999.40219116 740722057.22883987 0 740722057.22883987 826305781.36687851 0 0 0 0 -1140611736.1276245 126039214.24882698 0 126039214.24882698 583716239.52297115 0 0 0 0 19683895.924349874 2103315.1665265113 0 2103315.1665265113 -7784690.1145319315 0 0 0 0 14775888.193023682 1442350.0017309189 0 1442350.0017309189 -28564554.656459808 0 0 0 0 -143603038.74110413 74394426.143019438 0 74394426.143019438 10398606.777332529 0 0 0 0 -132441057.48722458 9739501.2069755346 0 9739501.2069755346 -76166039.805490911 0 0 0 0 -19817443.033905029 71746433.065831989 0 71746433.065831989 129691301.99297726 0 0 0 0 235114315.0557251 -45593458.597290695 0 -45593458.597290695 151716732.31180704 0 0 0 0 231967714.71751404 -14676566.799797952 0 -14676566.799797952 45286637.759640783 0 0 0 0 -44945115.117385864 -11701415.940233469 0 -11701415.940233469 67890120.276223972 0 0 0 0 -93794865.667816162 85029260.55021745 0 85029260.55021745 54987791.754862279 0 0 0 0 -57903715.501312256 -15581417.802919447 0 -15581417.802919447 -169805734.79259145 0 0 0 0 116375002.05209351 110536905.20420194 0 110536905.20420194 -358583024.4602319 0 0 0 0 -5727545.2484130859 65349288.30121702 0 65349288.30121702 -120450943.38368684 0 0 0 0 -111664318.71278381 224782053.35898438 0 224782053.35898438 58072767.991629303 0 0 0 0 235478843.07539368 -39992480.57197699 0 -39992480.57197699 67524583.42788142 0 0 0 0 1997425323.4826202 -824529585.10039556 0 -824529585.10039556 -77699660.123445749 0 0 0 0 402180326.90420532 -118170470.9860431 0 -118170470.9860431 271325468.58535534 0 0 0 0 1579232951.678792 710234860.51582599 0 710234860.51582599 -505207.81689822674 0 0 0 0 623700127.31445312 -3751100.7350472459 0 -3751100.7350472459 32211176.223732371 0 0 0 0 526859670.30160522 -30088908.70316419 0 -30088908.70316419 69526332.090448231 0 0 0 0 426698978.70626831 112078536.53709807 0 112078536.53709807 102845608.06555167 0 0 0 0 1195296784.7023163 26010435.086002737 0 26010435.086002737 -54538092.83739087 0 0 0 0 624821643.88446045 164005734.73671564 0 164005734.73671564 82224181.037997365 0 0 0 0 476645115.31719208 128246261.55399679 0 128246261.55399679 -27236355.329495609 0 0 0 0 245999104.15881348 58818898.609438419 0 58818898.609438419 78145996.42746228 0 0 0 0 -62730563.467941284 55273665.335752368 0 55273665.335752368 86978957.246507645 0 0 0 0 245088706.25810695 -3856071.4053499969 0 -3856071.4053499969 25766517.422680557 0 0 0 0 -20423903.58454895 24245825.721085608 0 24245825.721085608 105165702.76409858 0 0 0 0 -4534387.4257354736 -146471686.07751217 0 -146471686.07751217 -57082172.426034905 0 0 0 0 3100404.245203156 3026.1695978213102 0 3026.1695978213102 -796673.33895129198 0 0 0 0 -2494005.2526855469 -84871457.585486248 0 -84871457.585486248 -292741563.66939801 0 0 0 0 -5557221.2809753418 -6205758.7035176754 0 -6205758.7035176754 -33420736.955363497 0 0 0 0 845548.15692325681 -15849.608880762011 0 -15849.608880762011 -117652.47330912275 0 0 0 0 91202140.673751831 -20890217.393677652 0 -20890217.393677652 -114394020.04095864 0 0 0 0 208645860.06106567 -63049297.669988662 0 -63049297.669988662 -110096242.40991074 0 0 0 0 47615209.079109192 71602580.547920749 0 71602580.547920749 206791989.11903882 0 0 0 0 1064286545.5824203 61285625.748420961 0 61285625.748420961 75913467.467477113 0 0 0 0 260846495.69347858 350607037.109218 0 350607037.109218 70975864.293299139 0 0 0 0 -199625529.35571289 -83291844.657207727 0 -83291844.657207727 -121056068.66973168 0 0 0 0 -382791100.97679901 1561134227.9004951 0 1561134227.9004951 134743243.74349844 0 0 0 0 6346305.4266633987 1273447.8313439898 0 1273447.8313439898 -405425.67583275988 0 0 0 0 1713975256.818285 1786628160.8119254 0 1786628160.8119254 28662269.357951976 0 0 0 0 6566501705.6257782 -664123716.66597307 0 -664123716.66597307 -757725782.39543235 0 0 0 0 583401396.33123779 -399299382.72252494 0 -399299382.72252494 -764965383.61117816 0 0 0 0 6603860524.9381332 623972520.62024176 0 623972520.62024176 -1515818622.3275614 0 0 0 0 3751611.4721336551 -684748.76557200961 0 -684748.76557200961 -351108.95107766695 0 0 0 0 341321568.31808472 492124879.94001561 0 492124879.94001561 177317474.83639127 0 0 0 0 466522565.93915176 327456499.33872247 0 327456499.33872247 368198213.86233425 0 0 0 0 1857018.4092832431 -1136986.6239841059 0 -1136986.6239841059 980037.94057685498 0 0 0 0 898201606.45128822 621577176.06321788 0 621577176.06321788 196816602.51732537 0 0 0 0 -419770483.51346588 -1303094081.4723897 0 -1303094081.4723897 -738672881.23188114 0 0 0 0 -534316534.63461304 -810395277.21742797 0 -810395277.21742797 1639374561.6331711 0 0 0 0 6607568013.642746 -1261519657.1680768 0 -1261519657.1680768 -729221397.75459623 0 0 0 0 2895100278.7881851 640439825.74315441 0 640439825.74315441 -1356473570.1061449 0 0 0 0 -1211755306.574482 272999976.96510601 0 272999976.96510601 456965736.14107466 0 0 0 0 6415216.221659109 846990.58338764869 0 846990.58338764869 1094217.7566414047 0 0 0 0 -1048493431.076355 310694280.74555779 0 310694280.74555779 -715431165.87381458 0 0 0 0 1279947512.5797272 -417194984.40283251 0 -417194984.40283251 -194212439.41214132 0 0 0 0 901356281.3782959 -468740097.91068864 0 -468740097.91068864 -200724500.93888906 0 0 0 0 453108.95284937695 885834.58490019292 0 885834.58490019292 1730767.3479766005 0 0 0 0 907428650.14995575 -471259025.19577336 0 -471259025.19577336 -200379042.84652317 0 0 0 0 519882717.41078949 -634781133.38961768 0 -634781133.38961768 427799367.83352345 0 0 0 0 474171195.69749832 670302219.41397715 0 670302219.41397715 -36728750.329777658 0 0 0 0 963793.63277720287 778251.36676276848 0 778251.36676276848 1525010.0044312088 0 0 0 0 6583115064.6718826 1544439031.5539062 0 1544439031.5539062 -628350338.80419278 0 0 0 0 1679173716.0147858 -1042164888.9279706 0 -1042164888.9279706 233451704.67572832 0 0 0 0 6600194142.9040775 1102019999.4774251 0 1102019999.4774251 -383817605.3452217 0 0 0 0 6609964103.6727448 -1902079658.1186197 0 -1902079658.1186197 370353929.8675009 0 0 0 0 1619424309.7969193 312663776.15885866 0 312663776.15885866 -167687500.21202201 0 0 0 0 9578990.5790336952 4115808.9122604635 0 4115808.9122604635 633467.62937508803 0 0 0 0 -229068708.28956616 146810011.44358978 0 146810011.44358978 -375026603.20790184 0 0 0 0 -216641959.21322632 766539245.61006331 0 766539245.61006331 -907642516.3992492 0 0 0 0 149447475.4299469 85578367.444076777 0 85578367.444076777 -825910893.86271107 0 0 0 0 -35506821.92326355 213848451.10617691 0 213848451.10617691 -370649857.59904122 0 0 0 0 -51053409.718025208 307038140.2099669 0 307038140.2099669 -574380281.90645719 0 0 0 0 9300953.3028794602 3820952.3849566728 0 3820952.3849566728 -138256.92192918691 0 0 0 0 -28798886.039958954 -151010022.04492366 0 -151010022.04492366 115745499.40834308 0 0 0 0 -17486323.181114197 259684849.80833137 0 259684849.80833137 -43323369.633426547 0 0 0 0 1041346539.3350296 -276884705.60936004 0 -276884705.60936004 13681969.23427844 0 0 0 0 146073224.26476288 129010845.44864011 0 129010845.44864011 110894011.44336796 0 0 0 0 1168450402.5730896 357360909.79089117 0 357360909.79089117 111972234.41070914 0 0 0 0 -19546988.078369141 -46366835.120629549 0 -46366835.120629549 37231490.462744713 0 0 0 0 -131413380.16952896 21729915.361245513 0 21729915.361245513 98044463.319140673 0 0 0 0 26215854.087654114 95858944.572949529 0 95858944.572949529 -336214757.77522266 0 0 0 0 8610965.3161724173 2100480.8114667516 0 2100480.8114667516 -1817150.5477984769 0 0 0 0 -15794474.78527832 141202302.89630008 0 141202302.89630008 -227326168.19983244 0 0 0 0 -80420581.207771301 158104037.52973294 0 158104037.52973294 -349026128.11397159 0 0 0 0 102374.0338171795 178228.20274608256 0 178228.20274608256 -852295.30399441835 0 0 0 0 -58984617.937268257 267000843.31703562 0 267000843.31703562 -670044674.24895978 0 0 0 0 -11502990.723670959 91872903.977890283 0 91872903.977890283 117310958.42811283 0 0 0 0 26794783.028938293 21664982.522423323 0 21664982.522423323 -70511378.421234623 0 0 0 0 26959213.859642982 24645425.163240064 0 24645425.163240064 -16639278.881669819 0 0 0 0 155086.4568721205 794631.7191530019 0 794631.7191530019 -2669751.3127360223 0 0 0 0 8558826.2365188599 22813135.674968999 0 22813135.674968999 4831848.0740169734 0 0 0 0 7952126.7238540649 237744523.2309401 0 237744523.2309401 -471504519.53704715 0 0 0 0 1380288.57862854 7094040.0904524475 0 7094040.0904524475 -15813392.849056877 0 0 0 0 -221340253.56930542 107654529.38863921 0 107654529.38863921 -62226356.962048948 0 0 0 0 242936.93206913769 2372630.1892697266 0 2372630.1892697266 -5417088.3706965083 0 0 0 0 -1261516.6013641357 7756054.2464166405 0 7756054.2464166405 -15749171.714469913 0 0 0 0 1827612.8762664795 8306614.3327686489 0 8306614.3327686489 -15960002.668085814 0 0 0 0 18806437.343551636 -22134720.42549324 0 -22134720.42549324 -4072802.3542432785 0 0 0 0 1210016.8484611511 6735840.0576466545 0 6735840.0576466545 -16229393.71965012 0 0 0 0 9100505.0688866563 -635486.74575706944 0 -635486.74575706944 -13155180.703740608 0 0 0 0 18790745.256351471 -22359825.535730243 0 -22359825.535730243 5745097.6220626831 0 0 0 0 -36573412.026573181 16714287.453125 0 16714287.453125 -1649583.9855289459 0 0 0 0 115110823.07821655 -101709582.42344236 0 -101709582.42344236 767663517.6166544 0 0 0 0 9510099.1148320287 912383.38176443242 0 912383.38176443242 -12673235.576979276 0 0 0 0 164516654.75276566 -98453362.060440183 0 -98453362.060440183 -428098470.10654497 0 0 0 0 2476760.5338102803 -601271.06018539332 0 -601271.06018539332 -3086410.8415449411 0 0 0 0 80444601.741826057 234984548.28054869 0 234984548.28054869 -342172524.13895178 0 0 0 0 -408609591.88898945 -167262085.23459962 0 -167262085.23459962 -336086892.88824081 0 0 0 0 -96134306.796846151 -204254553.96685103 0 -204254553.96685103 -394389551.93183136 0 0 0 0 -10252668.499694824 303693048.78468335 0 303693048.78468335 -880337600.16430664 0 0 0 0 -508068750.58848572 465569300.88065434 0 465569300.88065434 -455236017.68083084 0 0 0 0 -76704960.764645338 390498949.5804835 0 390498949.5804835 -471546285.29227114 0 0 0 0 -3100649.7370223999 254070436.47812802 0 254070436.47812802 -495602599.0018425 0 0 0 0 62290221.1771698 103107395.35382628 0 103107395.35382628 -504268051.54475504 0 0 0 0 -43561309.642300606 156318620.64935279 0 156318620.64935279 -469554796.17286777 0 0 0 0 27894878.38885498 -180709581.07710242 0 -180709581.07710242 -342181242.2303952 0 0 0 0 2112517.2216715552 1040111.2465257086 0 1040111.2465257086 -1222702.6212627403 0 0 0 0 -376199348.16454697 394697657.53424382 0 394697657.53424382 -177084324.23383331 0 0 0 0 64094112.029312134 -35763348.302830935 0 -35763348.302830935 -715292433.11933994 0 0 0 0 -44487189.57359314 -170392348.62678146 0 -170392348.62678146 126422615.14842892 0 0 0 0 13004893.23348999 -22765138.235565186 0 -22765138.235565186 -68865897.184608459 0 0 0 0 48480195.179840088 -87227352.668527603 0 -87227352.668527603 -164370390.80626678 0 0 0 0 8168932.9476699829 48626219.554650068 0 48626219.554650068 4104750.4399995804 0 0 0 0 22267215.10975647 282067.67256069183 0 282067.67256069183 -11830903.526272774 0 0 0 0 9003023.9420000091 2365082.5957771167 0 2365082.5957771167 -5241373.8217344536 0 0 0 0 19447991.256507743 6175411.6633692421 0 6175411.6633692421 -7915855.8827901855 0 0 0 0 19590410.114315033 -5000730.5466399193 0 -5000730.5466399193 -4453991.1316652298 0 0 0 0 -33350699.050662994 64160827.614973783 0 64160827.614973783 184798908.48791885 0 0 0 0 -36223288.661613464 39688458.518789291 0 39688458.518789291 -7024926.5690076351 0 0 0 0 28626528.634610176 -2208431.8243033886 0 -2208431.8243033886 -20449264.394487381 0 0 0 0 27569100.882930756 -131393.93053340912 0 -131393.93053340912 -20724514.119287491 0 0 0 0 17490420.642382085 -5210580.135986411 0 -5210580.135986411 -8603966.7148757689 0 0 0 0 51650381.75428009 411330431.60075521 0 411330431.60075521 -226585152.19715273 0 0 0 0 545462382.0559864 -322411825.89327872 0 -322411825.89327872 -195214870.19661355 0 0 0 0 -128729696.79522133 -7193284.3066444136 0 -7193284.3066444136 7371384.4244200829 0 0 0 0 17760614.944116592 6351748.7440057993 0 6351748.7440057993 -14091765.329634666 0 0 0 0 14002652.516345978 2528714.1165201664 0 2528714.1165201664 -4584319.4664945602 0 0 0 0 20972424.056708492 -2800690.0852530259 0 -2800690.0852530259 -7806560.0018473063 0 0 0 0 131434166.81354141 90853975.393411145 0 90853975.393411145 -311637196.95285988 0 0 0 0 -61931012.126410484 -247472826.79470217 0 -247472826.79470217 249846828.01278436 0 0 0 0 271890189.74374866 -470467283.41791201 0 -470467283.41791201 171678360.15529266 0 0 0 0 19405711.779668286 7960378.4937105486 0 7960378.4937105486 398044.72221735306 0 0 0 0 222766905.87576866 -209423596.17128989 0 -209423596.17128989 109901565.5654209 0 0 0 0 606086323.69486427 -277702408.81087863 0 -277702408.81087863 122062047.7775386 0 0 0 0 5742594.3117428729 -179746.78778671613 0 -179746.78778671613 -2008601.3148922364 0 0 0 0 25015013.092700958 1117815.5002804995 0 1117815.5002804995 -28965451.880651474 0 0 0 0 20252872.395706177 9818114.492764473 0 9818114.492764473 -36285536.59152174 0 0 0 0 21166532.972098742 2311195.8064680211 0 2311195.8064680211 -7018978.8721168917 0 0 0 0 20758192.742943287 -223577.20863646269 0 -223577.20863646269 -11516598.279375076 0 0 0 0 28390383.627994537 9449728.1078901291 0 9449728.1078901291 -20978186.930711746 0 0 0 0 -16834785.484588623 -64680734.323162675 0 -64680734.323162675 -62209457.939156771 0 0 0 0 11748545.405288026 -199982.21526969783 0 -199982.21526969783 -6434775.2027119622 0 0 0 0 27161210.042922974 -28367602.507169247 0 -28367602.507169247 -10103295.755056858 0 0 0 0 27402076.313164234 -32228802.783627331 0 -32228802.783627331 -76541930.399282455 0 0 0 0 -80022126.480438232 -96824558.536266327 0 -96824558.536266327 95459750.43175301 0 0 0 0 -154496164.34415817 -281083455.82863617 0 -281083455.82863617 -192628578.78010368 0 0 0 0 -678138716.31312752 310439508.72871256 0 310439508.72871256 465204928.30705118 0 0 0 0 159153218.66624951 -45749315.432305023 0 -45749315.432305023 858648592.11887336 0 0 0 0 16824231.118543331 6954878.500230113 0 6954878.500230113 1963694.910563845 0 0 0 0 20165190.408378601 2147548.1685051918 0 2147548.1685051918 -296498876.44060326 0 0 0 0 100582651.58332634 -331053147.45167351 0 -331053147.45167351 411963841.61593735 0 0 0 0 233387545.86292815 -285520558.85303611 0 -285520558.85303611 280918648.52140069 0 0 0 0 118474790.51331329 -454655295.04666811 0 -454655295.04666811 192384253.4879396 0 0 0 0 -16472668.828594208 -314271328.11851037 0 -314271328.11851037 278739961.47398651 0 0 0 0 11714762.968432661 2624518.2357597724 0 2624518.2357597724 -275054.73021460872 0 0 0 0 258710789.18976688 5030415.9933573455 0 5030415.9933573455 -900114152.88295448 0 0 0 0 458705401.20470142 -705645951.72983027 0 -705645951.72983027 295743217.75305301 0 0 0 0 1251023329.2089405 1821035746.5531766 0 1821035746.5531766 123409058.8592456 0 0 0 0 6616628876.2643213 -1839625843.9069254 0 -1839625843.9069254 -1010949639.1389253 0 0 0 0 4879104964.5348492 -2702408185.3559914 0 -2702408185.3559914 544071090.12329507 0 0 0 0 6095779.6983938012 960758.38126212312 0 960758.38126212312 -155350.72546297291 0 0 0 0 9038076433.8201408 55213504.095146701 0 55213504.095146701 352966031.91917187 0 0 0 0 6616115974.6958809 407831895.68921679 0 407831895.68921679 1528411700.2947133 0 0 0 0 6586047700.1967344 104964959.69877179 0 104964959.69877179 -699511826.75997519 0 0 0 0 1950651219.1002731 -365042196.35443389 0 -365042196.35443389 -144165386.6913487 0 0 0 0 1940219025.7931576 -429387078.51638567 0 -429387078.51638567 213923400.84978157 0 0 0 0 1900516719.3404846 1034006773.9861684 0 1034006773.9861684 -568848407.40280533 0 0 0 0 13193198.681004811 5006966.4807443954 0 5006966.4807443954 2344872.6561442604 0 0 0 0 6603596408.3285637 -2843778833.2041817 0 -2843778833.2041817 731393699.70302093 0 0 0 0 42094088.261878967 -11565632.737634659 0 -11565632.737634659 50023162.077052116 0 0 0 0 122181844.47460175 14800343.983933449 0 14800343.983933449 8656267.1186943054 0 0 0 0 44003802.035178661 43976604.863099217 0 43976604.863099217 5813373.5804977417 0 0 0 0 1720021.7316245697 3792989.7615910023 0 3792989.7615910023 -7390939.2408918887 0 0 0 0 -21285275.281150818 -4224764.2020759583 0 -4224764.2020759583 12114931.620373249 0 0 0 0 26677290.412254333 -26323910.091226578 0 -26323910.091226578 -122903731.36079025 0 0 0 0 86767530.061798096 -4693519.1171379089 0 -4693519.1171379089 -193981589.94817734 0 0 0 0 21032107.314697266 43121218.85887146 0 43121218.85887146 27544078.16386795 0 0 0 0 69541601.035583496 83663430.968765259 0 83663430.968765259 -105888024.04680634 0 0 0 0 278750.80012078583 -2090526.6399249248 0 -2090526.6399249248 59832.175726536661 0 0 0 0 26064097.816782951 -195450784.79801619 0 -195450784.79801619 102016719.07616806 0 0 0 0 661930595.62081337 -137610370.77634239 0 -137610370.77634239 -180258110.74863815 0 0 0 0 452380926.33367157 -265191782.74880028 0 -265191782.74880028 4175183.7151870728 0 0 0 0 410857179.6800499 127464391.89095306 0 127464391.89095306 -42506322.352996826 0 0 0 0 658245545.27006531 -88646724.144674301 0 -88646724.144674301 -183658549.2243067 0 0 0 0 1015372622.7483392 -368563190.72965705 0 -368563190.72965705 27810830.310283661 0 0 0 0 354423463.46675873 -218216405.01887035 0 -218216405.01887035 -3859154.3123550415 0 0 0 0 1116363507.6497717 226519024.33995235 0 226519024.33995235 -28650382.584762573 0 0 0 0 -568309311.16225815 -103424097.33562756 0 -103424097.33562756 -494670841.05661201 0 0 0 0 -771603400.00267029 -960470009.04145718 0 -960470009.04145718 -821624605.02837372 0 0 0 0 800732.56641994417 511833.45683569461 0 511833.45683569461 -1868809.249976458 0 0 0 0 273325343.21525192 -10981067.605726242 0 -10981067.605726242 8269886.2686500549 0 0 0 0 -557316825.47352314 65361408.890016913 0 65361408.890016913 -109086741.78499985 0 0 0 0 284073562.94468689 -119418203.72678089 0 -119418203.72678089 -611813266.68178034 0 0 0 0 336691971.66865444 144610667.7945236 0 144610667.7945236 -149433512.38918686 0 0 0 0 1152519003.4773941 183091879.39421654 0 183091879.39421654 -282333133.88152409 0 0 0 0 -255979850.20057678 -295633035.40605164 0 -295633035.40605164 868158309.98829269 0 0 0 0 -12642289.631706238 -311193689.0092659 0 -311193689.0092659 -585534749.07670021 0 0 0 0 6685333.0851475969 -4466518.0256294236 0 -4466518.0256294236 -2121688.3400019845 0 0 0 0 103988871.47041321 -13972549.532342911 0 -13972549.532342911 -7478524.7441253662 0 0 0 0 106749807.44789124 -17792543.96799469 0 -17792543.96799469 -17310431.887487411 0 0 0 0 110531201.99862671 -21050089.793999672 0 -21050089.793999672 -15752091.069828033 0 0 0 0 626302003.8047905 -429261683.80193377 0 -429261683.80193377 183686798.97125626 0 0 0 0 2418557.3896571696 805502.40940623032 0 805502.40940623032 -1046774.6044163015 0 0 0 0 7211899.4374111444 612113.13632600801 0 612113.13632600801 -4250346.4490453694 0 0 0 0 100633717.67428589 -24544182.307785034 0 -24544182.307785034 -10637058.994387627 0 0 0 0 87753538.858932495 18772575.934529305 0 18772575.934529305 -11949144.700408459 0 0 0 0 1173423.2370830178 -4568152.1684484761 0 -4568152.1684484761 -7247781.2413867079 0 0 0 0 211976694.39489746 323364541.87648201 0 323364541.87648201 421432810.58580256 0 0 0 0 338561831.01475525 128357170.88402748 0 128357170.88402748 66554677.740830421 0 0 0 0 -1135728.7944488525 72290770.350475788 0 72290770.350475788 125920037.68503761 0 0 0 0 393561565.86184692 -146417227.67430592 0 -146417227.67430592 -206530093.83586788 0 0 0 0 626907203.52545166 12741165.855832577 0 12741165.855832577 -413370579.98377228 0 0 0 0 265606910.45516205 -298043197.47193098 0 -298043197.47193098 -390421620.01826096 0 0 0 0 403243454.38579559 -282396677.72573662 0 -282396677.72573662 -719547300.8232975 0 0 0 0 -251688.52050472423 -1739029.1799379811 0 -1739029.1799379811 -2191598.1212087395 0 0 0 0 -101117191.36377716 466819530.13835716 0 466819530.13835716 -555461717.13323653 0 0 0 0 -318521802.72343254 890838849.0418855 0 890838849.0418855 -907403473.28838444 0 0 0 0 -1095594740.2167816 -876001697.05121803 0 -876001697.05121803 -27978356.519071579 0 0 0 0 1830723360.3537827 32628051.564990997 0 32628051.564990997 -334139713.0252533 0 0 0 0 308738099.31950378 -179334320.15343189 0 -179334320.15343189 -290598058.8016367 0 0 0 0 4918514.987739563 -527342808.32949448 0 -527342808.32949448 -627058562.77038431 0 0 0 0 363087505.76176453 -130896436.74745369 0 -130896436.74745369 -738453972.6216507 0 0 0 0 3621749.9282107912 9150297.460113788 0 9150297.460113788 -13959425.660310287 0 0 0 0 599525974.42072296 -167864919.10118008 0 -167864919.10118008 -662968301.92360497 0 0 0 0 8094548.8425055966 -2593516.5547132827 0 -2593516.5547132827 -6772797.2575274631 0 0 0 0 49650196.052894592 17287809.582035065 0 17287809.582035065 -10915858.310546875 0 0 0 0 31623245.09197998 28314424.765686035 0 28314424.765686035 -56592327.703613281 0 0 0 0 4909022.3140284717 5482412.6483970499 0 5482412.6483970499 -9198922.4841462094 0 0 0 0 302294875.45188522 -66423706.260491133 0 -66423706.260491133 -518292553.1782074 0 0 0 0 299804634.31196594 20125490.510199547 0 20125490.510199547 -379490062.66821861 0 0 0 0 3689876.0169906616 -1415409.5254573822 0 -1415409.5254573822 -7912852.2611618042 0 0 0 0 -6859324.2609519958 -115862.34509658813 0 -115862.34509658813 -13206852.150882721 0 0 0 0 2655328.7419630699 1590799.5476376256 0 1590799.5476376256 -9098271.9427145161 0 0 0 0 5106151.5649719238 13824708.721832275 0 13824708.721832275 -24667506.537132263 0 0 0 0 7159344.0048644096 4251841.3489042446 0 4251841.3489042446 -8512986.391081214 0 0 0 0 18018112.471000671 15876740.355537415 0 15876740.355537415 -19417471.847492218 0 0 0 0 46510769.249317169 -26798761.781255722 0 -26798761.781255722 -19295640.811943054 0 0 0 0 582163427.45059967 131237556.68910789 0 131237556.68910789 -1314011231.3752842 0 0 0 0 428701597.66647339 -101079039.76326656 0 -101079039.76326656 -205190854.47303391 0 0 0 0 -172278906.82130814 224825755.57537532 0 224825755.57537532 -291136965.44181633 0 0 0 0 -186785737.3873291 320189029.86591625 0 320189029.86591625 745005627.57264519 0 0 0 0 -176494004.53027344 608442958.64845657 0 608442958.64845657 -261527097.17112637 0 0 0 0 -513942777.80215454 -854520898.08120537 0 -854520898.08120537 -278143926.24252635 0 0 0 0 1152297722.8857574 81271499.644082069 0 81271499.644082069 -396312534.7167244 0 0 0 0 193218477.0838623 -235204026.49758148 0 -235204026.49758148 1639840118.7676373 0 0 0 0 678704.15410634875 -94887.976297904737 0 -94887.976297904737 -990118.04084958276 0 0 0 0 13769272.06640625 -865230312.27109337 0 -865230312.27109337 -278201775.28451461 0 0 0 0 -1964500596.0762024 352861495.78784275 0 352861495.78784275 -418175997.51001167 0 0 0 0 436196405.15974426 196733082.24205399 0 196733082.24205399 -2043362458.5590439 0 0 0 0 449349965.9443512 43453358.363942146 0 43453358.363942146 -564712997.37525368 0 0 0 0 104449087.8899231 282712119.83115578 0 282712119.83115578 734245364.12252045 0 0 0 0 3118321.4707515799 -7844914.3999320157 0 -7844914.3999320157 -13107742.388786852 0 0 0 0 -6974011.8052978516 -10054189.287227631 0 -10054189.287227631 -26116321.994138718 0 0 0 0 -7311141.5291748047 -22982019.501966476 0 -22982019.501966476 -24039652.249995232 0 0 0 0 23193762.500274658 -545955.83468818665 0 -545955.83468818665 -64621800.86374855 0 0 0 0 16762364.535401538 9188254.611636268 0 9188254.611636268 -21065741.519658737 0 0 0 0 -7195039.5813522339 -26360687.569913387 0 -26360687.569913387 -7133347.9603118896 0 0 0 0 -7015489.2163581848 -9167727.3196456432 0 -9167727.3196456432 -11213858.778858185 0 0 0 0 208053174.60134888 58052764.360487938 0 58052764.360487938 -79131229.244915485 0 0 0 0 21201193.541770935 -35462388.282664299 0 -35462388.282664299 3373952.17760849 0 0 0 0 747126.31323058158 -421662.98781893402 0 -421662.98781893402 -3983827.5388254616 0 0 0 0 142554155.79006958 -58927774.503903389 0 -58927774.503903389 -39487426.206347466 0 0 0 0 37533684.748596191 -230160.60823774338 0 -230160.60823774338 -69530353.384143829 0 0 0 0 27539063.324519262 7608803.8062220151 0 7608803.8062220151 -11611507.3059556 0 0 0 0 49066244.560653687 43887925.569583893 0 43887925.569583893 -66224304.488419533 0 0 0 0 101892984.80651855 51343388.874608994 0 51343388.874608994 -66042972.031871796 0 0 0 0 27893615.808082581 -3374887.8643474579 0 -3374887.8643474579 -18143566.513246536 0 0 0 0 95676543.461273193 -45598577.660804749 0 -45598577.660804749 -80561725.076946259 0 0 0 0 26203673.123840332 -11320869.129685402 0 -11320869.129685402 -44218703.678910732 0 0 0 0 12935847.747126 5236440.3773833755 0 5236440.3773833755 -15034317.393976267 0 0 0 0 11676380.926914215 10135855.341026306 0 10135855.341026306 -22939025.231803894 0 0 0 0 24497600.88005662 -1518151.0494775102 0 -1518151.0494775102 -13725558.955790794 0 0 0 0 5418217.2893829346 -41966802.953374863 0 -41966802.953374863 -36264426.450847626 0 0 0 0 3288647.7824277785 2534632.1888340041 0 2534632.1888340041 -2603149.5648433585 0 0 0 0 10626283.910984961 4716479.0321333017 0 4716479.0321333017 -14194825.761664856 0 0 0 0 12905576.446931839 5330573.4336180687 0 5330573.4336180687 -9747037.5346450806 0 0 0 0 18439835.841238022 -993100.07039356232 0 -993100.07039356232 -11462185.780158997 0 0 0 0 25918496.484104156 -926093.53131723404 0 -926093.53131723404 -17378828.807310104 0 0 0 0 10083186.759540558 -7803601.4663600922 0 -7803601.4663600922 -35715181.331220627 0 0 0 0 40162977.983118437 7538367.9499373073 0 7538367.9499373073 -17523510.958780225 0 0 0 0 1114831.7675684951 977581.10861499887 0 977581.10861499887 -4074117.3438607007 0 0 0 0 -4364584.8854446411 20841524.543041229 0 20841524.543041229 -26353198.728805542 0 0 0 0 -6787067.0049209595 19036740.525344849 0 19036740.525344849 -20620787.212120056 0 0 0 0 775535.7518081665 11112237.563552856 0 11112237.563552856 -22932842.515781403 0 0 0 0 6733073.6197471619 16087867.409368515 0 16087867.409368515 -22367307.284591675 0 0 0 0 4853330.0304641724 13518816.72587204 0 13518816.72587204 -23339964.68006134 0 0 0 0 7962742.2195129395 10873340.170898438 0 10873340.170898438 -17797239.253089905 0 0 0 0 18239087.6900177 7926765.1280021667 0 7926765.1280021667 -21459350.080764771 0 0 0 0 1888141.2011871338 19616186.836025238 0 19616186.836025238 -20539505.376266479 0 0 0 0 -8049070.610748291 18863430.47291851 0 18863430.47291851 -12760336.541530609 0 0 0 0 -3201124.970199585 15289733.491504669 0 15289733.491504669 -20474739.74206543 0 0 0 0 -4069317.3893280029 30144341.420219421 0 30144341.420219421 1424194.349155426 0 0 0 0 -10654337.125930786 13634007.826198578 0 13634007.826198578 -19479977.575889587 0 0 0 0 132477740.87275696 31530656.867652893 0 31530656.867652893 -35043354.951509476 0 0 0 0 420891.72973712534 254922.18496644776 0 254922.18496644776 -1273895.4769535083 0 0 0 0 69245597.17924118 -69810894.642347336 0 -69810894.642347336 20315504.818929672 0 0 0 0 49793925.968765259 -42071932.434165955 0 -42071932.434165955 -10152244.255714417 0 0 0 0 53589052.688753128 -37566580.029652596 0 -37566580.029652596 -27243571.855819702 0 0 0 0 56371700.920387268 -29878799.661808014 0 -29878799.661808014 -38246605.676548004 0 0 0 0 33310960.535335541 -12125464.888017654 0 -12125464.888017654 -29966954.979255676 0 0 0 0 -61799951.343132019 -2401122.9118108749 0 -2401122.9118108749 8000815.5898132324 0 0 0 0 3009151.4533358663 -3681575.1927549876 0 -3681575.1927549876 -1767156.3543214835 0 0 0 0 898703.33122527972 529565.32104178891 0 529565.32104178891 -2533469.7457780801 0 0 0 0 -1219349803.3512878 365955664.89746094 0 365955664.89746094 -105466212.27973938 0 0 0 0 -6877837.3670692444 -74631978.901612282 0 -74631978.901612282 15126299.643577576 0 0 0 0 123407166.04816437 -25909470.936660767 0 -25909470.936660767 -38011784.161375046 0 0 0 0 741677646.99437141 -83298775.524622917 0 -83298775.524622917 -114978272.70833206 0 0 0 0 367649667.32421875 213750704.24174881 0 213750704.24174881 209650471.35974693 0 0 0 0 -95217488.521217346 320538737.06464386 0 320538737.06464386 22617000.147647858 0 0 0 0 1441130804.6348038 88593955.036108017 0 88593955.036108017 -739645293.98058319 0 0 0 0 328433180.08118439 -128616658.39757347 0 -128616658.39757347 -109184590.03491974 0 0 0 0 381077255.97973633 -75102914.475765228 0 -75102914.475765228 -89317385.184150696 0 0 0 0 486112099.4305954 -102610601.46640396 0 -102610601.46640396 -151538372.90082932 0 0 0 0 325554730.13671875 -100788384.98912144 0 -100788384.98912144 -32480379.219856262 0 0 0 0 -24984252.816354752 51889492.03378582 0 51889492.03378582 45889534.716087341 0 0 0 0 288012385.08175659 -13692083.263484955 0 -13692083.263484955 -114692765.58120275 0 0 0 0 1629742.4866379965 -51109.512625284493 0 -51109.512625284493 -6740750.4137640186 0 0 0 0 26613801.539360046 -59886372.729637146 0 -59886372.729637146 5135708.8093566895 0 0 0 0 441617348.21075439 -153862891.4429245 0 -153862891.4429245 -26887784.80168353 0 0 0 0 425865880.82749939 -98088708.236095428 0 -98088708.236095428 -26738406.344718933 0 0 0 0 556766547.95788574 -126039240.15775299 0 -126039240.15775299 -39997432.537914276 0 0 0 0 619688201.26268768 -80957462.639038086 0 -80957462.639038086 -26163327.649337769 0 0 0 0 740618167.76508331 -56652118.118934631 0 -56652118.118934631 -57037231.780158997 0 0 0 0 568522400.59449458 1042730.8244626522 0 1042730.8244626522 -58231330.864845276 0 0 0 0 516389490.86005402 -29095528.337081909 0 -29095528.337081909 -75441740.429611206 0 0 0 0 444091108.77737045 -12557683.772132874 0 -12557683.772132874 -56662166.503913879 0 0 0 0 472632470.16102982 -69592659.045711517 0 -69592659.045711517 -62552185.33127594 0 0 0 0 454779029.23392105 -110409154.76671982 0 -110409154.76671982 -80936928.439357758 0 0 0 0 683376402.30253983 196124007.85423279 0 196124007.85423279 15580985.802947998 0 0 0 0 429705517.5941124 106656503.23023224 0 106656503.23023224 -11414410.811248779 0 0 0 0 545094717.68428516 72338403.029942036 0 72338403.029942036 -44511505.890617371 0 0 0 0 350895493.00733185 126559815.05951309 0 126559815.05951309 -24343455.884223938 0 0 0 0 437502617.98276901 134285497.38194847 0 134285497.38194847 -28356639.49042511 0 0 0 0 394488030.53336334 133835332.18545914 0 133835332.18545914 -76011837.440453053 0 0 0 0 384147912.92285776 145279083.46248436 0 145279083.46248436 -51513752.209472656 0 0 0 0 358213137.19144058 69476945.868598938 0 69476945.868598938 -38751556.507041931 0 0 0 0 433830959.44285965 899419.0213432312 0 899419.0213432312 -8993886.1292495728 0 0 0 0 95134882.808280945 -41106592.738048553 0 -41106592.738048553 20304021.137241364 0 0 0 0 678414159.46484184 116622196.53001022 0 116622196.53001022 -75025368.052440643 0 0 0 0 293503374.12105656 295801901.66425323 0 295801901.66425323 -64961987.426673889 0 0 0 0 505505126.65785408 -272796334.36505604 0 -272796334.36505604 52266241.980854034 0 0 0 0 478869717.80097628 -143881519.824332 0 -143881519.824332 -36645853.118637085 0 0 0 0 304613987.83195877 -3059786.2472496033 0 -3059786.2472496033 6699228.5467472076 0 0 0 0 319840380.12898254 -150910012.23336411 0 -150910012.23336411 -27669142.378293991 0 0 0 0 176026079.16461182 -114122512.76820564 0 -114122512.76820564 188105570.970541 0 0 0 0 508055636.87276173 85668779.416775703 0 85668779.416775703 -34851566.502422333 0 0 0 0 154577500.62234116 -94633905.04003334 0 -94633905.04003334 -86469580.83729744 0 0 0 0 -33953923.621353149 252165285.01538467 0 252165285.01538467 -209894897.79684782 0 0 0 0 257091864.89235115 38052897.643028736 0 38052897.643028736 -67218012.173706055 0 0 0 0 26426022.934494019 -74441138.640947342 0 -74441138.640947342 -116101862.00515747 0 0 0 0 3550959.9922811426 162459.60567910457 0 162459.60567910457 -2419341.7858160473 0 0 0 0 -188027548.82961893 381326649.18252802 0 381326649.18252802 -68642138.585475922 0 0 0 0 790613849.86510468 -444038960.82766724 0 -444038960.82766724 148175686.8007431 0 0 0 0 6989284.6415095646 638706.11779487785 0 638706.11779487785 -4359873.6396501549 0 0 0 0 312009396.05734921 -14944273.022515059 0 -14944273.022515059 -85517834.177654266 0 0 0 0 578054545.47273445 -180857037.55111599 0 -180857037.55111599 -78449107.112636566 0 0 0 0 346796404.24582291 -208937179.79415131 0 -208937179.79415131 28382324.575712204 0 0 0 0 525605625.03505325 -225956651.51234818 0 -225956651.51234818 -46246248.681472778 0 0 0 0 399784476.3184433 -38526945.741701126 0 -38526945.741701126 97845108.109434128 0 0 0 0 214615175.2857399 -203278693.58433342 0 -203278693.58433342 -26038167.863877058 0 0 0 0 124461354.51016617 127021227.66432476 0 127021227.66432476 -343873969.3038044 0 0 0 0 7190836.1667843908 796991.15373690613 0 796991.15373690613 -4285931.6259498615 0 0 0 0 250198939.01941204 80663446.219782591 0 80663446.219782591 -175855833.88925934 0 0 0 0 -2530068.3837661743 -29440219.590902328 0 -29440219.590902328 46870235.848556519 0 0 0 0 -70943999.021709442 123709245.44243813 0 123709245.44243813 -12374718.790023565 0 0 0 0 -984856.6391659705 -1851891.1737475786 0 -1851891.1737475786 3299931.5681595467 0 0 0 0 14828875.782806396 -30180413.612171173 0 -30180413.612171173 10745978.512771606 0 0 0 0 37520240.567481995 13399344.617602348 0 13399344.617602348 6761997.2048749924 0 0 0 0 24202313.187972419 5650267.3058328116 0 5650267.3058328116 13156558.289237451 0 0 0 0 40068396.570148468 9055052.3816680908 0 9055052.3816680908 9598585.1519165039 0 0 0 0 36985065.500265718 19098582.38854906 0 19098582.38854906 2474819.9068431854 0 0 0 0 28994031.460943222 -6914725.2243843079 0 -6914725.2243843079 44816574.106872559 0 0 0 0 26171113.66931757 10663434.55504825 0 10663434.55504825 12865812.015864141 0 0 0 0 -294176.39901029412 823301.07164845709 0 823301.07164845709 1027935.6774574239 0 0 0 0 -57626436.541285515 -2951285.8737182617 0 -2951285.8737182617 53347237.468435287 0 0 0 0 36193073.743560791 9312584.0556941032 0 9312584.0556941032 -268339.91851997375 0 0 0 0 6867544.8524217606 -47913474.916583061 0 -47913474.916583061 -18292957.643848419 0 0 0 0 58368673.521526337 31778306.757382393 0 31778306.757382393 8936095.6727819443 0 0 0 0 10385027.067685571 8285460.9429301498 0 8285460.9429301498 2943322.2396689933 0 0 0 0 5978256.5231125411 7977322.0732589476 0 7977322.0732589476 6792719.976024935 0 0 0 0 85841885.233949661 52825331.491161346 0 52825331.491161346 -46638866.170336723 0 0 0 0 105941116.13965225 -1435313.5823040009 0 -1435313.5823040009 39183985.200740337 0 0 0 0 390388887.62855625 -7566552.8910827637 0 -7566552.8910827637 -42079467.182552338 0 0 0 0 304512114.6113739 -94735786.678955078 0 -94735786.678955078 -5997766.0712528229 0 0 0 0 184706092.15305901 64900414.167190552 0 64900414.167190552 -4075486.2240943909 0 0 0 0 33314535.741092682 -2093935.9819374084 0 -2093935.9819374084 118279972.86230659 0 0 0 0 290245243.86375356 -18901402.151917696 0 -18901402.151917696 -5880424.5727005005 0 0 0 0 851306311.09556389 -63816097.430995941 0 -63816097.430995941 -52864471.093518972 0 0 0 0 319371181.76823425 145992078.23553276 0 145992078.23553276 229107734.23579407 0 0 0 0 53262466.291978836 14287877.938282013 0 14287877.938282013 177121689.83201599 0 0 0 0 51433549.444551468 -25477310.158081055 0 -25477310.158081055 -63933319.364746094 0 0 0 0 32316310.736001968 -15681533.373386383 0 -15681533.373386383 -17211167.201460421 0 0 0 0 -147417201.69504547 40580170.886100769 0 40580170.886100769 114591246.97045135 0 0 0 0 36872827.286406517 2447548.8936986923 0 2447548.8936986923 3229575.7608222961 0 0 0 0 11899271.856389929 1034626.6484818538 0 1034626.6484818538 11977126.190237835 0 0 0 0 37128963.041291118 807323.34062230587 0 807323.34062230587 -856657.62184143066 0 0 0 0 29394656.663377762 -1554843.3638315201 0 -1554843.3638315201 1942342.4963130951 0 0 0 0 371474.50195643306 993700.15759362048 0 993700.15759362048 -111828.62323982804 0 0 0 0 11793675.016838074 -10343551.654201508 0 -10343551.654201508 9776135.681350708 0 0 0 0 19955627.959799901 -6512433.2815088332 0 -6512433.2815088332 6164711.512298584 0 0 0 0 -133095382.13573742 -45768397.521400452 0 -45768397.521400452 110001582.62409973 0 0 0 0 15295514.596141687 -5479646.313832242 0 -5479646.313832242 15521059.460619446 0 0 0 0 46098861.215907097 -54918722.103347778 0 -54918722.103347778 62998968.187316895 0 0 0 0 32439526.758843184 -17549318.010478973 0 -17549318.010478973 -21785268.969161987 0 0 0 0 21557848.956300735 -114702977.63473129 0 -114702977.63473129 -15276699.338930368 0 0 0 0 -1674791377.5877628 20940171.232284926 0 20940171.232284926 -1864363536.8782806 0 0 0 0 2594316.3296698146 -2056922.348183427 0 -2056922.348183427 -344657.00446311478 0 0 0 0 346658200.09474182 501527717.36777592 0 501527717.36777592 -1664873991.9571495 0 0 0 0 -1702966.2860384583 -969301060.70554829 0 -969301060.70554829 -823501418.09503746 0 0 0 0 11362863.745315854 -16159046.009075407 0 -16159046.009075407 17940835.000064164 0 0 0 0 -89366640.609741211 131536899.46595383 0 131536899.46595383 -483094376.09074593 0 0 0 0 413897721.89573669 -147296365.185215 0 -147296365.185215 179745332.47736311 0 0 0 0 233847706.43484306 9604506.1727790833 0 9604506.1727790833 48949087.291564941 0 0 0 0 213522453.4079361 -74752783.558795929 0 -74752783.558795929 10852597.799633026 0 0 0 0 264486286.73045349 -71464507.929298401 0 -71464507.929298401 24192533.710504532 0 0 0 0 213186144.88045502 -4970634.4186935425 0 -4970634.4186935425 -10144748.612174988 0 0 0 0 447861070.59843254 65576241.704835892 0 65576241.704835892 -61299661.417221069 0 0 0 0 300561331.75175476 45286857.895565033 0 45286857.895565033 -63422966.607797146 0 0 0 0 217654716.36370277 63348363.004341125 0 63348363.004341125 -3248637.8076782227 0 0 0 0 9585198.8389778137 -10617189.533607483 0 -10617189.533607483 37573588.367179871 0 0 0 0 165515011.67417622 4352192.6863660812 0 4352192.6863660812 -1113942.8297615051 0 0 0 0 16647382.135163676 -21486654.823370639 0 -21486654.823370639 25229859.817300722 0 0 0 0 -1994803637.5457993 -2141164640.0501633 0 -2141164640.0501633 -279909715.17177582 0 0 0 0 230392883.86948776 147477138.28317642 0 147477138.28317642 98873054.899047852 0 0 0 0 3211334336.1201172 397809087.66752625 0 397809087.66752625 -1197195100.1888509 0 0 0 0 -147070227.14129639 -617330996.17584324 0 -617330996.17584324 -1430662126.0045967 0 0 0 0 -715139833.16896057 299386881.88821602 0 299386881.88821602 -1385377519.2698097 0 0 0 0 1026189296.7428818 175971877.10214281 0 175971877.10214281 -1607041273.2915268 0 0 0 0 -1051646221.3381748 -699509621.2853334 0 -699509621.2853334 -1150393216.5778236 0 0 0 0 27281545.621105246 -24034519.648956291 0 -24034519.648956291 24325335.830051921 0 0 0 0 2296875538.1867981 -1921978716.3488216 0 -1921978716.3488216 -2417810482.6024837 0 0 0 0 530313468.41693115 -2352770598.1741924 0 -2352770598.1741924 -2101599057.9510345 0 0 0 0 -1853233560.1283979 -274162983.29461265 0 -274162983.29461265 1311936031.6603508 0 0 0 0 28470216.585586548 702834786.70663834 0 702834786.70663834 1694308488.9559879 0 0 0 0 270285847.83540344 364247952.29907513 0 364247952.29907513 -42253524.609975815 0 0 0 0 -489258330.73519135 247566222.49542046 0 247566222.49542046 -47457052.237728119 0 0 0 0 707458737.98313141 999314155.84993505 0 999314155.84993505 -1114441474.1933861 0 0 0 0 53479452.613388062 400217424.86297798 0 400217424.86297798 -103249303.56346607 0 0 0 0 85606025.499126434 573368535.26593971 0 573368535.26593971 -1036595377.5428982 0 0 0 0 -2819291.8641777039 284352982.83453321 0 284352982.83453321 -340805215.69538307 0 0 0 0 -205006270.26954651 402697325.2865181 0 402697325.2865181 -97625768.451673508 0 0 0 0 -335505316.54945374 591193716.79460907 0 591193716.79460907 579358019.86300468 0 0 0 0 -136766694.26641846 257719466.05150604 0 257719466.05150604 117635711.72027206 0 0 0 0 44909477.646347046 256449149.60289192 0 256449149.60289192 -169420757.46075439 0 0 0 0 25320739.991104126 210173133.74962807 0 210173133.74962807 -94553905.089439392 0 0 0 0 184973281.18521881 87865181.237565041 0 87865181.237565041 32972884.1332798 0 0 0 0 157665924.66268921 36238109.995481014 0 36238109.995481014 -63932217.241329193 0 0 0 0 407851596.19760895 -115911142.12633467 0 -115911142.12633467 -41339763.411613464 0 0 0 0 4065565.9008927159 -1273307.1601783335 0 -1273307.1601783335 -462286.55883719306 0 0 0 0 -63449185.043930054 251074847.80400276 0 251074847.80400276 -221084714.69578266 0 0 0 0 11910017.149871826 310805029.71847916 0 310805029.71847916 -179774160.14240098 0 0 0 0 -39885584.950546265 276944153.78819656 0 276944153.78819656 -102277444.94976139 0 0 0 0 668230041.56834412 202604424.86645889 0 202604424.86645889 151012060.70718765 0 0 0 0 -33183574.815093994 116441523.56732512 0 116441523.56732512 -211775467.20790863 0 0 0 0 542319529.73466492 -564040031.05962849 0 -564040031.05962849 -313035486.65669632 0 0 0 0 19718669.568850018 7670253.9713524096 0 7670253.9713524096 -9834586.8675949126 0 0 0 0 110857854.45454407 -42054301.941114902 0 -42054301.941114902 72411065.159589767 0 0 0 0 14677881.419995662 1531806.3999454416 0 1531806.3999454416 -5198073.0438420167 0 0 0 0 238081138.73638916 96082015.361310959 0 96082015.361310959 52470484.567911148 0 0 0 0 628209185.79670715 183873723.84672737 0 183873723.84672737 -89390402.755172729 0 0 0 0 -85045630.724876404 -128898749.06581831 0 -128898749.06581831 88093023.279634476 0 0 0 0 225583309.50451183 -13857354.351303458 0 -13857354.351303458 -19819553.28024292 0 0 0 0 73234063.956707001 43226130.850174904 0 43226130.850174904 -31488087.384239197 0 0 0 0 14839581.511256285 -640876.20687253773 0 -640876.20687253773 -5639818.132734431 0 0 0 0 -41898916.389005661 25822534.945369482 0 25822534.945369482 4677180.5872936249 0 0 0 0 161542923.28541565 -20026322.152094841 0 -20026322.152094841 -15457736.392290115 0 0 0 0 16320251.397197943 -4548661.7133696824 0 -4548661.7133696824 -4186331.3392755883 0 0 0 0 32955924.076416016 -34404302.340857506 0 -34404302.340857506 -42082681.516559601 0 0 0 0 22842465.910140991 33228485.391420841 0 33228485.391420841 1119617.5484323502 0 0 0 0 12220410.068403244 -16188404.692639887 0 -16188404.692639887 2393318.5660324097 0 0 0 0 21833011.154642105 -15501422.343490105 0 -15501422.343490105 9743500.1761638708 0 0 0 0 84594913.308670044 -72097378.715376854 0 -72097378.715376854 -7341475.0754306316 0 0 0 0 142136819.01742554 -66619364.918972969 0 -66619364.918972969 -9222443.6167528629 0 0 0 0 -91786659.909225464 553010656.20645142 0 553010656.20645142 -562563510.32381248 0 0 0 0 4035615.9513186663 579164.90821279958 0 579164.90821279958 -1480872.5756420074 0 0 0 0 -18110778.939329147 -127913387.48567295 0 -127913387.48567295 -13457963.671161652 0 0 0 0 293578019.15447998 485514010.95389366 0 485514010.95389366 -1271300059.8052759 0 0 0 0 9828608.2589416504 -228854101.69128227 0 -228854101.69128227 -529441992.82880354 0 0 0 0 20292000.508361816 -60931522.621988297 0 -60931522.621988297 -238566439.29894447 0 0 0 0 50476736.67388916 97231040.226016045 0 97231040.226016045 -487344999.48675537 0 0 0 0 -82830032.875595093 -51463386.129413605 0 -51463386.129413605 -43344796.486764908 0 0 0 0 15240583.624307632 -52137113.060011625 0 -52137113.060011625 -58550579.890449524 0 0 0 0 366569052.05228424 70547856.945745468 0 70547856.945745468 49195790.637635708 0 0 0 0 489536990.43398476 383969689.91014338 0 383969689.91014338 260496985.6970787 0 0 0 0 770931611.72833252 344908390.10068321 0 344908390.10068321 108595709.53251743 0 0 0 0 484751995.05410004 395574669.95595741 0 395574669.95595741 248154178.83929443 0 0 0 0 505180093.72197723 109877330.95697975 0 109877330.95697975 -30537039.113283157 0 0 0 0 66881262.195449829 -75696289.933633804 0 -75696289.933633804 -102865171.65645218 0 0 0 0 61976645.089132786 54949497.404288948 0 54949497.404288948 -44927100.179664612 0 0 0 0 1534265.2148790434 527936.99671803741 0 527936.99671803741 -1213939.2117041387 0 0 0 0 386350125.31941986 408719498.89241886 0 408719498.89241886 290625199.82989311 0 0 0 0 665485293.74014664 596717964.70175505 0 596717964.70175505 404647984.09436035 0 0 0 0 -2941913.6718597412 13600992.010799408 0 13600992.010799408 -69545266.826026917 0 0 0 0 -47700022.909984589 40388398.625038147 0 40388398.625038147 -12021772.008270264 0 0 0 0 3731924.7446637563 1151552.0697445148 0 1151552.0697445148 -3247698.5270574782 0 0 0 0 8525098.0789574422 5220896.8486301824 0 5220896.8486301824 -5385913.0872033536 0 0 0 0 -6976855.6542243958 74431803.04374218 0 74431803.04374218 9119658.4045448303 0 0 0 0 -4189531.8184814453 -37171746.638326645 0 -37171746.638326645 -950586.06890654564 0 0 0 0 -109719135.89891744 -4175770.4792945385 0 -4175770.4792945385 64628047.411640167 0 0 0 0 2948081.1022644043 5671562.5642871857 0 5671562.5642871857 -37607838.52053833 0 0 0 0 117312158.32093239 28430069.993229866 0 28430069.993229866 55107433.180511475 0 0 0 0 56144189.878002167 -68548980.467046738 0 -68548980.467046738 61300037.282733917 0 0 0 0 60028742.931167603 47146831.422712326 0 47146831.422712326 42864089.354057312 0 0 0 0 104657587.59445572 -23901275.942584038 0 -23901275.942584038 134702064.01515961 0 0 0 0 311702243.49089813 1120195.8031654358 0 1120195.8031654358 18531710.25390625 0 0 0 0 282759134.23836899 91059905.240829945 0 91059905.240829945 359322596.30696106 0 0 0 0 364658718.57218933 270627938.43913651 0 270627938.43913651 151914557.34893799 0 0 0 0 177472826.81417084 -48980640.791460037 0 -48980640.791460037 -14178552.165510178 0 0 0 0 380341708.87309265 -8456894.0484580994 0 -8456894.0484580994 -60362127.863155365 0 0 0 0 287531077.0067749 57894290.988847733 0 57894290.988847733 -28694814.25312233 0 0 0 0 260042239.58201599 -178017562.19551277 0 -178017562.19551277 680223628.55273438 0 0 0 0 966075296.88581848 352124874.58719826 0 352124874.58719826 109945894.71585989 0 0 0 0 1294079291.6661987 583479975.86850357 0 583479975.86850357 -91390484.5677948 0 0 0 0 455480478.43771362 534689018.13227272 0 534689018.13227272 816313197.31417084 0 0 0 0 178075278.51992035 26340840.710128784 0 26340840.710128784 7142374.8933544159 0 0 0 0 4143705.8700354397 -468089.82402169239 0 -468089.82402169239 -2659844.6128614545 0 0 0 0 340424674.32689667 150344972.55811882 0 150344972.55811882 -7652861.8852462769 0 0 0 0 218493599.26091003 112772990.19514465 0 112772990.19514465 67058412.703893661 0 0 0 0 222580784.37452316 24386395.680501521 0 24386395.680501521 -52497124.217956543 0 0 0 0 235809716.56456757 83112766.426803589 0 83112766.426803589 -1898618.6250724792 0 0 0 0 178317655.72992706 36188055.57900238 0 36188055.57900238 -45663273.707344055 0 0 0 0 81835024.519702911 21496008.335817337 0 21496008.335817337 -1495135.9407196045 0 0 0 0 87781730.22039938 -49965589.216870904 0 -49965589.216870904 -73963134.458059311 0 0 0 0 45141242.614894867 -91100152.501085281 0 -91100152.501085281 -75480244.787216187 0 0 0 0 37906648.023467608 -12112416.535688709 0 -12112416.535688709 -12741474.548866205 0 0 0 0 50447332.923950195 18133908.91503334 0 18133908.91503334 -22140358.180007935 0 0 0 0 44779406.393573478 -12854060.420731753 0 -12854060.420731753 -16757472.32672099 0 0 0 0 -47073399.511772156 -107867195.13376999 0 -107867195.13376999 -21814882.043783665 0 0 0 0 117766465.99318695 7988148.2681336403 0 7988148.2681336403 -12459209.084543228 0 0 0 0 98889290.334623337 36857500.948705673 0 36857500.948705673 1751254.5245380402 0 0 0 0 75270749.491981506 11210132.317630768 0 11210132.317630768 -13197795.482362747 0 0 0 0 96291485.836557388 41486113.446936131 0 41486113.446936131 -6310853.1184959412 0 0 0 0 140536226.53224087 33894767.612678766 0 33894767.612678766 -36769767.763839722 0 0 0 0 124227586.9522295 81822200.246807098 0 81822200.246807098 51900700.779163361 0 0 0 0 720019.72016408481 4593545.8918159846 0 4593545.8918159846 132777.53635640792 0 0 0 0 172236993.01055145 95252138.789549351 0 95252138.789549351 34743079.09810257 0 0 0 0 13907309.852015339 2933330.5247167628 0 2933330.5247167628 -782917.35813627485 0 0 0 0 178352878.50289345 93333645.083358765 0 93333645.083358765 5242638.6979618073 0 0 0 0 20492591.50094223 50845893.825027466 0 50845893.825027466 -79504826.192966461 0 0 0 0 86733348.56149292 61832090.63919735 0 61832090.63919735 116844177.35844994 0 0 0 0 163619047.36689186 31599228.957570076 0 31599228.957570076 -73683875.479852676 0 0 0 0 125059913.45887756 53837179.831030846 0 53837179.831030846 26717365.132593155 0 0 0 0 37846687.127846569 -10497489.975977022 0 -10497489.975977022 -12575787.275771713 0 0 0 0 89258991.146850586 -26859235.888212204 0 -26859235.888212204 -44795405.882316589 0 0 0 0 -32642851.755565643 -110208591.6572423 0 -110208591.6572423 -37247032.697838783 0 0 0 0 308134189.69244194 -35064612.074851513 0 -35064612.074851513 -103362749.88111115 0 0 0 0 -78952170.18662262 13727857.200651169 0 13727857.200651169 19459820.501665115 0 0 0 0 158159999.17923737 52902046.57126236 0 52902046.57126236 -13779458.021276712 0 0 0 0 107557748.64902496 27324315.511673927 0 27324315.511673927 -10716316.053359985 0 0 0 0 7246364.1382466238 -564773.10620704014 0 -564773.10620704014 -801824.44932768866 0 0 0 0 29414899.261308908 -3694073.4346138239 0 -3694073.4346138239 -37520064.965286255 0 0 0 0 26540274.433082581 -14005814.652628899 0 -14005814.652628899 -3413734.4592514038 0 0 0 0 19720831.44836998 7850110.8089733124 0 7850110.8089733124 -40470859.14585495 0 0 0 0 35131500.951810837 -17327011.13864994 0 -17327011.13864994 -29347140.069320679 0 0 0 0 14696733.996284485 -6443745.6417913437 0 -6443745.6417913437 -3224390.2978820801 0 0 0 0 25208889.609407227 -9161362.4284502566 0 -9161362.4284502566 -523013.62983844429 0 0 0 0 26591807.816879783 -8368566.0199376056 0 -8368566.0199376056 1893875.1958614793 0 0 0 0 30362079.211118698 -19961095.229279518 0 -19961095.229279518 3898594.0637812614 0 0 0 0 17543858.484884977 -8843924.7611591816 0 -8843924.7611591816 3996513.6563110352 0 0 0 0 15922009.542852402 -3300499.8356246948 0 -3300499.8356246948 12589475.946895599 0 0 0 0 36622932.542177916 -3606433.9480150286 0 -3606433.9480150286 -3044225.186739692 0 0 0 0 22347505.823034126 -5054371.410295682 0 -5054371.410295682 625449.22486351803 0 0 0 0 13559177.535721689 -2210473.0635773903 0 -2210473.0635773903 1950250.8454426518 0 0 0 0 28112684.970291376 -3333398.8224443197 0 -3333398.8224443197 23998896.482280731 0 0 0 0 8203930.1659126282 1256051.5329933167 0 1256051.5329933167 256917.83739471436 0 0 0 0 -34281191.219909668 -63608411.88051796 0 -63608411.88051796 15448255.005506873 0 0 0 0 61442670.334060669 -13991834.835998535 0 -13991834.835998535 -28664715.020044327 0 0 0 0 136255345.27729797 -77350942.217750549 0 -77350942.217750549 -27846479.837674618 0 0 0 0 23711121.623835087 28097469.301099479 0 28097469.301099479 2524948.5984237529 0 0 0 0 192893726.9757309 17578449.716295242 0 17578449.716295242 -9766740.5257463455 0 0 0 0 150812235.48789978 31323922.444467545 0 31323922.444467545 40148439.076343536 0 0 0 0 75510469.407348633 19475664.927643776 0 19475664.927643776 8551943.0936822891 0 0 0 0 148928980.0014267 -8032139.7548465729 0 -8032139.7548465729 -23064612.704046249 0 0 0 0 72684180.033370972 -65581289.685752869 0 -65581289.685752869 -21994355.606813788 0 0 0 0 34736074.905553654 -6704355.5288556712 0 -6704355.5288556712 657563.36132113077 0 0 0 0 105519395.85307789 -4754338.2246398926 0 -4754338.2246398926 -7421580.4105300903 0 0 0 0 3938427.3363342285 16492823.028836489 0 16492823.028836489 -60999043.158222198 0 0 0 0 -165114872.56258392 -170747350.29850769 0 -170747350.29850769 101639180.17800903 0 0 0 0 67327484.279541016 -7587997.433795929 0 -7587997.433795929 -6487382.2109184265 0 0 0 0 53280117.537737466 -2965874.9930084045 0 -2965874.9930084045 -8110759.1658602776 0 0 0 0 157135924.43684769 32978366.190339088 0 32978366.190339088 -5878207.6606445312 0 0 0 0 28222929.438019358 25644851.000093155 0 25644851.000093155 1736814.8633181779 0 0 0 0 32106127.471443553 -17283384.664325494 0 -17283384.664325494 -6915849.5654680254 0 0 0 0 34478305.208740234 -21023812.840126038 0 -21023812.840126038 -11406167.190872192 0 0 0 0 68578776.883520931 -21446504.869251892 0 -21446504.869251892 -11465574.934065215 0 0 0 0 28038627.55293294 -3176786.5251912382 0 -3176786.5251912382 -5185164.8427760303 0 0 0 0 66272886.421684265 -7821388.7780475616 0 -7821388.7780475616 -8470267.9604327679 0 0 0 0 58118984.794742584 -11067430.614327669 0 -11067430.614327669 1683419.6608724594 0 0 0 0 67347063.284202576 -7725765.2323179245 0 -7725765.2323179245 -6308664.7908501625 0 0 0 0 18550442.850192569 5562802.6301506814 0 5562802.6301506814 -1434912.6642412879 0 0 0 0 65862327.005304337 -7408459.6368579865 0 -7408459.6368579865 -608795.46977043152 0 0 0 0 36256647.820217133 3947077.3839383125 0 3947077.3839383125 482492.71128177643 0 0 0 0 44563447.220245361 -287596.20914745331 0 -287596.20914745331 -11199886.190630913 0 0 0 0 35485784.300527245 4880580.6645304449 0 4880580.6645304449 -2733901.6127517209 0 0 0 0 32074940.15978241 6103608.9357032776 0 6103608.9357032776 -62417423.778980255 0 0 0 0 256002459.79763794 -83045591.165168762 0 -83045591.165168762 -38312858.921287537 0 0 0 0 47085231.81022644 11174294.762530327 0 11174294.762530327 -6256424.7072172165 0 0 0 0 36632344.377317533 5140303.3206703626 0 5140303.3206703626 -2195490.8315435322 0 0 0 0 38213657.820243835 17220389.401543021 0 17220389.401543021 2078684.2675981522 0 0 0 0 55831887.011444092 12425728.681553841 0 12425728.681553841 482554.95517015457 0 0 0 0 123039535.6812973 49401461.593236923 0 49401461.593236923 -16911703.585176468 0 0 0 0 3801582.8241612241 7948132.9826585501 0 7948132.9826585501 2534909.2132292539 0 0 0 0 54632917.374744415 23420454.802281857 0 23420454.802281857 15823709.128511429 0 0 0 0 23281963.861816406 7803038.7512454987 0 7803038.7512454987 1163325.3836555481 0 0 0 0 12529974.072769165 12350768.541043043 0 12350768.541043043 2226427.6256065369 0 0 0 0 197513342.52125549 -35265763.215692282 0 -35265763.215692282 -399542224.28601265 0 0 0 0 44435334.825218201 109667397.85528278 0 109667397.85528278 28064215.251689911 0 0 0 0 118266246.0721283 75256946.014249802 0 75256946.014249802 42457589.144612312 0 0 0 0 60419583.555552483 1085146.355789423 0 1085146.355789423 -6778365.9220285416 0 0 0 0 109476361.22976685 1814449.1344339848 0 1814449.1344339848 -10400277.420562744 0 0 0 0 12435846.550870569 4889921.6678151824 0 4889921.6678151824 1168923.3627999807 0 0 0 0 -22410691.272724152 -54813775.512859344 0 -54813775.512859344 -44389260.500982285 0 0 0 0 85304651.099090576 7635700.4180145264 0 7635700.4180145264 6746557.5645346642 0 0 0 0 74590028.434967041 -16161675.549577475 0 -16161675.549577475 -13119179.91267395 0 0 0 0 20693328.297950882 -4799514.2550679538 0 -4799514.2550679538 -6549927.574203087 0 0 0 0 85490476.482498169 1083906.4660931826 0 1083906.4660931826 2283395.299618721 0 0 0 0 -243354991.29028606 1013783546.3795887 0 1013783546.3795887 1412313532.2367554 0 0 0 0 91205010.60042572 2331200.6201882362 0 2331200.6201882362 -6516424.8746964931 0 0 0 0 92989049.949251175 -4167000.1603419781 0 -4167000.1603419781 5746436.6787471771 0 0 0 0 872223118.58505249 1474159506.4847298 0 1474159506.4847298 -825745444.81938744 0 0 0 0 75351507.250160217 184508389.84417892 0 184508389.84417892 1088463831.2234211 0 0 0 0 13327138.435448021 5873601.2413096037 0 5873601.2413096037 1751673.487465109 0 0 0 0 74555239.39307785 -246111533.79533207 0 -246111533.79533207 116781873.90707779 0 0 0 0 99793714.339355469 10080203.0644508 0 10080203.0644508 -10882863.348488927 0 0 0 0 93116979.185028076 7334475.6408107281 0 7334475.6408107281 7929872.7340857983 0 0 0 0 91860916.211257935 2389997.8822048306 0 2389997.8822048306 -11264858.646589756 0 0 0 0 98178059.263923645 7102929.7875471115 0 7102929.7875471115 -10482689.84976548 0 0 0 0 -480699494.7155571 -455041429.59840298 0 -455041429.59840298 -88666188.122299194 0 0 0 0 29537855.543845277 -813955.82908790186 0 -813955.82908790186 -12584330.895540224 0 0 0 0 83911985.164390564 317040.46339067817 0 317040.46339067817 -3948519.8259974718 0 0 0 0 101991640.32704544 -18666051.244638562 0 -18666051.244638562 12429690.743185878 0 0 0 0 209128481.29260254 -458973059.532938 0 -458973059.532938 12902041.437877655 0 0 0 0 451411545.70266724 -528756985.58239841 0 -528756985.58239841 -213415029.36530435 0 0 0 0 99009455.956455231 5599292.4732891321 0 5599292.4732891321 -20959051.510234594 0 0 0 0 116138296.9274292 12604678.539490879 0 12604678.539490879 -13704426.359542847 0 0 0 0 91233678.432052612 -4406640.6694089174 0 -4406640.6694089174 -21101665.781129308 0 0 0 0 175110997.0914917 -2077841.96565485 0 -2077841.96565485 -74849108.408739686 0 0 0 0 31489871.412986755 -103413684.45625734 0 -103413684.45625734 93972797.247676849 0 0 0 0 55515861.172187805 9494615.6663889885 0 9494615.6663889885 -25257205.810975313 0 0 0 0 425680204.56017303 -71219062.025849938 0 -71219062.025849938 -97489137.174476862 0 0 0 0 133172935.75093079 302168921.49300313 0 302168921.49300313 -97730247.891310692 0 0 0 0 608438179.90039062 402382230.78655434 0 402382230.78655434 -273654476.23496819 0 0 0 0 708026966.16656876 -116449178.37259007 0 -116449178.37259007 -116637068.29979134 0 0 0 0 1301298.8452594802 10712.129389781505 0 10712.129389781505 501967.64971727505 0 0 0 0 45897674.343383789 -47499402.687648296 0 -47499402.687648296 14282113.012303591 0 0 0 0 11420540.265636396 6753863.6635534512 0 6753863.6635534512 -4489163.7673497759 0 0 0 0 9281992.3969430923 17092946.442299247 0 17092946.442299247 -4704433.7929916382 0 0 0 0 8095388.7981281281 6509771.2272171974 0 6509771.2272171974 2409897.5921602249 0 0 0 0 9092898.3024941683 12726335.785723016 0 12726335.785723016 6160086.406621933 0 0 0 0 2369413.7637569495 8186491.2199046779 0 8186491.2199046779 1220398.3615070451 0 0 0 0 157522597.80668449 -70494641.611340523 0 -70494641.611340523 64462836.843265533 0 0 0 0 33724338.095581055 138312992.38938236 0 138312992.38938236 595382347.88872385 0 0 0 0 -352316.44936731085 1150830.0800972376 0 1150830.0800972376 942363.83784580464 0 0 0 0 371677962.03162956 -72044502.526797652 0 -72044502.526797652 51669684.076129913 0 0 0 0 18941361.300562352 -5042650.3311681207 0 -5042650.3311681207 -9156934.1322643347 0 0 0 0 37652297.603088379 -5002032.8683567047 0 -5002032.8683567047 46689239.403097153 0 0 0 0 17058968.129004199 -2734811.6081917854 0 -2734811.6081917854 -9476580.8501226753 0 0 0 0 126226861.54452515 -111512202.14373493 0 -111512202.14373493 -77541289.701140165 0 0 0 0 43827867.831447601 12349420.446815014 0 12349420.446815014 -49070041.663043022 0 0 0 0 43958247.92327372 -7246365.5861405209 0 -7246365.5861405209 -14853661.399375431 0 0 0 0 -156440798.06678391 -98879479.9661026 0 -98879479.9661026 48263482.821537018 0 0 0 0 -198402733.64969254 113092647.31106567 0 113092647.31106567 -65437768.655656815 0 0 0 0 -214395802.58849335 -262708869.10173798 0 -262708869.10173798 281430671.90017891 0 0 0 0 546910878.34737396 -168265677.56924248 0 -168265677.56924248 -9153441.0141239166 0 0 0 0 30182145.376052856 146178066.23381233 0 146178066.23381233 -136273405.57355595 0 0 0 0 706401360.89500809 157823187.28823471 0 157823187.28823471 -332189652.1488142 0 0 0 0 9031799.5762875378 1576852.1688717022 0 1576852.1688717022 -1529332.677541147 0 0 0 0 -13386897.0175457 -209089838.10927677 0 -209089838.10927677 85389513.367507935 0 0 0 0 -42946934.96023941 -153243447.82974434 0 -153243447.82974434 22496130.331048965 0 0 0 0 64170634.601959229 -126245731.33946037 0 -126245731.33946037 13794718.829387665 0 0 0 0 547966301.30889511 274717741.39814281 0 274717741.39814281 82199661.474098921 0 0 0 0 3360528.5424863733 760469.89532956108 0 760469.89532956108 587768.21442236565 0 0 0 0 42813587.679347992 -35014198.298213959 0 -35014198.298213959 -205027247.07579613 0 0 0 0 199145183.27793121 -228215019.64681053 0 -228215019.64681053 -160923960.84709978 0 0 0 0 221326603.45065689 -308736059.7347002 0 -308736059.7347002 -31472614.305147171 0 0 0 0 87187867.723182678 -360434104.26708126 0 -360434104.26708126 205312457.06723118 0 0 0 0 271756198.11594391 602610804.58291626 0 602610804.58291626 403426197.03393745 0 0 0 0 339811799.93355942 511654549.32637119 0 511654549.32637119 258798276.10303497 0 0 0 0 2762395.4260650724 1265972.1060170801 0 1265972.1060170801 136333.9206072595 0 0 0 0 1711942063.124321 -174834724.27054405 0 -174834724.27054405 -1991659129.3809242 0 0 0 0 545762394.71755219 667236649.78898621 0 667236649.78898621 320458253.43432808 0 0 0 0 93479423.255245209 -265420441.37357712 0 -265420441.37357712 222946768.18159103 0 0 0 0 -8009736.0054855347 -63944212.739253998 0 -63944212.739253998 -176591897.32868958 0 0 0 0 96266721.105163574 400068259.52857018 0 400068259.52857018 317278103.91707611 0 0 0 0 649555378.77448273 -160425211.46097946 0 -160425211.46097946 -294493027.7252655 0 0 0 0 470330213.76763725 368612724.7459569 0 368612724.7459569 -22450174.525337219 0 0 0 0 265538445.30259705 140562068.07217407 0 140562068.07217407 -275314018.88883972 0 0 0 0 190833613.87023425 -232476086.36017767 0 -232476086.36017767 12712403.361320496 0 0 0 0 130155477.04179382 508395823.55752563 0 508395823.55752563 405609194.80021667 0 0 0 0 1156030.8818085492 868151.14083245071 0 868151.14083245071 1253323.3765525045 0 0 0 0 -32318170.643753052 64113108.976402283 0 64113108.976402283 462530544.16918373 0 0 0 0 28068743.117706299 -118622036.50071144 0 -118622036.50071144 359863807.98014832 0 0 0 0 23603885.414180756 79459672.364826202 0 79459672.364826202 66125304.977661133 0 0 0 0 65786826.425750732 150742202.10248184 0 150742202.10248184 67477104.914995193 0 0 0 0 47987105.391098022 405285776.13921452 0 405285776.13921452 -102944193.99604797 0 0 0 0 37519568.028240204 247751727.58796787 0 247751727.58796787 -64446948.648044586 0 0 0 0 -19601920.289535522 43850222.275373459 0 43850222.275373459 41885930.32786274 0 0 0 0 2703169.6055145264 95662354.644041061 0 95662354.644041061 -46944451.836601257 0 0 0 0 83125404.617340088 57832700.741336823 0 57832700.741336823 -297963347.8878746 0 0 0 0 -15926775.432617188 14835827.988370895 0 14835827.988370895 -107309606.57423592 0 0 0 0 -6143707.7168693542 28039052.776441574 0 28039052.776441574 46533525.77784729 0 0 0 0 -23685645.059555054 -11437030.54326725 0 -11437030.54326725 126057584.54990911 0 0 0 0 76984163.45164299 -39236017.275949955 0 -39236017.275949955 53521247.392398834 0 0 0 0 11489206.529632568 23470308.799295425 0 23470308.799295425 34338442.402774811 0 0 0 0 25349660.552173615 8946850.4390161037 0 8946850.4390161037 46359094.363807678 0 0 0 0 98158785.297607422 -188342511.25543213 0 -188342511.25543213 -73583458.754157066 0 0 0 0 -4763722.7433128357 69242753.022954345 0 69242753.022954345 -12404532.5676651 0 0 0 0 52149727.085220337 181976413.40452075 0 181976413.40452075 -82768394.606536865 0 0 0 0 -21178965.421020508 54386551.639425278 0 54386551.639425278 61873714.595558167 0 0 0 0 80625744.95239526 19706219.240400333 0 19706219.240400333 -4578967.0346378591 0 0 0 0 18968978.187942311 22788151.481871091 0 22788151.481871091 -1651972.6169937737 0 0 0 0 147532402.19361877 278453431.14007568 0 278453431.14007568 -397897741.31427574 0 0 0 0 -60033905.566238403 315250344.17511749 0 315250344.17511749 -134465481.91443062 0 0 0 0 70020767.555969238 54280875.70413208 0 54280875.70413208 -94665580.939759731 0 0 0 0 32350950.985212937 21757053.081748974 0 21757053.081748974 2943524.442348389 0 0 0 0 37464325.566146851 63894928.079410791 0 63894928.079410791 -33746998.043138504 0 0 0 0 15245894.941131592 23468857.548034072 0 23468857.548034072 -4562796.8798730075 0 0 0 0 43692531.19221957 35170646.414549783 0 35170646.414549783 2814978.2200890388 0 0 0 0 346095718.21104813 -14814384.98349762 0 -14814384.98349762 -761997369.6900444 0 0 0 0 8191010.1832122803 29232495.534358025 0 29232495.534358025 -26166500.353885651 0 0 0 0 53057384.084458962 9881799.2784706429 0 9881799.2784706429 -2502723.6425766833 0 0 0 0 -135078518.026474 3123371.1407737732 0 3123371.1407737732 -295258787.85908604 0 0 0 0 55320169.923500061 88886962.581226349 0 88886962.581226349 -368153585.06873512 0 0 0 0 12582691.533777729 32864083.133039832 0 32864083.133039832 5808344.8516511554 0 0 0 0 5259936.6798095703 14910586.936280489 0 14910586.936280489 -4302755.5932828188 0 0 0 0 25555996.309051514 20964512.212755978 0 20964512.212755978 -6852794.5553240776 0 0 0 0 15264628.197542235 12770752.37124813 0 12770752.37124813 1716333.3106578989 0 0 0 0 42148122.437525831 22572467.326487344 0 22572467.326487344 -3216826.8280814644 0 0 0 0 89223268.421712637 -174263279.79262555 0 -174263279.79262555 -309138826.09988022 0 0 0 0 17712641.752754211 16260813.760211885 0 16260813.760211885 605224.63536787033 0 0 0 0 14975690.139305115 12908207.030794024 0 12908207.030794024 3825787.9403247833 0 0 0 0 25770722.820541382 12326320.430230498 0 12326320.430230498 2148464.5215280056 0 0 0 0 21682926.063187249 21354217.101380482 0 21354217.101380482 3208078.9320585779 0 0 0 0 18154902.070678711 82743149.988391876 0 82743149.988391876 -17335539.365589619 0 0 0 0 33064957.588485718 47125852.451639414 0 47125852.451639414 -4381515.6099052429 0 0 0 0 23218861.367294312 51662655.108205795 0 51662655.108205795 -34415809.682027817 0 0 0 0 -35668426.934036255 95958667.784632206 0 95958667.784632206 303709.54261016846 0 0 0 0 72741112.421272278 33357349.087547541 0 33357349.087547541 -10920231.116285324 0 0 0 0 78433434.412384033 86655237.659571171 0 86655237.659571171 -17756785.388303757 0 0 0 0 83682601.10118103 80607783.994003296 0 80607783.994003296 -2066389.2493677139 0 0 0 0 200379138.49920654 -1294405.9908771515 0 -1294405.9908771515 -54183841.729022026 0 0 0 0 221222825.38470459 37184664.098981857 0 37184664.098981857 -31267394.201038361 0 0 0 0 153459247.41854858 14717822.497684479 0 14717822.497684479 -21479826.312453151 0 0 0 0 118731389.25958252 -43280192.797240257 0 -43280192.797240257 -17065267.961157799 0 0 0 0 24649840.026229706 5767924.4986066939 0 5767924.4986066939 -6007209.7777083274 0 0 0 0 29951543.468046449 4696565.7332787178 0 4696565.7332787178 -2769741.7085872907 0 0 0 0 24321673.585632324 5701735.8274943829 0 5701735.8274943829 -5110748.1988428235 0 0 0 0 44640357.697433472 6088004.4560661316 0 6088004.4560661316 2622391.4720897675 0 0 0 0 16005854.065593719 76716165.650958002 0 76716165.650958002 13608890.879022598 0 0 0 0 19568038.145829741 14007464.158368323 0 14007464.158368323 -2905452.3828296796 0 0 0 0 82262195.290390015 4680264.9126620293 0 4680264.9126620293 1365946.0895118713 0 0 0 0 -2346748.501250755 4951006.1349916793 0 4951006.1349916793 1781868.9659815985 0 0 0 0 34162042.393921494 58377704.416797824 0 58377704.416797824 -22107547.691935062 0 0 0 0 4383754.1455741078 715625.2282714583 0 715625.2282714583 -1616875.1308598709 0 0 0 0 31843369.495860457 -39025730.26071696 0 -39025730.26071696 17304022.355886459 0 0 0 0 36163195.223258972 -25564659.842086792 0 -25564659.842086792 30427561.425832748 0 0 0 0 78513665.430122375 -50038971.458444118 0 -50038971.458444118 -54481662.370001793 0 0 0 0 114858801.540802 -11688268.313311577 0 -11688268.313311577 -8236925.2754821777 0 0 0 0 42769830.692058563 6731900.9624165893 0 6731900.9624165893 -8624051.2494869232 0 0 0 0 9663827.7647240497 -2191148.5249050651 0 -2191148.5249050651 -6071841.2365185395 0 0 0 0 46041535.234397888 30574158.409429193 0 30574158.409429193 47108868.082483768 0 0 0 0 -76774708.699970245 93465939.092246771 0 93465939.092246771 74481160.016759872 0 0 0 0 21583921.280003645 6698054.0016107634 0 6698054.0016107634 -880730.50982874341 0 0 0 0 30685011.681793213 7405380.0551210642 0 7405380.0551210642 34754736.660654306 0 0 0 0 28548476.909736179 9220012.2934245244 0 9220012.2934245244 -2896354.8059793874 0 0 0 0 86441715.102279663 26584308.584454536 0 26584308.584454536 -26644240.063809872 0 0 0 0 -15622347.151885986 31533160.927704096 0 31533160.927704096 30454956.233451605 0 0 0 0 2883751.1019047797 6539053.2268785182 0 6539053.2268785182 -1651437.570115078 0 0 0 0 36797192.041379154 8479461.8148656506 0 8479461.8148656506 -1031423.0078049009 0 0 0 0 23528453.908614144 6019343.516754467 0 6019343.516754467 -1062991.9032961251 0 0 0 0 38389835.034301758 7876840.1717851162 0 7876840.1717851162 -2671084.3484332561 0 0 0 0 32877738.584327698 15720748.411238432 0 15720748.411238432 -4409415.9608752728 0 0 0 0 32953684.455917358 4411769.7392408848 0 4411769.7392408848 -2372271.7161909342 0 0 0 0 27015695.169471741 7278456.0270752907 0 7278456.0270752907 1763229.975720644 0 0 0 0 30311887.187316518 4214533.5611309446 0 4214533.5611309446 -3013107.9025594965 0 0 0 0 31058020.703819275 9369714.4484385252 0 9369714.4484385252 546375.57864880562 0 0 0 0 26241140.668899536 7432498.5499658585 0 7432498.5499658585 4165241.6856942177 0 0 0 0 20227715.7870447 5857169.511440374 0 5857169.511440374 1705820.9720083757 0 0 0 0 51688756.151413918 7430456.9716494158 0 7430456.9716494158 -4286948.3382081985 0 0 0 0 25650960.327536259 7104349.4512377456 0 7104349.4512377456 2438503.1374559319 0 0 0 0 36940708.125534058 -980785.83932805061 0 -980785.83932805061 -1297086.719576925 0 0 0 0 45749594.512869835 20896474.7000238 0 20896474.7000238 10280259.334281921 0 0 0 0 29850500.581768855 442317.5516904518 0 442317.5516904518 -6963281.0621421104 0 0 0 0 52317904.15958643 10751661.274114594 0 10751661.274114594 -2149921.9280290604 0 0 0 0 44358139.866577148 9924842.1456375122 0 9924842.1456375122 476003.56225585938 0 0 0 0 41904231.277099609 11539208.015356541 0 11539208.015356541 -551279.84988689423 0 0 0 0 39899181.074279785 7792754.6632127762 0 7792754.6632127762 2202781.0242449045 0 0 0 0 34994849.089889526 13721427.68456459 0 13721427.68456459 603563.45086288452 0 0 0 0 39840971.586227417 9730652.2488369942 0 9730652.2488369942 -3813600.7854814529 0 0 0 0 52549713.959106445 -6810402.9537436962 0 -6810402.9537436962 -3809737.2516855001 0 0 0 0 36861099.528137207 12691730.280711651 0 12691730.280711651 1152157.9804697037 0 0 0 0 32968345.156027164 6064911.6483426169 0 6064911.6483426169 -177388.53147383779 0 0 0 0 49470284.386634827 628063.55638575554 0 628063.55638575554 2346535.3280620575 0 0 0 0 24638609.44019299 13944992.120835265 0 13944992.120835265 -6432099.0363351693 0 0 0 0 -8042602.9114547372 8696106.626980057 0 8696106.626980057 2275876.9508661339 0 0 0 0 13442962.491199493 74330965.662055969 0 74330965.662055969 -36067005.288061142 0 0 0 0 -47040434.23279953 17845870.044317245 0 17845870.044317245 7791067.5789206028 0 0 0 0 -1210462.8345527649 51537418.980312347 0 51537418.980312347 6693117.8064832687 0 0 0 0 3233515.0439300537 29187913.537099838 0 29187913.537099838 -39531577.263364792 0 0 0 0 -51998061.824222565 13655478.604243279 0 13655478.604243279 -12411545.13224411 0 0 0 0 7993564.659439954 1284416.5308971424 0 1284416.5308971424 -517318.15968854912 0 0 0 0 24009032.241276242 12798352.595630754 0 12798352.595630754 2543206.6914775278 0 0 0 0 189926758.76724243 -9748145.6336579323 0 -9748145.6336579323 7234465.1063404083 0 0 0 0 -9777362.8130111694 -14026461.569349289 0 -14026461.569349289 -17483310.0415802 0 0 0 0 -102457713.42420387 48022324.006440878 0 48022324.006440878 40255945.01525116 0 0 0 0 -871119.94815725088 22435297.616402924 0 22435297.616402924 -939242.52871401748 0 0 0 0 10631183.504303291 13347852.707837187 0 13347852.707837187 -928193.09941791371 0 0 0 0 157358425.42102051 -115728290.25330353 0 -115728290.25330353 -162653693.75924683 0 0 0 0 -40657241.631057739 38238201.486660957 0 38238201.486660957 47113787.934140325 0 0 0 0 27000808.905095577 -51251660.365792155 0 -51251660.365792155 13872097.577344894 0 0 0 0 10819094.311641693 221178506.94179177 0 221178506.94179177 260068864.6604805 0 0 0 0 32323712.309928894 45402562.368222713 0 45402562.368222713 6058043.3559751511 0 0 0 0 -53685968.665100098 73490396.426333427 0 73490396.426333427 38495240.019054413 0 0 0 0 -1668051.837310791 23514585.076730013 0 23514585.076730013 32161446.489610165 0 0 0 0 11266354.675605774 27848722.828133609 0 27848722.828133609 -6896676.2935786247 0 0 0 0 -2563285.5363143291 1387157.6672272803 0 1387157.6672272803 451789.25104263425 0 0 0 0 60498271.982162476 -20231465.36838311 0 -20231465.36838311 6793914.7898225784 0 0 0 0 20985252.250187572 13868383.23868008 0 13868383.23868008 528893.22710639052 0 0 0 0 33660046.831302643 99001863.724536896 0 99001863.724536896 173898319.7443856 0 0 0 0 10322804.148643255 45981668.174755439 0 45981668.174755439 65415439.408525467 0 0 0 0 18392328.186431885 26242837.130247951 0 26242837.130247951 29815213.588973284 0 0 0 0 47108150.39566803 72064174.858388901 0 72064174.858388901 53275322.789549351 0 0 0 0 109881622.30131721 70100422.31234473 0 70100422.31234473 -3637355.4153079987 0 0 0 0 106184366.30018568 99044737.63834095 0 99044737.63834095 -4001580.693901062 0 0 0 0 208013338.46647644 120242137.29692078 0 120242137.29692078 -27827060.028829575 0 0 0 0 62002921.686798096 48986669.416136742 0 48986669.416136742 -12856131.333820343 0 0 0 0 141453649.12088776 54337612.909622192 0 54337612.909622192 -30609099.624442101 0 0 0 0 55069823.731262207 62452918.793345451 0 62452918.793345451 -25421463.591007233 0 0 0 0 115215.01983642578 33068215.527270317 0 33068215.527270317 -6361920.9084033966 0 0 0 0 158961427.82577515 -60289304.282649994 0 -60289304.282649994 865870.54595279694 0 0 0 0 138067230.22138786 65795671.39912343 0 65795671.39912343 -68839838.461229324 0 0 0 0 230596801.97108459 46858192.828282356 0 46858192.828282356 -97245182.788320541 0 0 0 0 232458816.64820862 61710112.677580833 0 61710112.677580833 -77031182.934088707 0 0 0 0 224285758.91657352 90498354.881419897 0 90498354.881419897 -106620196.74037743 0 0 0 0 208738473.29386139 95086535.25387764 0 95086535.25387764 -87580230.991811752 0 0 0 0 222246262.17988586 35830202.213699341 0 35830202.213699341 -154323394.96652412 0 0 0 0 58373496.17868042 7568509.733253479 0 7568509.733253479 -85896693.004065514 0 0 0 0 62468931.668909073 -93135549.324958369 0 -93135549.324958369 -85015106.871984482 0 0 0 0 570320308.5038681 85179954.876516342 0 85179954.876516342 -198863643.21012688 0 0 0 0 301459284.56882286 85534664.755169153 0 85534664.755169153 -123995655.03442574 0 0 0 0 231485810.98889732 -91754515.334465027 0 -91754515.334465027 -277894181.64383888 0 0 0 0 231632902.70387268 107057912.33857536 0 107057912.33857536 -77457599.188343912 0 0 0 0 228464073.74627686 99443207.714411259 0 99443207.714411259 -92000412.307020187 0 0 0 0 36631817.579128265 -132976409.33048201 0 -132976409.33048201 -35818093.678292751 0 0 0 0 9580230.4302406311 -92221876.300626755 0 -92221876.300626755 -59309399.608411789 0 0 0 0 40651486.541915894 -124593235.53351974 0 -124593235.53351974 -112195222.76751423 0 0 0 0 -411946230.1017952 -309655666.68287516 0 -309655666.68287516 -98981255.554813862 0 0 0 0 8255591.3813139247 -192569.17655153573 0 -192569.17655153573 -2847790.5393129615 0 0 0 0 -383028600.74203491 205313426.3318193 0 205313426.3318193 525367478.74548888 0 0 0 0 269943111.29242325 -325104265.30085468 0 -325104265.30085468 -441863384.54526567 0 0 0 0 775066714.17897034 1720719.7363524437 0 1720719.7363524437 -386934891.06517017 0 0 0 0 388807555.98052216 466405620.56989551 0 466405620.56989551 429547384.3553642 0 0 0 0 378431588.8080368 191383029.15587974 0 191383029.15587974 235846454.74716949 0 0 0 0 181460511.64177322 176169410.85990429 0 176169410.85990429 75001442.264200687 0 0 0 0 297708049.51524353 144360591.52474642 0 144360591.52474642 -76697507.638503522 0 0 0 0 276848588.63745499 129752277.25548124 0 129752277.25548124 -55650694.126300812 0 0 0 0 541944980.70898438 245113153.27429056 0 245113153.27429056 -17784229.241535187 0 0 0 0 526604779.25993347 292876233.40019554 0 292876233.40019554 223033513.30274585 0 0 0 0 724784931.29554749 -10092240.33709532 0 -10092240.33709532 204764216.64584172 0 0 0 0 182539547.01199341 226041585.59419131 0 226041585.59419131 213771708.74299479 0 0 0 0 131313605.20413208 135719778.56109381 0 135719778.56109381 72915065.527964368 0 0 0 0 287548870.99615479 -565888182.68211031 0 -565888182.68211031 545170248.85806966 0 0 0 0 95101024.175779343 178776749.18392849 0 178776749.18392849 386472330.76952899 0 0 0 0 3360725.0923007242 -1379741.0664789085 0 -1379741.0664789085 -1141424.7459053774 0 0 0 0 681994707.99731922 -963257352.35167253 0 -963257352.35167253 -984547061.45411682 0 0 0 0 352930280.07373428 -37523442.936548233 0 -37523442.936548233 -48919020.437279701 0 0 0 0 3395961.5878190268 3899026.1989028342 0 3899026.1989028342 -1201916.2961775567 0 0 0 0 114233182.73002815 -92191226.969694614 0 -92191226.969694614 205901143.86538315 0 0 0 0 368707649.21965694 -69906800.727030158 0 -69906800.727030158 -18288629.366219521 0 0 0 0 143334216.49634361 -127659185.26350403 0 -127659185.26350403 21365651.737214565 0 0 0 0 -52587151.841302872 152053850.18834108 0 152053850.18834108 314165365.34510231 0 0 0 0 435285673.99946594 133559066.28855944 0 133559066.28855944 275406146.02014446 0 0 0 0 1913938.706975691 2224514.1734380126 0 2224514.1734380126 -467072.94228531909 0 0 0 0 684280115.60221863 181494232.60302478 0 181494232.60302478 65319835.039717674 0 0 0 0 458262096.26770782 303996405.58454871 0 303996405.58454871 1770428277.8755083 0 0 0 0 405313468.94337463 9883001.4886598587 0 9883001.4886598587 -40248804.984770775 0 0 0 0 290654501.13655853 -97531648.210503578 0 -97531648.210503578 142547363.51452446 0 0 0 0 175812903.63033676 -165978101.40031648 0 -165978101.40031648 112851937.1228714 0 0 0 0 226984479.04062843 78680031.72938776 0 78680031.72938776 290704177.82099152 0 0 0 0 291697131.44671631 -171093974.53776073 0 -171093974.53776073 479803884.72110558 0 0 0 0 756907811.93370056 -409977954.06663036 0 -409977954.06663036 268615484.22647667 0 0 0 0 298759754.54244614 -135790288.22925377 0 -135790288.22925377 118701307.4716444 0 0 0 0 230429780.47003746 -247359288.10610461 0 -247359288.10610461 159668207.3571167 0 0 0 0 167800075.08945465 -68467400.669786453 0 -68467400.669786453 206369354.63379288 0 0 0 0 157367034.32950354 -314762430.20210814 0 -314762430.20210814 -37535964.438827515 0 0 0 0 429594267.72725773 -148519472.70249534 0 -148519472.70249534 5540330.9285669327 0 0 0 0 1999648.4234523885 2190746.936458528 0 2190746.936458528 -1190569.6904241219 0 0 0 0 381966877.60464096 -315614175.54605293 0 -315614175.54605293 40764683.00904274 0 0 0 0 268639923.49601746 -123412388.09837151 0 -123412388.09837151 148638356.7074728 0 0 0 0 261626464.71631622 2225886.5220994949 0 2225886.5220994949 48740715.354658604 0 0 0 0 220528489.25940704 -43510641.935040951 0 -43510641.935040951 9734051.1468544006 0 0 0 0 235547420.21188927 -25755452.770385265 0 -25755452.770385265 3938929.2724876404 0 0 0 0 23263792.28572464 13550878.259250641 0 13550878.259250641 50831934.086988449 0 0 0 0 26371206.159750223 31832381.180716991 0 31832381.180716991 -657860.70039558411 0 0 0 0 -23959958.200194359 -23864764.268797398 0 -23864764.268797398 34916882.39078331 0 0 0 0 23826583.891914368 10003350.273656368 0 10003350.273656368 8054554.1546049118 0 0 0 0 7125372.7635778468 9824390.2800430283 0 9824390.2800430283 1983523.2595064305 0 0 0 0 27727458.281204224 9628997.8131062984 0 9628997.8131062984 -1131395.3338413239 0 0 0 0 -36898215.640482903 27043037.823210716 0 27043037.823210716 16763019.878182888 0 0 0 0 10573116.201351251 2438198.3821983007 0 2438198.3821983007 -2654068.9514796291 0 0 0 0 40412234.125413895 54249354.344712257 0 54249354.344712257 -49757702.379411936 0 0 0 0 28160256.812713623 1103359.673453331 0 1103359.673453331 -3111985.526599884 0 0 0 0 26155084.860279083 2771856.1313786507 0 2771856.1313786507 2931240.0848741531 0 0 0 0 30548717.362464905 14205452.076647282 0 14205452.076647282 5881942.4536972046 0 0 0 0 -167522.81946005672 325540.37934480561 0 325540.37934480561 132933.75583546655 0 0 0 0 12765065.228114303 5294654.4417880513 0 5294654.4417880513 -3796836.4796929285 0 0 0 0 12649817.446102925 9216722.2940195501 0 9216722.2940195501 -3238081.7835042481 0 0 0 0 20801086.524892807 7783835.5499093533 0 7783835.5499093533 -9112334.8516373634 0 0 0 0 3802857.6169929504 -649090.79005023837 0 -649090.79005023837 -12589413.738566995 0 0 0 0 -5717223.2523441315 -189610.07004755735 0 -189610.07004755735 4460198.9021935165 0 0 0 0 -8434943.3721427917 7719060.6954278946 0 7719060.6954278946 39941420.425885379 0 0 0 0 41810561.840652466 18682092.628391206 0 18682092.628391206 -16514902.610936463 0 0 0 0 8242278.5981607586 -1327827.6699416875 0 -1327827.6699416875 -2439074.511047923 0 0 0 0 -25445041.415225983 -49935119.283930451 0 -49935119.283930451 75450425.401987314 0 0 0 0 194407669.58768892 -19334182.006801695 0 -19334182.006801695 -69937020.010973454 0 0 0 0 2846030.9368610382 -12561105.624861002 0 -12561105.624861002 25884802.243425429 0 0 0 0 
</DataArray>
<DataArray type="Float64" Name="cross_section_updated" format="ascii">
1 1 0.049743632803138267 1 1 1 1 0.049742775247840786 1 1 1 1 1 1 1 1 1 1 1 1 0.050534488835171573 1 1 1 1 0.050535172303134021 1 1 1 1 1 1 1 0.05145241425785349 1 1 1 1 1 1 1 1 0.05388374772657091 1 1 1 1 1 1 1 1 1 1 1 0.054995921200718556 0.050339419328739199 1 1 1 1 1 1 1 1 0.052708524860391626 1 1 1 1 1 1 1 1 1 1 1 1 1 1 1 1 1 1 1 1 1 1 0.051909387278999075 1 1 1 1 1 1 1 1 1 1 1 0.053456066705174041 1 1 1 0.051493187153314045 1 1 1 1 1 1 1 1 1 1 1 1 1 1 1 1 1 1 1 1 1 1 1 1 1 1 1 1 1 1 1 1 1 1 1 1 1 1 1 1 1 1 1 1 1 0.049800237688932103 1 0.04864959914647389 1 1 1 1 1 1 1 1 1 1 1 1 1 1 1 1 1 1 1 1 1 1 1 1 1 1 0.059339854623779262 1 1 0.051269339133990718 1 0.051127405659816161 1 1 1 1 1 1 1 1 1 1 1 1 1 1 0.040623402847742601 1 0.056689672587110079 1 1 1 1 1 1 1 0.059419987541897618 1 0.045813996145185304 1 1 1 1 1 1 0.049466530137514023 1 1 0.059677923944476616 1 1 1 1 1 1 0.053268600514553899 0.075683841599506335 1 1 0.04948397068828618 1 0.067377092772348907 1 0.050687910910117887 0.06166054858214616 1 1 1 0.070811921972548944 1 1 1 1 1 1 1 1 1 1 1 1 1 0.075272844137083003 1 1 1 1 1 1 1 0.074220273540929388 1 1 1 1 1 1 1 0.071650987419466836 1 1 1 1 0.051472039746985429 1 1 1 1 1 1 0.049529444400230063 1 1 1 0.053968638155374886 1 1 1 1 1 1 1 0.055596267524514298 1 1 1 1 1 1 0.046028427601721968 1 1 1 1 1 1 0.057928039787082011 1 1 1 1 1 1 1 0.04746229388510427 1 1 1 1 1 1 1 1 1 1 1 1 1 1 1 1 1 1 1 1 1 0.042201433102763398 0.049638080543109198 1 1 1 1 1 0.090129474460587722 1 1 1 1 1 1 1 0.051232570070311227 1 0.088798325301394726 1 1 1 0.061949680068472693 1 1 1 0.053338022788852253 1 0.049953778181071551 1 1 1 1 1 1 1 0.080135472332520469 1 1 1 1 1 1 1 0.066546602138093561 1 1 1 0.050028115949529009 1 1 1 1 1 1 1 1 1 1 1 1 1 1 1 1 1 1 1 1 1 1 1 1 1 1 1 1 1 1 1 1 0.080242628092310073 1 1 1 1 1 1 1 1 1 1 1 1 1 1 1 1 1 1 1 1 1 1 1 1 1 1 1 1 1 1 1 1 0.04743260381149101 1 1 1 1 1 1 1 1 1 1 1 1 1 1 1 1 1 1 1 1 0.050208313578169878 1 1 1 1 1 1 1 0.052588003813852306 1 1 1 1 1 0.056703525433854825 1 1 0.050619198561147938 1 0.075799538104951228 1 1 1 1 0.081746430980094625 1 1 0.086449687108341555 1 1 1 1 1 1 0.050429581209877394 1 1 1 1 1 1 1 1 1 1 1 1 1 1 1 1 1 1 1 0.072414010023116301 1 1 1 1 1 1 1 1 1 1 1 0.047370091029477181 0.084480897187958065 1 1 1 1 1 1 1 1 1 1 1 1 1 1 1 1 1 1 1 1 1 0.052928372961708423 1 0.051309053641492575 0.059854770063445514 1 1 0.053100342985025278 1 1 1 1 1 1 1 1 1 1 1 1 1 0.067564569075059228 1 1 1 1 1 1 1 0.058360601870662956 0.058464477061167898 1 1 1 1 1 1 1 1 0.053956967275380199 0.043978880432153866 1 1 1 0.061166364001948186 1 1 1 1 1 1 1 1 1 1 1 1 1 1 1 1 1 1 1 1 1 1 1 1 1 1 1 1 1 1 1 1 1 1 1 0.054236280179766533 1 1 0.05207189133918045 1 1 1 1 0.052634776418819806 1 1 1 0.058576849728465864 1 1 1 0.05339619329339796 1 1 0.05519086516880424 1 1 1 1 1 1 1 1 1 1 1 1 1 1 1 1 1 1 1 1 1 0.058000008504079194 1 1 1 0.060168637921482887 1 1 1 1 1 0.054770038339015899 1 1 1 1 1 1 0.055002117626758495 1 1 1 1 1 1 1 1 1 1 1 1 1 1 1 1 1 1 0.052824924939496372 1 1 1 1 1 1 1 1 1 1 1 1 1 1 1 1 1 1 1 1 1 0.050562885079639353 1 1 1 1 1 1 1 1 1 1 1 1 1 1 1 0.047849621657079282 1 1 1 1 1 1 1 1 1 1 1 1 1 1 1 1 1 1 0.051031280594257961 1 1 1 1 1 1 1 0.051095258660217746 1 1 1 1 1 1 1 1 1 1 1 1 1 1 1 1 1 1 1 1 1 0.050385714187248076 1 1 1 1 1 1 1 1 1 0.050887290420784187 1 1 1 1 1 1 1 1 0.078334367944755831 1 1 1 1 1 1 1 1 1 1 1 1 1 1 1 1 1 1 1 0.035523240139154234 1 1 1 1 1 0.074902361807752144 1 1 1 0.050072778176959896 1 1 1 1 1 1 0.05057611117038395 1 1 1 1 1 1 1 1 1 1 0.048041626454015267 1 1 1 1 1 1 1 1 1 1 1 1 0.075026051151230122 1 0.04374141515498068 1 1 1 1 1 1 1 0.034548376775975574 1 0.070216199986332481 1 1 1 1 1 1 1 1 1 1 1 1 1 1 1 1 1 1 1 1 1 1 1 1 1 1 1 1 1 1 1 1 1 1 1 1 1 1 1 1 1 1 1 1 1 0.066363105173473616 0.050452571798968171 1 1 0.048471682565562391 1 1 1 1 1 1 1 1 1 1 1 1 1 1 1 1 0.045609963567931455 1 1 1 1 0.04802619310292798 1 1 0.049997536986594419 1 1 1 1 1 1 0.046740404445722201 1 0.046012280619128813 1 1 0.049627782283576408 1 1 1 1 1 1 1 1 1 1 0.068099329539172748 1 1 1 1 1 0.04776431002624143 0.05055857334747612 1 1 1 1 0.054171088504079368 1 1 0.055090048186634967 1 0.066635743408219067 1 1 1 1 1 0.063375374280811192 1 1 0.050157796271362298 1 1 1 1 1 1 1 1 1 1 1 1 0.050362220353573184 1 1 1 1 1 1 1 1 1 1 1 1 1 1 1 0.057840250564925227 1 0.050006274877745033 1 0.055310722452796272 0.046773031491472647 1 0.062624259394453444 1 1 0.050010070815361657 1 1 1 1 1 1 0.08177509297192373 1 0.049899613019116301 1 1 0.078184876870633885 1 1 1 0.047187399639288037 1 1 0.050010779344371245 1 1 1 1 1 0.066257973535504944 1 1 0.063525455748678294 1 1 1 1 1 0.050074098497546529 1 0.051436978987367224 1 1 0.049295820126054046 1 1 0.072943966228097776 1 1 1 1 1 1 1 1 0.072312828566188966 1 1 1 1 1 1 1 1 1 1 0.071161853267831379 1 1 1 1 0.051130551828838154 1 1 0.05395799447476983 1 1 1 1 1 0.041739171366021441 1 1 1 1 1 0.049978850313788153 1 0.050263963075050842 1 1 1 1 1 1 0.049707339007276176 1 1 1 1 1 1 1 1 0.050923045301772052 0.054128462644737349 0.069629031553563162 1 1 1 1 0.052348165634880636 1 0.058170268020976953 1 1 1 0.040783666923487699 0.050006438576355991 1 1 1 0.048500503159999805 1 1 1 0.046537374121626826 1 0.053269410142634019 1 0.052170429809994853 0.040800780491590513 1 0.050026569600077134 1 1 1 1 0.054505955714396814 1 1 1 0.05013147252020729 1 0.071088254968470724 1 0.06320098178589055 1 1 1 1 1 1 1 0.049935347247281235 1 1 1 1 0.059263224918694166 1 1 1 1 1 1 1 1 0.050013995483595183 1 0.049799373054535058 0.050483105848290542 1 1 1 0.062863122722510212 1 1 1 1 0.064541935290402905 0.050524560315639164 1 1 0.056241557580776036 0.052045358940255748 1 1 1 1 1 0.050716702629783048 1 1 1 1 1 1 1 1 0.052988864665475116 1 0.057783417887078317 1 1 1 1 1 1 1 1 1 1 1 1 1 1 1 1 1 0.051969034806539707 1 1 1 1 1 1 1 1 1 1 1 1 1 1 1 1 1 1 1 1 1 1 1 1 1 0.050162349386074542 1 0.05407270248602461 1 1 1 1 1 0.049965863620597635 0.050041799679710258 1 1 1 1 0.043744323952036576 0.063083841439200206 1 0.06211506418437604 1 1 0.061295968635483408 1 1 0.062100240729534836 1 1 1 1 0.050553366680400287 0.071774220775538536 1 1 1 1 1 1 1 1 0.053792013426615062 1 1 0.059010366424717083 1 1 1 0.059320754429444331 1 1 0.054502387999003157 1 1 1 1 1 1 0.049753797867327969 1 1 1 1 1 1 0.061783760636227841 1 1 1 1 1 0.049290401558765622 1 1 0.050698927750820522 0.065248579510887361 1 1 0.048189789255831256 1 1 0.050025309975413337 1 1 1 1 1 1 1 1 1 1 1 1 0.06734847987732466 1 0.048378442142734318 1 1 0.048824152671220783 1 1 1 1 1 1 0.0498933829412644 1 1 1 0.051331174020541798 0.065108926725599786 0.04999516584505681 1 1 1 0.0450337228403309 0.053704686687644207 1 0.050654582386782498 0.057050121281561325 1 1 0.052196684717492482 1 1 0.051909586504308339 1 0.053746681822146813 1 0.051814584192623817 1 1 1 0.047304386764559773 0.051045147841333523 1 1 0.047630715622764663 0.052991147130397147 0.051995515922867983 0.050652968679974021 1 1 1 0.052436175685159757 0.048337005252054102 1 1 0.051185961024547685 0.057818668513962987 0.048342561039744027 1 0.05468454679661082 0.049024126680948479 1 1 0.047365596153281432 1 0.049218573145043132 0.051991077468729753 1 0.048319090279713456 1 1 0.055214546070107229 1 0.058490277797947174 0.054028327063588039 1 1 1 1 0.051601351818148615 0.064918915711559638 1 1 0.049920740891046575 1 1 1 0.050225104710636043 1 1 1 1 1 1 1 1 1 1 1 1 1 1 1 1 1 1 1 1 1 1 1 1 1 1 1 1 1 1 1 1 1 1 1 1 1 1 1 1 1 1 1 1 1 1 1 1 1 1 1 1 1 1 1 1 1 1 0.06202986191344563 1 0.053917554612481586 1 1 1 1 1 1 1 1 1 1 1 1 1 1 0.0612020483754422 1 1 1 1 1 1 1 1 1 1 0.053933355912144584 1 1 1 1 1 1 1 1 1 1 1 1 1 1 1 1 1 1 1 1 1 1 1 1 1 1 1 1 1 1 1 1 1 1 1 1 1 1 1 1 1 1 1 1 1 1 0.050044927071796586 1 1 1 0.050035681639060442 1 0.050338228024322321 1 1 1 1 1 0.050863752351100106 1 0.044069668505213627 1 1 1 1 1 1 1 1 1 1 1 1 1 1 1 1 1 1 1 1 1 1 1 1 1 0.047957015959011876 1 1 1 1 1 1 0.068912205736971252 1 0.055874506710775623 1 1 1 0.07169865346480972 1 1 0.083778313402106702 1 1 1 1 1 1 1 1 1 1 1 1 1 1 1 1 1 1 1 1 1 1 1 1 1 1 1 1 1 1 1 1 1 1 1 1 1 0.046346786826411412 1 0.057539911696062977 1 1 1 1 1 1 1 1 1 1 0.04906566927887606 1 1 1 1 1 1 1 1 1 1 1 1 1 1 1 1 1 0.073242391015772498 1 1 1 0.049933063831834032 0.092163182881393829 1 0.098831893962888107 1 1 1 1 1 1 1 1 0.050870637926764044 1 1 1 1 0.054349613449747869 1 1 1 1 1 1 1 0.050804587878069289 1 1 0.064498392711692693 1 0.088130048462152583 1 1 0.048828967890449007 1 1 0.079737195790718474 0.049927576229103494 1 1 1 1 1 1 1 1 1 1 1 1 1 1 1 0.098859336839271839 1 0.078869360334705693 1 1 1 0.050474703888870404 1 0.056632626045746259 1 1 1 1 1 1 1 1 1 1 1 1 0.052485413188626706 1 0.047253580923632951 1 1 1 1 1 1 1 1 0.056858890724212796 1 1 0.058605418816913668 1 1 1 0.045213953724630856 0.048791674769268586 1 1 1 1 1 1 1 1 1 1 1 1 1 1 1 1 1 1 1 1 1 0.054010821052350756 1 1 1 1 1 0.049942655368779711 1 0.053252033631298448 1 1 1 1 0.054612658418467241 1 1 0.048614972912829277 1 1 1 1 1 0.047323763311198593 1 1 1 1 0.051028581706184455 1 1 1 1 1 1 1 0.055757555591804529 1 1 1 0.060961491071416539 1 1 1 1 1 1 1 1 1 1 1 0.061224536040135911 1 1 1 1 1 1 1 1 0.052878547707726604 1 1 1 1 1 1 0.057325165577269868 1 1 1 1 1 1 0.058909671826205288 1 1 1 1 1 1 1 1 1 1 1 0.050073509910898546 1 1 1 0.049628661482824382 1 1 1 0.050981119130812588 1 0.049965946060419368 1 1 1 1 1 1 0.054463053956662046 1 1 1 1 1 1 1 1 1 1 1 1 1 1 1 0.051064960258090278 1 1 1 1 1 0.047306437801046708 1 1 1 1 1 1 1 1 0.049311981397228102 1 1 1 1 1 1 1 1 1 1 1 1 1 1 1 1 0.050646524189384513 1 1 1 1 0.050126048037358602 1 1 1 1 1 1 1 1 1 1 1 1 1 1 1 1 1 1 1 1 1 1 1 1 1 1 0.068385393300599437 1 1 1 0.050019981473832811 1 0.058661709011547339 1 1 1 1 0.057105320140825651 1 0.050298804194368496 1 1 1 1 1 0.050075352152700092 1 1 1 1 1 1 1 1 1 0.067267223347807006 1 1 1 1 1 1 1 1 1 1 1 1 1 1 1 1 1 1 1 1 1 1 1 1 0.051591039548764317 0.048456420231624775 1 1 1 1 1 0.049005423934371115 1 1 1 0.050156927403668068 1 1 1 0.051799303541808034 1 1 0.050191675081586326 1 0.049644135089374479 1 1 1 1 0.051281659003521225 1 1 1 1 0.051884017807337673 0.050204509271816349 1 1 1 1 1 1 1 1 1 1 1 1 0.050727367860129338 1 1 1 1 0.050059141846284481 1 1 1 1 1 0.048676724259393858 1 1 0.049521304563458976 1 1 1 1 1 1 1 1 1 1 1 1 1 1 1 1 0.049761131761943814 1 1 0.050325971569863959 1 1 1 0.050417229205847951 1 1 1 1 1 1 1 1 1 1 1 0.050091257635983981 1 1 1 1 1 1 1 1 1 1 1 1 1 1 1 1 0.050131022982856002 1 1 0.044543700194168256 1 0.041115716187980982 1 1 0.069282855725544656 1 0.050415107394454831 1 0.069547883884857081 1 1 1 1 1 1 1 1 1 1 1 1 1 0.069493054510182173 1 0.047123746538150116 0.052555184143764797 1 1 0.072461397894948015 0.051021206442539366 1 1 0.049996097312573512 0.054490370423352183 1 1 1 0.079571714263341087 1 0.064371096060739708 1 1 0.049288012985049576 1 1 1 1 0.051687281337381888 0.068743513979699328 1 0.03987949871541948 1 1 0.058804420059554677 0.04995735290763359 1 1 0.052655246595539329 1 1 1 0.057274214169764026 1 1 1 0.048420099706578464 0.03985076346631463 0.054887629097372923 1 1 0.046698077920631215 1 0.016564187682644539 0.049883391158553857 1 1 1 1 1 1 1 1 1 1 1 0.048496743443648807 0.047198334667096359 1 0.040666993797155541 1 0.066477324914311631 1 0.057186903503843547 1 1 1 0.050471036667980418 1 1 1 1 1 0.049019785885605516 1 1 1 1 1 1 1 1 1 1 1 1 1 1 1 1 1 1 1 1 1 1 1 1 0.050288425848671575 1 1 1 1 1 1 1 1 1 1 1 1 1 1 1 1 1 1 0.099166990249835926 1 1 1 1 1 1 1 1 1 1 1 0.048433737703669662 1 1 1 1 1 0.099770182706448149 1 1 1 1 1 1 1 1 1 1 1 1 1 1 0.053948689024344465 1 1 1 1 1 1 1 1 1 1 1 1 1 1 0.059197880830709385 1 0.065447624685293693 1 1 1 1 0.060524872324748527 1 1 1 1 1 1 1 1 1 1 1 1 0.064683152026206253 1 0.049901055260901279 1 1 1 1 0.049674037686395695 1 1 1 1 1 1 1 0.079280895189534378 1 1 1 1 1 1 1 0.050026737333961929 1 1 1 0.061052296066855465 1 0.050011012062752533 1 1 1 1 1 1 1 1 1 0.054113963081416978 1 1 1 1 1 1 1 1 1 1 1 1 1 1 1 1 1 1 1 1 1 1 1 1 1 1 1 1 1 1 1 1 1 1 1 1 1 1 1 1 1 1 1 0.051191461704577446 1 1 0.064984451431971721 1 1 1 1 1 1 1 1 1 1 0.050398406731336914 1 1 1 1 1 0.046453533286868021 1 1 0.055010379210607169 1 1 1 1 1 1 0.063874750885328568 1 1 1 1 0.050039667403317056 1 1 0.05664464839106273 1 0.057424487288976145 1 1 1 1 1 1 1 1 1 1 1 0.054967119323440922 1 0.0587546221637225 1 1 1 1 0.051765437223665528 1 1 1 1 1 1 1 1 1 1 1 1 1 1 1 1 1 1 1 1 1 0.065049098067627445 1 1 1 1 0.056170288289383849 1 1 1 1 1 1 1 0.053145064070131615 1 1 1 1 1 0.068776885359622217 1 1 1 0.041842915984876883 1 1 1 0.061675466855069527 1 1 0.054081178101753308 1 1 1 0.044834330691530769 1 1 0.048273629789665644 1 1 1 1 1 1 1 1 1 1 1 1 1 1 1 1 1 1 1 1 1 1 1 1 1 1 1 1 1 1 1 0.051278433141212887 1 1 1 1 1 1 1 1 1 1 1 0.049569374238889866 1 1 1 1 1 1 1 1 1 1 1 1 1 1 1 0.048849124120543368 0.047629179839995789 1 1 1 0.053549279919175088 1 1 1 1 0.049692858769966153 1 1 0.053626280264591722 1 1 1 1 1 1 1 1 1 1 1 1 1 0.054338314895909713 0.051968567850119801 1 1 1 1 1 1 1 1 1 1 1 0.062635478440378548 1 1 0.053116988596985493 1 1 1 1 1 1 1 1 1 1 1 1 1 1 1 1 1 1 1 0.056494312850012697 1 1 1 0.049984143835334935 1 1 1 1 1 0.050159501554466537 1 1 1 1 1 1 1 1 1 1 1 1 1 1 1 1 1 1 1 1 0.050446751719169243 1 1 0.050777403511258389 1 1 1 1 1 1 1 1 1 1 1 1 1 1 1 1 1 1 1 0.050593298838922843 1 1 1 1 1 1 1 1 1 1 1 1 1 1 1 1 1 1 1 1 1 1 1 1 1 1 1 1 1 1 1 1 0.049429589095508528 1 1 1 1 1 1 0.025807450957485555 1 1 1 1 1 0.035291247432500353 1 1 1 1 0.043219076944005327 1 1 1 1 1 1 1 1 1 1 1 1 1 1 1 1 1 1 1 1 1 1 0.047674989905070297 1 1 1 1 1 1 1 0.049493015431549582 1 1 0.049843836651710015 1 1 0.050126571546393273 1 1 1 1 1 1 0.049954523968598251 1 1 1 1 1 1 1 1 1 1 0.046281866680236525 1 0.060135903805585478 1 1 1 1 1 1 1 1 0.050007747285686667 1 1 0.050789836442190123 1 1 1 0.052450080206317931 1 1 1 0.053354815490815805 1 1 1 0.050000013721950454 0.049988543059016177 1 1 0.054223182741966969 1 1 0.055019349221757788 1 1 0.050010046217158002 1 1 1 1 1 1 1 1 1 0.050010030684574824 1 1 1 0.055815774010551031 1 1 1 0.056607946887097998 1 1 1 0.050009678833936158 1 0.050032436281881795 1 1 0.060312033439414624 1 1 1 1 1 1 1 1 0.050792453684746205 1 1 0.049968056745687328 1 1 1 1 1 1 1 1 1 1 1 1 1 0.053477410733485109 1 0.049991004049581671 1 1 1 0.054498644261345909 0.050288812758027074 1 0.052499092265603384 1 1 1 1 0.049969552951258892 1 0.049289401976650729 1 1 1 1 1 1 1 1 1 0.049736090966751925 1 1 1 1 1 1 1 1 1 1 1 1 1 1 1 1 1 1 1 1 1 1 1 1 1 1 1 1 0.04995438645456643 1 1 1 1 1 1 0.049883124320748463 1 1 1 1 1 1 0.049916806383949262 1 1 1 1 1 1 0.049980064121772493 1 1 1 0.050072528604858196 1 1 1 0.050163788884468888 1 1 0.071885406321050505 1 1 1 1 1 1 0.062800356524522288 1 1 1 0.068764781367827571 0.050041033722148701 1 1 1 1 1 1 1 1 1 1 1 1 1 1 1 1 1 0.050005186247088253 1 1 1 1 1 1 1 0.050031513717907539 1 1 1 1 1 0.069993471464239121 1 1 1 1 1 0.049999295669298408 1 1 0.045318708358554172 1 1 1 1 0.0500240583155529 1 1 1 1 1 1 0.038123870715709038 1 0.074811152882936868 1 0.036897258150618277 0.069279806609483977 1 0.050435239801328344 1 1 1 0.046301547442381144 1 1 1 1 1 0.040188244715989266 1 1 1 0.04995760300673846 1 1 1 1 0.049857726006424144 0.052611202315863456 0.047239230450083727 1 1 1 1 0.051610987266889299 0.065591598741705434 1 0.068255972177710664 1 1 1 1 1 1 0.049995651060541435 1 0.061452838060387149 1 1 0.056113421012553399 1 1 1 0.052327509154863547 1 1 0.070760974685509917 1 1 1 1 1 1 1 1 1 1 1 1 0.050119335721254876 1 1 1 1 0.059712897765358361 1 1 1 1 0.060058039820079748 1 1 1 1 1 1 1 1 1 0.050389410132981802 0.062506918331812295 0.048364558704661081 1 1 1 0.049994955998063431 0.050192777567336436 1 1 0.052173354404201878 1 0.060469339165445737 1 1 1 1 1 1 1 0.051073698563372752 1 1 1 1 1 1 1 1 1 1 1 1 1 1 1 1 0.050124001853674507 1 1 1 1 1 1 1 1 1 0.050379538138769019 1 1 0.059017960315203483 1 0.05391412079879615 1 0.050182379871318718 1 1 0.054849221242412455 1 1 1 0.050000420941133703 0.046515251289326154 1 1 0.050953823262681788 1 1 1 0.053095187383642765 1 1 1 1 0.050354324087555344 1 1 1 1 1 1 1 1 1 1 1 0.054488535330037911 0.050013751654495106 1 1 1 1 1 1 1 1 1 1 1 1 1 1 1 1 1 1 1 1 1 1 1 1 1 1 1 1 1 1 1 1 0.050011030754597396 1 1 1 1 1 1 1 1 1 1 1 1 1 1 1 1 1 1 1 0.049094304499651818 1 1 1 1 1 1 0.050014634626806505 0.057122049759637014 1 1 0.054632878814692122 0.051061758616106803 1 1 1 0.049729244497389746 1 1 1 1 1 1 1 1 1 1 1 1 1 1 1 1 1 1 1 1 1 1 1 0.05044065714032063 1 0.05618105010581044 1 0.050151227582050185 1 1 1 1 1 1 0.067218771891735737 1 0.051996235882151118 0.048337758812754247 1 1 0.060925456524152578 1 1 1 1 1 1 0.050279848845484851 0.058999239047857845 1 1 0.065879006568089316 0.049550461843811969 1 1 0.065504401585982946 0.050090612063335316 1 1 1 1 1 1 1 1 0.069797604226475851 1 1 1 1 1 0.062141938929346267 1 1 0.060359154997171122 1 1 1 0.049995105575550272 1 1 1 1 1 1 1 1 1 1 1 1 1 1 1 1 1 1 1 1 1 1 1 1 1 1 1 1 1 1 1 1 1 1 0.050688730299125573 1 1 0.087860677770152634 1 0.041552606784390558 0.07393882792739101 1 1 1 1 1 1 1 1 1 0.042405182246773164 1 1 1 1 1 0.043193453133517384 1 1 1 1 1 1 1 0.049758179930969787 1 1 1 1 1 1 1 1 0.049162151501683835 1 1 1 1 1 0.048398593132644968 1 1 1 1 1 1 1 1 1 1 1 1 1 1 1 1 1 1 1 1 1 1 1 1 1 1 1 1 1 1 0.04935083419740896 0.050296584349548756 1 1 1 1 1 1 1 0.049916496280219408 1 1 1 0.047909802735643783 1 0.050958044295484499 1 1 1 1 1 1 1 1 1 1 1 1 1 1 1 1 1 1 1 1 1 0.050866888299838806 1 1 1 1 1 1 0.047474450121825669 1 1 1 1 1 1 1 0.094947186517547189 1 1 0.050241663498607481 1 1 1 1 1 1 0.047620713810242167 1 1 1 0.096523338442231821 1 1 0.097681631223523441 0.050036256131529157 1 1 1 1 1 1 1 1 1 1 1 1 1 1 1 1 1 1 1 1 1 1 1 1 1 1 1 1 0.049946382058571694 1 1 1 1 1 1 1 1 1 1 1 1 1 1 1 1 1 1 1 0.0910757984063153 1 1 1 0.092613412584136773 0.050702667290024227 1 1 1 1 1 0.050249451877091768 1 1 1 0.051640249606160024 1 1 1 1 1 0.052052986767425931 1 1 1 1 1 1 1 1 1 1 1 1 1 1 1 1 1 1 1 1 1 0.056263517383829689 1 1 1 1 1 1 0.065444426328862715 1 1 1 1 1 1 1 1 1 1 1 1 0.053515195032836152 1 1 1 1 0.051775806234153822 1 0.053504906345880926 1 1 1 1 1 1 1 1 1 1 1 1 1 0.070906449214010916 1 1 1 1 1 0.074586010860392904 1 1 1 1 1 1 0.051772186645284872 1 1 1 1 1 1 1 1 1 1 1 1 0.050171539332547081 1 1 0.050396932791298692 1 1 0.051987825802803575 1 1 0.050658421509128443 1 1 1 1 1 1 1 1 1 1 0.045878422099255113 1 1 1 1 1 1 1 1 0.049933588001139881 1 1 1 0.050060255978675 1 1 1 0.065926859601427218 1 1 0.053335437431386072 1 1 1 0.049076933470376123 1 1 1 1 1 0.053782816110994655 1 0.05000078254530535 1 1 1 1 0.049906352677031834 0.048032106445510446 1 1 1 0.078261223971720459 1 1 1 1 0.050248694718573197 1 1 1 1 1 1 1 1 1 1 1 1 1 1 1 0.050214089467096351 1 1 0.049817388752086904 0.049815824741847717 1 1 1 1 0.051600214667960234 1 1 1 1 1 1 0.049828704675077405 1 1 1 1 1 1 0.04994146585413288 1 1 1 1 1 1 1 1 0.051612433920989159 1 1 1 1 1 1 1 1 1 1 0.04922890605635407 1 1 0.070904496858819319 1 1 0.073060706195491903 1 1 1 1 1 0.057050056917154569 0.050035422584560035 1 1 0.050004847372101362 0.047657908874294642 1 0.049568442858759623 1 0.057231361801457881 1 0.058526284990781885 0.052576863204580646 1 1 0.053969781462107347 1 0.049707334413361975 1 0.052909829982975748 1 0.062424731782830395 1 0.049358350556164762 1 1 0.050028165085536341 1 0.054992388154639318 1 0.055057619890189161 1 1 1 1 1 1 0.054927046772751904 1 1 1 0.050011425773431054 1 1 1 1 1 1 1 1 1 0.054818526344353483 1 1 0.054339798909039991 1 0.050027317396866673 1 0.04324206129005715 1 1 1 -1.0408340855860843e-16 0.052964536097034456 1 1 1 1 1 1 1 1 1 1 1 0.052551820207287353 1 1 1 1 1 0.065078896405726699 1 1 1 1 1 1 1 1 1 1 1 1 1 1 1 1 1 0.052013195722206917 1 1 1 1 1 1 0.072841417861038663 1 1 1 0.073863830156258095 1 1 0.05010598992218461 1 1 1 0.061725383306996548 1 0.05773164547820734 0.050564078584753744 1 1 1 1 1 1 1 1 1 0.061115220112808163 1 1 1 1 1 1 1 0.0499699520663274 1 0.05165757947492651 1 0.050552066307600535 1 1 1 1 1 1 1 1 1 1 1 1 1 1 1 1 1 1 1 1 1 1 1 1 1 1 1 1 1 1 1 1 1 1 1 1 1 0.065624015334770358 1 1 0.067058039152181753 0.061500904823627162 1 1 1 1 0.063217510681233186 1 1 1 1 1 0.058709671713326209 1 1 0.050008730642249415 0.056245129365675002 1 1 1 1 1 1 0.056289503875059183 1 0.050107147814792856 1 1 0.068880070755435424 0.058018460470083522 1 0.047065187450502734 1 1 1 0.050407198843363019 1 1 1 1 0.050545687823684751 1 1 1 0.069492001515746693 1 1 0.056578949990978962 0.050067919068699215 1 1 1 0.062968953336663747 1 1 1 1 0.050005639905781017 1 1 0.070791117675188961 1 1 1 0.04547967515146227 1 1 0.071282729099522962 1 1 1 0.045160693721163471 1 0.049624847620828846 1 1 0.051694790061722611 1 1 0.073745025907464234 0.050007598872224161 1 1 0.064124663197378626 1 0.049986670917113694 0.060198306817938432 1 1 1 1 0.05544509720333067 1 1 1 1 0.052514083843393802 1 1 1 1 1 1 1 1 1 1 1 1 0.065702041876088357 1 1 1 1 0.049993341264490287 1 0.040970429415210244 1 1 1 1 1 0.057450006258142804 0.050044672295907845 0.050103943444750942 1 1 1 1 1 1 1 1 0.058426768141335482 1 1 1 1 1 1 0.055060165098581998 1 1 1 1 0.058586373487222232 1 1 1 1 1 1 1 1 1 1 1 1 1 1 1 1 1 1 0.053480322308712649 1 0.049474811151969354 1 1 0.055744769040911274 0.047904087753836741 1 0.051534394840636044 1 1 0.050152784021861303 1 0.049176135538994595 1 0.048844397524001992 1 0.051865318169209494 1 1 1 1 0.050661094491223878 1 1 1 0.052258366603314489 1 1 1 1 1 1 1 1 1 1 1 1 1 1 1 1 1 1 1 1 1 1 1 1 1 0.050004090849134958 1 1 1 1 1 0.091659175525012043 1 1 1 1 1 1 1 1 1 1 1 0.049807195212182118 1 1 1 1 1 0.050196434562914546 1 1 0.050935427774290609 0.090332330208714756 1 1 1 0.070877725937105604 1 1 0.05532447067176971 0.069747120710340477 1 0.065497046003291565 1 1 1 1 1 1 1 1 1 1 1 1 1 1 1 1 0.05081906712305502 1 1 1 1 0.048915494236644264 1 1 1 1 1 1 1 1 0.068890348805351775 0.067434569567499408 1 1 0.050410080522347571 1 1 1 1 1 1 1 1 1 0.064323615258397568 0.045484173249129983 1 1 0.05228890661535672 1 1 1 0.053494997691498382 1 1 1 1 1 1 1 1 1 1 1 1 1 1 1 1 1 1 1 1 1 1 1 1 1 1 0.050412942413812389 1 1 1 1 1 1 1 1 1 1 1 1 1 1 1 1 1 1 1 1 0.05707719219858829 1 1 1 0.053052046884402709 0.050027003150781471 1 1 1 0.060914989742219358 1 1 0.050299183311112806 1 1 1 1 1 0.053507585809585145 1 0.048972495387456294 1 1 1 1 1 1 1 1 0.050835652616307257 1 1 1 0.057361920821065081 1 1 0.051627637015594231 1 0.052373370270558765 1 1 1 0.052046629868349084 1 1 1 0.056175739822492542 1 1 1 1 1 1 1 1 1 1 1 1 1 1 1 1 1 0.059865972547502123 1 1 1 1 1 1 1 1 1 0.049906149904017025 1 1 1 1 1 1 1 1 0.06226231473158024 1 1 1 1 1 1 1 1 1 1 1 1 1 0.049960770685906132 1 1 1 0.050287283719309787 1 1 1 1 1 1 1 1 1 1 1 1 1 1 1 1 1 1 1 0.049736149531769649 1 1 1 0.0517881389848414 1 0.049937482162710774 1 1 1 0.057726385581434836 1 1 1 0.04998285343778068 0.048057866622132517 1 1 1 1 1 1 1 1 1 1 1 1 1 1 1 1 1 1 1 1 1 1 0.04984272214948797 1 1 1 1 0.049674444551430053 1 1 1 1 0.049831722401942086 1 1 1 1 1 1 1 0.046616444804179258 1 1 1 1 0.047838576778673397 1 1 1 1 1 1 0.04923647885541052 1 1 1 1 1 1 0.050170705038260321 1 1 1 0.05022599953257334 1 1 1 1 1 1 1 1 1 0.050794964733341649 1 1 1 1 1 1 0.052280631129676458 1 1 1 1 1 1 1 1 1 1 1 0.050001215908265638 1 1 0.055680035741597127 1 1 1 1 1 0.050550884479280453 1 1 0.052980379354801661 1 1 1 1 1 1 1 0.065794708943022931 0.04645109842268913 1 1 1 1 0.04658009085022434 1 1 1 1 1 1 0.050005705368042046 1 1 1 1 1 1 1 1 1 1 0.053501497928307232 1 1 1 1 1 1 1 1 1 1 1 1 0.051639482525988156 1 0.049696501141508385 1 1 1 0.053671337023416144 1 1 0.05424945672361043 1 1 1 1 0.054610060251105236 1 1 1 1 1 0.054477031082953438 1 1 1 1 1 1 1 1 0.054556574228062309 1 1 1 1 0.049601642791892615 1 1 1 1 1 1 1 0.049872766958106302 1 1 1 1 1 1 1 1 1 1 0.04971881611300611 1 1 1 0.049589454176948447 1 0.050302945699732794 1 1 1 1 1 1 0.052620487239012463 1 0.051028881576945913 1 0.05006723023709532 1 1 1 1 0.051325551868234731 1 1 1 1 1 1 1 1 1 1 1 1 1 1 0.04902629381552915 1 0.077677611644555777 1 1 1 1 1 1 1 0.050291519336830529 1 1 1 1 1 1 1 1 1 1 1 1 1 0.074251329997287688 1 1 1 1 0.070160421260137426 1 1 1 1 1 1 1 1 1 1 1 1 1 1 1 1 1 1 1 1 1 1 1 1 0.050201150329920181 1 1 1 1 0.04402957056358385 1 1 1 0.051599207114934417 1 1 0.050042298667675227 1 1 0.056074376080926233 1 1 1 1 1 1 1 1 1 1 1 1 1 1 1 0.051048699479005491 1 1 0.050907232518470291 1 1 1 1 1 1 1 0.053200861954469728 1 1 1 1 1 0.05842718540581935 1 1 1 0.06012509379360631 1 1 1 0.059870125932102655 1 1 1 1 1 1 1 0.046320172709735381 1 1 1 0.055666722973278016 1 0.048218950756928024 0.053065871637513556 1 1 1 1 1 0.051680768037488035 1 1 1 1 1 1 1 1 1 1 0.045919463817177854 1 1 1 1 1 1 1 1 1 1 1 1 1 1 1 1 1 1 1 1 1 1 1 1 1 1 1 1 1 1 1 1 1 1 1 1 1 0.056185180975665189 1 1 1 1 1 1 1 1 1 1 1 1 1 1 1 1 0.062580171138980706 1 1 1 1 1 1 1 1 1 0.05617379630859283 1 1 1 1 1 1 1 0.056505795058054469 1 1 1 1 1 1 1 1 1 1 1 1 1 1 1 1 1 1 1 1 1 0.050208665555163914 1 1 1 1 1 1 1 1 1 1 1 1 1 1 1 1 1 0.05003946587810687 1 1 1 1 1 1 1 1 1 1 1 1 1 1 1 1 1 1 1 1 1 1 1 1 1 1 1 1 1 1 1 1 1 1 1 1 1 1 1 1 1 1 1 1 1 1 0.051030350214098151 1 1 1 1 1 1 1 1 1 1 1 1 1 0.050010306166712773 1 0.049989449607533869 1 1 1 1 1 0.049324202330648409 1 1 1 1 1 0.050351253707236997 0.05069732373185859 1 1 1 1 1 1 1 1 1 1 1 1 1 1 1 1 1 0.050431871480905492 0.050673254792334706 1 1 1 1 1 1 0.050436747341188214 1 0.050601255170448937 1 1 1 1 1 1 1 1 1 0.050128842197392179 1 1 1 1 1 1 1 1 1 1 1 1 1 1 1 1 1 1 1 0.050158620020379963 1 1 1 1 1 0.050437210832341178 1 0.050863928831964299 1 1 1 1 1 1 1 0.050846910455199831 1 1 1 0.050426717999623116 1 1 1 0.05277318047435739 1 1 0.062854955173642132 1 1 1 0.044872657484439971 1 1 0.047522933804099943 1 0.051756729688580874 1 0.044700487387771187 1 1 0.048535999443710488 1 1 1 1 1 1 1 1 1 1 1 1 1 1 1 1 1 1 1 1 1 0.050130820124483291 1 0.052186587810574808 1 1 1 1 1 1 1 0.051994658017349767 1 1 1 1 1 1 1 1 1 1 1 1 1 1 1 1 1 1 1 0.050356819657056628 1 1 1 0.050043926622233316 1 1 1 1 1 1 1 1 1 1 0.049339297556165493 1 1 1 1 0.049056981972136281 1 1 0.050157512277830205 1 1 1 1 1 0.049152598441843318 1 1 1 1 0.050162641317661578 1 0.048985372347876151 1 1 0.052747832155396426 1 1 1 1 1 1 1 0.053284200262705701 1 1 0.049736635325763924 1 0.053492907047740859 1 1 1 1 1 1 1 1 1 1 1 1 1 1 1 1 1 1 0.050228641684294681 1 1 1 1 1 1 1 0.049824082018902038 1 1 1 1 0.052091696864514515 1 1 1 1 1 1 1 1 1 0.050113585655596891 1 1 1 1 0.049946326100265476 1 1 1 1 1 1 1 1 1 1 1 1 0.051198693159137498 1 1 1 1 1 1 1 1 1 0.06006406857301691 1 1 1 1 1 1 1 1 1 1 1 1 0.05828147495369583 1 1 0.053426641877203473 1 1 1 1 1 1 1 1 1 0.050908340512388933 0.078986144070133296 0.064173544492587359 1 1 1 0.050004110227031835 1 1 1 1 1 1 0.063854132340987524 1 1 1 0.049349080902495679 0.049956090442890504 1 1 1 1 1 1 1 1 1 1 1 1 0.060863507760093166 1 1 1 0.050306193909221066 0.061075632733203454 1 1 1 1 1 0.074940048702039824 1 1 1 1 0.0628664895786155 1 1 1 1 0.049996198877860977 1 1 1 1 1 0.060896536273437614 0.064650869353179111 0.052344140770197931 1 1 1 0.06048126808844103 0.062788174393482957 1 1 1 1 1 1 1 1 1 0.058618542460324954 0.050051121453330093 1 1 1 0.050497601673293924 0.049782552370542826 1 1 1 1 1 1 1 1 1 1 1 1 1 1 1 1 1 0.058342979155057845 1 0.057407310692470459 1 1 1 1 0.062052758407425052 1 1 1 1 1 1 1 0.059507218061180395 1 1 1 1 1 1 1 0.055940412839183253 1 1 0.06473916566492377 1 0.060049246474678422 0.055227766249333392 1 1 1 0.057177386844497503 0.049990772315361809 1 1 1 0.049989065526519424 0.05008415466462502 1 1 1 1 1 1 1 1 1 1 0.049989420343322905 1 1 1 1 1 1 1 0.051689960213075703 1 1 1 1 0.056870467086417534 1 1 1 1 1 1 0.065671996375671671 1 1 1 1 0.050304493382595392 1 0.063364702791903343 1 1 1 1 1 1 1 1 1 1 1 1 1 1 0.06679833226238685 1 1 1 1 1 1 1 0.066038471667552889 1 1 1 1 0.050020875694548779 1 1 1 0.055606756159105694 1 1 1 1 1 1 1 1 1 1 1 1 1 1 1 1 1 1 1 1 1 1 0.053963331874033849 1 0.05150865612650174 1 1 0.051387599395225428 1 1 1 0.053837692538216984 1 1 0.055042730038484498 1 1 1 1 1 1 1 1 1 1 1 1 1 1 1 1 1 1 1 1 0.054928321528775539 0.049683957045796923 0.05076236434382761 1 1 1 1 1 1 1 1 1 1 1 1 1 0.054865103432623713 1 1 1 0.045263797272853658 1 1 0.066660548858826718 1 1 1 1 0.060108214227150458 1 1 0.051899250978197677 0.050434600601031596 1 1 1 1 0.05146678966312801 1 1 0.048736988356004339 1 0.049647297098040041 1 1 1 1 1 1 1 1 1 1 1 1 0.044793972696655748 1 1 1 1 1 1 1 0.053411350076502238 1 0.050110888345330042 1 1 1 1 0.050924916205194286 1 1 1 1 1 1 1 1 1 1 1 1 1 1 1 1 1 1 1 1 1 1 1 0.054804202495635217 1 1 1 0.050053950315501 1 0.049494587755439086 1 1 1 0.08625322601320709 1 1 1 1 1 0.049957389788674166 1 1 0.036231070715773465 1 1 1 1 1 1 1 1 0.050384185848789204 1 1 1 1 1 0.051798346950989789 1 1 1 1 1 1 1 1 1 1 1 1 1 1 0.050683083843946958 1 1 1 1 0.050871166643473797 1 1 1 1 1 1 1 1 1 1 1 1 0.050878855234815501 1 1 1 1 0.050297137294344874 1 1 1 1 1 1 1 1 1 1 1 1 1 0.051908728838692041 1 1 0.049167477728982854 1 1 1 0.050196103049262364 1 1 1 1 1 1 1 1 1 1 1 1 1 0.047394377823896487 0.062206160732324219 1 0.055681052492075285 0.053018148230079484 1 1 1 0.049163759603979632 0.079872573333217595 1 0.058836076386837417 1 0.051708529619725378 1 0.064890584058353212 1 1 1 0.044965566417157501 1 0.049857876657001379 1 1 1 1 0.060509165518210159 1 1 1 1 1 1 0.052920462287929543 1 1 1 1 1 0.086272106563415996 1 1 0.050048230160754208 1 1 0.050406376298479952 1 1 0.049865695272409825 1 1 1 1 1 0.058697840090915859 1 0.05379064834412596 1 1 1 1 1 1 1 1 1 1 1 1 1 0.052316223069221429 1 1 0.050612423427535344 1 1 1 1 1 1 1 1 1 0.061828719863068801 1 1 1 1 1 1 1 1 1 0.096611526632913558 1 1 0.053603003320829318 1 0.087172861525322304 1 1 1 1 1 1 1 0.04835016411618695 1 1 1 1 1 1 1 0.1042348675726319 1 0.036506523543841693 1 1 0.042496484327222639 1 1 1 0.05074275276557616 1 1 1 1 0.052029665307617573 1 1 1 1 1 0.05000064949025515 1 1 1 1 1 1 1 1 1 1 1 1 1 1 1 1 1 1 1 1 1 0.050967939162539624 1 1 0.05103272743430956 1 1 1 0.052724280376447344 1 1 1 1 0.050361925566114824 1 1 1 1 1 1 1 1 1 1 1 1 1 1 1 1 1 1 1 1 1 1 1 0.051707057014719032 1 1 1 1 1 1 0.054879634279696166 1 1 1 1 1 1 1 1 1 1 1 1 1 0.049956275677453837 1 0.08074557397676109 1 1 0.047323059018639153 1 1 1 1 0.11116862669680752 0.05379241101588586 1 0.048132236592962452 1 0.071567216339615061 1 1 1 1 1 0.12237307065557058 1 1 0.079860703785401499 0.067964744265556959 1 1 1 1 1 0.052051322723227163 1 1 0.050003532159306495 1 1 1 1 1 1 1 1 0.072499733902623514 0.056727467538226654 1 1 1 0.069821671902963803 1 0.050030896033176897 1 1 1 1 1 0.048604062504241902 1 0.063758773780895589 1 1 1 1 1 0.048942263105127212 0.050103275959159629 1 1 1 1 0.049984150798149551 1 1 1 1 0.049570578607181864 1 1 1 1 1 1 1 1 1 1 1 1 1 1 1 1 1 0.048714231999892499 1 1 0.049511841698316267 1 1 1 0.050704003853956625 1 1 1 1 1 1 1 1 1 1 1 1 1 1 1 1 1 1 1 0.053771456425344859 1 1 1 1 1 1 1 1 1 1 1 1 1 1 0.054440612431299377 0.050168219590214946 1 1 1 0.050453536204302776 1 1 1 1 1 0.051266878539573776 1 1 1 1 1 1 1 1 1 1 1 0.051235340834428725 1 1 0.050531336980472089 1 1 1 1 1 1 1 1 1 1 0.058889044335307422 1 1 1 0.061548346009167795 1 0.053935674620186808 1 0.049919366902083206 1 1 1 0.050008900289628004 0.048535261352440497 1 0.060250143443424733 1 1 0.047391882714076919 1 1 0.051476219739189956 0.059995038179626987 1 1 1 0.063647409141974323 1 1 0.0435367762958997 1 0.060769063114529148 1 1 1 0.044970824757672015 1 1 0.047468718364833858 0.052814688953434379 1 0.053358195143552688 1 1 0.050670853221218733 1 0.04936304484196085 1 1 1 1 1 1 1 1 1 0.049893947363409415 1 1 1 1 1 0.05236393728831415 1 1 1 1 1 1 1 1 1 1 0.052082703030253523 1 1 1 1 0.052231869794291438 0.052619652464895299 1 1 0.086934053330478461 1 0.085381480938394733 1 1 1 1 1 0.11452603105247429 1 1 0.046639740377675973 1 0.049948770546175345 1 1 1 1 1 1 1 0.043454483327864488 1 1 1 1 1 1 1 1 1 0.084211456587297367 1 0.049916862434319004 1 0.050111458275633611 1 0.065180552696117944 1 1 1 1 0.050237382004818906 1 1 1 1 1 0.050785577157069113 0.046439491364828743 1 1 1 1 1 1 0.049398185790854157 1 1 1 1 1 0.0575727145555468 1 1 1 1 0.088127202596888929 1 1 0.059076415842738143 1 0.061719312868511352 1 1 1 0.041479031823355279 1 0.096038764872490412 1 1 0.077241087361423044 0.049994697494581818 0.085780928346844421 1 1 1 1 1 1 0.049995137217987068 0.041285908516423789 0.048227557222566726 1 1 1 1 0.060549042690694561 1 0.054658567078056899 1 0.067268295211596246 1 1 1 1 1 1 0.05225621561199463 1 1 1 1 1 1 1 1 1 1 1 1 1 1 1 1 1 1 1 1 1 1 1 1 1 1 1 1 1 1 1 1 1 1 1 1 1 1 1 1 1 1 1 1 1 1 1 1 1 0.051572214475983869 1 1 1 0.053573384703686354 0.049902417129298417 1 1 1 1 1 1 1 1 1 1 1 1 1 1 1 1 1 1 1 0.070340185666245683 1 1 1 1 1 1 1 0.054948990373337767 1 1 0.071925215327917097 1 1 0.056175244318244139 1 1 0.052541099787682406 1 0.08056325979137563 1 1 0.08282544360065329 1 1 1 0.050102879482186558 1 0.066591238658752841 1 0.069487228448493893 0.084666816366475273 1 1 1 0.083016540645903941 0.049967479537904674 1 1 0.084838300782617976 1 1 0.078049009231873759 1 1 1 1 1 1 1 1 1 1 1 1 0.086842164538953312 1 1 1 1 0.091348018039397502 1 1 1 1 0.085672928483241664 1 1 1 1 1 1 1 1 1 0.050649018853411519 1 0.049996048147828376 1 1 1 1 0.053272718145547349 1 1 1 0.058059633864945129 1 1 1 1 1 1 0.065857572433767664 1 1 0.050040512419288655 1 1 1 0.053745405079093214 1 1 1 1 1 1 1 0.051673407689185422 1 1 1 1 1 0.049992103791894088 1 1 1 1 1 1 1 1 1 1 1 1 1 1 1 0.049479273293847673 1 1 1 1 1 0.052943716960255294 1 1 0.054703598047885681 1 0.048577352959586498 1 1 1 1 0.050248166464483941 0.050323067402138308 1 1 0.050711711117429642 1 1 1 1 1 1 1 1 1 1 1 0.049820679228291559 1 0.051079675627725606 1 1 1 1 1 0.05033018619752546 1 1 1 0.049156125593308959 1 1 1 0.048806026589590039 1 1 1 1 1 1 1 1 1 1 1 1 1 0.052698664978444769 1 1 1 1 1 1 1 0.07151289960458769 1 0.045430709779927143 1 1 1 1 1 1 1 0.049907302267122158 0.11092051858686845 1 1 1 1 1 1 1 1 1 0.055603139122286281 1 1 1 1 1 1 0.068240264621386465 0.075205561806301474 0.048013505885761101 1 0.08951114878001537 1 1 1 1 1 1 0.092447515753783654 1 0.051162116024042713 1 0.048924263937201173 1 0.07600235280045832 1 1 1 1 1 1 0.074514321579464277 1 1 0.050331133060005105 1 1 1 1 0.049747659732639268 1 1 1 1 1 1 1 1 1 1 1 1 1 1 1 1 1 1 1 1 1 0.055722356350319517 1 0.051839132431812679 1 1 1 1 1 1 1 1 1 1 1 1 1 1 1 1 1 1 1 1 1 1 1 1 1 1 1 1 1 1 1 1 1 1 1 1 1 1 1 1 1 1 1 1 1 1 1 1 1 1 1 1 1 1 1 1 1 1 0.051065071004517806 1 1 1 1 1 1 1 1 1 1 1 1 1 1 1 1 1 1 1 1 1 1 1 0.050365580789392045 1 1 1 0.054801805684101895 1 0.049912357239025373 1 1 1 1 1 1 1 1 1 1 1 1 1 1 1 1 1 1 1 1 1 1 1 1 1 1 1 1 1 1 1 1 1 1 1 1 1 1 1 0.054215156670687867 1 0.04906338492049088 1 1 1 1 1 1 1 1 1 1 1 1 1 1 1 1 1 1 1 1 1 1 1 1 1 0.0520731344924232 1 1 1 1 1 1 1 1 1 1 1 1 1 1 1 1 1 1 1 1 1 1 1 1 1 1 1 1 1 1 1 1 1 1 1 1 1 1 1 1 1 1 1 1 1 1 1 1 1 1 1 1 1 1 1 1 1 1 1 1 1 1 1 1 1 1 1 1 1 0.079266832970561876 1 1 1 1 1 1 1 0.072580441247796196 1 1 0.049848624834248255 1 1 1 1 1 1 1 1 1 1 1 1 1 1 1 1 1 1 1 1 0.054245010725525941 1 1 1 1 1 1 1 1 1 1 1 1 1 1 1 1 1 1 1 1 1 1 1 1 1 1 1 1 1 1 1 1 0.056635701570470751 1 1 1 1 0.051229409756667343 1 0.066921930388547685 1 1 1 1 1 1 0.050697687059986521 1 1 0.051747977457859973 1 1 0.051501848662595932 0.055119566728656401 1 0.050113971433606339 1 1 1 0.051584406540292845 1 1 1 1 1 1 1 1 1 1 1 1 1 1 1 0.052892212794791706 1 1 1 1 1 1 1 1 0.05418493608919913 1 1 1 1 1 1 1 1 1 1 1 1 1 1 1 1 1 1 1 1 1 1 1 1 1 1 1 1 1 1 1 1 1 1 1 1 0.05969785503765164 1 1 1 1 1 1 1 0.060164337682822672 1 1 0.047213439513452367 1 0.061186473706932899 1 1 1 1 1 1 1 1 1 1 1 0.049998643002771931 0.05003390941053909 1 1 0.048756704953653418 1 1 0.050652159067886574 0.050330066841095193 1 1 1 1 0.051212876001956412 1 0.04835441223333517 1 1 0.051189892614411321 1 0.050245154860003693 0.049195267176945653 1 0.055551749095277658 1 0.046448647132612889 1 1 1 1 1 1 1 0.04993369194794034 1 0.0501009240782644 1 1 1 1 1 0.050207000735831453 1 1 1 0.05633451846223099 1 1 0.049392618403641737 1 0.063092134842928582 1 0.061496368415597261 0.047815422749503372 1 1 0.051112433266959051 1 1 1 1 1 1 0.050920871476907381 1 1 1 1 1 1 1 1 0.061200398902101716 0.049883151083259247 1 1 1 0.054189314853178794 1 1 1 1 0.046831904771924185 0.055236618513921851 1 0.053415218827704836 1 1 1 0.051234330602059341 1 1 1 1 1 1 1 1 1 1 1 1 1 1 1 1 0.04950270959336997 1 1 1 1 1 1 0.05345426081376041 1 0.054966600314916306 1 1 1 0.053235644572700774 0.055109989904577494 1 1 0.04998557124110431 1 0.049989466759719332 1 1 1 1 1 1 1 1 1 1 1 1 0.050001582050144308 0.049996576416657473 1 1 1 1 1 0.055718317393090314 1 1 1 1 1 1 1 0.050667607156265171 1 1 1 0.04999971740622379 1 0.05912975194401543 1 1 0.049874594137407469 1 1 1 1 1 1 1 1 1 0.049865301751200714 1 1 0.050026455715774382 1 1 1 1 1 1 1 1 1 1 1 0.05500271319452292 1 1 1 1 1 1 1 1 1 1 1 1 1 1 1 1 1 1 1 1 1 1 0.050052264997940868 1 1 1 1 1 1 1 1 1 1 1 0.049907714171583545 1 1 1 1 0.049470134567351595 1 1 1 1 1 1 1 1 1 1 1 0.050322801963150657 1 1 1 1 1 0.050996898925317266 1 0.049866119504738529 1 1 1 1 1 1 1 1 1 0.049576844976075077 1 1 0.049961370039958639 1 1 0.059474503538342327 1 1 1 1 0.049556483127781499 1 1 1 1 1 1 1 1 1 1 1 1 1 1 1 1 1 1 1 1 1 0.058346547363762796 1 1 0.052547797268253309 1 0.054310694204955393 1 1 1 1 1 1 1 1 1 0.05239174170623264 1 1 0.051322902781691257 0.04990841472126209 0.051360037804124299 1 1 1 0.049965376435495576 1 1 1 1 1 1 0.049218391077986326 0.050000271509282761 1 0.054435467772686139 1 1 0.053539603916058651 1 1 0.049982695853511082 1 1 1 1 0.050814863442064651 1 1 1 1 0.055790367651444475 1 1 1 1 1 1 1 1 1 1 1 0.049838846566096745 1 1 0.050044551164292725 1 0.053334070211519355 0.050015753761168576 1 1 0.050002307408529789 0.051782352754173672 0.05331493477226576 1 1 1 1 1 1 1 1 1 1 0.049663085540695873 1 1 1 1 1 1 1 1 1 0.044420027663761616 1 1 1 1 1 0.048203849125505252 1 1 1 1 1 1 1 1 1 1 0.050692251738130675 1 1 1 1 1 1 1 1 1 1 1 1 1 1 1 1 1 1 1 1 1 1 1 1 0.059615585295895737 0.048781035079517948 1 1 1 1 1 1 1 1 0.054045177726036953 1 1 1 1 1 1 1 1 1 1 1 1 1 1 1 1 0.052257204629549955 1 1 1 1 0.066896568180494151 1 1 1 0.044903351184333105 0.050082597733586684 1 1 1 1 1 1 0.050083329441355268 1 0.048192406746514573 1 1 1 0.049377458658174347 1 1 1 1 1 1 1 1 0.053169359685562453 1 0.069081715390385171 0.041464251224905969 1 1 1 1 1 1 1 1 1 1 1 1 0.054062484852704033 1 1 0.046797838492511623 1 0.051656875188892531 1 1 1 1 1 1 1 1 1 1 1 1 1 1 1 1 1 1 1 1 1 1 1 0.052410653803236965 1 1 1 1 1 0.05172753506844379 1 1 1 1 1 1 1 1 1 1 0.048765260383907327 1 1 1 0.049532447049976058 1 1 1 1 1 1 1 1 1 1 1 0.050040633832020766 0.051915063396820137 1 1 1 1 1 0.052071073246132075 1 1 1 0.051881062177712087 1 1 1 1 1 1 1 1 1 1 0.051280626173197362 1 1 1 1 1 1 1 0.050011020761350694 0.052627613758076494 1 0.050415838850247363 1 1 1 1 0.050711528322419347 1 1 1 1 1 0.052122302746771015 1 1 1 1 1 1 1 1 1 1 0.050001409883478259 1 1 1 1 1 1 1 1 1 1 0.0515135965508218 1 1 1 1 1 1 1 0.050449263802927587 1 1 1 1 1 1 1 1 1 1 1 1 1 1 1 1 1 1 1 1 0.051206339926355121 1 1 1 0.053202870047032252 1 1 1 1 1 1 1 1 1 1 1 1 1 0.054544271413664192 1 0.043829101597091857 0.048785213655005613 1 0.049003000334819094 0.052516895953061568 1 1 1 1 1 0.049834589440293675 1 1 1 1 1 1 1 0.048518823944065141 1 1 0.04916766488054173 1 1 0.064977306287098593 1 1 0.055156074601049557 1 1 0.050039855210221307 0.046417744253012524 0.055323753968469336 0.053587652063813607 1 1 0.047308510389665208 0.048858154948751786 1 1 0.058428152624832565 1 1 0.052542115304073059 1 1 1 1 0.049195704321935256 0.054050332931678206 0.050689876569791834 0.05083457495864363 1 1 1 0.049720005664666896 1 0.05036227208635953 1 0.054173742120677736 1 0.051372806585815299 0.055777973831376032 1 1 1 1 1 1 1 0.048182068351858232 1 1 0.051524578751520757 1 0.049855731229008306 1 1 0.046875901813724044 0.053642087380157251 1 1 1 1 1 1 1 1 1 1 1 1 1 1 1 1 1 0.047904200433790234 1 1 1 1 1 1 1 1 1 1 1 1 1 1 1 1 1 0.047219941151869699 1 1 1 1 1 1 1 1 1 1 1 1 1 1 0.064939422029593644 0.05325537729320326 1 1 1 1 0.050002857274177678 1 0.069702535898297308 1 1 1 0.047962552265761696 0.051967667248997422 1 0.049616471762483245 1 1 1 1 1 1 1 1 1 1 1 1 1 1 1 1 1 1 1 0.076271737124972233 1 0.050099986988933976 1 1 1 1 0.049230115032812952 1 1 1 1 1 1 1 1 1 1 1 1 1 1 1 1 1 1 1 1 0.049258408638666401 1 1 1 1 1 1 1 1 1 1 1 1 1 1 0.051382971090786614 1 1 1 1 1 1 1 1 1 1 1 1 1 1 1 1 1 1 1 1 1 1 1 1 1 1 1 1 1 1 1 1 1 1 1 1 1 1 1 1 1 1 1 1 1 1 1 1 1 1 1 1 1 1 1 1 1 1 1 1 1 1 0.051479699600697995 1 1 1 0.053678282921804044 1 1 0.051816249929090702 1 1 1 1 1 1 1 1 1 1 1 0.051862032992713317 1 1 1 1 0.050665694539324596 1 1 1 1 1 1 1 1 1 1 1 1 1 1 1 1 1 1 1 1 1 1 1 1 1 1 1 1 1 0.050001446906590613 1 1 1 1 0.050001440526086884 1 1 1 1 1 1 1 1 1 1 0.050134350162237884 1 1 0.050363700892694686 1 1 1 1 1 1 1 1 1 1 1 1 0.049781400134357896 1 1 1 1 1 1 1 1 0.050520694994693249 1 1 1 1 1 1 1 1 1 1 0.051128337656080713 1 0.05026609348232907 1 1 1 0.052102782562981433 1 1 1 0.04933793964150078 1 0.053713245084640024 1 0.051920973053037403 0.049966846584491929 1 1 1 1 1 0.053223345178825342 1 1 1 1 1 1 1 1 1 1 1 1 1 1 1 1 1 1 1 1 1 1 1 0.050054141360989228 1 1 0.05101139788420344 1 1 1 0.050216379383324114 1 0.050631298047646031 1 1 1 1 1 1 1 1 1 1 1 1 0.050060277466620721 1 1 1 1 1 1 1 1 1 1 1 1 1 1 1 1 1 1 1 0.054056245446578922 1 1 1 1 1 1 1 1 1 1 1 1 1 1 1 1 1 1 1 1 1 1 1 1 1 1 1 0.050515380147946015 1 1 1 1 1 1 1 1 1 1 1 1 1 1 1 1 1 1 0.053283182528792668 1 1 1 0.051684788519473758 1 1 1 0.049939447123437578 0.050005426746992668 1 1 1 1 1 0.04959999634916859 1 1 1 1 1 1 1 0.047819173179598745 0.048704251652821703 1 1 1 0.049995002993324898 1 0.049945220495866013 1 1 1 1 1 1 0.067833335002134093 0.056795969679554803 1 1 0.050288470782730299 0.047336578350541961 1 1 1 1 1 1 1 1 1 1 0.05000870386211069 1 1 1 1 1 1 0.049969227988894888 1 1 1 1 1 1 1 1 1 1 1 1 1 1 1 1 1 0.04999753325027563 1 1 1 1 0.056652603999483173 1 1 0.049985708068478144 1 1 1 1 1 1 1 1 1 1 1 0.047656900310490996 1 0.049370260825927548 1 0.048424109962941275 1 1 1 1 1 1 1 1 1 1 1 1 1 1 1 1 1 1 1 0.050833884744107966 1 1 0.05257057649555133 1 1 1 0.049924275473748933 1 1 0.04973494689237877 1 1 1 1 0.053108483399572984 1 1 1 1 1 1 1 0.054889893793191466 1 1 1 1 1 1 1 1 1 1 1 1 1 1 1 1 1 1 1 1 1 1 1 1 1 1 1 1 1 0.053377093610995865 1 1 1 1 1 1 1 1 1 1 1 1 1 1 1 1 1 1 1 1 1 1 1 1 1 1 1 1 1 1 1 1 1 1 1 1 1 0.048177542242519883 0.060671054111177694 0.057580721892597997 1 1 0.049791005990009643 1 1 1 0.051970658120990221 1 0.049782470978817245 1 1 1 1 1 0.051321592626026855 1 1 1 1 1 1 1 0.051648996581443937 1 1 1 1 1 1 1 1 1 1 1 1 1 1 0.077824713005699916 1 1 1 0.050586434582007692 1 0.051221442313820607 1 1 1 1 1 1 1 1 0.078537784419444645 1 1 1 1 1 1 1 0.049999518076918985 1 0.050072103839859529 1 0.047585051190572498 1 1 1 1 1 1 1 1 0.059501914549245166 1 1 0.049244473979442621 0.053431754370963459 0.054745415382148853 1 0.067623038554115736 1 0.038835541253844377 1 1 1 1 1 1 1 1 1 1 1 1 1 1 1 1 1 1 1 1 1 0.054178737872423506 1 1 0.072304143309233918 0.043402196909764677 1 1 1 0.04984384737160151 1 1 1 1 1 1 1 0.056737378648529416 1 0.052010388579341538 1 1 1 1 0.049323170541874947 1 1 0.081067374071175563 1 1 1 1 1 1 1 0.092971983675750131 1 1 0.09425581395698418 1 1 1 0.093761254152340517 1 1 1 1 1 1 1 1 1 0.051448929690330089 1 1 1 1 1 1 0.044851666992551664 1 1 0.052263691845690373 1 1 1 1 0.04741191392171986 1 1 1 1 1 1 0.077982975187584319 0.066415883005848886 0.048113175592616228 1 1 1 0.049961349571766837 1 0.050003932698702847 1 0.067960464463051956 1 1 1 1 1 1 0.047237947680432407 1 1 1 0.090839312138756012 1 1 1 0.062268639234555209 1 1 1 1 1 1 1 1 1 1 1 1 0.050231687245845744 1 1 1 0.050049905398247253 1 1 1 1 1 0.050664132274801502 0.04845684779849601 1 1 0.053951744241255817 1 0.054261796717849239 0.049017524823005088 0.04840445143329819 1 1 1 0.049530953009410433 1 1 1 1 1 0.057618337602846979 1 1 1 1 1 1 1 1 1 1 1 1 0.050767842623782491 1 1 1 1 1 1 0.062668106138651314 1 1 0.064626928893621871 1 1 0.050001929608874299 1 1 1 1 1 0.052908379111398507 1 1 0.082271615141937288 1 0.050904055753617408 1 0.050725170255827748 1 1 1 1 1 1 0.051493012879610223 1 1 1 1 0.0502554466321634 1 1 1 1 1 1 1 1 1 1 0.05058036189133347 1 1 1 1 1 0.050044685209169743 1 1 1 1 1 1 1 1 1 1 1 1 1 1 1 0.05045424314801681 1 1 1 1 1 0.051411995406196447 1 0.049540576631114927 1 1 1 1 1 0.051007682821786735 1 1 1 1 1 0.050139831623176964 1 1 1 1 1 0.049840575925018574 1 1 1 1 1 1 1 1 1 1 0.051120808786861288 1 0.050009081224423324 1 0.061351313118820937 1 1 0.060005833495856989 1 1 1 1 1 1 1 1 0.041552463107228772 1 0.060706281534085985 1 1 1 1 1 1 1 1 1 1 0.055892321219642507 1 1 1 1 1 1 1 1 1 1 0.049772085892242551 1 1 1 0.067958542438491323 1 0.054600061320707258 0.054007820779561455 1 1 1 0.052023516999134878 1 1 1 0.051862420065335826 0.049982131669888366 1 1 1 1 1 1 1 1 1 1 0.05015414242744122 0.049977530137859938 1 1 1 1 1 0.050064371236707803 1 1 1 1 1 1 1 1 1 1 0.050469649516208581 1 0.051193212730318238 0.050674890293741615 0.050980034281197073 1 1 1 1 1 1 1 1 0.050346032434376214 1 1 1 1 1 1 1 1 1 1 1 1 1 1 1 1 1 1 1 1 1 1 1 1 1 1 1 1 1 0.050113355389502165 1 1 1 1 0.050079009474418332 1 1 1 1 1 1 1 1 0.050509249618278435 1 1 1 1 1 1 1 1 0.050034614169245539 1 1 1 1 1 1 1 1 1 1 1 1 1 1 1 1 1 1 1 1 1 1 1 1 1 1 0.048582948522931768 1 1 1 1 1 1 0.045688653476547991 1 0.051148971114373755 1 1 0.051140339190063944 1 1 1 0.052124390649854593 1 0.062422300810562673 1 1 1 0.05011491615364793 1 1 1 0.062679978145366369 1 1 1 1 1 1 0.054022968111788264 1 1 1 1 1 1 1 1 1 1 1 1 1 1 1 1 1 1 1 1 1 1 1 1 1 1 1 0.054681917922897672 1 0.060569104393743231 1 1 1 1 0.055887186470845548 1 1 1 1 1 1 1 1 1 1 1 1 1 0.050951860750425515 1 1 0.051461110368703961 1 1 0.050280399115069298 1 1 1 1 1 0.050806800908424703 1 1 1 1 1 1 1 1 0.069521137532593591 1 0.063675864217797792 1 1 1 1 1 0.050376110413963504 0.039500057544729669 1 1 0.045449260620499816 1 1 1 0.074687143634656797 1 1 1 1 1 1 1 0.046999848043998191 1 1 1 1 1 1 1 1 1 1 1 1 1 1 1 1 0.059747596132592742 1 1 1 1 1 0.053069897385537822 1 0.052061830345556261 1 1 1 1 1 1 1 1 1 1 1 1 0.051248911520948903 1 0.05045125270187549 1 1 1 1 1 1 0.051151462778587078 0.050240844480967321 1 1 1 1 1 1 1 1 1 1 1 1 1 1 1 1 1 1 1 1 1 0.051433866754961838 1 1 0.046394458040987879 1 1 1 1 1 0.060429763372092257 1 1 1 1 1 1 0.049958188923462238 1 1 1 1 1 1 1 1 1 1 1 1 1 1 1 1 0.050239422570170889 1 1 0.055584604736776497 1 1 1 1 0.063757974024010414 1 1 1 1 1 1 1 1 1 1 1 0.056651622502620423 1 1 1 1 1 1 1 1 1 1 1 1 1 1 1 1 1 1 1 0.050700210076711591 1 1 1 1 1 1 1 1 1 1 1 1 0.053446850033244939 1 1 1 1 1 1 1 1 1 1 1 1 1 0.049985326590692589 0.084327721318999835 1 1 1 1 1 1 0.050253792319007617 1 1 1 1 1 1 1 1 1 1 1 1 1 1 1 1 1 1 1 1 1 1 1 1 1 1 1 1 1 1 1 1 1 1 1 0.048416497833732842 1 1 1 1 1 1 1 1 0.049736566140620053 1 1 1 1 1 1 1 1 1 1 1 1 0.049975988710790981 1 1 1 1 0.067647573954693938 1 0.078058272105166276 1 1 1 1 1 1 1 1 0.053984366636242967 1 1 1 1 1 1 1 1 1 1 0.061090718157632944 1 1 1 0.063914856719366087 1 1 0.05018960214780338 1 1 1 1 0.07231123523568192 1 1 0.079888580697913741 1 1 1 1 1 1 1 1 0.050059780822570364 1 1 1 0.049233695277702362 1 1 1 1 1 1 1 0.075290368012239386 1 0.04985544048458182 1 0.050280349668336444 1 0.049177454783620789 0.084605793706071325 1 1 1 0.049981282036788713 0.050027308908828796 0.055362252574030206 1 1 0.044324312020423348 1 1 1 0.087085749476656107 1 1 1 1 0.044870928645741597 1 1 1 1 1 1 1 1 1 1 1 1 1 1 1 1 1 1 1 1 1 1 1 1 1 1 1 1 1 1 1 1 1 1 1 1 1 1 0.049474384176314924 1 1 1 1 1 1 1 1 0.057138409426340929 1 1 1 1 0.058924468544074945 1 1 0.052738103395965456 1 1 0.056233671499682211 1 1 1 1 0.051586152198974736 1 1 1 1 1 0.053132352449451956 1 1 1 1 1 1 1 1 1 1 1 1 1 0.051709484580740289 0.051139146860768078 1 1 1 0.051233075592013649 1 1 1 1 1 1 1 1 1 1 1 1 1 1 0.057598809800316633 1 1 1 1 1 1 0.052092391872560879 1 1 0.055539241905805822 1 1 1 1 1 1 1 1 1 1 0.070286121399372362 1 1 1 1 1 0.07664296776676667 1 1 1 1 1 1 1 1 1 1 0.067231740328602768 1 1 1 1 1 1 1 1 1 1 1 1 1 1 1 0.049782105669962738 1 1 1 1 1 1 1 1 1 1 1 1 1 1 1 1 1 1 1 1 1 1 1 0.050016575020660134 1 0.054733957775952614 1 1 1 0.049490959196975062 1 1 1 1 1 1 1 1 1 0.052227614522793252 1 1 1 0.064730470776141802 1 1 1 1 1 1 1 1 1 1 1 1 1 1 1 1 0.046537672233898056 1 1 1 1 1 0.050683518086814094 1 1 1 0.049109007497102786 1 0.049659652036830267 1 1 1 1 1 1 0.051206327735768692 1 1 1 1 1 1 1 1 1 1 1 1 1 1 1 1 1 1 1 1 1 1 1 1 1 1 1 0.050564246332967751 1 1 0.050215193858181295 1 1 1 1 1 1 1 0.053593106510169575 1 1 1 1 0.05206776433744166 1 1 0.052060851577184486 1 1 1 1 1 1 0.054633437015695618 1 1 1 0.051616867273666739 1 1 1 0.051624465667252109 1 1 1 1 1 0.05761007780879511 1 1 1 1 1 0.056977063403942076 1 1 1 1 1 1 1 1 0.054710044312455852 1 1 0.050104423578878121 1 1 1 1 0.050243925763677671 1 1 1 1 0.05038317354809977 1 1 1 1 0.04389252556225709 1 1 1 0.045351139951278333 1 0.049754658382290012 1 1 1 1 1 1 1 1 1 1 0.049122845593626521 1 1 1 1 1 1 1 0.047786403862599108 0.060386086285329051 1 1 1 1 1 0.055238364009430392 1 1 1 1 1 0.059125095369845421 1 1 1 0.067136276663650282 1 1 0.050558003875122701 1 1 0.050045606877138597 1 1 1 0.052566228004988294 1 1 1 1 1 1 0.065208523294726164 1 1 1 1 1 0.059588911258550793 1 1 1 1 1 0.054794358036947592 1 1 1 1 1 1 0.061777733663398671 1 1 1 1 0.043753696333165573 1 1 1 1 1 0.050968513324262624 1 1 1 1 1 1 1 1 1 1 0.048856926608493167 1 1 1 1 1 1 1 0.054531100538990629 1 1 1 1 0.052034619446543029 0.055703177561627709 1 1 0.042835207023310923 1 1 1 1 1 1 1 0.047450919649530521 1 1 1 1 1 1 1 0.036807646046109331 1 0.056713599691607698 1 1 0.051294800373462388 1 1 1 1 0.050840798664778961 1 0.044301091392721759 1 1 1 1 1 1 1 1 1 1 0.05013732238430893 1 1 1 1 1 0.04379256459738233 1 1 1 0.03664272112950006 1 1 1 1 0.050538906947575998 1 1 0.063662887913868607 1 1 1 1 1 0.044008799051130358 1 0.050640208967630856 1 0.049969976444327976 0.053153991831009051 1 1 1 1 0.046094769220377932 0.050515700243972735 1 1 1 1 1 1 1 1 1 1 1 1 1 0.050169041772562928 1 1 1 1 1 1 0.053512391688989164 0.048589486140541899 1 1 1 1 1 1 1 1 1 1 1 1 1 0.045421284078349188 1 1 1 1 1 1 1 1 1 1 1 1 1 1 1 1 1 1 1 1 1 1 1 1 1 1 1 1 1 1 1 1 1 0.050898488568686936 1 1 0.052157147083145686 1 1 1 1 1 1 1 0.052397805375226814 1 1 1 0.049909345268359051 1 1 0.068101257553390554 1 1 1 0.060303223959511314 0.050003015585246155 1 1 1 1 0.04813344129379922 0.055459816672340165 1 1 1 1 1 1 1 1 1 1 1 1 1 1 0.059514575429791453 1 1 0.050001044117461237 1 1 1 0.062271045091583224 1 1 1 1 0.049708794769159889 1 1 0.074355202067790449 1 1 1 1 1 1 1 1 1 1 1 0.08354294307479801 1 1 1 1 1 1 1 0.089583086893672545 1 1 1 1 1 1 1 1 1 1 1 1 1 1 1 1 1 1 0.05001060993583098 1 1 1 1 1 1 0.042647965258356547 1 0.050947180754557772 1 1 1 1 1 0.04740995648485901 1 1 0.049324642570381522 1 1 1 0.07499155065537895 1 1 1 0.048978790215297836 1 1 1 1 1 1 1 1 1 1 1 1 1 1 0.050417875476380297 1 1 1 1 0.051052990996676761 0.046027942196666123 1 1 1 1 1 1 1 1 1 1 1 1 1 1 1 1 1 1 1 0.049124394028940491 1 1 1 1 1 1 1 1 0.065252099261887242 1 0.06607147377761384 1 1 1 1 1 1 1 0.050020626455806447 1 0.053082940209633514 1 1 1 1 1 0.06405831241936788 1 1 1 1 1 1 0.050252129770412539 1 1 1 1 1 0.05024878622846312 0.052467082993886201 1 1 1 0.056700230324716258 0.054556375980386644 0.058067063033691572 1 1 1 1 1 0.053579889396794061 1 1 1 1 1 0.069830266284013079 1 1 1 1 0.07111887232987546 1 0.052823731588497763 0.079078566372804318 1 0.090772753240255744 0.04574103535425203 1 1 1 0.049148523976160943 1 1 1 0.075446408957395961 1 1 1 0.076606291339209598 1 1 1 0.046854699382738361 1 1 1 1 1 1 1 1 0.051175544575571656 1 1 1 0.044562275013330571 1 1 1 1 1 1 0.051686420147305838 1 1 1 1 1 1 0.040008089303970713 1 1 1 1 1 1 1 1 1 1 1 1 1 1 0.050544345097522814 1 0.059071469575035299 1 1 1 0.045626940544560179 1 1 0.051051137622994784 1 0.059905552163102893 1 0.054982164548759656 1 1 0.062368816179719969 1 1 1 1 1 1 0.057001125288567073 1 1 1 1 0.051001629812820831 1 1 1 1 1 1 0.052593862998808853 1 1 1 1 1 1 1 1 1 1 0.051579320166767445 1 1 1 1 1 1 1 1 1 1 1 1 1 1 1 1 1 1 1 0.11727488815613483 0.057094831520119557 1 1 1 0.071559834036543063 1 1 0.09309352280332138 1 1 0.063959066850739946 1 1 0.04927541482739399 1 1 0.065200747371253975 0.074731626193878811 1 1 1 1 0.069638153236969202 1 1 1 1 1 1 1 1 1 1 1 0.070332631667413173 0.054437641630741107 1 1 1 0.068277452632899596 1 0.050078503618385367 1 0.050046758764370508 1 1 1 1 1 0.050089830767999728 1 1 0.049645784057028554 1 0.074388291850526519 1 1 0.050050850463465663 0.049687399988598453 0.049513357720661996 1 1 1 1 0.04784007652617446 1 1 0.051695983569882968 1 0.052300545818469137 1 1 0.05569779251549066 1 1 1 1 1 1 1 1 0.049912289318552044 1 0.048570253138745578 0.054336908035304596 1 1 1 1 1 0.050021328314495267 0.052129280510746494 1 1 1 0.067052577401596092 0.064715931108023955 1 1 1 1 1 1 1 1 0.050052433286270209 1 0.050539822220812401 1 1 1 1 1 1 1 1 1 1 1 1 1 1 1 1 1 1 1 1 1 1 1 1 1 1 1 1 1 0.04822551708066565 1 1 1 1 1 1 1 1 1 1 1 1 1 1 1 0.051931296294166436 1 1 0.051512175200590163 1 1 1 1 1 0.051012909875065411 1 1 1 1 1 1 1 1 1 1 1 1 1 0.050499265325524741 1 1 1 1 1 1 1 1 1 0.05165906059411339 1 1 0.058679975082666293 1 1 1 1 0.050004296154198297 0.047032681245254698 0.061982633723822622 1 1 1 1 1 0.055529965848996554 1 1 1 
</DataArray>
</CellData>
</Piece>
</UnstructuredGrid>
</VTKFile>
