<?xml version="1.0"?>
<VTKFile type="UnstructuredGrid" version="0.1" byte_order="LittleEndian">
<UnstructuredGrid>
<Piece NumberOfPoints="30881" NumberOfCells="10862">
<Points>
<DataArray type="Float64" NumberOfComponents="3" format="ascii">
-0.49999999999999828 -0.48677703703187492 0 -0.5 -0.5 0 -0.48129281494584059 -0.49338851851593718 0 -0.5 -0.5 0 -0.48129281494584059 -0.49338851851593718 0 -0.46258562989168328 -0.5 0 -0.49999999999999828 -0.48677703703187492 0 -0.48129281494584059 -0.49338851851593718 0 -0.49999999999999828 -0.48677703703187492 0 -0.4824545428279598 -0.47451624516148783 0 -0.48129281494584059 -0.49338851851593718 0 -0.49999999999999828 -0.48677703703187492 0 -0.4824545428279598 -0.47451624516148783 0 -0.5 -0.46599539173150673 0 -0.4824545428279598 -0.47451624516148783 0 -0.46853075243710779 -0.48354990242643758 0 -0.46411508256092049 -0.46598235294430129 0 -0.4824545428279598 -0.47451624516148783 0 -0.48129281494584059 -0.49338851851593718 0 -0.46853075243710779 -0.48354990242643758 0 -0.48129281494584059 -0.49338851851593718 0 -0.46258562989168328 -0.5 0 -0.48129281494584059 -0.49338851851593718 0 -0.46258562989168328 -0.5 0 -0.46853075243710779 -0.48354990242643758 0 -0.46258562989168328 -0.5 0 -0.46853075243710779 -0.48354990242643758 0 -0.45147378687733691 -0.48362213557840178 0 -0.46853075243710779 -0.48354990242643758 0 -0.45147378687733691 -0.48362213557840178 0 -0.46411508256092049 -0.46598235294430129 0 -0.4457251648104853 -0.47020164095208389 0 -0.45147378687733691 -0.48362213557840178 0 -0.46411508256092049 -0.46598235294430129 0 -0.4457251648104853 -0.47020164095208389 0 -0.45147378687733691 -0.48362213557840178 0 -0.43513446131126993 -0.48199891714758791 0 -0.45147378687733691 -0.48362213557840178 0 -0.43275163025255442 -0.5 0 -0.43513446131126993 -0.48199891714758791 0 -0.46258562989168328 -0.5 0 -0.45147378687733691 -0.48362213557840178 0 -0.43275163025255442 -0.5 0 -0.4467190029717853 -0.45478934699519452 0 -0.4422915115958943 -0.43555510214664611 0 -0.43246707723660932 -0.44794326854796312 0 -0.4457251648104853 -0.47020164095208389 0 -0.4467190029717853 -0.45478934699519452 0 -0.46411508256092049 -0.46598235294430129 0 -0.4457251648104853 -0.47020164095208389 0 -0.4467190029717853 -0.45478934699519452 0 -0.43016578207734568 -0.46313500011938619 0 -0.4467190029717853 -0.45478934699519452 0 -0.46411508256092049 -0.46598235294430129 0 -0.47114575579794699 -0.4403844242888923 0 -0.4467190029717853 -0.45478934699519452 0 -0.47114575579794699 -0.4403844242888923 0 -0.4422915115958943 -0.43555510214664611 0 -0.47114575579794699 -0.4403844242888923 0 -0.4422915115958943 -0.43555510214664611 0 -0.46411508256092049 -0.46598235294430129 0 -0.47114575579794699 -0.4403844242888923 0 -0.48354307623736548 -0.45841843211146538 0 -0.4824545428279598 -0.47451624516148783 0 -0.46411508256092049 -0.46598235294430129 0 -0.48354307623736548 -0.45841843211146538 0 -0.4824545428279598 -0.47451624516148783 0 -0.48354307623736548 -0.45841843211146538 0 -0.5 -0.46599539173150673 0 -0.48354307623736548 -0.45841843211146538 0 -0.5 -0.46599539173150673 0 -0.49999999999999972 -0.44521374643113848 0 -0.47114575579794699 -0.4403844242888923 0 -0.49999999999999972 -0.44521374643113848 0 -0.47114575579794699 -0.4403844242888923 0 -0.49999999999999972 -0.44521374643113848 0 -0.48704432221743971 -0.42935617662229603 0 -0.47114575579794699 -0.4403844242888923 0 -0.48354307623736548 -0.45841843211146538 0 -0.49999999999999972 -0.44521374643113848 0 -0.49999999999999972 -0.44521374643113848 0 -0.48704432221743971 -0.42935617662229603 0 -0.5 -0.41591957503128979 0 -0.48704432221743971 -0.42935617662229603 0 -0.5 -0.41591957503128979 0 -0.47703153307181151 -0.41590696073786332 0 -0.5 -0.41591957503128979 0 -0.47703153307181151 -0.41590696073786332 0 -0.48817838912021821 -0.4022119694541284 0 -0.47114575579794699 -0.4403844242888923 0 -0.48704432221743971 -0.42935617662229603 0 -0.47703153307181151 -0.41590696073786332 0 -0.5 -0.38662540363144121 0 -0.47568202340906118 -0.39039593841591919 0 -0.4947615751445838 -0.37332156409002909 0 -0.47568202340906118 -0.39039593841591919 0 -0.4947615751445838 -0.37332156409002909 0 -0.5 -0.38662540363144121 0 -0.48817838912021821 -0.4022119694541284 0 -0.47568202340906118 -0.39039593841591919 0 -0.5 -0.41591957503128979 0 -0.5 -0.38662540363144121 0 -0.48817838912021821 -0.4022119694541284 0 -0.47703153307181151 -0.41590696073786332 0 -0.48817838912021821 -0.4022119694541284 0 -0.47568202340906118 -0.39039593841591919 0 -0.47703153307181151 -0.41590696073786332 0 -0.47568202340906118 -0.39039593841591919 0 -0.45660247167353862 -0.40747031274180939 0 -0.47568202340906118 -0.39039593841591919 0 -0.48030931097003587 -0.37191064435083931 0 -0.46669490250066459 -0.37481721741951951 0 -0.47568202340906118 -0.39039593841591919 0 -0.4947615751445838 -0.37332156409002909 0 -0.48030931097003587 -0.37191064435083931 0 -0.45332061783919553 -0.38729481725706361 0 -0.46669490250066459 -0.37481721741951951 0 -0.45095991715087752 -0.36968037302039969 0 -0.47568202340906118 -0.39039593841591919 0 -0.45332061783919553 -0.38729481725706361 0 -0.46669490250066459 -0.37481721741951951 0 -0.47568202340906118 -0.39039593841591919 0 -0.45660247167353862 -0.40747031274180939 0 -0.47568202340906118 -0.39039593841591919 0 -0.45332061783919553 -0.38729481725706361 0 -0.45660247167353862 -0.40747031274180939 0 -0.44332653075004852 -0.401690115615219 0 -0.44646247228389868 -0.41654464256061052 0 -0.42870657106664078 -0.39987574649354879 0 -0.45332061783919553 -0.38729481725706361 0 -0.44332653075004852 -0.401690115615219 0 -0.43479631603355468 -0.39077639303142497 0 -0.45332061783919553 -0.38729481725706361 0 -0.44332653075004852 -0.401690115615219 0 -0.45660247167353862 -0.40747031274180939 0 -0.45332061783919553 -0.38729481725706361 0 -0.43421362475025049 -0.37527491429266319 0 -0.43479631603355468 -0.39077639303142497 0 -0.45332061783919553 -0.38729481725706361 0 -0.43421362475025049 -0.37527491429266319 0 -0.45095991715087752 -0.36968037302039969 0 -0.47114575579794699 -0.4403844242888923 0 -0.45663439814062529 -0.42533932462455271 0 -0.4422915115958943 -0.43555510214664611 0 -0.47114575579794699 -0.4403844242888923 0 -0.47703153307181151 -0.41590696073786332 0 -0.45663439814062529 -0.42533932462455271 0 -0.45663439814062529 -0.42533932462455271 0 -0.45660247167353862 -0.40747031274180939 0 -0.44646247228389868 -0.41654464256061052 0 -0.47703153307181151 -0.41590696073786332 0 -0.45663439814062529 -0.42533932462455271 0 -0.45660247167353862 -0.40747031274180939 0 -0.44332653075004852 -0.401690115615219 0 -0.45660247167353862 -0.40747031274180939 0 -0.44646247228389868 -0.41654464256061052 0 -0.45660247167353862 -0.40747031274180939 0 -0.44646247228389868 -0.41654464256061052 0 -0.44646247228389868 -0.41654464256061052 0 -0.4375229199380159 -0.42454468706769971 0 -0.45663439814062529 -0.42533932462455271 0 -0.4375229199380159 -0.42454468706769971 0 -0.4422915115958943 -0.43555510214664611 0 -0.45663439814062529 -0.42533932462455271 0 -0.44646247228389868 -0.41654464256061052 0 -0.4375229199380159 -0.42454468706769971 0 -0.4375229199380159 -0.42454468706769971 0 -0.4422915115958943 -0.43555510214664611 0 -0.43077617074680319 -0.43406335077952207 0 -0.43077617074680319 -0.43406335077952207 0 -0.42550232634077589 -0.42345940056268039 0 -0.41950844772475421 -0.43888456563633732 0 -0.4375229199380159 -0.42454468706769971 0 -0.43077617074680319 -0.43406335077952207 0 -0.42550232634077589 -0.42345940056268039 0 -0.44646247228389868 -0.41654464256061052 0 -0.41657232816672918 -0.41306671883907142 0 -0.42870657106664078 -0.39987574649354879 0 -0.44646247228389868 -0.41654464256061052 0 -0.4375229199380159 -0.42454468706769971 0 -0.42550232634077589 -0.42345940056268039 0 -0.44646247228389868 -0.41654464256061052 0 -0.42550232634077589 -0.42345940056268039 0 -0.41657232816672918 -0.41306671883907142 0 -0.44646247228389868 -0.41654464256061052 0 -0.41657232816672918 -0.41306671883907142 0 -0.42550232634077589 -0.42345940056268039 0 -0.41657232816672918 -0.41306671883907142 0 -0.41333489101611293 -0.42699700567040988 0 -0.41657232816672918 -0.41306671883907142 0 -0.41333489101611293 -0.42699700567040988 0 -0.39893236021425188 -0.42931692235905211 0 -0.41333489101611293 -0.42699700567040988 0 -0.39893236021425188 -0.42931692235905211 0 -0.41950844772475421 -0.43888456563633732 0 -0.42550232634077589 -0.42345940056268039 0 -0.41333489101611293 -0.42699700567040988 0 -0.41950844772475421 -0.43888456563633732 0 -0.43421362475025049 -0.37527491429266319 0 -0.42478231784314502 -0.38643128255249681 0 -0.41656514696884139 -0.37636588688318029 0 -0.43421362475025049 -0.37527491429266319 0 -0.42478231784314502 -0.38643128255249681 0 -0.43479631603355468 -0.39077639303142497 0 -0.42478231784314502 -0.38643128255249681 0 -0.43479631603355468 -0.39077639303142497 0 -0.42870657106664078 -0.39987574649354879 0 -0.44332653075004852 -0.401690115615219 0 -0.43479631603355468 -0.39077639303142497 0 -0.42870657106664078 -0.39987574649354879 0 -0.41657232816672918 -0.41306671883907142 0 -0.40962993039643741 -0.3898634720616666 0 -0.3946356370269814 -0.39577424904278191 0 -0.42478231784314502 -0.38643128255249681 0 -0.42870657106664078 -0.39987574649354879 0 -0.40962993039643741 -0.3898634720616666 0 -0.41657232816672918 -0.41306671883907142 0 -0.42870657106664078 -0.39987574649354879 0 -0.40962993039643741 -0.3898634720616666 0 -0.42478231784314502 -0.38643128255249681 0 -0.40962993039643741 -0.3898634720616666 0 -0.41656514696884139 -0.37636588688318029 0 -0.40962993039643741 -0.3898634720616666 0 -0.41656514696884139 -0.37636588688318029 0 -0.40465459864295228 -0.37650109000307358 0 -0.39431275766669582 -0.38061373190328529 0 -0.40465459864295228 -0.37650109000307358 0 -0.3968495855878465 -0.36923685638487008 0 -0.40962993039643741 -0.3898634720616666 0 -0.39431275766669582 -0.38061373190328529 0 -0.40465459864295228 -0.37650109000307358 0 -0.40962993039643741 -0.3898634720616666 0 -0.39431275766669582 -0.38061373190328529 0 -0.3946356370269814 -0.39577424904278191 0 -0.3946356370269814 -0.39577424904278191 0 -0.38704143117499401 -0.40999023144455299 0 -0.37464038230528551 -0.396492613407532 0 -0.3946356370269814 -0.39577424904278191 0 -0.37522403377147279 -0.38060127254172499 0 -0.37464038230528551 -0.396492613407532 0 -0.39431275766669582 -0.38061373190328529 0 -0.3946356370269814 -0.39577424904278191 0 -0.37522403377147279 -0.38060127254172499 0 -0.39431275766669582 -0.38061373190328529 0 -0.37522403377147279 -0.38060127254172499 0 -0.38569326772338258 -0.37053454129240582 0 -0.41657232816672918 -0.41306671883907142 0 -0.39893236021425188 -0.42931692235905211 0 -0.38704143117499401 -0.40999023144455299 0 -0.41657232816672918 -0.41306671883907142 0 -0.3946356370269814 -0.39577424904278191 0 -0.38704143117499401 -0.40999023144455299 0 -0.41657232816672918 -0.41306671883907142 0 -0.38704143117499401 -0.40999023144455299 0 -0.38704143117499401 -0.40999023144455299 0 -0.38131756488089769 -0.42670085612339947 0 -0.36377437909963828 -0.41972983174959272 0 -0.38131756488089769 -0.42670085612339947 0 -0.38339996822118783 -0.44368928783448319 0 -0.36866352395763108 -0.4313760290561211 0 -0.39893236021425188 -0.42931692235905211 0 -0.38131756488089769 -0.42670085612339947 0 -0.38339996822118783 -0.44368928783448319 0 -0.39893236021425188 -0.42931692235905211 0 -0.38704143117499401 -0.40999023144455299 0 -0.38131756488089769 -0.42670085612339947 0 -0.38339996822118783 -0.44368928783448319 0 -0.40446438048225181 -0.45117017211807442 0 -0.3895931593355052 -0.46351353191466821 0 -0.39893236021425188 -0.42931692235905211 0 -0.38339996822118783 -0.44368928783448319 0 -0.40446438048225181 -0.45117017211807442 0 -0.40446438048225181 -0.45117017211807442 0 -0.3895931593355052 -0.46351353191466821 0 -0.40280611050484572 -0.47090640128894168 0 -0.38339996822118783 -0.44368928783448319 0 -0.3895931593355052 -0.46351353191466821 0 -0.37415472949075129 -0.45946062715310632 0 -0.3895931593355052 -0.46351353191466821 0 -0.38039451612360919 -0.47713749807852829 0 -0.37415472949075129 -0.45946062715310632 0 -0.38039451612360919 -0.47713749807852829 0 -0.39198476482648659 -0.49312537606366408 0 -0.39366244928105898 -0.47747566409097131 0 -0.3895931593355052 -0.46351353191466821 0 -0.38039451612360919 -0.47713749807852829 0 -0.39366244928105898 -0.47747566409097131 0 -0.39198476482648659 -0.49312537606366408 0 -0.37055643484088358 -0.49425936316784103 0 -0.39198476482648659 -0.49312537606366408 0 -0.40291763061342539 -0.5 0 -0.37308363097429631 -0.50000000000000244 0 -0.39198476482648659 -0.49312537606366408 0 -0.37055643484088358 -0.49425936316784103 0 -0.37308363097429631 -0.50000000000000244 0 -0.38039451612360919 -0.47713749807852829 0 -0.39198476482648659 -0.49312537606366408 0 -0.37055643484088358 -0.49425936316784103 0 -0.39198476482648659 -0.49312537606366408 0 -0.41341309481208982 -0.49199138895948757 0 -0.39198476482648659 -0.49312537606366408 0 -0.39366244928105898 -0.47747566409097131 0 -0.40353369561484831 -0.48269551310905429 0 -0.39198476482648659 -0.49312537606366408 0 -0.40291763061342539 -0.5 0 -0.41341309481208982 -0.49199138895948757 0 -0.39198476482648659 -0.49312537606366408 0 -0.40353369561484831 -0.48269551310905429 0 -0.41341309481208982 -0.49199138895948757 0 -0.3895931593355052 -0.46351353191466821 0 -0.39366244928105898 -0.47747566409097131 0 -0.40280611050484572 -0.47090640128894168 0 -0.39366244928105898 -0.47747566409097131 0 -0.40353369561484831 -0.48269551310905429 0 -0.40280611050484572 -0.47090640128894168 0 -0.40280611050484572 -0.47090640128894168 0 -0.41792735015940108 -0.47619959015896091 0 -0.41524515795200517 -0.46243146669528151 0 -0.40353369561484831 -0.48269551310905429 0 -0.41792735015940108 -0.47619959015896091 0 -0.41341309481208982 -0.49199138895948757 0 -0.40353369561484831 -0.48269551310905429 0 -0.40280611050484572 -0.47090640128894168 0 -0.41792735015940108 -0.47619959015896091 0 -0.41792735015940108 -0.47619959015896091 0 -0.41341309481208982 -0.49199138895948757 0 -0.42480663413382869 -0.48754747406650911 0 -0.40291763061342539 -0.5 0 -0.41341309481208982 -0.49199138895948757 0 -0.43275163025255442 -0.5 0 -0.41341309481208982 -0.49199138895948757 0 -0.42480663413382869 -0.48754747406650911 0 -0.43275163025255442 -0.5 0 -0.42480663413382869 -0.48754747406650911 0 -0.43275163025255442 -0.5 0 -0.43513446131126993 -0.48199891714758791 0 -0.4457251648104853 -0.47020164095208389 0 -0.43513446131126993 -0.48199891714758791 0 -0.43016578207734568 -0.46313500011938619 0 -0.41792735015940108 -0.47619959015896091 0 -0.43513446131126993 -0.48199891714758791 0 -0.43016578207734568 -0.46313500011938619 0 -0.41792735015940108 -0.47619959015896091 0 -0.42480663413382869 -0.48754747406650911 0 -0.43513446131126993 -0.48199891714758791 0 -0.4467190029717853 -0.45478934699519452 0 -0.43016578207734568 -0.46313500011938619 0 -0.43246707723660932 -0.44794326854796312 0 -0.43016578207734568 -0.46313500011938619 0 -0.42051073979218989 -0.45215097324273301 0 -0.41524515795200517 -0.46243146669528151 0 -0.43016578207734568 -0.46313500011938619 0 -0.43246707723660932 -0.44794326854796312 0 -0.42051073979218989 -0.45215097324273301 0 -0.4422915115958943 -0.43555510214664611 0 -0.43077617074680319 -0.43406335077952207 0 -0.43246707723660932 -0.44794326854796312 0 -0.43077617074680319 -0.43406335077952207 0 -0.43246707723660932 -0.44794326854796312 0 -0.41950844772475421 -0.43888456563633732 0 -0.43246707723660932 -0.44794326854796312 0 -0.42051073979218989 -0.45215097324273301 0 -0.41950844772475421 -0.43888456563633732 0 -0.39893236021425188 -0.42931692235905211 0 -0.40446438048225181 -0.45117017211807442 0 -0.41950844772475421 -0.43888456563633732 0 -0.40446438048225181 -0.45117017211807442 0 -0.42051073979218989 -0.45215097324273301 0 -0.41950844772475421 -0.43888456563633732 0 -0.40446438048225181 -0.45117017211807442 0 -0.42051073979218989 -0.45215097324273301 0 -0.41524515795200517 -0.46243146669528151 0 -0.40446438048225181 -0.45117017211807442 0 -0.40280611050484572 -0.47090640128894168 0 -0.41524515795200517 -0.46243146669528151 0 -0.41792735015940108 -0.47619959015896091 0 -0.43016578207734568 -0.46313500011938619 0 -0.41524515795200517 -0.46243146669528151 0 -0.45018232007011222 -0.256765034028549 0 -0.429874989515865 -0.26165756953837482 0 -0.43598079583492633 -0.24721882136819351 0 -0.45018232007011222 -0.256765034028549 0 -0.43765198640052377 -0.27443700488157741 0 -0.429874989515865 -0.26165756953837482 0 -0.45018232007011222 -0.256765034028549 0 -0.43598079583492633 -0.24721882136819351 0 -0.45139902778349827 -0.24711062934306771 0 -0.45018232007011222 -0.256765034028549 0 -0.43765198640052377 -0.27443700488157741 0 -0.46196722525855399 -0.27174391220054139 0 -0.43765198640052377 -0.27443700488157741 0 -0.46196722525855399 -0.27174391220054139 0 -0.4476129789611048 -0.29283803371489903 0 -0.46196722525855399 -0.27174391220054139 0 -0.48050148842732221 -0.25523221810557922 0 -0.46267023581878858 -0.24817136713935201 0 -0.45018232007011222 -0.256765034028549 0 -0.46196722525855399 -0.27174391220054139 0 -0.46267023581878858 -0.24817136713935201 0 -0.45018232007011222 -0.256765034028549 0 -0.46267023581878858 -0.24817136713935201 0 -0.45139902778349827 -0.24711062934306771 0 -0.48050148842732221 -0.25523221810557922 0 -0.5 -0.26944871803204617 0 -0.5 -0.2401545466321974 0 -0.48050148842732221 -0.25523221810557922 0 -0.5 -0.26944871803204617 0 -0.48245797385404121 -0.28063059353633901 0 -0.46196722525855399 -0.27174391220054139 0 -0.48050148842732221 -0.25523221810557922 0 -0.48245797385404121 -0.28063059353633901 0 -0.46196722525855399 -0.27174391220054139 0 -0.48245797385404121 -0.28063059353633901 0 -0.46937090116945868 -0.29821258941183898 0 -0.48245797385404121 -0.28063059353633901 0 -0.5 -0.29874288943189498 0 -0.46937090116945868 -0.29821258941183898 0 -0.5 -0.26944871803204617 0 -0.48245797385404121 -0.28063059353633901 0 -0.5 -0.29874288943189498 0 -0.5 -0.29874288943189498 0 -0.46937090116945868 -0.29821258941183898 0 -0.47623524987602139 -0.32201367690444971 0 -0.46937090116945868 -0.29821258941183898 0 -0.4476129789611048 -0.29283803371489903 0 -0.45018982867155483 -0.32180400573951162 0 -0.46196722525855399 -0.27174391220054139 0 -0.46937090116945868 -0.29821258941183898 0 -0.4476129789611048 -0.29283803371489903 0 -0.43765198640052377 -0.27443700488157741 0 -0.4476129789611048 -0.29283803371489903 0 -0.43236213870239748 -0.29002705800971151 0 -0.4476129789611048 -0.29283803371489903 0 -0.45018982867155483 -0.32180400573951162 0 -0.4314578060398388 -0.3048790663939604 0 -0.45018982867155483 -0.32180400573951162 0 -0.4314578060398388 -0.3048790663939604 0 -0.45018982867155483 -0.32180400573951162 0 -0.46157657978994598 -0.34139555482026068 0 -0.43521386225128428 -0.33802231259611382 0 -0.46157657978994598 -0.34139555482026068 0 -0.43521386225128428 -0.33802231259611382 0 -0.45018982867155483 -0.32180400573951162 0 -0.46157657978994598 -0.34139555482026068 0 -0.47623524987602139 -0.32201367690444971 0 -0.46937090116945868 -0.29821258941183898 0 -0.45018982867155483 -0.32180400573951162 0 -0.47623524987602139 -0.32201367690444971 0 -0.5 -0.29874288943189498 0 -0.47623524987602139 -0.32201367690444971 0 -0.5 -0.32803706083174372 0 -0.47623524987602139 -0.32201367690444971 0 -0.5 -0.32803706083174372 0 -0.48561656391384522 -0.34384835974822991 0 -0.5 -0.32803706083174372 0 -0.5 -0.35733123223159241 0 -0.48561656391384522 -0.34384835974822991 0 -0.46157657978994598 -0.34139555482026068 0 -0.47623524987602139 -0.32201367690444971 0 -0.48561656391384522 -0.34384835974822991 0 -0.46157657978994598 -0.34139555482026068 0 -0.47568148196104371 -0.35852722048879659 0 -0.48561656391384522 -0.34384835974822991 0 -0.47568148196104371 -0.35852722048879659 0 -0.48561656391384522 -0.34384835974822991 0 -0.48768886795130861 -0.36141736908419309 0 -0.5 -0.35733123223159241 0 -0.48561656391384522 -0.34384835974822991 0 -0.48768886795130861 -0.36141736908419309 0 -0.5 -0.35733123223159241 0 -0.4947615751445838 -0.37332156409002909 0 -0.48768886795130861 -0.36141736908419309 0 -0.5 -0.38662540363144121 0 -0.5 -0.35733123223159241 0 -0.4947615751445838 -0.37332156409002909 0 -0.4947615751445838 -0.37332156409002909 0 -0.48768886795130861 -0.36141736908419309 0 -0.48030931097003587 -0.37191064435083931 0 -0.47568148196104371 -0.35852722048879659 0 -0.48030931097003587 -0.37191064435083931 0 -0.46669490250066459 -0.37481721741951951 0 -0.47568148196104371 -0.35852722048879659 0 -0.48768886795130861 -0.36141736908419309 0 -0.48030931097003587 -0.37191064435083931 0 -0.46669490250066459 -0.37481721741951951 0 -0.45985290530711531 -0.35919053618658509 0 -0.45095991715087752 -0.36968037302039969 0 -0.47568148196104371 -0.35852722048879659 0 -0.46669490250066459 -0.37481721741951951 0 -0.45985290530711531 -0.35919053618658509 0 -0.46157657978994598 -0.34139555482026068 0 -0.47568148196104371 -0.35852722048879659 0 -0.45985290530711531 -0.35919053618658509 0 -0.46157657978994598 -0.34139555482026068 0 -0.45985290530711531 -0.35919053618658509 0 -0.44091292170358748 -0.35617636658334351 0 -0.46157657978994598 -0.34139555482026068 0 -0.44091292170358748 -0.35617636658334351 0 -0.43521386225128428 -0.33802231259611382 0 -0.43421362475025049 -0.37527491429266319 0 -0.44091292170358748 -0.35617636658334351 0 -0.45095991715087752 -0.36968037302039969 0 -0.45985290530711531 -0.35919053618658509 0 -0.44091292170358748 -0.35617636658334351 0 -0.45095991715087752 -0.36968037302039969 0 -0.43421362475025049 -0.37527491429266319 0 -0.41656514696884139 -0.37636588688318029 0 -0.42218579342164808 -0.36334977441807748 0 -0.43421362475025049 -0.37527491429266319 0 -0.44091292170358748 -0.35617636658334351 0 -0.42218579342164808 -0.36334977441807748 0 -0.44091292170358748 -0.35617636658334351 0 -0.42218579342164808 -0.36334977441807748 0 -0.42066840753926321 -0.34864312644900147 0 -0.44091292170358748 -0.35617636658334351 0 -0.42066840753926321 -0.34864312644900147 0 -0.43521386225128428 -0.33802231259611382 0 -0.42218579342164808 -0.36334977441807748 0 -0.42066840753926321 -0.34864312644900147 0 -0.40690054455725883 -0.35815659477868023 0 -0.40690054455725883 -0.35815659477868023 0 -0.40885114471262263 -0.334649070371968 0 -0.42066840753926321 -0.34864312644900147 0 -0.40690054455725883 -0.35815659477868023 0 -0.40885114471262263 -0.334649070371968 0 -0.42218579342164808 -0.36334977441807748 0 -0.40690054455725883 -0.35815659477868023 0 -0.40625971269279348 -0.36587953617857771 0 -0.40690054455725883 -0.35815659477868023 0 -0.40625971269279348 -0.36587953617857771 0 -0.41656514696884139 -0.37636588688318029 0 -0.42218579342164808 -0.36334977441807748 0 -0.40625971269279348 -0.36587953617857771 0 -0.42218579342164808 -0.36334977441807748 0 -0.40690054455725883 -0.35815659477868023 0 -0.41656514696884139 -0.37636588688318029 0 -0.40465459864295228 -0.37650109000307358 0 -0.40625971269279348 -0.36587953617857771 0 -0.40465459864295228 -0.37650109000307358 0 -0.40625971269279348 -0.36587953617857771 0 -0.3968495855878465 -0.36923685638487008 0 -0.40690054455725883 -0.35815659477868023 0 -0.40029228617445223 -0.36350286704594809 0 -0.3911593018599101 -0.36073848084166482 0 -0.40625971269279348 -0.36587953617857771 0 -0.40029228617445223 -0.36350286704594809 0 -0.3968495855878465 -0.36923685638487008 0 -0.40690054455725883 -0.35815659477868023 0 -0.40625971269279348 -0.36587953617857771 0 -0.40029228617445223 -0.36350286704594809 0 -0.3911593018599101 -0.36073848084166482 0 -0.3968495855878465 -0.36923685638487008 0 -0.38569326772338258 -0.37053454129240582 0 -0.40029228617445223 -0.36350286704594809 0 -0.3911593018599101 -0.36073848084166482 0 -0.3968495855878465 -0.36923685638487008 0 -0.39431275766669582 -0.38061373190328529 0 -0.3968495855878465 -0.36923685638487008 0 -0.38569326772338258 -0.37053454129240582 0 -0.3911593018599101 -0.36073848084166482 0 -0.38569326772338258 -0.37053454129240582 0 -0.37568472164775779 -0.36524225821647011 0 -0.37522403377147279 -0.38060127254172499 0 -0.38569326772338258 -0.37053454129240582 0 -0.37568472164775779 -0.36524225821647011 0 -0.3911593018599101 -0.36073848084166482 0 -0.37568472164775779 -0.36524225821647011 0 -0.38024887903539811 -0.3491016629308506 0 -0.40690054455725883 -0.35815659477868023 0 -0.3911593018599101 -0.36073848084166482 0 -0.38024887903539811 -0.3491016629308506 0 -0.40690054455725883 -0.35815659477868023 0 -0.38024887903539811 -0.3491016629308506 0 -0.39533213247953691 -0.34338662223350158 0 -0.40690054455725883 -0.35815659477868023 0 -0.39533213247953691 -0.34338662223350158 0 -0.40885114471262263 -0.334649070371968 0 -0.40690054455725883 -0.35815659477868023 0 -0.38024887903539811 -0.3491016629308506 0 -0.39533213247953691 -0.34338662223350158 0 -0.38532796161286798 -0.33163916085250739 0 -0.40885114471262263 -0.334649070371968 0 -0.38532796161286798 -0.33163916085250739 0 -0.40885114471262263 -0.334649070371968 0 -0.38024887903539811 -0.3491016629308506 0 -0.39533213247953691 -0.34338662223350158 0 -0.38532796161286798 -0.33163916085250739 0 -0.38024887903539811 -0.3491016629308506 0 -0.38532796161286798 -0.33163916085250739 0 -0.37024470816872912 -0.33735420154985679 0 -0.38532796161286798 -0.33163916085250739 0 -0.37601492727600683 -0.3197696392392384 0 -0.39293033406270472 -0.31505081143976649 0 -0.37601492727600683 -0.3197696392392384 0 -0.39293033406270472 -0.31505081143976649 0 -0.37651642550459341 -0.307078797330949 0 -0.38532796161286798 -0.33163916085250739 0 -0.39293033406270472 -0.31505081143976649 0 -0.40885114471262263 -0.334649070371968 0 -0.39293033406270472 -0.31505081143976649 0 -0.40885114471262263 -0.334649070371968 0 -0.41078846406037228 -0.3113015987101887 0 -0.40885114471262263 -0.334649070371968 0 -0.42554877913925399 -0.3223331804902434 0 -0.41078846406037228 -0.3113015987101887 0 -0.40885114471262263 -0.334649070371968 0 -0.41078846406037228 -0.3113015987101887 0 -0.42066840753926321 -0.34864312644900147 0 -0.40885114471262263 -0.334649070371968 0 -0.43521386225128428 -0.33802231259611382 0 -0.40885114471262263 -0.334649070371968 0 -0.43521386225128428 -0.33802231259611382 0 -0.40885114471262263 -0.334649070371968 0 -0.43521386225128428 -0.33802231259611382 0 -0.42554877913925399 -0.3223331804902434 0 -0.42554877913925399 -0.3223331804902434 0 -0.4314578060398388 -0.3048790663939604 0 -0.41078846406037228 -0.3113015987101887 0 -0.45018982867155483 -0.32180400573951162 0 -0.43521386225128428 -0.33802231259611382 0 -0.42554877913925399 -0.3223331804902434 0 -0.45018982867155483 -0.32180400573951162 0 -0.42554877913925399 -0.3223331804902434 0 -0.4314578060398388 -0.3048790663939604 0 -0.4476129789611048 -0.29283803371489903 0 -0.4314578060398388 -0.3048790663939604 0 -0.43236213870239748 -0.29002705800971151 0 -0.4314578060398388 -0.3048790663939604 0 -0.43236213870239748 -0.29002705800971151 0 -0.41272578340812272 -0.2879541270484095 0 -0.4314578060398388 -0.3048790663939604 0 -0.41272578340812272 -0.2879541270484095 0 -0.43765198640052377 -0.27443700488157741 0 -0.43236213870239748 -0.29002705800971151 0 -0.41272578340812272 -0.2879541270484095 0 -0.4314578060398388 -0.3048790663939604 0 -0.41272578340812272 -0.2879541270484095 0 -0.41078846406037228 -0.3113015987101887 0 -0.41272578340812272 -0.2879541270484095 0 -0.41078846406037228 -0.3113015987101887 0 -0.41272578340812272 -0.2879541270484095 0 -0.41078846406037228 -0.3113015987101887 0 -0.39233272698174793 -0.29435547039456872 0 -0.39293033406270472 -0.31505081143976649 0 -0.41078846406037228 -0.3113015987101887 0 -0.39233272698174793 -0.29435547039456872 0 -0.39293033406270472 -0.31505081143976649 0 -0.37651642550459341 -0.307078797330949 0 -0.39233272698174793 -0.29435547039456872 0 -0.39233272698174793 -0.29435547039456872 0 -0.39278725088820249 -0.26993907014966689 0 -0.37040839911066209 -0.28171057629616708 0 -0.37651642550459341 -0.307078797330949 0 -0.39233272698174793 -0.29435547039456872 0 -0.37040839911066209 -0.28171057629616708 0 -0.41272578340812272 -0.2879541270484095 0 -0.39233272698174793 -0.29435547039456872 0 -0.39278725088820249 -0.26993907014966689 0 -0.41272578340812272 -0.2879541270484095 0 -0.39278725088820249 -0.26993907014966689 0 -0.39278725088820249 -0.26993907014966689 0 -0.37040839911066209 -0.28171057629616708 0 -0.39278725088820249 -0.26993907014966689 0 -0.37533687834285862 -0.25417213976024849 0 -0.37040839911066209 -0.28171057629616708 0 -0.39278725088820249 -0.26993907014966689 0 -0.37533687834285862 -0.25417213976024849 0 -0.39826986996263802 -0.25360934065352753 0 -0.39278725088820249 -0.26993907014966689 0 -0.37533687834285862 -0.25417213976024849 0 -0.39278725088820249 -0.26993907014966689 0 -0.39826986996263802 -0.25360934065352753 0 -0.41519883225968468 -0.25815034790020708 0 -0.39278725088820249 -0.26993907014966689 0 -0.41519883225968468 -0.25815034790020708 0 -0.39826986996263802 -0.25360934065352753 0 -0.41519883225968468 -0.25815034790020708 0 -0.41615383063077721 -0.2466412503256647 0 -0.41519883225968468 -0.25815034790020708 0 -0.41615383063077721 -0.2466412503256647 0 -0.41272578340812272 -0.2879541270484095 0 -0.41519883225968468 -0.25815034790020708 0 -0.41272578340812272 -0.2879541270484095 0 -0.41519883225968468 -0.25815034790020708 0 -0.429874989515865 -0.26165756953837482 0 -0.41272578340812272 -0.2879541270484095 0 -0.39278725088820249 -0.26993907014966689 0 -0.41519883225968468 -0.25815034790020708 0 -0.43765198640052377 -0.27443700488157741 0 -0.41272578340812272 -0.2879541270484095 0 -0.429874989515865 -0.26165756953837482 0 -0.41519883225968468 -0.25815034790020708 0 -0.43598079583492633 -0.24721882136819351 0 -0.41519883225968468 -0.25815034790020708 0 -0.429874989515865 -0.26165756953837482 0 -0.43598079583492633 -0.24721882136819351 0 -0.41519883225968468 -0.25815034790020708 0 -0.43598079583492633 -0.24721882136819351 0 -0.41615383063077721 -0.2466412503256647 0 -0.31968345090478489 -0.25798973640781447 0 -0.33623326073948312 -0.25365348176558788 0 -0.32213598881581812 -0.2442700999577708 0 -0.31968345090478489 -0.25798973640781447 0 -0.31319680135340772 -0.27337899374224139 0 -0.30564385326437488 -0.26015983685037081 0 -0.31968345090478489 -0.25798973640781447 0 -0.31319680135340772 -0.27337899374224139 0 -0.33256675641106698 -0.27199424518209242 0 -0.31319680135340772 -0.27337899374224139 0 -0.33256675641106698 -0.27199424518209242 0 -0.3219330120753135 -0.28752383142540722 0 -0.33256675641106698 -0.27199424518209242 0 -0.33623326073948312 -0.25365348176558788 0 -0.35329637777243872 -0.26495799818728782 0 -0.31968345090478489 -0.25798973640781447 0 -0.33256675641106698 -0.27199424518209242 0 -0.33623326073948312 -0.25365348176558788 0 -0.33623326073948312 -0.25365348176558788 0 -0.35329637777243872 -0.26495799818728782 0 -0.35305879752332059 -0.24486073726717009 0 -0.37533687834285862 -0.25417213976024849 0 -0.35329637777243872 -0.26495799818728782 0 -0.35305879752332059 -0.24486073726717009 0 -0.37533687834285862 -0.25417213976024849 0 -0.35329637777243872 -0.26495799818728782 0 -0.37040839911066209 -0.28171057629616708 0 -0.35329637777243872 -0.26495799818728782 0 -0.34802954733312141 -0.29348208244266671 0 -0.37040839911066209 -0.28171057629616708 0 -0.33256675641106698 -0.27199424518209242 0 -0.35329637777243872 -0.26495799818728782 0 -0.34802954733312141 -0.29348208244266671 0 -0.34802954733312141 -0.29348208244266671 0 -0.37040839911066209 -0.28171057629616708 0 -0.37651642550459341 -0.307078797330949 0 -0.37040839911066209 -0.28171057629616708 0 -0.36249180620921062 -0.30132401124355712 0 -0.34802954733312141 -0.29348208244266671 0 -0.37040839911066209 -0.28171057629616708 0 -0.36249180620921062 -0.30132401124355712 0 -0.37651642550459341 -0.307078797330949 0 -0.36249180620921062 -0.30132401124355712 0 -0.36514172279026702 -0.314674684486903 0 -0.36249180620921062 -0.30132401124355712 0 -0.35217384865543538 -0.31302074178168637 0 -0.36514172279026702 -0.314674684486903 0 -0.34802954733312141 -0.29348208244266671 0 -0.33894022777705518 -0.31261958861733652 0 -0.35217384865543538 -0.31302074178168637 0 -0.34802954733312141 -0.29348208244266671 0 -0.36249180620921062 -0.30132401124355712 0 -0.35217384865543538 -0.31302074178168637 0 -0.34802954733312141 -0.29348208244266671 0 -0.32565069555558063 -0.30525358858916618 0 -0.33894022777705518 -0.31261958861733652 0 -0.34802954733312141 -0.29348208244266671 0 -0.32565069555558063 -0.30525358858916618 0 -0.32565069555558063 -0.30525358858916618 0 -0.32940773276489932 -0.31652548782855527 0 -0.33894022777705518 -0.31261958861733652 0 -0.33256675641106698 -0.27199424518209242 0 -0.34802954733312141 -0.29348208244266671 0 -0.3219330120753135 -0.28752383142540722 0 -0.34802954733312141 -0.29348208244266671 0 -0.3219330120753135 -0.28752383142540722 0 -0.32565069555558063 -0.30525358858916618 0 -0.3219330120753135 -0.28752383142540722 0 -0.31228269981280887 -0.29918463989613459 0 -0.30483638085835207 -0.28788342401786787 0 -0.31319680135340772 -0.27337899374224139 0 -0.3219330120753135 -0.28752383142540722 0 -0.30483638085835207 -0.28788342401786787 0 -0.32565069555558063 -0.30525358858916618 0 -0.30327184377803978 -0.31702509473566581 0 -0.31228269981280887 -0.29918463989613459 0 -0.3219330120753135 -0.28752383142540722 0 -0.32565069555558063 -0.30525358858916618 0 -0.31228269981280887 -0.29918463989613459 0 -0.32565069555558063 -0.30525358858916618 0 -0.30327184377803978 -0.31702509473566581 0 -0.31475841231360341 -0.32260943229412947 0 -0.32694554799167658 -0.33099179923519167 0 -0.33828159541335823 -0.32561934181358893 0 -0.32565069555558063 -0.30525358858916618 0 -0.31475841231360341 -0.32260943229412947 0 -0.30327184377803978 -0.31702509473566581 0 -0.31475841231360341 -0.32260943229412947 0 -0.33828159541335823 -0.32561934181358893 0 -0.32940773276489932 -0.31652548782855527 0 -0.32565069555558063 -0.30525358858916618 0 -0.31475841231360341 -0.32260943229412947 0 -0.32940773276489932 -0.31652548782855527 0 -0.31475841231360341 -0.32260943229412947 0 -0.33828159541335823 -0.32561934181358893 0 -0.31475841231360341 -0.32260943229412947 0 -0.31372637242327511 -0.33497634201883658 0 -0.32694554799167658 -0.33099179923519167 0 -0.32694554799167658 -0.33099179923519167 0 -0.32737612656656928 -0.35021722948502532 0 -0.3170311031704231 -0.34491623006635341 0 -0.31372637242327511 -0.33497634201883658 0 -0.32694554799167658 -0.33099179923519167 0 -0.3170311031704231 -0.34491623006635341 0 -0.31372637242327511 -0.33497634201883658 0 -0.3170311031704231 -0.34491623006635341 0 -0.30849554643820359 -0.34481279163420842 0 -0.32694554799167658 -0.33099179923519167 0 -0.33828159541335823 -0.32561934181358893 0 -0.35359721351353718 -0.34004673108302108 0 -0.32694554799167658 -0.33099179923519167 0 -0.35359721351353718 -0.34004673108302108 0 -0.33765025977867152 -0.34480892108230998 0 -0.32694554799167658 -0.33099179923519167 0 -0.35359721351353718 -0.34004673108302108 0 -0.32694554799167658 -0.33099179923519167 0 -0.33765025977867152 -0.34480892108230998 0 -0.32737612656656928 -0.35021722948502532 0 -0.33828159541335823 -0.32561934181358893 0 -0.32940773276489932 -0.31652548782855527 0 -0.33894022777705518 -0.31261958861733652 0 -0.33828159541335823 -0.32561934181358893 0 -0.33894022777705518 -0.31261958861733652 0 -0.35217384865543538 -0.31302074178168637 0 -0.33828159541335823 -0.32561934181358893 0 -0.3618047785131131 -0.32862925133304821 0 -0.33828159541335823 -0.32561934181358893 0 -0.35217384865543538 -0.31302074178168637 0 -0.3618047785131131 -0.32862925133304821 0 -0.38532796161286798 -0.33163916085250739 0 -0.37601492727600683 -0.3197696392392384 0 -0.3618047785131131 -0.32862925133304821 0 -0.35217384865543538 -0.31302074178168637 0 -0.36514172279026702 -0.314674684486903 0 -0.3618047785131131 -0.32862925133304821 0 -0.37601492727600683 -0.3197696392392384 0 -0.36514172279026702 -0.314674684486903 0 -0.3618047785131131 -0.32862925133304821 0 -0.37601492727600683 -0.3197696392392384 0 -0.37651642550459341 -0.307078797330949 0 -0.36514172279026702 -0.314674684486903 0 -0.38532796161286798 -0.33163916085250739 0 -0.37024470816872912 -0.33735420154985679 0 -0.3618047785131131 -0.32862925133304821 0 -0.37024470816872912 -0.33735420154985679 0 -0.3618047785131131 -0.32862925133304821 0 -0.35359721351353718 -0.34004673108302108 0 -0.38532796161286798 -0.33163916085250739 0 -0.3618047785131131 -0.32862925133304821 0 -0.38024887903539811 -0.3491016629308506 0 -0.37024470816872912 -0.33735420154985679 0 -0.35359721351353718 -0.34004673108302108 0 -0.33828159541335823 -0.32561934181358893 0 -0.3618047785131131 -0.32862925133304821 0 -0.35359721351353718 -0.34004673108302108 0 -0.35359721351353718 -0.34004673108302108 0 -0.36247207576052709 -0.35740109745143939 0 -0.34268215104290278 -0.35797992452600158 0 -0.35359721351353718 -0.34004673108302108 0 -0.34268215104290278 -0.35797992452600158 0 -0.33765025977867152 -0.34480892108230998 0 -0.37568472164775779 -0.36524225821647011 0 -0.38024887903539811 -0.3491016629308506 0 -0.36247207576052709 -0.35740109745143939 0 -0.38024887903539811 -0.3491016629308506 0 -0.35359721351353718 -0.34004673108302108 0 -0.36247207576052709 -0.35740109745143939 0 -0.38024887903539811 -0.3491016629308506 0 -0.35359721351353718 -0.34004673108302108 0 -0.37522403377147279 -0.38060127254172499 0 -0.37568472164775779 -0.36524225821647011 0 -0.35964608014779109 -0.37334112637938882 0 -0.37568472164775779 -0.36524225821647011 0 -0.36247207576052709 -0.35740109745143939 0 -0.35964608014779109 -0.37334112637938882 0 -0.36247207576052709 -0.35740109745143939 0 -0.35964608014779109 -0.37334112637938882 0 -0.34268215104290278 -0.35797992452600158 0 -0.35964608014779109 -0.37334112637938882 0 -0.34268215104290278 -0.35797992452600158 0 -0.34254000635277743 -0.38197763020755832 0 -0.34268215104290278 -0.35797992452600158 0 -0.32737612656656928 -0.35021722948502532 0 -0.32270418411731933 -0.37181077970513959 0 -0.34268215104290278 -0.35797992452600158 0 -0.32270418411731933 -0.37181077970513959 0 -0.34254000635277743 -0.38197763020755832 0 -0.34268215104290278 -0.35797992452600158 0 -0.34254000635277743 -0.38197763020755832 0 -0.34268215104290278 -0.35797992452600158 0 -0.33765025977867152 -0.34480892108230998 0 -0.32737612656656928 -0.35021722948502532 0 -0.32737612656656928 -0.35021722948502532 0 -0.31662274924076123 -0.35606216629487569 0 -0.32270418411731933 -0.37181077970513959 0 -0.32737612656656928 -0.35021722948502532 0 -0.3170311031704231 -0.34491623006635341 0 -0.31662274924076123 -0.35606216629487569 0 -0.3170311031704231 -0.34491623006635341 0 -0.31662274924076123 -0.35606216629487569 0 -0.30902027636205309 -0.35243705172998302 0 -0.31662274924076123 -0.35606216629487569 0 -0.32270418411731933 -0.37181077970513959 0 -0.30796050174877349 -0.36016317053514468 0 -0.32270418411731933 -0.37181077970513959 0 -0.29719619905707523 -0.36594012765828582 0 -0.30796050174877349 -0.36016317053514468 0 -0.32270418411731933 -0.37181077970513959 0 -0.29719619905707523 -0.36594012765828582 0 -0.3103864423796594 -0.37828470113645102 0 -0.32270418411731933 -0.37181077970513959 0 -0.29719619905707523 -0.36594012765828582 0 -0.29719619905707523 -0.36594012765828582 0 -0.29943295026653399 -0.35953932364306618 0 -0.30796050174877349 -0.36016317053514468 0 -0.29719619905707523 -0.36594012765828582 0 -0.29584447723995128 -0.37444813956539807 0 -0.3103864423796594 -0.37828470113645102 0 -0.31662274924076123 -0.35606216629487569 0 -0.30796050174877349 -0.36016317053514468 0 -0.30902027636205309 -0.35243705172998302 0 -0.30796050174877349 -0.36016317053514468 0 -0.30902027636205309 -0.35243705172998302 0 -0.30278665144889838 -0.35518957417951802 0 -0.3170311031704231 -0.34491623006635341 0 -0.30902027636205309 -0.35243705172998302 0 -0.30849554643820359 -0.34481279163420842 0 -0.30902027636205309 -0.35243705172998302 0 -0.30849554643820359 -0.34481279163420842 0 -0.30076474035813339 -0.34759465108555682 0 -0.30849554643820359 -0.34481279163420842 0 -0.30076474035813339 -0.34759465108555682 0 -0.30398917998114899 -0.33934800480643368 0 -0.30902027636205309 -0.35243705172998302 0 -0.30076474035813339 -0.34759465108555682 0 -0.30278665144889838 -0.35518957417951802 0 -0.29943295026653399 -0.35953932364306618 0 -0.30796050174877349 -0.36016317053514468 0 -0.30278665144889838 -0.35518957417951802 0 -0.30076474035813339 -0.34759465108555682 0 -0.30278665144889838 -0.35518957417951802 0 -0.29719830368448108 -0.35301728683459582 0 -0.29943295026653399 -0.35953932364306618 0 -0.30278665144889838 -0.35518957417951802 0 -0.29719830368448108 -0.35301728683459582 0 -0.29943295026653399 -0.35953932364306618 0 -0.29719830368448108 -0.35301728683459582 0 -0.29016743694869812 -0.35649807524262711 0 -0.29016743694869812 -0.35649807524262711 0 -0.28284547851944208 -0.35047845284871731 0 -0.27168821399683141 -0.36006947561143121 0 -0.29719830368448108 -0.35301728683459582 0 -0.29016743694869812 -0.35649807524262711 0 -0.2925915294609488 -0.34919256188026188 0 -0.2925915294609488 -0.34919256188026188 0 -0.28611540962297188 -0.3426453659285974 0 -0.29619358151489988 -0.34015641309103278 0 -0.30076474035813339 -0.34759465108555682 0 -0.29719830368448108 -0.35301728683459582 0 -0.2925915294609488 -0.34919256188026188 0 -0.30076474035813339 -0.34759465108555682 0 -0.2925915294609488 -0.34919256188026188 0 -0.29619358151489988 -0.34015641309103278 0 -0.2925915294609488 -0.34919256188026188 0 -0.28284547851944208 -0.35047845284871731 0 -0.28611540962297188 -0.3426453659285974 0 -0.28284547851944208 -0.35047845284871731 0 -0.27676447355633299 -0.3457480812413124 0 -0.28611540962297188 -0.3426453659285974 0 -0.29016743694869812 -0.35649807524262711 0 -0.2925915294609488 -0.34919256188026188 0 -0.28284547851944208 -0.35047845284871731 0 -0.29202770366946113 -0.36668513997228358 0 -0.27168821399683141 -0.36006947561143121 0 -0.28307956849111848 -0.3828068929804474 0 -0.29719619905707523 -0.36594012765828582 0 -0.27168821399683141 -0.36006947561143121 0 -0.29202770366946113 -0.36668513997228358 0 -0.28307956849111848 -0.3828068929804474 0 -0.29202770366946113 -0.36668513997228358 0 -0.29584447723995128 -0.37444813956539807 0 -0.28307956849111848 -0.3828068929804474 0 -0.29719619905707523 -0.36594012765828582 0 -0.29016743694869812 -0.35649807524262711 0 -0.27168821399683141 -0.36006947561143121 0 -0.29719619905707523 -0.36594012765828582 0 -0.29202770366946113 -0.36668513997228358 0 -0.27168821399683141 -0.36006947561143121 0 -0.29719619905707523 -0.36594012765828582 0 -0.29943295026653399 -0.35953932364306618 0 -0.29016743694869812 -0.35649807524262711 0 -0.29719619905707523 -0.36594012765828582 0 -0.29202770366946113 -0.36668513997228358 0 -0.29584447723995128 -0.37444813956539807 0 -0.27168821399683141 -0.36006947561143121 0 -0.28307956849111848 -0.3828068929804474 0 -0.27168821399683141 -0.36006947561143121 0 -0.28307956849111848 -0.3828068929804474 0 -0.26050234447883253 -0.38027693877573482 0 -0.27168821399683141 -0.36006947561143121 0 -0.25721723303835431 -0.36623646057876708 0 -0.26050234447883253 -0.38027693877573482 0 -0.27168821399683141 -0.36006947561143121 0 -0.25721723303835431 -0.36623646057876708 0 -0.24850069890613241 -0.35473287875334369 0 -0.25721723303835431 -0.36623646057876708 0 -0.24817767477162081 -0.36986654917455902 0 -0.24850069890613241 -0.35473287875334369 0 -0.25721723303835431 -0.36623646057876708 0 -0.26050234447883253 -0.38027693877573482 0 -0.24817767477162081 -0.36986654917455902 0 -0.27168821399683141 -0.36006947561143121 0 -0.25445926970156468 -0.34270101061729968 0 -0.24850069890613241 -0.35473287875334369 0 -0.27168821399683141 -0.36006947561143121 0 -0.26120815563270988 -0.3391510272218049 0 -0.25445926970156468 -0.34270101061729968 0 -0.27168821399683141 -0.36006947561143121 0 -0.24850069890613241 -0.35473287875334369 0 -0.27168821399683141 -0.36006947561143121 0 -0.27676447355633299 -0.3457480812413124 0 -0.26120815563270988 -0.3391510272218049 0 -0.27168821399683141 -0.36006947561143121 0 -0.26120815563270988 -0.3391510272218049 0 -0.28284547851944208 -0.35047845284871731 0 -0.27168821399683141 -0.36006947561143121 0 -0.27676447355633299 -0.3457480812413124 0 -0.27676447355633299 -0.3457480812413124 0 -0.27858368134566353 -0.33798527866036399 0 -0.28611540962297188 -0.3426453659285974 0 -0.27676447355633299 -0.3457480812413124 0 -0.27858368134566353 -0.33798527866036399 0 -0.26120815563270988 -0.3391510272218049 0 -0.28089299200049878 -0.32879660088216478 0 -0.26120815563270988 -0.3391510272218049 0 -0.28089299200049878 -0.32879660088216478 0 -0.26120815563270988 -0.3391510272218049 0 -0.26730676106940449 -0.32685643845792262 0 -0.27858368134566353 -0.33798527866036399 0 -0.28089299200049878 -0.32879660088216478 0 -0.26120815563270988 -0.3391510272218049 0 -0.26120815563270988 -0.3391510272218049 0 -0.26057751607960811 -0.32279583566460812 0 -0.26730676106940449 -0.32685643845792262 0 -0.26120815563270988 -0.3391510272218049 0 -0.25273748935779161 -0.32224337373924072 0 -0.26120815563270988 -0.3391510272218049 0 -0.25207330520806498 -0.33378255792528982 0 -0.25273748935779161 -0.32224337373924072 0 -0.26120815563270988 -0.3391510272218049 0 -0.25445926970156468 -0.34270101061729968 0 -0.25207330520806498 -0.33378255792528982 0 -0.25445926970156468 -0.34270101061729968 0 -0.2460450098649074 -0.33743905859998191 0 -0.26120815563270988 -0.3391510272218049 0 -0.25207330520806498 -0.33378255792528982 0 -0.25445926970156468 -0.34270101061729968 0 -0.25273748935779161 -0.32224337373924072 0 -0.26050456352867191 -0.3149367065078193 0 -0.24426682308287331 -0.30533572025667649 0 -0.26120815563270988 -0.3391510272218049 0 -0.25273748935779161 -0.32224337373924072 0 -0.26057751607960811 -0.32279583566460812 0 -0.26057751607960811 -0.32279583566460812 0 -0.26050456352867191 -0.3149367065078193 0 -0.26730676106940449 -0.32685643845792262 0 -0.25273748935779161 -0.32224337373924072 0 -0.26057751607960811 -0.32279583566460812 0 -0.26050456352867191 -0.3149367065078193 0 -0.28089299200049878 -0.32879660088216478 0 -0.26050456352867191 -0.3149367065078193 0 -0.27445713665833338 -0.31633796571173628 0 -0.28089299200049878 -0.32879660088216478 0 -0.26050456352867191 -0.3149367065078193 0 -0.26050456352867191 -0.3149367065078193 0 -0.27445713665833338 -0.31633796571173628 0 -0.26793999894844561 -0.31004618489902153 0 -0.28089299200049878 -0.32879660088216478 0 -0.26050456352867191 -0.3149367065078193 0 -0.26730676106940449 -0.32685643845792262 0 -0.28089299200049878 -0.32879660088216478 0 -0.27445713665833338 -0.31633796571173628 0 -0.28125105682705043 -0.31976055402590231 0 -0.27445713665833338 -0.31633796571173628 0 -0.28252008875028978 -0.31254235777143202 0 -0.28125105682705043 -0.31976055402590231 0 -0.28252008875028978 -0.31254235777143202 0 -0.28823329624350208 -0.31711313423980658 0 -0.29327146190654751 -0.30876504511160502 0 -0.28089299200049878 -0.32879660088216478 0 -0.28823329624350208 -0.31711313423980658 0 -0.30327184377803978 -0.31702509473566581 0 -0.28089299200049878 -0.32879660088216478 0 -0.29457520052377689 -0.33013191680287202 0 -0.30327184377803978 -0.31702509473566581 0 -0.28089299200049878 -0.32879660088216478 0 -0.30327184377803978 -0.31702509473566581 0 -0.28252008875028978 -0.31254235777143202 0 -0.28125105682705043 -0.31976055402590231 0 -0.28823329624350208 -0.31711313423980658 0 -0.28823329624350208 -0.31711313423980658 0 -0.30327184377803978 -0.31702509473566581 0 -0.29327146190654751 -0.30876504511160502 0 -0.28089299200049878 -0.32879660088216478 0 -0.28125105682705043 -0.31976055402590231 0 -0.28823329624350208 -0.31711313423980658 0 -0.28089299200049878 -0.32879660088216478 0 -0.28793737591580382 -0.33358531802794061 0 -0.27858368134566353 -0.33798527866036399 0 -0.28089299200049878 -0.32879660088216478 0 -0.28793737591580382 -0.33358531802794061 0 -0.28089299200049878 -0.32879660088216478 0 -0.28793737591580382 -0.33358531802794061 0 -0.29457520052377689 -0.33013191680287202 0 -0.27858368134566353 -0.33798527866036399 0 -0.28793737591580382 -0.33358531802794061 0 -0.28611540962297188 -0.3426453659285974 0 -0.28793737591580382 -0.33358531802794061 0 -0.28611540962297188 -0.3426453659285974 0 -0.29619358151489988 -0.34015641309103278 0 -0.28793737591580382 -0.33358531802794061 0 -0.29619358151489988 -0.34015641309103278 0 -0.29457520052377689 -0.33013191680287202 0 -0.29619358151489988 -0.34015641309103278 0 -0.29457520052377689 -0.33013191680287202 0 -0.30458020940964259 -0.3310961572775562 0 -0.30076474035813339 -0.34759465108555682 0 -0.29619358151489988 -0.34015641309103278 0 -0.30398917998114899 -0.33934800480643368 0 -0.29619358151489988 -0.34015641309103278 0 -0.30458020940964259 -0.3310961572775562 0 -0.30398917998114899 -0.33934800480643368 0 -0.31372637242327511 -0.33497634201883658 0 -0.30849554643820359 -0.34481279163420842 0 -0.30398917998114899 -0.33934800480643368 0 -0.31475841231360341 -0.32260943229412947 0 -0.31372637242327511 -0.33497634201883658 0 -0.30458020940964259 -0.3310961572775562 0 -0.31372637242327511 -0.33497634201883658 0 -0.30458020940964259 -0.3310961572775562 0 -0.30398917998114899 -0.33934800480643368 0 -0.31475841231360341 -0.32260943229412947 0 -0.30458020940964259 -0.3310961572775562 0 -0.30327184377803978 -0.31702509473566581 0 -0.29457520052377689 -0.33013191680287202 0 -0.30458020940964259 -0.3310961572775562 0 -0.30327184377803978 -0.31702509473566581 0 -0.30327184377803978 -0.31702509473566581 0 -0.30068554560480582 -0.30112982209441241 0 -0.31228269981280887 -0.29918463989613459 0 -0.30327184377803978 -0.31702509473566581 0 -0.30068554560480582 -0.30112982209441241 0 -0.29327146190654751 -0.30876504511160502 0 -0.30068554560480582 -0.30112982209441241 0 -0.30483638085835207 -0.28788342401786787 0 -0.28888361246081401 -0.29493054457851903 0 -0.30068554560480582 -0.30112982209441241 0 -0.31228269981280887 -0.29918463989613459 0 -0.30483638085835207 -0.28788342401786787 0 -0.28888361246081401 -0.29493054457851903 0 -0.28078806465599399 -0.28300047521785149 0 -0.29451735460655398 -0.27472288856989607 0 -0.30483638085835207 -0.28788342401786787 0 -0.28888361246081401 -0.29493054457851903 0 -0.29451735460655398 -0.27472288856989607 0 -0.28888361246081401 -0.29493054457851903 0 -0.28295382644196537 -0.3038897035906043 0 -0.27388309143310768 -0.29511411685975181 0 -0.28888361246081401 -0.29493054457851903 0 -0.28295382644196537 -0.3038897035906043 0 -0.29327146190654751 -0.30876504511160502 0 -0.30068554560480582 -0.30112982209441241 0 -0.28888361246081401 -0.29493054457851903 0 -0.29327146190654751 -0.30876504511160502 0 -0.28252008875028978 -0.31254235777143202 0 -0.28295382644196537 -0.3038897035906043 0 -0.29327146190654751 -0.30876504511160502 0 -0.27445713665833338 -0.31633796571173628 0 -0.28252008875028978 -0.31254235777143202 0 -0.27524002690986649 -0.30828041126704497 0 -0.28252008875028978 -0.31254235777143202 0 -0.28295382644196537 -0.3038897035906043 0 -0.27524002690986649 -0.30828041126704497 0 -0.28295382644196537 -0.3038897035906043 0 -0.27524002690986649 -0.30828041126704497 0 -0.27388309143310768 -0.29511411685975181 0 -0.26808679199009749 -0.30362992927208171 0 -0.26252268864995981 -0.29761987486456531 0 -0.27388309143310768 -0.29511411685975181 0 -0.27524002690986649 -0.30828041126704497 0 -0.26808679199009749 -0.30362992927208171 0 -0.27388309143310768 -0.29511411685975181 0 -0.27445713665833338 -0.31633796571173628 0 -0.27524002690986649 -0.30828041126704497 0 -0.26793999894844561 -0.31004618489902153 0 -0.27524002690986649 -0.30828041126704497 0 -0.26808679199009749 -0.30362992927208171 0 -0.26793999894844561 -0.31004618489902153 0 -0.26808679199009749 -0.30362992927208171 0 -0.26793999894844561 -0.31004618489902153 0 -0.26278193746552841 -0.30551063084933561 0 -0.26050456352867191 -0.3149367065078193 0 -0.25485564421046719 -0.30132045870319019 0 -0.24011613505684479 -0.30107681213347393 0 -0.26050456352867191 -0.3149367065078193 0 -0.24011613505684479 -0.30107681213347393 0 -0.26050456352867191 -0.3149367065078193 0 -0.26278193746552841 -0.30551063084933561 0 -0.25485564421046719 -0.30132045870319019 0 -0.26050456352867191 -0.3149367065078193 0 -0.26793999894844561 -0.31004618489902153 0 -0.26278193746552841 -0.30551063084933561 0 -0.26278193746552841 -0.30551063084933561 0 -0.26252268864995981 -0.29761987486456531 0 -0.25485564421046719 -0.30132045870319019 0 -0.26252268864995981 -0.29761987486456531 0 -0.25485564421046719 -0.30132045870319019 0 -0.2567143935458242 -0.29223768812186002 0 -0.26808679199009749 -0.30362992927208171 0 -0.26278193746552841 -0.30551063084933561 0 -0.26252268864995981 -0.29761987486456531 0 -0.25608276685525683 -0.28295324223861612 0 -0.2567143935458242 -0.29223768812186002 0 -0.24732420154209239 -0.29033586459568173 0 -0.25485564421046719 -0.30132045870319019 0 -0.2567143935458242 -0.29223768812186002 0 -0.24732420154209239 -0.29033586459568173 0 -0.26252268864995981 -0.29761987486456531 0 -0.2567143935458242 -0.29223768812186002 0 -0.26350989061834318 -0.28909490770035701 0 -0.25608276685525683 -0.28295324223861612 0 -0.26350989061834318 -0.28909490770035701 0 -0.26907982973782107 -0.2804670883869903 0 -0.25608276685525683 -0.28295324223861612 0 -0.2567143935458242 -0.29223768812186002 0 -0.26350989061834318 -0.28909490770035701 0 -0.26350989061834318 -0.28909490770035701 0 -0.27388309143310768 -0.29511411685975181 0 -0.26907982973782107 -0.2804670883869903 0 -0.26252268864995981 -0.29761987486456531 0 -0.26350989061834318 -0.28909490770035701 0 -0.27388309143310768 -0.29511411685975181 0 -0.28888361246081401 -0.29493054457851903 0 -0.27388309143310768 -0.29511411685975181 0 -0.28078806465599399 -0.28300047521785149 0 -0.27388309143310768 -0.29511411685975181 0 -0.28078806465599399 -0.28300047521785149 0 -0.26907982973782107 -0.2804670883869903 0 -0.27772768471542669 -0.26767482265106679 0 -0.26907982973782107 -0.2804670883869903 0 -0.25958550566062261 -0.27102626557679149 0 -0.28078806465599399 -0.28300047521785149 0 -0.27772768471542669 -0.26767482265106679 0 -0.26907982973782107 -0.2804670883869903 0 -0.25608276685525683 -0.28295324223861612 0 -0.26907982973782107 -0.2804670883869903 0 -0.25958550566062261 -0.27102626557679149 0 -0.25608276685525683 -0.28295324223861612 0 -0.25958550566062261 -0.27102626557679149 0 -0.2444485511135471 -0.27534046621033159 0 -0.26398002587916253 -0.25656090854441049 0 -0.24465976002352091 -0.25387891845332877 0 -0.25992972331208369 -0.2410680052130979 0 -0.25958550566062261 -0.27102626557679149 0 -0.26398002587916253 -0.25656090854441049 0 -0.24465976002352091 -0.25387891845332877 0 -0.27772768471542669 -0.26767482265106679 0 -0.26398002587916253 -0.25656090854441049 0 -0.27722523139620658 -0.24922189107985179 0 -0.27772768471542669 -0.26767482265106679 0 -0.25958550566062261 -0.27102626557679149 0 -0.26398002587916253 -0.25656090854441049 0 -0.27772768471542669 -0.26767482265106679 0 -0.29131753467172561 -0.25675805269722002 0 -0.27722523139620658 -0.24922189107985179 0 -0.28078806465599399 -0.28300047521785149 0 -0.27772768471542669 -0.26767482265106679 0 -0.29451735460655398 -0.27472288856989607 0 -0.27772768471542669 -0.26767482265106679 0 -0.29131753467172561 -0.25675805269722002 0 -0.29451735460655398 -0.27472288856989607 0 -0.31319680135340772 -0.27337899374224139 0 -0.29451735460655398 -0.27472288856989607 0 -0.30564385326437488 -0.26015983685037081 0 -0.31319680135340772 -0.27337899374224139 0 -0.30483638085835207 -0.28788342401786787 0 -0.29451735460655398 -0.27472288856989607 0 -0.29131753467172561 -0.25675805269722002 0 -0.29451735460655398 -0.27472288856989607 0 -0.30564385326437488 -0.26015983685037081 0 -0.29131753467172561 -0.25675805269722002 0 -0.30564385326437488 -0.26015983685037081 0 -0.30769212114973271 -0.24578220261295139 0 -0.31968345090478489 -0.25798973640781447 0 -0.30564385326437488 -0.26015983685037081 0 -0.30769212114973271 -0.24578220261295139 0 -0.34207866423036198 -0.45986413066326443 0 -0.33141508850449702 -0.45187214799378478 0 -0.32594289259428999 -0.46085836632795257 0 -0.34207866423036198 -0.45986413066326443 0 -0.32594289259428999 -0.46085836632795257 0 -0.33264581849560632 -0.47431014716802089 0 -0.34207866423036198 -0.45986413066326443 0 -0.34225571697252682 -0.42997304157067162 0 -0.34207866423036198 -0.45986413066326443 0 -0.33358626016413989 -0.44229992863572659 0 -0.33141508850449702 -0.45187214799378478 0 -0.34207866423036198 -0.45986413066326443 0 -0.33358626016413989 -0.44229992863572659 0 -0.34225571697252682 -0.42997304157067162 0 -0.33358626016413989 -0.44229992863572659 0 -0.33141508850449702 -0.45187214799378478 0 -0.32300139100864811 -0.44723989508536771 0 -0.33358626016413989 -0.44229992863572659 0 -0.32300139100864811 -0.44723989508536771 0 -0.32413493920603592 -0.43586432580396972 0 -0.32300139100864811 -0.44723989508536771 0 -0.31385630152515048 -0.44199725430357722 0 -0.32413493920603592 -0.43586432580396972 0 -0.32300139100864811 -0.44723989508536771 0 -0.31385630152515048 -0.44199725430357722 0 -0.31044958537109257 -0.45255960714027171 0 -0.32594289259428999 -0.46085836632795257 0 -0.31333683559556219 -0.46686726284272168 0 -0.31044958537109257 -0.45255960714027171 0 -0.32594289259428999 -0.46085836632795257 0 -0.31333683559556219 -0.46686726284272168 0 -0.32224857144892449 -0.47649828689453749 0 -0.32300139100864811 -0.44723989508536771 0 -0.32594289259428999 -0.46085836632795257 0 -0.31044958537109257 -0.45255960714027171 0 -0.33141508850449702 -0.45187214799378478 0 -0.32300139100864811 -0.44723989508536771 0 -0.32594289259428999 -0.46085836632795257 0 -0.31333683559556219 -0.46686726284272168 0 -0.32224857144892449 -0.47649828689453749 0 -0.30503152439861497 -0.48190266549989857 0 -0.32224857144892449 -0.47649828689453749 0 -0.32279626626388608 -0.48781718170045291 0 -0.30503152439861497 -0.48190266549989857 0 -0.32594289259428999 -0.46085836632795257 0 -0.32224857144892449 -0.47649828689453749 0 -0.33264581849560632 -0.47431014716802089 0 -0.32224857144892449 -0.47649828689453749 0 -0.32279626626388608 -0.48781718170045291 0 -0.33105735271625752 -0.4845747321984929 0 -0.32006214434654462 -0.5 0 -0.32279626626388608 -0.48781718170045291 0 -0.30503152439861497 -0.48190266549989857 0 -0.32006214434654462 -0.5 0 -0.32279626626388608 -0.48781718170045291 0 -0.33558173840908911 -0.49611022390933512 0 -0.32006214434654462 -0.5 0 -0.33558173840908911 -0.49611022390933512 0 -0.34657288766042038 -0.5 0 -0.33558173840908911 -0.49611022390933512 0 -0.34190161148819742 -0.48975521975585701 0 -0.35306908662498632 -0.4951847935385878 0 -0.32279626626388608 -0.48781718170045291 0 -0.33558173840908911 -0.49611022390933512 0 -0.33105735271625752 -0.4845747321984929 0 -0.33558173840908911 -0.49611022390933512 0 -0.33105735271625752 -0.4845747321984929 0 -0.34190161148819742 -0.48975521975585701 0 -0.34207866423036198 -0.45986413066326443 0 -0.34190161148819742 -0.48975521975585701 0 -0.34207866423036198 -0.45986413066326443 0 -0.34190161148819742 -0.48975521975585701 0 -0.33264581849560632 -0.47431014716802089 0 -0.33105735271625752 -0.4845747321984929 0 -0.34190161148819742 -0.48975521975585701 0 -0.33264581849560632 -0.47431014716802089 0 -0.32224857144892449 -0.47649828689453749 0 -0.33105735271625752 -0.4845747321984929 0 -0.33264581849560632 -0.47431014716802089 0 -0.34190161148819742 -0.48975521975585701 0 -0.35001641252228072 -0.47142734906239081 0 -0.35328963507943428 -0.48328499015431992 0 -0.34207866423036198 -0.45986413066326443 0 -0.34190161148819742 -0.48975521975585701 0 -0.35001641252228072 -0.47142734906239081 0 -0.35328963507943428 -0.48328499015431992 0 -0.35950950469085041 -0.48638993404071668 0 -0.36112286221809747 -0.47283058930211808 0 -0.35001641252228072 -0.47142734906239081 0 -0.35328963507943428 -0.48328499015431992 0 -0.36112286221809747 -0.47283058930211808 0 -0.33558173840908911 -0.49611022390933512 0 -0.35306908662498632 -0.4951847935385878 0 -0.33558173840908911 -0.49611022390933512 0 -0.34657288766042038 -0.5 0 -0.35306908662498632 -0.4951847935385878 0 -0.34657288766042038 -0.5 0 -0.35306908662498632 -0.4951847935385878 0 -0.37308363097429631 -0.50000000000000244 0 -0.34190161148819742 -0.48975521975585701 0 -0.35328963507943428 -0.48328499015431992 0 -0.35306908662498632 -0.4951847935385878 0 -0.35328963507943428 -0.48328499015431992 0 -0.35306908662498632 -0.4951847935385878 0 -0.35950950469085041 -0.48638993404071668 0 -0.35306908662498632 -0.4951847935385878 0 -0.35950950469085041 -0.48638993404071668 0 -0.37055643484088358 -0.49425936316784103 0 -0.35306908662498632 -0.4951847935385878 0 -0.37055643484088358 -0.49425936316784103 0 -0.35950950469085041 -0.48638993404071668 0 -0.37055643484088358 -0.49425936316784103 0 -0.36112286221809747 -0.47283058930211808 0 -0.35306908662498632 -0.4951847935385878 0 -0.37055643484088358 -0.49425936316784103 0 -0.37308363097429631 -0.50000000000000244 0 -0.37055643484088358 -0.49425936316784103 0 -0.37308363097429631 -0.50000000000000244 0 -0.38039451612360919 -0.47713749807852829 0 -0.37055643484088358 -0.49425936316784103 0 -0.36112286221809747 -0.47283058930211808 0 -0.37055643484088358 -0.49425936316784103 0 -0.36112286221809747 -0.47283058930211808 0 -0.38039451612360919 -0.47713749807852829 0 -0.36112286221809747 -0.47283058930211808 0 -0.37415472949075129 -0.45946062715310632 0 -0.37415472949075129 -0.45946062715310632 0 -0.3629811744391212 -0.45722253899736259 0 -0.36406731613876331 -0.44506275929787698 0 -0.36112286221809747 -0.47283058930211808 0 -0.37415472949075129 -0.45946062715310632 0 -0.3629811744391212 -0.45722253899736259 0 -0.36112286221809747 -0.47283058930211808 0 -0.3629811744391212 -0.45722253899736259 0 -0.35168928959531232 -0.4514018154363949 0 -0.36112286221809747 -0.47283058930211808 0 -0.35168928959531232 -0.4514018154363949 0 -0.35001641252228072 -0.47142734906239081 0 -0.36112286221809747 -0.47283058930211808 0 -0.35168928959531232 -0.4514018154363949 0 -0.34207866423036198 -0.45986413066326443 0 -0.35001641252228072 -0.47142734906239081 0 -0.35168928959531232 -0.4514018154363949 0 -0.35168928959531232 -0.4514018154363949 0 -0.34225571697252682 -0.42997304157067162 0 -0.35168928959531232 -0.4514018154363949 0 -0.36406731613876331 -0.44506275929787698 0 -0.34225571697252682 -0.42997304157067162 0 -0.34207866423036198 -0.45986413066326443 0 -0.35168928959531232 -0.4514018154363949 0 -0.34225571697252682 -0.42997304157067162 0 -0.38339996822118783 -0.44368928783448319 0 -0.36406731613876331 -0.44506275929787698 0 -0.36866352395763108 -0.4313760290561211 0 -0.38339996822118783 -0.44368928783448319 0 -0.37415472949075129 -0.45946062715310632 0 -0.36406731613876331 -0.44506275929787698 0 -0.3629811744391212 -0.45722253899736259 0 -0.35168928959531232 -0.4514018154363949 0 -0.36406731613876331 -0.44506275929787698 0 -0.38131756488089769 -0.42670085612339947 0 -0.36866352395763108 -0.4313760290561211 0 -0.36377437909963828 -0.41972983174959272 0 -0.38704143117499401 -0.40999023144455299 0 -0.3575105341832589 -0.40691374405003478 0 -0.38704143117499401 -0.40999023144455299 0 -0.36377437909963828 -0.41972983174959272 0 -0.3575105341832589 -0.40691374405003478 0 -0.35062038894632092 -0.41624612172537079 0 -0.34239786166265201 -0.40597533588911489 0 -0.34225571697252682 -0.42997304157067162 0 -0.36377437909963828 -0.41972983174959272 0 -0.3575105341832589 -0.40691374405003478 0 -0.35062038894632092 -0.41624612172537079 0 -0.3575105341832589 -0.40691374405003478 0 -0.35062038894632092 -0.41624612172537079 0 -0.34239786166265201 -0.40597533588911489 0 -0.36406731613876331 -0.44506275929787698 0 -0.36866352395763108 -0.4313760290561211 0 -0.34225571697252682 -0.42997304157067162 0 -0.36866352395763108 -0.4313760290561211 0 -0.36377437909963828 -0.41972983174959272 0 -0.34225571697252682 -0.42997304157067162 0 -0.36377437909963828 -0.41972983174959272 0 -0.35062038894632092 -0.41624612172537079 0 -0.34225571697252682 -0.42997304157067162 0 -0.37522403377147279 -0.38060127254172499 0 -0.37464038230528551 -0.396492613407532 0 -0.35879027536972019 -0.3891835699585654 0 -0.37522403377147279 -0.38060127254172499 0 -0.35964608014779109 -0.37334112637938882 0 -0.35879027536972019 -0.3891835699585654 0 -0.38704143117499401 -0.40999023144455299 0 -0.3575105341832589 -0.40691374405003478 0 -0.37464038230528551 -0.396492613407532 0 -0.3575105341832589 -0.40691374405003478 0 -0.37464038230528551 -0.396492613407532 0 -0.35879027536972019 -0.3891835699585654 0 -0.3575105341832589 -0.40691374405003478 0 -0.35030966939210212 -0.39601257002631829 0 -0.35879027536972019 -0.3891835699585654 0 -0.35030966939210212 -0.39601257002631829 0 -0.34254000635277743 -0.38197763020755832 0 -0.34239786166265201 -0.40597533588911489 0 -0.3575105341832589 -0.40691374405003478 0 -0.35030966939210212 -0.39601257002631829 0 -0.34239786166265201 -0.40597533588911489 0 -0.35964608014779109 -0.37334112637938882 0 -0.35879027536972019 -0.3891835699585654 0 -0.34254000635277743 -0.38197763020755832 0 -0.35030966939210212 -0.39601257002631829 0 -0.35879027536972019 -0.3891835699585654 0 -0.34254000635277743 -0.38197763020755832 0 -0.32270418411731933 -0.37181077970513959 0 -0.34254000635277743 -0.38197763020755832 0 -0.32435131947256218 -0.38428518727128619 0 -0.34254000635277743 -0.38197763020755832 0 -0.33211028503505757 -0.39455092735479258 0 -0.32435131947256218 -0.38428518727128619 0 -0.34254000635277743 -0.38197763020755832 0 -0.33211028503505757 -0.39455092735479258 0 -0.34239786166265201 -0.40597533588911489 0 -0.34254000635277743 -0.38197763020755832 0 -0.34239786166265201 -0.40597533588911489 0 -0.33211028503505757 -0.39455092735479258 0 -0.32627218782356721 -0.40254155632103228 0 -0.33325599186729038 -0.40952977136485508 0 -0.33211028503505757 -0.39455092735479258 0 -0.34239786166265201 -0.40597533588911489 0 -0.33325599186729038 -0.40952977136485508 0 -0.32627218782356721 -0.40254155632103228 0 -0.31778611784491262 -0.39429551077659458 0 -0.31836523457261151 -0.40628576827473822 0 -0.31778611784491262 -0.39429551077659458 0 -0.31836523457261151 -0.40628576827473822 0 -0.30856762168503782 -0.40330407176644772 0 -0.33211028503505757 -0.39455092735479258 0 -0.32627218782356721 -0.40254155632103228 0 -0.31778611784491262 -0.39429551077659458 0 -0.33211028503505757 -0.39455092735479258 0 -0.31778611784491262 -0.39429551077659458 0 -0.32435131947256218 -0.38428518727128619 0 -0.31778611784491262 -0.39429551077659458 0 -0.32435131947256218 -0.38428518727128619 0 -0.3103864423796594 -0.37828470113645102 0 -0.32270418411731933 -0.37181077970513959 0 -0.32435131947256218 -0.38428518727128619 0 -0.3103864423796594 -0.37828470113645102 0 -0.34225571697252682 -0.42997304157067162 0 -0.32127707919304882 -0.42450406978857058 0 -0.32413493920603592 -0.43586432580396972 0 -0.33358626016413989 -0.44229992863572659 0 -0.34225571697252682 -0.42997304157067162 0 -0.32413493920603592 -0.43586432580396972 0 -0.34225571697252682 -0.42997304157067162 0 -0.32547848823970138 -0.41505510354763547 0 -0.32127707919304882 -0.42450406978857058 0 -0.34225571697252682 -0.42997304157067162 0 -0.33325599186729038 -0.40952977136485508 0 -0.34239786166265201 -0.40597533588911489 0 -0.34225571697252682 -0.42997304157067162 0 -0.34225571697252682 -0.42997304157067162 0 -0.33325599186729038 -0.40952977136485508 0 -0.32547848823970138 -0.41505510354763547 0 -0.34239786166265201 -0.40597533588911489 0 -0.34225571697252682 -0.42997304157067162 0 -0.33325599186729038 -0.40952977136485508 0 -0.32627218782356721 -0.40254155632103228 0 -0.33325599186729038 -0.40952977136485508 0 -0.32547848823970138 -0.41505510354763547 0 -0.32547848823970138 -0.41505510354763547 0 -0.3149711123139971 -0.41411215899080989 0 -0.32127707919304882 -0.42450406978857058 0 -0.32627218782356721 -0.40254155632103228 0 -0.32547848823970138 -0.41505510354763547 0 -0.31836523457261151 -0.40628576827473822 0 -0.32547848823970138 -0.41505510354763547 0 -0.31836523457261151 -0.40628576827473822 0 -0.3149711123139971 -0.41411215899080989 0 -0.31836523457261151 -0.40628576827473822 0 -0.3149711123139971 -0.41411215899080989 0 -0.30856762168503782 -0.40330407176644772 0 -0.3149711123139971 -0.41411215899080989 0 -0.32127707919304882 -0.42450406978857058 0 -0.31068047406536009 -0.42124040027518911 0 -0.32127707919304882 -0.42450406978857058 0 -0.31073004788055869 -0.43167813375356229 0 -0.31068047406536009 -0.42124040027518911 0 -0.32127707919304882 -0.42450406978857058 0 -0.32413493920603592 -0.43586432580396972 0 -0.31073004788055869 -0.43167813375356229 0 -0.31385630152515048 -0.44199725430357722 0 -0.32413493920603592 -0.43586432580396972 0 -0.31073004788055869 -0.43167813375356229 0 -0.31073004788055869 -0.43167813375356229 0 -0.29829421210859891 -0.43220714453990322 0 -0.30286215921622678 -0.44210958888768459 0 -0.31073004788055869 -0.43167813375356229 0 -0.29829421210859891 -0.43220714453990322 0 -0.30293836312512551 -0.42244552438862548 0 -0.29829421210859891 -0.43220714453990322 0 -0.30293836312512551 -0.42244552438862548 0 -0.29038846928103268 -0.42353273433611682 0 -0.31073004788055869 -0.43167813375356229 0 -0.30293836312512551 -0.42244552438862548 0 -0.31068047406536009 -0.42124040027518911 0 -0.3149711123139971 -0.41411215899080989 0 -0.31068047406536009 -0.42124040027518911 0 -0.30545777612822328 -0.41428354029227837 0 -0.30293836312512551 -0.42244552438862548 0 -0.31068047406536009 -0.42124040027518911 0 -0.30545777612822328 -0.41428354029227837 0 -0.3149711123139971 -0.41411215899080989 0 -0.30545777612822328 -0.41428354029227837 0 -0.30856762168503782 -0.40330407176644772 0 -0.30545777612822328 -0.41428354029227837 0 -0.30856762168503782 -0.40330407176644772 0 -0.30079847364115991 -0.40578130343003371 0 -0.30545777612822328 -0.41428354029227837 0 -0.2987732092282892 -0.41413177709842958 0 -0.30079847364115991 -0.40578130343003371 0 -0.30293836312512551 -0.42244552438862548 0 -0.2987732092282892 -0.41413177709842958 0 -0.29038846928103268 -0.42353273433611682 0 -0.30293836312512551 -0.42244552438862548 0 -0.2987732092282892 -0.41413177709842958 0 -0.30293836312512551 -0.42244552438862548 0 -0.30545777612822328 -0.41428354029227837 0 -0.2987732092282892 -0.41413177709842958 0 -0.30545777612822328 -0.41428354029227837 0 -0.2987732092282892 -0.41413177709842958 0 -0.2987732092282892 -0.41413177709842958 0 -0.29092638885970451 -0.39846933503943821 0 -0.2987732092282892 -0.41413177709842958 0 -0.28243901841779939 -0.41376093348156762 0 -0.29092638885970451 -0.39846933503943821 0 -0.2987732092282892 -0.41413177709842958 0 -0.28243901841779939 -0.41376093348156762 0 -0.29038846928103268 -0.42353273433611682 0 -0.2987732092282892 -0.41413177709842958 0 -0.28243901841779939 -0.41376093348156762 0 -0.28243901841779939 -0.41376093348156762 0 -0.29038846928103268 -0.42353273433611682 0 -0.27500508569675858 -0.42792788340523652 0 -0.29038846928103268 -0.42353273433611682 0 -0.27500508569675858 -0.42792788340523652 0 -0.28620792983366777 -0.44117103379144762 0 -0.29829421210859891 -0.43220714453990322 0 -0.29038846928103268 -0.42353273433611682 0 -0.28620792983366777 -0.44117103379144762 0 -0.31778611784491262 -0.39429551077659458 0 -0.3103864423796594 -0.37828470113645102 0 -0.30424293331838692 -0.39073887816822978 0 -0.29584447723995128 -0.37444813956539807 0 -0.29713407365637251 -0.38186722723828942 0 -0.3103864423796594 -0.37828470113645102 0 -0.29713407365637251 -0.38186722723828942 0 -0.30424293331838692 -0.39073887816822978 0 -0.29406976999373469 -0.38920344929064732 0 -0.29713407365637251 -0.38186722723828942 0 -0.3103864423796594 -0.37828470113645102 0 -0.30424293331838692 -0.39073887816822978 0 -0.29998863005712628 -0.39809616774203599 0 -0.30424293331838692 -0.39073887816822978 0 -0.30856762168503782 -0.40330407176644772 0 -0.29998863005712628 -0.39809616774203599 0 -0.30424293331838692 -0.39073887816822978 0 -0.29406976999373469 -0.38920344929064732 0 -0.31778611784491262 -0.39429551077659458 0 -0.30424293331838692 -0.39073887816822978 0 -0.30856762168503782 -0.40330407176644772 0 -0.29998863005712628 -0.39809616774203599 0 -0.30079847364115991 -0.40578130343003371 0 -0.29092638885970451 -0.39846933503943821 0 -0.29998863005712628 -0.39809616774203599 0 -0.30856762168503782 -0.40330407176644772 0 -0.30079847364115991 -0.40578130343003371 0 -0.2987732092282892 -0.41413177709842958 0 -0.30079847364115991 -0.40578130343003371 0 -0.29092638885970451 -0.39846933503943821 0 -0.29092638885970451 -0.39846933503943821 0 -0.28307956849111848 -0.3828068929804474 0 -0.29092638885970451 -0.39846933503943821 0 -0.28307956849111848 -0.3828068929804474 0 -0.27459219804921331 -0.39809849142257658 0 -0.28243901841779939 -0.41376093348156762 0 -0.29092638885970451 -0.39846933503943821 0 -0.27459219804921331 -0.39809849142257658 0 -0.29998863005712628 -0.39809616774203599 0 -0.29092638885970451 -0.39846933503943821 0 -0.29406976999373469 -0.38920344929064732 0 -0.29092638885970451 -0.39846933503943821 0 -0.29406976999373469 -0.38920344929064732 0 -0.28307956849111848 -0.3828068929804474 0 -0.29713407365637251 -0.38186722723828942 0 -0.29406976999373469 -0.38920344929064732 0 -0.28307956849111848 -0.3828068929804474 0 -0.29584447723995128 -0.37444813956539807 0 -0.29713407365637251 -0.38186722723828942 0 -0.28307956849111848 -0.3828068929804474 0 -0.28307956849111848 -0.3828068929804474 0 -0.27459219804921331 -0.39809849142257658 0 -0.26050234447883253 -0.38027693877573482 0 -0.28307956849111848 -0.3828068929804474 0 -0.27459219804921331 -0.39809849142257658 0 -0.27459219804921331 -0.39809849142257658 0 -0.26610482760730952 -0.4133900898647066 0 -0.27459219804921331 -0.39809849142257658 0 -0.26088670843651829 -0.40068536336094251 0 -0.26610482760730952 -0.4133900898647066 0 -0.26088670843651829 -0.40068536336094251 0 -0.26050234447883253 -0.38027693877573482 0 -0.2487824818667288 -0.3954643368039899 0 -0.27459219804921331 -0.39809849142257658 0 -0.26088670843651829 -0.40068536336094251 0 -0.26050234447883253 -0.38027693877573482 0 -0.26088670843651829 -0.40068536336094251 0 -0.24694430377570939 -0.41295507854145541 0 -0.2487824818667288 -0.3954643368039899 0 -0.27500508569675858 -0.42792788340523652 0 -0.25298523514652932 -0.43702750984159111 0 -0.27028712802556781 -0.44002206955302048 0 -0.27500508569675858 -0.42792788340523652 0 -0.27028712802556781 -0.44002206955302048 0 -0.28620792983366777 -0.44117103379144762 0 -0.28243901841779939 -0.41376093348156762 0 -0.27500508569675858 -0.42792788340523652 0 -0.26610482760730952 -0.4133900898647066 0 -0.28243901841779939 -0.41376093348156762 0 -0.27459219804921331 -0.39809849142257658 0 -0.26610482760730952 -0.4133900898647066 0 -0.28243901841779939 -0.41376093348156762 0 -0.26610482760730952 -0.4133900898647066 0 -0.26610482760730952 -0.4133900898647066 0 -0.24694430377570939 -0.41295507854145541 0 -0.26610482760730952 -0.4133900898647066 0 -0.25298523514652932 -0.43702750984159111 0 -0.24694430377570939 -0.41295507854145541 0 -0.26088670843651829 -0.40068536336094251 0 -0.26610482760730952 -0.4133900898647066 0 -0.24694430377570939 -0.41295507854145541 0 -0.27500508569675858 -0.42792788340523652 0 -0.26610482760730952 -0.4133900898647066 0 -0.25298523514652932 -0.43702750984159111 0 -0.26610482760730952 -0.4133900898647066 0 -0.25298523514652932 -0.43702750984159111 0 -0.25298523514652932 -0.43702750984159111 0 -0.25823473398406083 -0.46259190486934387 0 -0.27139768853026319 -0.45350369328431828 0 -0.25298523514652932 -0.43702750984159111 0 -0.27139768853026319 -0.45350369328431828 0 -0.27028712802556781 -0.44002206955302048 0 -0.25298523514652932 -0.43702750984159111 0 -0.25823473398406083 -0.46259190486934387 0 -0.2398656426857485 -0.46066492981847512 0 -0.27139768853026319 -0.45350369328431828 0 -0.28665438526504589 -0.45880473289459528 0 -0.27499686831673542 -0.4693274569635677 0 -0.25823473398406083 -0.46259190486934387 0 -0.27139768853026319 -0.45350369328431828 0 -0.27499686831673542 -0.4693274569635677 0 -0.27139768853026319 -0.45350369328431828 0 -0.27028712802556781 -0.44002206955302048 0 -0.28620792983366777 -0.44117103379144762 0 -0.28620792983366777 -0.44117103379144762 0 -0.29665932401628559 -0.4519210782245337 0 -0.28665438526504589 -0.45880473289459528 0 -0.28620792983366777 -0.44117103379144762 0 -0.29665932401628559 -0.4519210782245337 0 -0.30286215921622678 -0.44210958888768459 0 -0.27139768853026319 -0.45350369328431828 0 -0.28620792983366777 -0.44117103379144762 0 -0.28665438526504589 -0.45880473289459528 0 -0.29829421210859891 -0.43220714453990322 0 -0.28620792983366777 -0.44117103379144762 0 -0.30286215921622678 -0.44210958888768459 0 -0.28665438526504589 -0.45880473289459528 0 -0.28928475434474438 -0.47221518125428918 0 -0.27499686831673542 -0.4693274569635677 0 -0.28665438526504589 -0.45880473289459528 0 -0.30029558254474148 -0.46389675841394568 0 -0.28928475434474438 -0.47221518125428918 0 -0.29665932401628559 -0.4519210782245337 0 -0.28665438526504589 -0.45880473289459528 0 -0.30029558254474148 -0.46389675841394568 0 -0.29665932401628559 -0.4519210782245337 0 -0.30029558254474148 -0.46389675841394568 0 -0.31044958537109257 -0.45255960714027171 0 -0.31333683559556219 -0.46686726284272168 0 -0.30029558254474148 -0.46389675841394568 0 -0.31044958537109257 -0.45255960714027171 0 -0.31385630152515048 -0.44199725430357722 0 -0.31044958537109257 -0.45255960714027171 0 -0.30286215921622678 -0.44210958888768459 0 -0.31385630152515048 -0.44199725430357722 0 -0.31073004788055869 -0.43167813375356229 0 -0.30286215921622678 -0.44210958888768459 0 -0.29665932401628559 -0.4519210782245337 0 -0.31044958537109257 -0.45255960714027171 0 -0.30286215921622678 -0.44210958888768459 0 -0.32006214434654462 -0.5 0 -0.30503152439861497 -0.48190266549989857 0 -0.29355140103266869 -0.5 0 -0.30029558254474148 -0.46389675841394568 0 -0.30503152439861497 -0.48190266549989857 0 -0.28928475434474438 -0.47221518125428918 0 -0.31333683559556219 -0.46686726284272168 0 -0.30029558254474148 -0.46389675841394568 0 -0.30503152439861497 -0.48190266549989857 0 -0.30503152439861497 -0.48190266549989857 0 -0.28928475434474438 -0.47221518125428918 0 -0.27944541119858413 -0.48714429249943858 0 -0.30503152439861497 -0.48190266549989857 0 -0.29355140103266869 -0.5 0 -0.27944541119858413 -0.48714429249943858 0 -0.26704065771879287 -0.5 0 -0.27944541119858413 -0.48714429249943858 0 -0.26377894750559139 -0.4817410620592058 0 -0.29355140103266869 -0.5 0 -0.26704065771879287 -0.5 0 -0.27944541119858413 -0.48714429249943858 0 -0.27944541119858413 -0.48714429249943858 0 -0.27499686831673542 -0.4693274569635677 0 -0.26377894750559139 -0.4817410620592058 0 -0.28928475434474438 -0.47221518125428918 0 -0.27944541119858413 -0.48714429249943858 0 -0.27499686831673542 -0.4693274569635677 0 -0.25823473398406083 -0.46259190486934387 0 -0.27499686831673542 -0.4693274569635677 0 -0.26377894750559139 -0.4817410620592058 0 -0.25823473398406083 -0.46259190486934387 0 -0.26377894750559139 -0.4817410620592058 0 -0.24769273461092009 -0.47775775457152359 0 -0.26704065771879287 -0.5 0 -0.26377894750559139 -0.4817410620592058 0 -0.24052991440491719 -0.5 0 -0.26377894750559139 -0.4817410620592058 0 -0.24052991440491719 -0.5 0 -0.24769273461092009 -0.47775775457152359 0 -0.24052991440491719 -0.5 0 -0.24769273461092009 -0.47775775457152359 0 -0.2238647917587385 -0.47868470982513422 0 -0.24769273461092009 -0.47775775457152359 0 -0.2238647917587385 -0.47868470982513422 0 -0.2253613830811457 -0.45761053917550981 0 -0.24052991440491719 -0.5 0 -0.2238647917587385 -0.47868470982513422 0 -0.2140191710910414 -0.49999999999999972 0 -0.25298523514652932 -0.43702750984159111 0 -0.23591515519085041 -0.44398209369878189 0 -0.2398656426857485 -0.46066492981847512 0 -0.25298523514652932 -0.43702750984159111 0 -0.2398656426857485 -0.46066492981847512 0 -0.25823473398406083 -0.46259190486934387 0 -0.24769273461092009 -0.47775775457152359 0 -0.2398656426857485 -0.46066492981847512 0 -0.24769273461092009 -0.47775775457152359 0 -0.2398656426857485 -0.46066492981847512 0 -0.2253613830811457 -0.45761053917550981 0 -0.24769273461092009 -0.47775775457152359 0 -0.2253613830811457 -0.45761053917550981 0 -0.2238647917587385 -0.47868470982513422 0 -0.2253613830811457 -0.45761053917550981 0 -0.20999779143719291 -0.46083672605530768 0 -0.23591515519085041 -0.44398209369878189 0 -0.2398656426857485 -0.46066492981847512 0 -0.2253613830811457 -0.45761053917550981 0 -0.23591515519085041 -0.44398209369878189 0 -0.2253613830811457 -0.45761053917550981 0 -0.22549954629610269 -0.43500765649169948 0 -0.2253613830811457 -0.45761053917550981 0 -0.20999779143719291 -0.46083672605530768 0 -0.2030300315513712 -0.43746332377949593 0 -0.2253613830811457 -0.45761053917550981 0 -0.2030300315513712 -0.43746332377949593 0 -0.20999779143719291 -0.46083672605530768 0 -0.19715634076338631 -0.4518064782969281 0 -0.2030300315513712 -0.43746332377949593 0 -0.2253613830811457 -0.45761053917550981 0 -0.2030300315513712 -0.43746332377949593 0 -0.22549954629610269 -0.43500765649169948 0 -0.20999779143719291 -0.46083672605530768 0 -0.19715634076338631 -0.4518064782969281 0 -0.2055877559272139 -0.47590323914846377 0 -0.19715634076338631 -0.4518064782969281 0 -0.2055877559272139 -0.47590323914846377 0 -0.19179305986328829 -0.46711759196808689 0 -0.19715634076338631 -0.4518064782969281 0 -0.2055877559272139 -0.47590323914846377 0 -0.19179305986328829 -0.46711759196808689 0 -0.19715634076338631 -0.4518064782969281 0 -0.184822707974968 -0.45592422963236362 0 -0.19715634076338631 -0.4518064782969281 0 -0.2030300315513712 -0.43746332377949593 0 -0.18872492559955881 -0.42770971744539221 0 -0.19715634076338631 -0.4518064782969281 0 -0.18872492559955881 -0.42770971744539221 0 -0.19715634076338631 -0.4518064782969281 0 -0.1870173619903012 -0.44414077979923022 0 -0.18872492559955881 -0.42770971744539221 0 -0.19715634076338631 -0.4518064782969281 0 -0.184822707974968 -0.45592422963236362 0 -0.1870173619903012 -0.44414077979923022 0 -0.2140191710910414 -0.49999999999999972 0 -0.2055877559272139 -0.47590323914846377 0 -0.2140191710910414 -0.49999999999999972 0 -0.2055877559272139 -0.47590323914846377 0 -0.1915741566131953 -0.48274482478870012 0 -0.2238647917587385 -0.47868470982513422 0 -0.2140191710910414 -0.49999999999999972 0 -0.2055877559272139 -0.47590323914846377 0 -0.2238647917587385 -0.47868470982513422 0 -0.20999779143719291 -0.46083672605530768 0 -0.2055877559272139 -0.47590323914846377 0 -0.19179305986328829 -0.46711759196808689 0 -0.2055877559272139 -0.47590323914846377 0 -0.1915741566131953 -0.48274482478870012 0 -0.19179305986328829 -0.46711759196808689 0 -0.1915741566131953 -0.48274482478870012 0 -0.17982433803767831 -0.46920918797397909 0 -0.2140191710910414 -0.49999999999999972 0 -0.1915741566131953 -0.48274482478870012 0 -0.1841956238768391 -0.5 0 -0.1915741566131953 -0.48274482478870012 0 -0.1841956238768391 -0.5 0 -0.17247084166804699 -0.48396500267038112 0 -0.1841956238768391 -0.5 0 -0.17247084166804699 -0.48396500267038112 0 -0.15437207666263669 -0.50000000000000022 0 -0.15669106487963419 -0.47716915445828201 0 -0.17247084166804699 -0.48396500267038112 0 -0.15437207666263669 -0.50000000000000022 0 -0.15669106487963419 -0.47716915445828201 0 -0.17247084166804699 -0.48396500267038112 0 -0.1680230602922401 -0.4683158249620154 0 -0.17247084166804699 -0.48396500267038112 0 -0.17982433803767831 -0.46920918797397909 0 -0.1680230602922401 -0.4683158249620154 0 -0.1915741566131953 -0.48274482478870012 0 -0.17247084166804699 -0.48396500267038112 0 -0.17982433803767831 -0.46920918797397909 0 -0.19179305986328829 -0.46711759196808689 0 -0.17982433803767831 -0.46920918797397909 0 -0.184822707974968 -0.45592422963236362 0 -0.17982433803767831 -0.46920918797397909 0 -0.184822707974968 -0.45592422963236362 0 -0.17211900377920919 -0.45689747079087062 0 -0.17982433803767831 -0.46920918797397909 0 -0.17211900377920919 -0.45689747079087062 0 -0.1680230602922401 -0.4683158249620154 0 -0.1870173619903012 -0.44414077979923022 0 -0.17843006300647921 -0.44542980211747812 0 -0.1823118302108766 -0.43680876328769058 0 -0.184822707974968 -0.45592422963236362 0 -0.1870173619903012 -0.44414077979923022 0 -0.17843006300647921 -0.44542980211747812 0 -0.17211900377920919 -0.45689747079087062 0 -0.17843006300647921 -0.44542980211747812 0 -0.16919262628862339 -0.44362555979768409 0 -0.184822707974968 -0.45592422963236362 0 -0.17211900377920919 -0.45689747079087062 0 -0.17843006300647921 -0.44542980211747812 0 -0.17843006300647921 -0.44542980211747812 0 -0.16919262628862339 -0.44362555979768409 0 -0.17507497024716731 -0.42995475378866199 0 -0.1590100530966318 -0.45433830891656402 0 -0.148881704538534 -0.44296791951084241 0 -0.1613290413136293 -0.43150746337484569 0 -0.1590100530966318 -0.45433830891656402 0 -0.1613290413136293 -0.43150746337484569 0 -0.16919262628862339 -0.44362555979768409 0 -0.1590100530966318 -0.45433830891656402 0 -0.1613290413136293 -0.43150746337484569 0 -0.17211900377920919 -0.45689747079087062 0 -0.16919262628862339 -0.44362555979768409 0 -0.1590100530966318 -0.45433830891656402 0 -0.15669106487963419 -0.47716915445828201 0 -0.1680230602922401 -0.4683158249620154 0 -0.1590100530966318 -0.45433830891656402 0 -0.15669106487963419 -0.47716915445828201 0 -0.1590100530966318 -0.45433830891656402 0 -0.17211900377920919 -0.45689747079087062 0 -0.1680230602922401 -0.4683158249620154 0 -0.1590100530966318 -0.45433830891656402 0 -0.15669106487963419 -0.47716915445828201 0 -0.1590100530966318 -0.45433830891656402 0 -0.1472923250818238 -0.46077477567243558 0 -0.1590100530966318 -0.45433830891656402 0 -0.1472923250818238 -0.46077477567243558 0 -0.148881704538534 -0.44296791951084241 0 -0.1472923250818238 -0.46077477567243558 0 -0.148881704538534 -0.44296791951084241 0 -0.13194602454298601 -0.43962244526902572 0 -0.13194602454298601 -0.43962244526902572 0 -0.13077987840644981 -0.46069854066347632 0 -0.11615585050415531 -0.45102464773050138 0 -0.1472923250818238 -0.46077477567243558 0 -0.13194602454298601 -0.43962244526902572 0 -0.1472923250818238 -0.46077477567243558 0 -0.13077987840644981 -0.46069854066347632 0 -0.13742439756140509 -0.48004162281001828 0 -0.1472923250818238 -0.46077477567243558 0 -0.13194602454298601 -0.43962244526902572 0 -0.13077987840644981 -0.46069854066347632 0 -0.13742439756140509 -0.48004162281001828 0 -0.12108079434187891 -0.47202921183540031 0 -0.1206292342060253 -0.48641385964910883 0 -0.13077987840644981 -0.46069854066347632 0 -0.13742439756140509 -0.48004162281001828 0 -0.12108079434187891 -0.47202921183540031 0 -0.13742439756140509 -0.48004162281001828 0 -0.131118449396015 -0.5 0 -0.1206292342060253 -0.48641385964910883 0 -0.15669106487963419 -0.47716915445828201 0 -0.13742439756140509 -0.48004162281001828 0 -0.15437207666263669 -0.50000000000000022 0 -0.15669106487963419 -0.47716915445828201 0 -0.15437207666263669 -0.50000000000000022 0 -0.13742439756140509 -0.48004162281001828 0 -0.131118449396015 -0.5 0 -0.15437207666263669 -0.50000000000000022 0 -0.15669106487963419 -0.47716915445828201 0 -0.1472923250818238 -0.46077477567243558 0 -0.13742439756140509 -0.48004162281001828 0 -0.13678826443221431 -0.39755243580027871 0 -0.14931675495270949 -0.41057852288770358 0 -0.15761740849691311 -0.38818340141201402 0 -0.1369224961495438 -0.38192389563367207 0 -0.13678826443221431 -0.39755243580027871 0 -0.15761740849691311 -0.38818340141201402 0 -0.1369224961495438 -0.38192389563367207 0 -0.15761740849691311 -0.38818340141201402 0 -0.148308101659717 -0.36695316985008092 0 -0.1369224961495438 -0.38192389563367207 0 -0.12526638733901391 -0.39147447277512609 0 -0.13678826443221431 -0.39755243580027871 0 -0.1369224961495438 -0.38192389563367207 0 -0.1303219987982592 -0.3665496015062627 0 -0.12201267174342199 -0.37938718301114999 0 -0.1369224961495438 -0.38192389563367207 0 -0.12526638733901391 -0.39147447277512609 0 -0.12201267174342199 -0.37938718301114999 0 -0.12526638733901391 -0.39147447277512609 0 -0.13678826443221431 -0.39755243580027871 0 -0.12592730430259419 -0.40432488328170318 0 -0.13678826443221431 -0.39755243580027871 0 -0.12592730430259419 -0.40432488328170318 0 -0.1345256340888337 -0.41538851269275129 0 -0.13678826443221431 -0.39755243580027871 0 -0.1345256340888337 -0.41538851269275129 0 -0.14931675495270949 -0.41057852288770358 0 -0.12592730430259419 -0.40432488328170318 0 -0.1345256340888337 -0.41538851269275129 0 -0.1165997240041481 -0.41847011486561592 0 -0.13194602454298601 -0.43962244526902572 0 -0.1345256340888337 -0.41538851269275129 0 -0.14483107865759889 -0.42859660432134139 0 -0.13194602454298601 -0.43962244526902572 0 -0.1345256340888337 -0.41538851269275129 0 -0.1165997240041481 -0.41847011486561592 0 -0.148881704538534 -0.44296791951084241 0 -0.14483107865759889 -0.42859660432134139 0 -0.1613290413136293 -0.43150746337484569 0 -0.148881704538534 -0.44296791951084241 0 -0.13194602454298601 -0.43962244526902572 0 -0.14483107865759889 -0.42859660432134139 0 -0.14483107865759889 -0.42859660432134139 0 -0.14931675495270949 -0.41057852288770358 0 -0.1613290413136293 -0.43150746337484569 0 -0.1345256340888337 -0.41538851269275129 0 -0.14483107865759889 -0.42859660432134139 0 -0.14931675495270949 -0.41057852288770358 0 -0.16364802953062679 -0.40867661783312748 0 -0.1613290413136293 -0.43150746337484569 0 -0.14931675495270949 -0.41057852288770358 0 -0.16364802953062679 -0.40867661783312748 0 -0.1613290413136293 -0.43150746337484569 0 -0.16364802953062679 -0.40867661783312748 0 -0.1613290413136293 -0.43150746337484569 0 -0.17507497024716731 -0.42995475378866199 0 -0.16919262628862339 -0.44362555979768409 0 -0.1613290413136293 -0.43150746337484569 0 -0.17507497024716731 -0.42995475378866199 0 -0.1870173619903012 -0.44414077979923022 0 -0.1823118302108766 -0.43680876328769058 0 -0.18872492559955881 -0.42770971744539221 0 -0.17843006300647921 -0.44542980211747812 0 -0.17507497024716731 -0.42995475378866199 0 -0.1823118302108766 -0.43680876328769058 0 -0.17507497024716731 -0.42995475378866199 0 -0.1806986800215967 -0.4173161083834821 0 -0.18872492559955881 -0.42770971744539221 0 -0.17507497024716731 -0.42995475378866199 0 -0.1823118302108766 -0.43680876328769058 0 -0.18872492559955881 -0.42770971744539221 0 -0.1806986800215967 -0.4173161083834821 0 -0.18228064084688081 -0.39610998094782668 0 -0.19209360216251761 -0.40824625574224149 0 -0.16364802953062679 -0.40867661783312748 0 -0.17507497024716731 -0.42995475378866199 0 -0.1806986800215967 -0.4173161083834821 0 -0.16364802953062679 -0.40867661783312748 0 -0.1806986800215967 -0.4173161083834821 0 -0.18228064084688081 -0.39610998094782668 0 -0.16364802953062679 -0.40867661783312748 0 -0.18228064084688081 -0.39610998094782668 0 -0.15761740849691311 -0.38818340141201402 0 -0.14931675495270949 -0.41057852288770358 0 -0.16364802953062679 -0.40867661783312748 0 -0.15761740849691311 -0.38818340141201402 0 -0.15761740849691311 -0.38818340141201402 0 -0.183603859264966 -0.3766054584014627 0 -0.1661931572416451 -0.36889933283976362 0 -0.18228064084688081 -0.39610998094782668 0 -0.15761740849691311 -0.38818340141201402 0 -0.183603859264966 -0.3766054584014627 0 -0.18228064084688081 -0.39610998094782668 0 -0.183603859264966 -0.3766054584014627 0 -0.20216487974800659 -0.3829991661375407 0 -0.18228064084688081 -0.39610998094782668 0 -0.20343785588976751 -0.39944649130885712 0 -0.19209360216251761 -0.40824625574224149 0 -0.18228064084688081 -0.39610998094782668 0 -0.20216487974800659 -0.3829991661375407 0 -0.20343785588976751 -0.39944649130885712 0 -0.20343785588976751 -0.39944649130885712 0 -0.21350444502423929 -0.40864471589815532 0 -0.22035180610084079 -0.39356726900625483 0 -0.20216487974800659 -0.3829991661375407 0 -0.20343785588976751 -0.39944649130885712 0 -0.22035180610084079 -0.39356726900625483 0 -0.20216487974800659 -0.3829991661375407 0 -0.22035180610084079 -0.39356726900625483 0 -0.219169022554425 -0.37113875127287832 0 -0.1806986800215967 -0.4173161083834821 0 -0.2030300315513712 -0.43746332377949593 0 -0.18872492559955881 -0.42770971744539221 0 -0.1806986800215967 -0.4173161083834821 0 -0.2030300315513712 -0.43746332377949593 0 -0.2030300315513712 -0.43746332377949593 0 -0.19369636752838881 -0.41903658901391427 0 -0.2031687955665597 -0.42354741618771741 0 -0.1806986800215967 -0.4173161083834821 0 -0.2030300315513712 -0.43746332377949593 0 -0.19369636752838881 -0.41903658901391427 0 -0.19369636752838881 -0.41903658901391427 0 -0.20299923128825029 -0.41376529568937459 0 -0.2031687955665597 -0.42354741618771741 0 -0.1806986800215967 -0.4173161083834821 0 -0.19369636752838881 -0.41903658901391427 0 -0.19209360216251761 -0.40824625574224149 0 -0.19369636752838881 -0.41903658901391427 0 -0.19209360216251761 -0.40824625574224149 0 -0.20299923128825029 -0.41376529568937459 0 -0.20343785588976751 -0.39944649130885712 0 -0.19209360216251761 -0.40824625574224149 0 -0.20299923128825029 -0.41376529568937459 0 -0.20343785588976751 -0.39944649130885712 0 -0.20299923128825029 -0.41376529568937459 0 -0.21350444502423929 -0.40864471589815532 0 -0.21350444502423929 -0.40864471589815532 0 -0.21294955189822859 -0.42392445626808489 0 -0.2277837799441092 -0.41252006721820539 0 -0.20299923128825029 -0.41376529568937459 0 -0.2031687955665597 -0.42354741618771741 0 -0.21294955189822859 -0.42392445626808489 0 -0.20299923128825029 -0.41376529568937459 0 -0.21350444502423929 -0.40864471589815532 0 -0.21294955189822859 -0.42392445626808489 0 -0.2030300315513712 -0.43746332377949593 0 -0.21294955189822859 -0.42392445626808489 0 -0.22549954629610269 -0.43500765649169948 0 -0.2030300315513712 -0.43746332377949593 0 -0.2031687955665597 -0.42354741618771741 0 -0.21294955189822859 -0.42392445626808489 0 -0.23591515519085041 -0.44398209369878189 0 -0.22549954629610269 -0.43500765649169948 0 -0.23735783041644329 -0.42609093398936743 0 -0.22549954629610269 -0.43500765649169948 0 -0.2277837799441092 -0.41252006721820539 0 -0.23735783041644329 -0.42609093398936743 0 -0.21294955189822859 -0.42392445626808489 0 -0.22549954629610269 -0.43500765649169948 0 -0.2277837799441092 -0.41252006721820539 0 -0.2277837799441092 -0.41252006721820539 0 -0.24694430377570939 -0.41295507854145541 0 -0.2277837799441092 -0.41252006721820539 0 -0.24694430377570939 -0.41295507854145541 0 -0.23735783041644329 -0.42609093398936743 0 -0.2277837799441092 -0.41252006721820539 0 -0.24694430377570939 -0.41295507854145541 0 -0.2359891007147569 -0.39914414181493052 0 -0.25298523514652932 -0.43702750984159111 0 -0.24694430377570939 -0.41295507854145541 0 -0.23735783041644329 -0.42609093398936743 0 -0.25298523514652932 -0.43702750984159111 0 -0.23591515519085041 -0.44398209369878189 0 -0.23735783041644329 -0.42609093398936743 0 -0.22035180610084079 -0.39356726900625483 0 -0.23802591309349369 -0.38358476956933441 0 -0.219169022554425 -0.37113875127287832 0 -0.22035180610084079 -0.39356726900625483 0 -0.2359891007147569 -0.39914414181493052 0 -0.23802591309349369 -0.38358476956933441 0 -0.21350444502423929 -0.40864471589815532 0 -0.2277837799441092 -0.41252006721820539 0 -0.22035180610084079 -0.39356726900625483 0 -0.2277837799441092 -0.41252006721820539 0 -0.22035180610084079 -0.39356726900625483 0 -0.2359891007147569 -0.39914414181493052 0 -0.2359891007147569 -0.39914414181493052 0 -0.2487824818667288 -0.3954643368039899 0 -0.23802591309349369 -0.38358476956933441 0 -0.24694430377570939 -0.41295507854145541 0 -0.2359891007147569 -0.39914414181493052 0 -0.2487824818667288 -0.3954643368039899 0 -0.26050234447883253 -0.38027693877573482 0 -0.2487824818667288 -0.3954643368039899 0 -0.23802591309349369 -0.38358476956933441 0 -0.26050234447883253 -0.38027693877573482 0 -0.23802591309349369 -0.38358476956933441 0 -0.24817767477162081 -0.36986654917455902 0 -0.23802591309349369 -0.38358476956933441 0 -0.24817767477162081 -0.36986654917455902 0 -0.23583729862822109 -0.36574384613307409 0 -0.24817767477162081 -0.36986654917455902 0 -0.23583729862822109 -0.36574384613307409 0 -0.24850069890613241 -0.35473287875334369 0 -0.23583729862822109 -0.36574384613307409 0 -0.219169022554425 -0.37113875127287832 0 -0.22531318381543361 -0.34939628189525529 0 -0.23802591309349369 -0.38358476956933441 0 -0.23583729862822109 -0.36574384613307409 0 -0.219169022554425 -0.37113875127287832 0 -0.22531318381543361 -0.34939628189525529 0 -0.24850069890613241 -0.35473287875334369 0 -0.24219101746094579 -0.34438554910399921 0 -0.23583729862822109 -0.36574384613307409 0 -0.22531318381543361 -0.34939628189525529 0 -0.24850069890613241 -0.35473287875334369 0 -0.22531318381543361 -0.34939628189525529 0 -0.24850069890613241 -0.35473287875334369 0 -0.25445926970156468 -0.34270101061729968 0 -0.24850069890613241 -0.35473287875334369 0 -0.24219101746094579 -0.34438554910399921 0 -0.25445926970156468 -0.34270101061729968 0 -0.24219101746094579 -0.34438554910399921 0 -0.2460450098649074 -0.33743905859998191 0 -0.25207330520806498 -0.33378255792528982 0 -0.2460450098649074 -0.33743905859998191 0 -0.24306356592407591 -0.32787829483024122 0 -0.2348359590034956 -0.33686915078515089 0 -0.24306356592407591 -0.32787829483024122 0 -0.23163603200856511 -0.32708080208212859 0 -0.2460450098649074 -0.33743905859998191 0 -0.2348359590034956 -0.33686915078515089 0 -0.24306356592407591 -0.32787829483024122 0 -0.24219101746094579 -0.34438554910399921 0 -0.2460450098649074 -0.33743905859998191 0 -0.2348359590034956 -0.33686915078515089 0 -0.25273748935779161 -0.32224337373924072 0 -0.24326482791746179 -0.31394285089519419 0 -0.24426682308287331 -0.30533572025667649 0 -0.25273748935779161 -0.32224337373924072 0 -0.24426682308287331 -0.30533572025667649 0 -0.25273748935779161 -0.32224337373924072 0 -0.24326482791746179 -0.31394285089519419 0 -0.2440208243134171 -0.32058552998791068 0 -0.25273748935779161 -0.32224337373924072 0 -0.24306356592407591 -0.32787829483024122 0 -0.2440208243134171 -0.32058552998791068 0 -0.25207330520806498 -0.33378255792528982 0 -0.25273748935779161 -0.32224337373924072 0 -0.24306356592407591 -0.32787829483024122 0 -0.24306356592407591 -0.32787829483024122 0 -0.2440208243134171 -0.32058552998791068 0 -0.23701741405433899 -0.31827760048696663 0 -0.24306356592407591 -0.32787829483024122 0 -0.23701741405433899 -0.31827760048696663 0 -0.23163603200856511 -0.32708080208212859 0 -0.24326482791746179 -0.31394285089519419 0 -0.23701741405433899 -0.31827760048696663 0 -0.2384772558931193 -0.30928307653082621 0 -0.24326482791746179 -0.31394285089519419 0 -0.2440208243134171 -0.32058552998791068 0 -0.23701741405433899 -0.31827760048696663 0 -0.22244826701882919 -0.32070202864358233 0 -0.22802593536356699 -0.30882837184141948 0 -0.21110805984082151 -0.30983785689108939 0 -0.23701741405433899 -0.31827760048696663 0 -0.22244826701882919 -0.32070202864358233 0 -0.22802593536356699 -0.30882837184141948 0 -0.23701741405433899 -0.31827760048696663 0 -0.23163603200856511 -0.32708080208212859 0 -0.22244826701882919 -0.32070202864358233 0 -0.23163603200856511 -0.32708080208212859 0 -0.22244826701882919 -0.32070202864358233 0 -0.22079431421521131 -0.33353493235345111 0 -0.22531318381543361 -0.34939628189525529 0 -0.2348359590034956 -0.33686915078515089 0 -0.22079431421521131 -0.33353493235345111 0 -0.22531318381543361 -0.34939628189525529 0 -0.24219101746094579 -0.34438554910399921 0 -0.2348359590034956 -0.33686915078515089 0 -0.2348359590034956 -0.33686915078515089 0 -0.23163603200856511 -0.32708080208212859 0 -0.22079431421521131 -0.33353493235345111 0 -0.22079431421521131 -0.33353493235345111 0 -0.20839645480677241 -0.32403064402179738 0 -0.20212566872473489 -0.34405968503716688 0 -0.22531318381543361 -0.34939628189525529 0 -0.22079431421521131 -0.33353493235345111 0 -0.20212566872473489 -0.34405968503716688 0 -0.22244826701882919 -0.32070202864358233 0 -0.20839645480677241 -0.32403064402179738 0 -0.21110805984082151 -0.30983785689108939 0 -0.22244826701882919 -0.32070202864358233 0 -0.22079431421521131 -0.33353493235345111 0 -0.20839645480677241 -0.32403064402179738 0 -0.20839645480677241 -0.32403064402179738 0 -0.19575919956014079 -0.31702437624003538 0 -0.21110805984082151 -0.30983785689108939 0 -0.20839645480677241 -0.32403064402179738 0 -0.19575919956014079 -0.31702437624003538 0 -0.19562896033857519 -0.33020038185646122 0 -0.19575919956014079 -0.31702437624003538 0 -0.19562896033857519 -0.33020038185646122 0 -0.18477851095256179 -0.32477614194451959 0 -0.20212566872473489 -0.34405968503716688 0 -0.1789381536340362 -0.33872308817907848 0 -0.19562896033857519 -0.33020038185646122 0 -0.20212566872473489 -0.34405968503716688 0 -0.1789381536340362 -0.33872308817907848 0 -0.20839645480677241 -0.32403064402179738 0 -0.19562896033857519 -0.33020038185646122 0 -0.20212566872473489 -0.34405968503716688 0 -0.20212566872473489 -0.34405968503716688 0 -0.2037839996862793 -0.36234410805543599 0 -0.1863350517553729 -0.35962674217565882 0 -0.20212566872473489 -0.34405968503716688 0 -0.1863350517553729 -0.35962674217565882 0 -0.1789381536340362 -0.33872308817907848 0 -0.183603859264966 -0.3766054584014627 0 -0.20216487974800659 -0.3829991661375407 0 -0.2037839996862793 -0.36234410805543599 0 -0.183603859264966 -0.3766054584014627 0 -0.2037839996862793 -0.36234410805543599 0 -0.1863350517553729 -0.35962674217565882 0 -0.219169022554425 -0.37113875127287832 0 -0.22531318381543361 -0.34939628189525529 0 -0.2037839996862793 -0.36234410805543599 0 -0.20216487974800659 -0.3829991661375407 0 -0.219169022554425 -0.37113875127287832 0 -0.2037839996862793 -0.36234410805543599 0 -0.22531318381543361 -0.34939628189525529 0 -0.20212566872473489 -0.34405968503716688 0 -0.2037839996862793 -0.36234410805543599 0 -0.22531318381543361 -0.34939628189525529 0 -0.20212566872473489 -0.34405968503716688 0 -0.24465976002352091 -0.25387891845332877 0 -0.23199225124923151 -0.26692477658714647 0 -0.21854221021918649 -0.25236034283526498 0 -0.23199225124923151 -0.26692477658714647 0 -0.21864709985809599 -0.27150291036173302 0 -0.21854221021918649 -0.25236034283526498 0 -0.24465976002352091 -0.25387891845332877 0 -0.2444485511135471 -0.27534046621033159 0 -0.23199225124923151 -0.26692477658714647 0 -0.25958550566062261 -0.27102626557679149 0 -0.24465976002352091 -0.25387891845332877 0 -0.2444485511135471 -0.27534046621033159 0 -0.2444485511135471 -0.27534046621033159 0 -0.23199225124923151 -0.26692477658714647 0 -0.23366363503180709 -0.28154124507507411 0 -0.2197277065850177 -0.2872169177591285 0 -0.23366363503180709 -0.28154124507507411 0 -0.21864709985809599 -0.27150291036173302 0 -0.23199225124923151 -0.26692477658714647 0 -0.23366363503180709 -0.28154124507507411 0 -0.21864709985809599 -0.27150291036173302 0 -0.2197277065850177 -0.2872169177591285 0 -0.23366363503180709 -0.28154124507507411 0 -0.24011613505684479 -0.30107681213347393 0 -0.2197277065850177 -0.2872169177591285 0 -0.24011613505684479 -0.30107681213347393 0 -0.2197277065850177 -0.2872169177591285 0 -0.24011613505684479 -0.30107681213347393 0 -0.2201073871300871 -0.30044142834658671 0 -0.2444485511135471 -0.27534046621033159 0 -0.23366363503180709 -0.28154124507507411 0 -0.24732420154209239 -0.29033586459568173 0 -0.23366363503180709 -0.28154124507507411 0 -0.24732420154209239 -0.29033586459568173 0 -0.24011613505684479 -0.30107681213347393 0 -0.25608276685525683 -0.28295324223861612 0 -0.2444485511135471 -0.27534046621033159 0 -0.24732420154209239 -0.29033586459568173 0 -0.26050456352867191 -0.3149367065078193 0 -0.24011613505684479 -0.30107681213347393 0 -0.24426682308287331 -0.30533572025667649 0 -0.25485564421046719 -0.30132045870319019 0 -0.24732420154209239 -0.29033586459568173 0 -0.24011613505684479 -0.30107681213347393 0 -0.24011613505684479 -0.30107681213347393 0 -0.2384772558931193 -0.30928307653082621 0 -0.22802593536356699 -0.30882837184141948 0 -0.24326482791746179 -0.31394285089519419 0 -0.24426682308287331 -0.30533572025667649 0 -0.2384772558931193 -0.30928307653082621 0 -0.24011613505684479 -0.30107681213347393 0 -0.24426682308287331 -0.30533572025667649 0 -0.2384772558931193 -0.30928307653082621 0 -0.23701741405433899 -0.31827760048696663 0 -0.2384772558931193 -0.30928307653082621 0 -0.22802593536356699 -0.30882837184141948 0 -0.22802593536356699 -0.30882837184141948 0 -0.2201073871300871 -0.30044142834658671 0 -0.21110805984082151 -0.30983785689108939 0 -0.24011613505684479 -0.30107681213347393 0 -0.22802593536356699 -0.30882837184141948 0 -0.2201073871300871 -0.30044142834658671 0 -0.2201073871300871 -0.30044142834658671 0 -0.21110805984082151 -0.30983785689108939 0 -0.20155909880418441 -0.29524718310782239 0 -0.21110805984082151 -0.30983785689108939 0 -0.2000775247532616 -0.30687463122530689 0 -0.20155909880418441 -0.29524718310782239 0 -0.19575919956014079 -0.31702437624003538 0 -0.21110805984082151 -0.30983785689108939 0 -0.2000775247532616 -0.30687463122530689 0 -0.18961770926909149 -0.30481471110084102 0 -0.20155909880418441 -0.29524718310782239 0 -0.1798976030385912 -0.29461474791537873 0 -0.19575919956014079 -0.31702437624003538 0 -0.2000775247532616 -0.30687463122530689 0 -0.18961770926909149 -0.30481471110084102 0 -0.19575919956014079 -0.31702437624003538 0 -0.18961770926909149 -0.30481471110084102 0 -0.1803928959391416 -0.31521744924658562 0 -0.2000775247532616 -0.30687463122530689 0 -0.18961770926909149 -0.30481471110084102 0 -0.20155909880418441 -0.29524718310782239 0 -0.19933927811319041 -0.27335702338478318 0 -0.1798976030385912 -0.29461474791537873 0 -0.20155909880418441 -0.29524718310782239 0 -0.19933927811319041 -0.27335702338478318 0 -0.1798976030385912 -0.29461474791537873 0 -0.2197277065850177 -0.2872169177591285 0 -0.20155909880418441 -0.29524718310782239 0 -0.19933927811319041 -0.27335702338478318 0 -0.2197277065850177 -0.2872169177591285 0 -0.2201073871300871 -0.30044142834658671 0 -0.20155909880418441 -0.29524718310782239 0 -0.21864709985809599 -0.27150291036173302 0 -0.19933927811319041 -0.27335702338478318 0 -0.21854221021918649 -0.25236034283526498 0 -0.2197277065850177 -0.2872169177591285 0 -0.21864709985809599 -0.27150291036173302 0 -0.19933927811319041 -0.27335702338478318 0 -0.2197277065850177 -0.2872169177591285 0 -0.19933927811319041 -0.27335702338478318 0 -0.19672455084482071 -0.27157955221738023 0 -0.19563648814007639 -0.2627950405098789 0 -0.1773613401945949 -0.28300380337564962 0 -0.19672455084482071 -0.27157955221738023 0 -0.19933927811319041 -0.27335702338478318 0 -0.1773613401945949 -0.28300380337564962 0 -0.19672455084482071 -0.27157955221738023 0 -0.19933927811319041 -0.27335702338478318 0 -0.19563648814007639 -0.2627950405098789 0 -0.19672455084482071 -0.27157955221738023 0 -0.19933927811319041 -0.27335702338478318 0 -0.19933927811319041 -0.27335702338478318 0 -0.19563648814007639 -0.2627950405098789 0 -0.2024770003035091 -0.25628481747185139 0 -0.19563648814007639 -0.2627950405098789 0 -0.19160736129165659 -0.25262396586623759 0 -0.18182513936558051 -0.25739227955256888 0 -0.19563648814007639 -0.2627950405098789 0 -0.19160736129165659 -0.25262396586623759 0 -0.2024770003035091 -0.25628481747185139 0 -0.19160736129165659 -0.25262396586623759 0 -0.2024770003035091 -0.25628481747185139 0 -0.19988453840298659 -0.24176205441804 0 -0.19933927811319041 -0.27335702338478318 0 -0.2024770003035091 -0.25628481747185139 0 -0.21854221021918649 -0.25236034283526498 0 -0.2024770003035091 -0.25628481747185139 0 -0.21854221021918649 -0.25236034283526498 0 -0.19988453840298659 -0.24176205441804 0 -0.19933927811319041 -0.27335702338478318 0 -0.21854221021918649 -0.25236034283526498 0 -0.16270034237907721 -0.26451024010365409 0 -0.1689202540561075 -0.25519621835756329 0 -0.15263230708737521 -0.24356194903458239 0 -0.16270034237907721 -0.26451024010365409 0 -0.15585924966824549 -0.27338725763800159 0 -0.15263230708737521 -0.24356194903458239 0 -0.16270034237907721 -0.26451024010365409 0 -0.1689202540561075 -0.25519621835756329 0 -0.17291740387759841 -0.2648938158906885 0 -0.1689202540561075 -0.25519621835756329 0 -0.18182513936558051 -0.25739227955256888 0 -0.1745260775709061 -0.24562280720632229 0 -0.19160736129165659 -0.25262396586623759 0 -0.18182513936558051 -0.25739227955256888 0 -0.1745260775709061 -0.24562280720632229 0 -0.19563648814007639 -0.2627950405098789 0 -0.18182513936558051 -0.25739227955256888 0 -0.18269465011250469 -0.26841637399603913 0 -0.1689202540561075 -0.25519621835756329 0 -0.18182513936558051 -0.25739227955256888 0 -0.17291740387759841 -0.2648938158906885 0 -0.18182513936558051 -0.25739227955256888 0 -0.17291740387759841 -0.2648938158906885 0 -0.18269465011250469 -0.26841637399603913 0 -0.19563648814007639 -0.2627950405098789 0 -0.18269465011250469 -0.26841637399603913 0 -0.1773613401945949 -0.28300380337564962 0 -0.17291740387759841 -0.2648938158906885 0 -0.17526212336935321 -0.27297056277525461 0 -0.1680750992927145 -0.27556825783864097 0 -0.19563648814007639 -0.2627950405098789 0 -0.1773613401945949 -0.28300380337564962 0 -0.17291740387759841 -0.2648938158906885 0 -0.17526212336935321 -0.27297056277525461 0 -0.18269465011250469 -0.26841637399603913 0 -0.17526212336935321 -0.27297056277525461 0 -0.18269465011250469 -0.26841637399603913 0 -0.1773613401945949 -0.28300380337564962 0 -0.17526212336935321 -0.27297056277525461 0 -0.1680750992927145 -0.27556825783864097 0 -0.1773613401945949 -0.28300380337564962 0 -0.1680750992927145 -0.27556825783864097 0 -0.1682011228878135 -0.28257539269247411 0 -0.1773613401945949 -0.28300380337564962 0 -0.1680750992927145 -0.27556825783864097 0 -0.1622412594804854 -0.28273310688964581 0 -0.1682011228878135 -0.28257539269247411 0 -0.16270034237907721 -0.26451024010365409 0 -0.17291740387759841 -0.2648938158906885 0 -0.1680750992927145 -0.27556825783864097 0 -0.16270034237907721 -0.26451024010365409 0 -0.1680750992927145 -0.27556825783864097 0 -0.16179622859894191 -0.27503335760685149 0 -0.16270034237907721 -0.26451024010365409 0 -0.16179622859894191 -0.27503335760685149 0 -0.15585924966824549 -0.27338725763800159 0 -0.16179622859894191 -0.27503335760685149 0 -0.1622412594804854 -0.28273310688964581 0 -0.15585924966824549 -0.27338725763800159 0 -0.1680750992927145 -0.27556825783864097 0 -0.16179622859894191 -0.27503335760685149 0 -0.1622412594804854 -0.28273310688964581 0 -0.1622412594804854 -0.28273310688964581 0 -0.16512679258345911 -0.28899640266596011 0 -0.15908619224911419 -0.30321256624142101 0 -0.1622412594804854 -0.28273310688964581 0 -0.15908619224911419 -0.30321256624142101 0 -0.15585924966824549 -0.27338725763800159 0 -0.15908619224911419 -0.30321256624142101 0 -0.15585924966824549 -0.27338725763800159 0 -0.16512679258345911 -0.28899640266596011 0 -0.1773613401945949 -0.28300380337564962 0 -0.15908619224911419 -0.30321256624142101 0 -0.1773613401945949 -0.28300380337564962 0 -0.15908619224911419 -0.30321256624142101 0 -0.16512679258345911 -0.28899640266596011 0 -0.1682011228878135 -0.28257539269247411 0 -0.1773613401945949 -0.28300380337564962 0 -0.1622412594804854 -0.28273310688964581 0 -0.16512679258345911 -0.28899640266596011 0 -0.1682011228878135 -0.28257539269247411 0 -0.1773613401945949 -0.28300380337564962 0 -0.1798976030385912 -0.29461474791537873 0 -0.15908619224911419 -0.30321256624142101 0 -0.19933927811319041 -0.27335702338478318 0 -0.1773613401945949 -0.28300380337564962 0 -0.1798976030385912 -0.29461474791537873 0 -0.1798976030385912 -0.29461474791537873 0 -0.17759103405270391 -0.30762984517719472 0 -0.16045592796399111 -0.3158724724459735 0 -0.18961770926909149 -0.30481471110084102 0 -0.1798976030385912 -0.29461474791537873 0 -0.17759103405270391 -0.30762984517719472 0 -0.18961770926909149 -0.30481471110084102 0 -0.17759103405270391 -0.30762984517719472 0 -0.1803928959391416 -0.31521744924658562 0 -0.1798976030385912 -0.29461474791537873 0 -0.16045592796399111 -0.3158724724459735 0 -0.1798976030385912 -0.29461474791537873 0 -0.15908619224911419 -0.30321256624142101 0 -0.16045592796399111 -0.3158724724459735 0 -0.15908619224911419 -0.30321256624142101 0 -0.16045592796399111 -0.3158724724459735 0 -0.1471380549162328 -0.30532142906175452 0 -0.14032160831301491 -0.30752887986621158 0 -0.14130665940473261 -0.32287327510069419 0 -0.15908619224911419 -0.30321256624142101 0 -0.1471380549162328 -0.30532142906175452 0 -0.14130665940473261 -0.32287327510069419 0 -0.15908619224911419 -0.30321256624142101 0 -0.1471380549162328 -0.30532142906175452 0 -0.1510678287434867 -0.29559461902651829 0 -0.14390798587081549 -0.29739780507392732 0 -0.1471380549162328 -0.30532142906175452 0 -0.1510678287434867 -0.29559461902651829 0 -0.14390798587081549 -0.29739780507392732 0 -0.1471380549162328 -0.30532142906175452 0 -0.14032160831301491 -0.30752887986621158 0 -0.14032160831301491 -0.30752887986621158 0 -0.13439128381467691 -0.29991683468539793 0 -0.13033731665847181 -0.31286393971371201 0 -0.13439128381467691 -0.29991683468539793 0 -0.13033731665847181 -0.31286393971371201 0 -0.12304085188452731 -0.29931348820209958 0 -0.14390798587081549 -0.29739780507392732 0 -0.14032160831301491 -0.30752887986621158 0 -0.13439128381467691 -0.29991683468539793 0 -0.14390798587081549 -0.29739780507392732 0 -0.13439128381467691 -0.29991683468539793 0 -0.14011095662501261 -0.28947786809128212 0 -0.13439128381467691 -0.29991683468539793 0 -0.14011095662501261 -0.28947786809128212 0 -0.12994370463312691 -0.28995419054763111 0 -0.13439128381467691 -0.29991683468539793 0 -0.12994370463312691 -0.28995419054763111 0 -0.12304085188452731 -0.29931348820209958 0 -0.12994370463312691 -0.28995419054763111 0 -0.13687965345326569 -0.27993872332247433 0 -0.1257911728949061 -0.280427018304516 0 -0.12994370463312691 -0.28995419054763111 0 -0.1257911728949061 -0.280427018304516 0 -0.1194571486541455 -0.28746452468861589 0 -0.14011095662501261 -0.28947786809128212 0 -0.12994370463312691 -0.28995419054763111 0 -0.13687965345326569 -0.27993872332247433 0 -0.15908619224911419 -0.30321256624142101 0 -0.15162645984294551 -0.28670064183700439 0 -0.15585924966824549 -0.27338725763800159 0 -0.14011095662501261 -0.28947786809128212 0 -0.1458827091329962 -0.28225219708249882 0 -0.13687965345326569 -0.27993872332247433 0 -0.15908619224911419 -0.30321256624142101 0 -0.1510678287434867 -0.29559461902651829 0 -0.15162645984294551 -0.28670064183700439 0 -0.1458827091329962 -0.28225219708249882 0 -0.1468811506158991 -0.28912565090950809 0 -0.15162645984294551 -0.28670064183700439 0 -0.14011095662501261 -0.28947786809128212 0 -0.1458827091329962 -0.28225219708249882 0 -0.1468811506158991 -0.28912565090950809 0 -0.14390798587081549 -0.29739780507392732 0 -0.1468811506158991 -0.28912565090950809 0 -0.1510678287434867 -0.29559461902651829 0 -0.14390798587081549 -0.29739780507392732 0 -0.14011095662501261 -0.28947786809128212 0 -0.1468811506158991 -0.28912565090950809 0 -0.1468811506158991 -0.28912565090950809 0 -0.1510678287434867 -0.29559461902651829 0 -0.15162645984294551 -0.28670064183700439 0 -0.1458827091329962 -0.28225219708249882 0 -0.15162645984294551 -0.28670064183700439 0 -0.15098162864793119 -0.27663156012407891 0 -0.15162645984294551 -0.28670064183700439 0 -0.15098162864793119 -0.27663156012407891 0 -0.15585924966824549 -0.27338725763800159 0 -0.15098162864793119 -0.27663156012407891 0 -0.1522527558101047 -0.27366235468835692 0 -0.14903370440966179 -0.27344637702894548 0 -0.15098162864793119 -0.27663156012407891 0 -0.1522527558101047 -0.27366235468835692 0 -0.15585924966824549 -0.27338725763800159 0 -0.14903370440966179 -0.27344637702894548 0 -0.1531364405145805 -0.27118422396240138 0 -0.14385763015454139 -0.26954128824380802 0 -0.1522527558101047 -0.27366235468835692 0 -0.15585924966824549 -0.27338725763800159 0 -0.1531364405145805 -0.27118422396240138 0 -0.1522527558101047 -0.27366235468835692 0 -0.14903370440966179 -0.27344637702894548 0 -0.1531364405145805 -0.27118422396240138 0 -0.14903370440966179 -0.27344637702894548 0 -0.14385763015454139 -0.26954128824380802 0 -0.1442805510697899 -0.27562940435382949 0 -0.14385763015454139 -0.26954128824380802 0 -0.1442805510697899 -0.27562940435382949 0 -0.13835653564694769 -0.27242798417408381 0 -0.1458827091329962 -0.28225219708249882 0 -0.1442805510697899 -0.27562940435382949 0 -0.13687965345326569 -0.27993872332247433 0 -0.15098162864793119 -0.27663156012407891 0 -0.14903370440966179 -0.27344637702894548 0 -0.1442805510697899 -0.27562940435382949 0 -0.1458827091329962 -0.28225219708249882 0 -0.15098162864793119 -0.27663156012407891 0 -0.1442805510697899 -0.27562940435382949 0 -0.13687965345326569 -0.27993872332247433 0 -0.12970248462840331 -0.2717774759070859 0 -0.13835653564694769 -0.27242798417408381 0 -0.1442805510697899 -0.27562940435382949 0 -0.13687965345326569 -0.27993872332247433 0 -0.13835653564694769 -0.27242798417408381 0 -0.13687965345326569 -0.27993872332247433 0 -0.1257911728949061 -0.280427018304516 0 -0.12970248462840331 -0.2717774759070859 0 -0.12970248462840331 -0.2717774759070859 0 -0.13570208279224111 -0.26528350045903498 0 -0.12855037573501921 -0.26115248962005239 0 -0.14385763015454139 -0.26954128824380802 0 -0.13835653564694769 -0.27242798417408381 0 -0.13570208279224111 -0.26528350045903498 0 -0.12970248462840331 -0.2717774759070859 0 -0.13835653564694769 -0.27242798417408381 0 -0.13570208279224111 -0.26528350045903498 0 -0.13570208279224111 -0.26528350045903498 0 -0.12855037573501921 -0.26115248962005239 0 -0.1377523016625678 -0.25581657194563601 0 -0.14385763015454139 -0.26954128824380802 0 -0.13570208279224111 -0.26528350045903498 0 -0.1377523016625678 -0.25581657194563601 0 -0.12855037573501921 -0.26115248962005239 0 -0.1377523016625678 -0.25581657194563601 0 -0.1223681628105569 -0.24044891992886891 0 -0.1531364405145805 -0.27118422396240138 0 -0.1377523016625678 -0.25581657194563601 0 -0.15263230708737521 -0.24356194903458239 0 -0.15585924966824549 -0.27338725763800159 0 -0.1531364405145805 -0.27118422396240138 0 -0.15263230708737521 -0.24356194903458239 0 -0.15585924966824549 -0.27338725763800159 0 -0.15263230708737521 -0.24356194903458239 0 -0.1531364405145805 -0.27118422396240138 0 -0.1377523016625678 -0.25581657194563601 0 -0.1531364405145805 -0.27118422396240138 0 -0.14385763015454139 -0.26954128824380802 0 -0.1377523016625678 -0.25581657194563601 0 -0.1661931572416451 -0.36889933283976362 0 -0.1633245426028184 -0.34238590264286861 0 -0.15433175674287769 -0.35458729317269139 0 -0.1661931572416451 -0.36889933283976362 0 -0.1633245426028184 -0.34238590264286861 0 -0.1661931572416451 -0.36889933283976362 0 -0.17388048196752651 -0.3522733272046466 0 -0.1633245426028184 -0.34238590264286861 0 -0.1661931572416451 -0.36889933283976362 0 -0.15433175674287769 -0.35458729317269139 0 -0.148308101659717 -0.36695316985008092 0 -0.15761740849691311 -0.38818340141201402 0 -0.1661931572416451 -0.36889933283976362 0 -0.148308101659717 -0.36695316985008092 0 -0.183603859264966 -0.3766054584014627 0 -0.1661931572416451 -0.36889933283976362 0 -0.1863350517553729 -0.35962674217565882 0 -0.1661931572416451 -0.36889933283976362 0 -0.1863350517553729 -0.35962674217565882 0 -0.17388048196752651 -0.3522733272046466 0 -0.1863350517553729 -0.35962674217565882 0 -0.17388048196752651 -0.3522733272046466 0 -0.1789381536340362 -0.33872308817907848 0 -0.17388048196752651 -0.3522733272046466 0 -0.1789381536340362 -0.33872308817907848 0 -0.1633245426028184 -0.34238590264286861 0 -0.19562896033857519 -0.33020038185646122 0 -0.1789381536340362 -0.33872308817907848 0 -0.18477851095256179 -0.32477614194451959 0 -0.1789381536340362 -0.33872308817907848 0 -0.18477851095256179 -0.32477614194451959 0 -0.1735479853981102 -0.32728394705986258 0 -0.1789381536340362 -0.33872308817907848 0 -0.1735479853981102 -0.32728394705986258 0 -0.1633245426028184 -0.34238590264286861 0 -0.17759103405270391 -0.30762984517719472 0 -0.1803928959391416 -0.31521744924658562 0 -0.16045592796399111 -0.3158724724459735 0 -0.19575919956014079 -0.31702437624003538 0 -0.1803928959391416 -0.31521744924658562 0 -0.18477851095256179 -0.32477614194451959 0 -0.1803928959391416 -0.31521744924658562 0 -0.18477851095256179 -0.32477614194451959 0 -0.1735479853981102 -0.32728394705986258 0 -0.1803928959391416 -0.31521744924658562 0 -0.1735479853981102 -0.32728394705986258 0 -0.16045592796399111 -0.3158724724459735 0 -0.1735479853981102 -0.32728394705986258 0 -0.16045592796399111 -0.3158724724459735 0 -0.1633245426028184 -0.34238590264286861 0 -0.16045592796399111 -0.3158724724459735 0 -0.1633245426028184 -0.34238590264286861 0 -0.1476770575246594 -0.3298450188736391 0 -0.16045592796399111 -0.3158724724459735 0 -0.1633245426028184 -0.34238590264286861 0 -0.1633245426028184 -0.34238590264286861 0 -0.15030263560259111 -0.34285112818916452 0 -0.1476770575246594 -0.3298450188736391 0 -0.1476770575246594 -0.3298450188736391 0 -0.14130665940473261 -0.32287327510069419 0 -0.13989838249203351 -0.33226752099114382 0 -0.1476770575246594 -0.3298450188736391 0 -0.14096893258994439 -0.33934882548262568 0 -0.13989838249203351 -0.33226752099114382 0 -0.15030263560259111 -0.34285112818916452 0 -0.1476770575246594 -0.3298450188736391 0 -0.14096893258994439 -0.33934882548262568 0 -0.15908619224911419 -0.30321256624142101 0 -0.14130665940473261 -0.32287327510069419 0 -0.16045592796399111 -0.3158724724459735 0 -0.1476770575246594 -0.3298450188736391 0 -0.14130665940473261 -0.32287327510069419 0 -0.15908619224911419 -0.30321256624142101 0 -0.16045592796399111 -0.3158724724459735 0 -0.14130665940473261 -0.32287327510069419 0 -0.16045592796399111 -0.3158724724459735 0 -0.1476770575246594 -0.3298450188736391 0 -0.14130665940473261 -0.32287327510069419 0 -0.12766342535057629 -0.32481504462803062 0 -0.13033731665847181 -0.31286393971371201 0 -0.14032160831301491 -0.30752887986621158 0 -0.14130665940473261 -0.32287327510069419 0 -0.13033731665847181 -0.31286393971371201 0 -0.14130665940473261 -0.32287327510069419 0 -0.12766342535057629 -0.32481504462803062 0 -0.12902917457320359 -0.33644978787578289 0 -0.12766342535057629 -0.32481504462803062 0 -0.12902917457320359 -0.33644978787578289 0 -0.123033176677132 -0.34308019655903149 0 -0.14096893258994439 -0.33934882548262568 0 -0.12902917457320359 -0.33644978787578289 0 -0.13366226850604379 -0.34759248760944123 0 -0.14096893258994439 -0.33934882548262568 0 -0.13989838249203351 -0.33226752099114382 0 -0.12902917457320359 -0.33644978787578289 0 -0.14130665940473261 -0.32287327510069419 0 -0.12902917457320359 -0.33644978787578289 0 -0.14130665940473261 -0.32287327510069419 0 -0.13989838249203351 -0.33226752099114382 0 -0.12902917457320359 -0.33644978787578289 0 -0.12902917457320359 -0.33644978787578289 0 -0.123033176677132 -0.34308019655903149 0 -0.12902917457320359 -0.33644978787578289 0 -0.13366226850604379 -0.34759248760944123 0 -0.123033176677132 -0.34308019655903149 0 -0.13366226850604379 -0.34759248760944123 0 -0.1303219987982592 -0.3665496015062627 0 -0.123033176677132 -0.34308019655903149 0 -0.1303219987982592 -0.3665496015062627 0 -0.123033176677132 -0.34308019655903149 0 -0.13366226850604379 -0.34759248760944123 0 -0.1435303466076166 -0.35184693234157938 0 -0.1303219987982592 -0.3665496015062627 0 -0.14096893258994439 -0.33934882548262568 0 -0.13366226850604379 -0.34759248760944123 0 -0.1435303466076166 -0.35184693234157938 0 -0.15030263560259111 -0.34285112818916452 0 -0.14096893258994439 -0.33934882548262568 0 -0.1435303466076166 -0.35184693234157938 0 -0.1435303466076166 -0.35184693234157938 0 -0.15433175674287769 -0.35458729317269139 0 -0.148308101659717 -0.36695316985008092 0 -0.1633245426028184 -0.34238590264286861 0 -0.15030263560259111 -0.34285112818916452 0 -0.15433175674287769 -0.35458729317269139 0 -0.15030263560259111 -0.34285112818916452 0 -0.1435303466076166 -0.35184693234157938 0 -0.15433175674287769 -0.35458729317269139 0 -0.1435303466076166 -0.35184693234157938 0 -0.148308101659717 -0.36695316985008092 0 -0.1303219987982592 -0.3665496015062627 0 -0.1369224961495438 -0.38192389563367207 0 -0.148308101659717 -0.36695316985008092 0 -0.1303219987982592 -0.3665496015062627 0 -0.1303219987982592 -0.3665496015062627 0 -0.1159926709000937 -0.36685414663024191 0 -0.11895596668836859 -0.34683008488337108 0 -0.1303219987982592 -0.3665496015062627 0 -0.1159926709000937 -0.36685414663024191 0 -0.12201267174342199 -0.37938718301114999 0 -0.1024060606807759 -0.36205135125861898 0 -0.1016559479587178 -0.38500202459504551 0 -0.1159926709000937 -0.36685414663024191 0 -0.1024060606807759 -0.36205135125861898 0 -0.1094440337948836 -0.37923577087639421 0 -0.1024060606807759 -0.36205135125861898 0 -0.1016559479587178 -0.38500202459504551 0 -0.095426438310298192 -0.37780241062099151 0 -0.1024060606807759 -0.36205135125861898 0 -0.090139611558562177 -0.37333304007799939 0 -0.095426438310298192 -0.37780241062099151 0 -0.1024060606807759 -0.36205135125861898 0 -0.093943439343664059 -0.36410026383479388 0 -0.090139611558562177 -0.37333304007799939 0 -0.1024060606807759 -0.36205135125861898 0 -0.093943439343664059 -0.36410026383479388 0 -0.095626283443773746 -0.35612124291623848 0 -0.1024060606807759 -0.36205135125861898 0 -0.090139611558562177 -0.37333304007799939 0 -0.1024060606807759 -0.36205135125861898 0 -0.1029439411344124 -0.34559419992324319 0 -0.1024060606807759 -0.36205135125861898 0 -0.1029439411344124 -0.34559419992324319 0 -0.11895596668836859 -0.34683008488337108 0 -0.1024060606807759 -0.36205135125861898 0 -0.095626283443773746 -0.35612124291623848 0 -0.1029439411344124 -0.34559419992324319 0 -0.095626283443773746 -0.35612124291623848 0 -0.1029439411344124 -0.34559419992324319 0 -0.093212578299404075 -0.34130700998995739 0 -0.1159926709000937 -0.36685414663024191 0 -0.1024060606807759 -0.36205135125861898 0 -0.11895596668836859 -0.34683008488337108 0 -0.1024060606807759 -0.36205135125861898 0 -0.11895596668836859 -0.34683008488337108 0 -0.1303219987982592 -0.3665496015062627 0 -0.11895596668836859 -0.34683008488337108 0 -0.123033176677132 -0.34308019655903149 0 -0.1029439411344124 -0.34559419992324319 0 -0.11895596668836859 -0.34683008488337108 0 -0.123033176677132 -0.34308019655903149 0 -0.11895596668836859 -0.34683008488337108 0 -0.123033176677132 -0.34308019655903149 0 -0.1029439411344124 -0.34559419992324319 0 -0.1137910684918501 -0.33520612369310882 0 -0.123033176677132 -0.34308019655903149 0 -0.123033176677132 -0.34308019655903149 0 -0.1159692764993048 -0.31568518943543378 0 -0.1137910684918501 -0.33520612369310882 0 -0.123033176677132 -0.34308019655903149 0 -0.1159692764993048 -0.31568518943543378 0 -0.12766342535057629 -0.32481504462803062 0 -0.123033176677132 -0.34308019655903149 0 -0.1159692764993048 -0.31568518943543378 0 -0.1137910684918501 -0.33520612369310882 0 -0.1159692764993048 -0.31568518943543378 0 -0.1034818215880495 -0.3291370485878673 0 -0.12766342535057629 -0.32481504462803062 0 -0.13033731665847181 -0.31286393971371201 0 -0.1159692764993048 -0.31568518943543378 0 -0.1159692764993048 -0.31568518943543378 0 -0.10079975883819629 -0.31506063040533638 0 -0.1034818215880495 -0.3291370485878673 0 -0.10079975883819629 -0.31506063040533638 0 -0.093212578299404075 -0.34130700998995739 0 -0.10079975883819629 -0.31506063040533638 0 -0.093212578299404075 -0.34130700998995739 0 -0.087373844159168004 -0.3291061545470132 0 -0.10079975883819629 -0.31506063040533638 0 -0.1034818215880495 -0.3291370485878673 0 -0.093212578299404075 -0.34130700998995739 0 -0.1029439411344124 -0.34559419992324319 0 -0.1034818215880495 -0.3291370485878673 0 -0.1029439411344124 -0.34559419992324319 0 -0.1034818215880495 -0.3291370485878673 0 -0.093212578299404075 -0.34130700998995739 0 -0.1029439411344124 -0.34559419992324319 0 -0.1137910684918501 -0.33520612369310882 0 -0.1034818215880495 -0.3291370485878673 0 -0.093212578299404075 -0.34130700998995739 0 -0.087373844159168004 -0.3291061545470132 0 -0.080908772255243899 -0.33898270124258217 0 -0.087373844159168004 -0.3291061545470132 0 -0.080908772255243899 -0.33898270124258217 0 -0.077490532230771417 -0.32991328235931511 0 -0.093212578299404075 -0.34130700998995739 0 -0.080908772255243899 -0.33898270124258217 0 -0.080378844364046895 -0.35001101873094542 0 -0.10079975883819629 -0.31506063040533638 0 -0.085305929108392881 -0.31951846990187233 0 -0.091873739319295072 -0.31122357941036211 0 -0.10079975883819629 -0.31506063040533638 0 -0.087373844159168004 -0.3291061545470132 0 -0.085305929108392881 -0.31951846990187233 0 -0.085305929108392881 -0.31951846990187233 0 -0.076805788315873161 -0.32077910918615782 0 -0.077490532230771417 -0.32991328235931511 0 -0.087373844159168004 -0.3291061545470132 0 -0.085305929108392881 -0.31951846990187233 0 -0.077490532230771417 -0.32991328235931511 0 -0.085305929108392881 -0.31951846990187233 0 -0.076805788315873161 -0.32077910918615782 0 -0.078544889372492196 -0.31002595631180607 0 -0.085305929108392881 -0.31951846990187233 0 -0.091873739319295072 -0.31122357941036211 0 -0.078544889372492196 -0.31002595631180607 0 -0.066882954587322394 -0.32486941793266988 0 -0.078544889372492196 -0.31002595631180607 0 -0.05424539878688571 -0.319762651601179 0 -0.078544889372492196 -0.31002595631180607 0 -0.05424539878688571 -0.319762651601179 0 -0.076805788315873161 -0.32077910918615782 0 -0.066882954587322394 -0.32486941793266988 0 -0.078544889372492196 -0.31002595631180607 0 -0.076805788315873161 -0.32077910918615782 0 -0.066882954587322394 -0.32486941793266988 0 -0.077490532230771417 -0.32991328235931511 0 -0.066882954587322394 -0.32486941793266988 0 -0.070160141916437824 -0.34098238217286791 0 -0.054527031800802053 -0.34042178362413461 0 -0.066882954587322394 -0.32486941793266988 0 -0.077490532230771417 -0.32991328235931511 0 -0.070160141916437824 -0.34098238217286791 0 -0.080908772255243899 -0.33898270124258217 0 -0.077490532230771417 -0.32991328235931511 0 -0.070160141916437824 -0.34098238217286791 0 -0.080908772255243899 -0.33898270124258217 0 -0.070160141916437824 -0.34098238217286791 0 -0.080378844364046895 -0.35001101873094542 0 -0.070160141916437824 -0.34098238217286791 0 -0.066522813126512412 -0.35680227137673098 0 -0.054527031800802053 -0.34042178362413461 0 -0.070160141916437824 -0.34098238217286791 0 -0.066522813126512412 -0.35680227137673098 0 -0.080378844364046895 -0.35001101873094542 0 -0.066522813126512412 -0.35680227137673098 0 -0.076582500297099523 -0.36039923154202719 0 -0.080378844364046895 -0.35001101873094542 0 -0.066522813126512412 -0.35680227137673098 0 -0.073802945937226916 -0.36723024648585417 0 -0.058387822440418388 -0.36975607908058028 0 -0.073802945937226916 -0.36723024648585417 0 -0.058387822440418388 -0.36975607908058028 0 -0.08170780991661282 -0.38109255286014232 0 -0.066522813126512412 -0.35680227137673098 0 -0.073802945937226916 -0.36723024648585417 0 -0.076582500297099523 -0.36039923154202719 0 -0.073802945937226916 -0.36723024648585417 0 -0.076582500297099523 -0.36039923154202719 0 -0.085625397760611066 -0.36755338957457828 0 -0.085625397760611066 -0.36755338957457828 0 -0.087954911787112483 -0.37534235041220648 0 -0.08170780991661282 -0.38109255286014232 0 -0.073802945937226916 -0.36723024648585417 0 -0.085625397760611066 -0.36755338957457828 0 -0.08170780991661282 -0.38109255286014232 0 -0.085625397760611066 -0.36755338957457828 0 -0.08170780991661282 -0.38109255286014232 0 -0.093943439343664059 -0.36410026383479388 0 -0.085625397760611066 -0.36755338957457828 0 -0.090139611558562177 -0.37333304007799939 0 -0.093943439343664059 -0.36410026383479388 0 -0.090139611558562177 -0.37333304007799939 0 -0.085625397760611066 -0.36755338957457828 0 -0.090139611558562177 -0.37333304007799939 0 -0.087954911787112483 -0.37534235041220648 0 -0.085625397760611066 -0.36755338957457828 0 -0.087954911787112483 -0.37534235041220648 0 -0.090139611558562177 -0.37333304007799939 0 -0.087954911787112483 -0.37534235041220648 0 -0.093943439343664059 -0.36410026383479388 0 -0.095626283443773746 -0.35612124291623848 0 -0.085625397760611066 -0.36755338957457828 0 -0.093212578299404075 -0.34130700998995739 0 -0.085625397760611066 -0.36755338957457828 0 -0.076582500297099523 -0.36039923154202719 0 -0.085625397760611066 -0.36755338957457828 0 -0.080378844364046895 -0.35001101873094542 0 -0.093212578299404075 -0.34130700998995739 0 -0.085625397760611066 -0.36755338957457828 0 -0.080378844364046895 -0.35001101873094542 0 -0.085625397760611066 -0.36755338957457828 0 -0.080378844364046895 -0.35001101873094542 0 -0.095626283443773746 -0.35612124291623848 0 -0.093212578299404075 -0.34130700998995739 0 -0.085625397760611066 -0.36755338957457828 0 -0.10474757541744149 -0.26087495970427582 0 -0.090174700483665673 -0.26498018187443112 0 -0.1005321994236209 -0.2431127607729493 0 -0.10474757541744149 -0.26087495970427582 0 -0.11757885349586771 -0.25701660664448461 0 -0.1005321994236209 -0.2431127607729493 0 -0.12855037573501921 -0.26115248962005239 0 -0.11757885349586771 -0.25701660664448461 0 -0.1127895441811773 -0.27358429336009982 0 -0.12855037573501921 -0.26115248962005239 0 -0.11757885349586771 -0.25701660664448461 0 -0.1223681628105569 -0.24044891992886891 0 -0.10474757541744149 -0.26087495970427582 0 -0.11757885349586771 -0.25701660664448461 0 -0.1127895441811773 -0.27358429336009982 0 -0.11757885349586771 -0.25701660664448461 0 -0.1127895441811773 -0.27358429336009982 0 -0.1257911728949061 -0.280427018304516 0 -0.12970248462840331 -0.2717774759070859 0 -0.1127895441811773 -0.27358429336009982 0 -0.12855037573501921 -0.26115248962005239 0 -0.1127895441811773 -0.27358429336009982 0 -0.12970248462840331 -0.2717774759070859 0 -0.12855037573501921 -0.26115248962005239 0 -0.1127895441811773 -0.27358429336009982 0 -0.1257911728949061 -0.280427018304516 0 -0.1127895441811773 -0.27358429336009982 0 -0.1194571486541455 -0.28746452468861589 0 -0.1127895441811773 -0.27358429336009982 0 -0.1083869393769897 -0.28881425082071571 0 -0.1127895441811773 -0.27358429336009982 0 -0.093274829049746905 -0.28897707944045958 0 -0.090174700483665673 -0.26498018187443112 0 -0.10474757541744149 -0.26087495970427582 0 -0.1127895441811773 -0.27358429336009982 0 -0.090174700483665673 -0.26498018187443112 0 -0.1127895441811773 -0.27358429336009982 0 -0.1067008731150054 -0.28283902414649681 0 -0.093274829049746905 -0.28897707944045958 0 -0.1127895441811773 -0.27358429336009982 0 -0.093274829049746905 -0.28897707944045958 0 -0.1083869393769897 -0.28881425082071571 0 -0.102844379958099 -0.30028926102243358 0 -0.093274829049746905 -0.28897707944045958 0 -0.1127895441811773 -0.27358429336009982 0 -0.1083869393769897 -0.28881425082071571 0 -0.1067008731150054 -0.28283902414649681 0 -0.1083869393769897 -0.28881425082071571 0 -0.1067008731150054 -0.28283902414649681 0 -0.1083869393769897 -0.28881425082071571 0 -0.1067008731150054 -0.28283902414649681 0 -0.093274829049746905 -0.28897707944045958 0 -0.1127895441811773 -0.27358429336009982 0 -0.1083869393769897 -0.28881425082071571 0 -0.1194571486541455 -0.28746452468861589 0 -0.12994370463312691 -0.28995419054763111 0 -0.1194571486541455 -0.28746452468861589 0 -0.12304085188452731 -0.29931348820209958 0 -0.1083869393769897 -0.28881425082071571 0 -0.1194571486541455 -0.28746452468861589 0 -0.12304085188452731 -0.29931348820209958 0 -0.1159692764993048 -0.31568518943543378 0 -0.1083869393769897 -0.28881425082071571 0 -0.12304085188452731 -0.29931348820209958 0 -0.1159692764993048 -0.31568518943543378 0 -0.1083869393769897 -0.28881425082071571 0 -0.13033731665847181 -0.31286393971371201 0 -0.1159692764993048 -0.31568518943543378 0 -0.12304085188452731 -0.29931348820209958 0 -0.1159692764993048 -0.31568518943543378 0 -0.10079975883819629 -0.31506063040533638 0 -0.1083869393769897 -0.28881425082071571 0 -0.10079975883819629 -0.31506063040533638 0 -0.1083869393769897 -0.28881425082071571 0 -0.10079975883819629 -0.31506063040533638 0 -0.1083869393769897 -0.28881425082071571 0 -0.102844379958099 -0.30028926102243358 0 -0.10079975883819629 -0.31506063040533638 0 -0.102844379958099 -0.30028926102243358 0 -0.091873739319295072 -0.31122357941036211 0 -0.078544889372492196 -0.31002595631180607 0 -0.073760113918316481 -0.30436986552081963 0 -0.093274829049746905 -0.28897707944045958 0 -0.102844379958099 -0.30028926102243358 0 -0.078544889372492196 -0.31002595631180607 0 -0.093274829049746905 -0.28897707944045958 0 -0.102844379958099 -0.30028926102243358 0 -0.091873739319295072 -0.31122357941036211 0 -0.078544889372492196 -0.31002595631180607 0 -0.102844379958099 -0.30028926102243358 0 -0.078544889372492196 -0.31002595631180607 0 -0.078544889372492196 -0.31002595631180607 0 -0.073760113918316481 -0.30436986552081963 0 -0.05424539878688571 -0.319762651601179 0 -0.073760113918316481 -0.30436986552081963 0 -0.05424539878688571 -0.319762651601179 0 -0.073760113918316481 -0.30436986552081963 0 -0.071188273097670243 -0.28513602236808322 0 -0.055748641784298267 -0.30178875706485681 0 -0.073760113918316481 -0.30436986552081963 0 -0.071188273097670243 -0.28513602236808322 0 -0.093274829049746905 -0.28897707944045958 0 -0.073760113918316481 -0.30436986552081963 0 -0.093274829049746905 -0.28897707944045958 0 -0.071188273097670243 -0.28513602236808322 0 -0.093274829049746905 -0.28897707944045958 0 -0.090174700483665673 -0.26498018187443112 0 -0.071188273097670243 -0.28513602236808322 0 -0.063484538676239377 -0.26413124226689111 0 -0.090174700483665673 -0.26498018187443112 0 -0.063484538676239377 -0.26413124226689111 0 -0.076282262678724011 -0.24169347649274159 0 -0.063484538676239377 -0.26413124226689111 0 -0.090174700483665673 -0.26498018187443112 0 -0.076282262678724011 -0.24169347649274159 0 -0.036942597034766073 -0.27265489088473938 0 -0.050686814673754729 -0.28656900804104057 0 -0.0185119813334658 -0.28327625011988139 0 -0.038581934025118947 -0.25114857380685968 0 -0.038334603868346327 -0.2604973367990705 0 -0.03064478186574425 -0.25326356670072259 0 -0.038334603868346327 -0.2604973367990705 0 -0.029413390480137139 -0.26518294325465769 0 -0.03064478186574425 -0.25326356670072259 0 -0.038334603868346327 -0.2604973367990705 0 -0.046517308340487992 -0.25474718453952289 0 -0.048289188575406587 -0.26955092917192058 0 -0.038581934025118947 -0.25114857380685968 0 -0.038334603868346327 -0.2604973367990705 0 -0.046517308340487992 -0.25474718453952289 0 -0.063484538676239377 -0.26413124226689111 0 -0.046517308340487992 -0.25474718453952289 0 -0.0567919256119837 -0.24387644547435741 0 -0.063484538676239377 -0.26413124226689111 0 -0.046517308340487992 -0.25474718453952289 0 -0.048289188575406587 -0.26955092917192058 0 -0.063484538676239377 -0.26413124226689111 0 -0.050686814673754729 -0.28656900804104057 0 -0.071188273097670243 -0.28513602236808322 0 -0.063484538676239377 -0.26413124226689111 0 -0.050686814673754729 -0.28656900804104057 0 -0.063484538676239377 -0.26413124226689111 0 -0.048289188575406587 -0.26955092917192058 0 -0.050686814673754729 -0.28656900804104057 0 -0.048289188575406587 -0.26955092917192058 0 -0.036942597034766073 -0.27265489088473938 0 -0.050686814673754729 -0.28656900804104057 0 -0.038334603868346327 -0.2604973367990705 0 -0.048289188575406587 -0.26955092917192058 0 -0.036942597034766073 -0.27265489088473938 0 -0.038334603868346327 -0.2604973367990705 0 -0.036942597034766073 -0.27265489088473938 0 -0.029413390480137139 -0.26518294325465769 0 -0.050686814673754729 -0.28656900804104057 0 -0.037889090671270123 -0.30900677381518998 0 -0.0185119813334658 -0.28327625011988139 0 -0.071188273097670243 -0.28513602236808322 0 -0.050686814673754729 -0.28656900804104057 0 -0.055748641784298267 -0.30178875706485681 0 -0.073760113918316481 -0.30436986552081963 0 -0.055748641784298267 -0.30178875706485681 0 -0.05424539878688571 -0.319762651601179 0 -0.055748641784298267 -0.30178875706485681 0 -0.037889090671270123 -0.30900677381518998 0 -0.05424539878688571 -0.319762651601179 0 -0.050686814673754729 -0.28656900804104057 0 -0.055748641784298267 -0.30178875706485681 0 -0.037889090671270123 -0.30900677381518998 0 -0.050686814673754729 -0.28656900804104057 0 -0.037889090671270123 -0.30900677381518998 0 -0.037889090671270123 -0.30900677381518998 0 -0.014390974368570029 -0.31032982847088841 0 -0.0185119813334658 -0.28327625011988139 0 -0.014390974368570029 -0.31032982847088841 0 0.001904989571353899 -0.32214434476741449 0 0.0019518825097332619 -0.30029273945570772 0 -0.014390974368570029 -0.31032982847088841 0 -0.0185119813334658 -0.28327625011988139 0 0.0019518825097332619 -0.30029273945570772 0 -0.0185119813334658 -0.28327625011988139 0 -0.0020851015340006161 -0.28052611142458661 0 0.0019518825097332619 -0.30029273945570772 0 -0.014390974368570029 -0.31032982847088841 0 -0.0185119813334658 -0.28327625011988139 0 -0.036942597034766073 -0.27265489088473938 0 -0.0185119813334658 -0.28327625011988139 0 -0.029413390480137139 -0.26518294325465769 0 -0.0185119813334658 -0.28327625011988139 0 -0.02263298829836323 -0.25622267176887481 0 -0.029413390480137139 -0.26518294325465769 0 -0.0185119813334658 -0.28327625011988139 0 -0.02263298829836323 -0.25622267176887481 0 -0.0185119813334658 -0.28327625011988139 0 -0.0093077836028632385 -0.27105033158696179 0 -0.02263298829836323 -0.25622267176887481 0 -0.0185119813334658 -0.28327625011988139 0 -0.0020851015340006161 -0.28052611142458661 0 -0.0093077836028632385 -0.27105033158696179 0 -0.0020851015340006161 -0.28052611142458661 0 -0.0093077836028632385 -0.27105033158696179 0 0.0055944649301708496 -0.26664830233551728 0 -0.014059514610042069 -0.25416210053859828 0 -0.02263298829836323 -0.25622267176887481 0 0.0055944649301708496 -0.26664830233551728 0 -0.0093077836028632385 -0.27105033158696179 0 -0.02263298829836323 -0.25622267176887481 0 0.0055944649301708496 -0.26664830233551728 0 -0.02263298829836323 -0.25622267176887481 0 0.0055944649301708496 -0.26664830233551728 0 -0.014059514610042069 -0.25416210053859828 0 -0.0080727856436109482 -0.2481099565327444 0 0.0055944649301708496 -0.26664830233551728 0 -0.014059514610042069 -0.25416210053859828 0 -0.01887874476148543 -0.24814250919209771 0 -0.0080727856436109482 -0.2481099565327444 0 -0.014059514610042069 -0.25416210053859828 0 -0.02263298829836323 -0.25622267176887481 0 -0.02285766608625657 -0.25474770747244752 0 -0.014059514610042069 -0.25416210053859828 0 -0.02285766608625657 -0.25474770747244752 0 -0.01887874476148543 -0.24814250919209771 0 -0.02285766608625657 -0.25474770747244752 0 -0.026067501294639708 -0.24850247980592871 0 -0.01887874476148543 -0.24814250919209771 0 -0.02263298829836323 -0.25622267176887481 0 -0.02285766608625657 -0.25474770747244752 0 -0.02263298829836323 -0.25622267176887481 0 -0.029413390480137139 -0.26518294325465769 0 -0.03064478186574425 -0.25326356670072259 0 -0.02263298829836323 -0.25622267176887481 0 -0.03064478186574425 -0.25326356670072259 0 -0.02263298829836323 -0.25622267176887481 0 -0.02285766608625657 -0.25474770747244752 0 -0.03064478186574425 -0.25326356670072259 0 -0.02285766608625657 -0.25474770747244752 0 -0.03064478186574425 -0.25326356670072259 0 -0.026067501294639708 -0.24850247980592871 0 -0.040780788735907937 -0.34809370153295588 0 -0.035070660285960877 -0.35841379707961513 0 -0.051335308585544609 -0.35442186843706669 0 -0.040780788735907937 -0.34809370153295588 0 -0.033802973987086503 -0.33588719504380232 0 -0.029167969020145641 -0.35132386348016093 0 -0.040780788735907937 -0.34809370153295588 0 -0.035070660285960877 -0.35841379707961513 0 -0.029167969020145641 -0.35132386348016093 0 -0.035070660285960877 -0.35841379707961513 0 -0.040000350022935588 -0.37213681664196291 0 -0.021437446366364531 -0.36359117576668931 0 -0.035070660285960877 -0.35841379707961513 0 -0.058387822440418388 -0.36975607908058028 0 -0.035070660285960877 -0.35841379707961513 0 -0.040000350022935588 -0.37213681664196291 0 -0.058387822440418388 -0.36975607908058028 0 -0.040000350022935588 -0.37213681664196291 0 -0.058387822440418388 -0.36975607908058028 0 -0.058563253679506787 -0.38068245751723601 0 -0.035070660285960877 -0.35841379707961513 0 -0.058387822440418388 -0.36975607908058028 0 -0.051335308585544609 -0.35442186843706669 0 -0.066522813126512412 -0.35680227137673098 0 -0.058387822440418388 -0.36975607908058028 0 -0.051335308585544609 -0.35442186843706669 0 -0.066522813126512412 -0.35680227137673098 0 -0.051335308585544609 -0.35442186843706669 0 -0.054527031800802053 -0.34042178362413461 0 -0.040780788735907937 -0.34809370153295588 0 -0.051335308585544609 -0.35442186843706669 0 -0.054527031800802053 -0.34042178362413461 0 -0.066882954587322394 -0.32486941793266988 0 -0.054527031800802053 -0.34042178362413461 0 -0.05424539878688571 -0.319762651601179 0 -0.054527031800802053 -0.34042178362413461 0 -0.05424539878688571 -0.319762651601179 0 -0.033802973987086503 -0.33588719504380232 0 -0.05424539878688571 -0.319762651601179 0 -0.039668382727836717 -0.32560359559526031 0 -0.05424539878688571 -0.319762651601179 0 -0.033802973987086503 -0.33588719504380232 0 -0.037889090671270123 -0.30900677381518998 0 -0.025091366668787349 -0.3314445395893405 0 -0.05424539878688571 -0.319762651601179 0 -0.039668382727836717 -0.32560359559526031 0 -0.033802973987086503 -0.33588719504380232 0 -0.037889090671270123 -0.30900677381518998 0 -0.05424539878688571 -0.319762651601179 0 -0.039668382727836717 -0.32560359559526031 0 -0.037889090671270123 -0.30900677381518998 0 -0.039668382727836717 -0.32560359559526031 0 -0.025091366668787349 -0.3314445395893405 0 -0.040780788735907937 -0.34809370153295588 0 -0.054527031800802053 -0.34042178362413461 0 -0.033802973987086503 -0.33588719504380232 0 -0.039668382727836717 -0.32560359559526031 0 -0.025091366668787349 -0.3314445395893405 0 -0.039668382727836717 -0.32560359559526031 0 -0.033802973987086503 -0.33588719504380232 0 -0.025091366668787349 -0.3314445395893405 0 -0.025091366668787349 -0.3314445395893405 0 -0.01336054918728761 -0.35201173848642592 0 -0.033802973987086503 -0.33588719504380232 0 -0.025091366668787349 -0.3314445395893405 0 -0.01336054918728761 -0.35201173848642592 0 -0.025091366668787349 -0.3314445395893405 0 -0.01532372128421448 -0.33535839064186268 0 -0.01336054918728761 -0.35201173848642592 0 -0.025091366668787349 -0.3314445395893405 0 -0.022734703789933738 -0.32728556430890232 0 -0.01532372128421448 -0.33535839064186268 0 -0.025091366668787349 -0.3314445395893405 0 -0.01532372128421448 -0.33535839064186268 0 -0.022734703789933738 -0.32728556430890232 0 -0.01532372128421448 -0.33535839064186268 0 -0.037889090671270123 -0.30900677381518998 0 -0.014390974368570029 -0.31032982847088841 0 -0.022734703789933738 -0.32728556430890232 0 -0.037889090671270123 -0.30900677381518998 0 -0.025091366668787349 -0.3314445395893405 0 -0.022734703789933738 -0.32728556430890232 0 -0.014390974368570029 -0.31032982847088841 0 -0.022734703789933738 -0.32728556430890232 0 -0.01532372128421448 -0.33535839064186268 0 -0.014390974368570029 -0.31032982847088841 0 -0.010269967403673339 -0.33738340682189533 0 -0.014390974368570029 -0.31032982847088841 0 -0.010269967403673339 -0.33738340682189533 0 -0.01532372128421448 -0.33535839064186268 0 -0.014390974368570029 -0.31032982847088841 0 -0.010269967403673339 -0.33738340682189533 0 0.001904989571353899 -0.32214434476741449 0 -0.010269967403673339 -0.33738340682189533 0 -0.0096343958099064687 -0.34155580596031437 0 0.0075807645751098419 -0.34453611388615663 0 -0.010269967403673339 -0.33738340682189533 0 0.0075807645751098419 -0.34453611388615663 0 -0.0096343958099064687 -0.34155580596031437 0 -0.01532372128421448 -0.33535839064186268 0 -0.01336054918728761 -0.35201173848642592 0 -0.010269967403673339 -0.33738340682189533 0 -0.0096343958099064687 -0.34155580596031437 0 -0.010269967403673339 -0.33738340682189533 0 -0.0096343958099064687 -0.34155580596031437 0 -0.01532372128421448 -0.33535839064186268 0 -0.0096343958099064687 -0.34155580596031437 0 -0.01532372128421448 -0.33535839064186268 0 -0.010269967403673339 -0.33738340682189533 0 -0.01532372128421448 -0.33535839064186268 0 -0.010269967403673339 -0.33738340682189533 0 0.0034794820758208261 -0.33361449123698089 0 0.001904989571353899 -0.32214434476741449 0 -0.0096343958099064687 -0.34155580596031437 0 -0.0070150904897389628 -0.35875101633193152 0 -0.0096343958099064687 -0.34155580596031437 0 -0.0070150904897389628 -0.35875101633193152 0 -0.01336054918728761 -0.35201173848642592 0 -0.0096343958099064687 -0.34155580596031437 0 -0.0070150904897389628 -0.35875101633193152 0 0.0099352179383349771 -0.36287309999936251 0 -0.033802973987086503 -0.33588719504380232 0 -0.01336054918728761 -0.35201173848642592 0 -0.029167969020145641 -0.35132386348016093 0 -0.01336054918728761 -0.35201173848642592 0 -0.029167969020145641 -0.35132386348016093 0 -0.021437446366364531 -0.36359117576668931 0 -0.033802973987086503 -0.33588719504380232 0 -0.01336054918728761 -0.35201173848642592 0 -0.035070660285960877 -0.35841379707961513 0 -0.029167969020145641 -0.35132386348016093 0 -0.021437446366364531 -0.36359117576668931 0 -0.040000350022935588 -0.37213681664196291 0 -0.021437446366364531 -0.36359117576668931 0 -0.02618172091304426 -0.37743656618445498 0 -0.021437446366364531 -0.36359117576668931 0 -0.002178803782163227 -0.37161627006544062 0 -0.02618172091304426 -0.37743656618445498 0 -0.040000350022935588 -0.37213681664196291 0 -0.021437446366364531 -0.36359117576668931 0 -0.01336054918728761 -0.35201173848642592 0 -0.021437446366364531 -0.36359117576668931 0 -0.002178803782163227 -0.37161627006544062 0 -0.01336054918728761 -0.35201173848642592 0 -0.002178803782163227 -0.37161627006544062 0 -0.0070150904897389628 -0.35875101633193152 0 -0.01336054918728761 -0.35201173848642592 0 -0.002178803782163227 -0.37161627006544062 0 -0.002178803782163227 -0.37161627006544062 0 -0.026336278995230201 -0.38905167830789189 0 -0.002178803782163227 -0.37161627006544062 0 -0.0066930742226519926 -0.39143820132839208 0 -0.026336278995230201 -0.38905167830789189 0 -0.0066930742226519926 -0.39143820132839208 0 -0.001728596279610697 -0.40597762003102339 0 -0.017737199096442072 -0.40073047040120602 0 -0.0066930742226519926 -0.39143820132839208 0 -0.017737199096442072 -0.40073047040120602 0 -0.026336278995230201 -0.38905167830789189 0 -0.017737199096442072 -0.40073047040120602 0 -0.026336278995230201 -0.38905167830789189 0 -0.033287388117186109 -0.40399871831440642 0 -0.002178803782163227 -0.37161627006544062 0 -0.026336278995230201 -0.38905167830789189 0 -0.02618172091304426 -0.37743656618445498 0 -0.026336278995230201 -0.38905167830789189 0 -0.02618172091304426 -0.37743656618445498 0 -0.033482850758781962 -0.383939184607547 0 -0.02618172091304426 -0.37743656618445498 0 -0.042372487296275553 -0.37905951185084519 0 -0.033482850758781962 -0.383939184607547 0 -0.02618172091304426 -0.37743656618445498 0 -0.042372487296275553 -0.37905951185084519 0 -0.040000350022935588 -0.37213681664196291 0 -0.02618172091304426 -0.37743656618445498 0 -0.042372487296275553 -0.37905951185084519 0 -0.042372487296275553 -0.37905951185084519 0 -0.039040915830577852 -0.39020898208699611 0 -0.049048127186911553 -0.38756594990863991 0 -0.042372487296275553 -0.37905951185084519 0 -0.039040915830577852 -0.39020898208699611 0 -0.033482850758781962 -0.383939184607547 0 -0.026336278995230201 -0.38905167830789189 0 -0.039040915830577852 -0.39020898208699611 0 -0.033482850758781962 -0.383939184607547 0 -0.026336278995230201 -0.38905167830789189 0 -0.050493754208297943 -0.40648708655034188 0 -0.039040915830577852 -0.39020898208699611 0 -0.048181286987745188 -0.3967611761759377 0 -0.050493754208297943 -0.40648708655034188 0 -0.026336278995230201 -0.38905167830789189 0 -0.039040915830577852 -0.39020898208699611 0 -0.050493754208297943 -0.40648708655034188 0 -0.026336278995230201 -0.38905167830789189 0 -0.033287388117186109 -0.40399871831440642 0 -0.050493754208297943 -0.40648708655034188 0 -0.039040915830577852 -0.39020898208699611 0 -0.048181286987745188 -0.3967611761759377 0 -0.049048127186911553 -0.38756594990863991 0 -0.048181286987745188 -0.3967611761759377 0 -0.055512870853615448 -0.39455951290216967 0 -0.049048127186911553 -0.38756594990863991 0 -0.055512870853615448 -0.39455951290216967 0 -0.052509649903146327 -0.40794203844841681 0 -0.074281153156084773 -0.38791836881244668 0 -0.048181286987745188 -0.3967611761759377 0 -0.055512870853615448 -0.39455951290216967 0 -0.050493754208297943 -0.40648708655034188 0 -0.055512870853615448 -0.39455951290216967 0 -0.052509649903146327 -0.40794203844841681 0 -0.050493754208297943 -0.40648708655034188 0 -0.048181286987745188 -0.3967611761759377 0 -0.050493754208297943 -0.40648708655034188 0 -0.040000350022935588 -0.37213681664196291 0 -0.042372487296275553 -0.37905951185084519 0 -0.058563253679506787 -0.38068245751723601 0 -0.042372487296275553 -0.37905951185084519 0 -0.058563253679506787 -0.38068245751723601 0 -0.040000350022935588 -0.37213681664196291 0 -0.058563253679506787 -0.38068245751723601 0 -0.042372487296275553 -0.37905951185084519 0 -0.058563253679506787 -0.38068245751723601 0 -0.049048127186911553 -0.38756594990863991 0 -0.055512870853615448 -0.39455951290216967 0 -0.058563253679506787 -0.38068245751723601 0 -0.049048127186911553 -0.38756594990863991 0 -0.055571169944573007 -0.4278419796903028 0 -0.060002998013559863 -0.44648162232419802 0 -0.069408814394604765 -0.42365151461769918 0 -0.055571169944573007 -0.4278419796903028 0 -0.060002998013559863 -0.44648162232419802 0 -0.055571169944573007 -0.4278419796903028 0 -0.04142135733128624 -0.43391233418184683 0 -0.048623679129421588 -0.44273110985945369 0 -0.055571169944573007 -0.4278419796903028 0 -0.059775586818595829 -0.41787661413097049 0 -0.069408814394604765 -0.42365151461769918 0 -0.055571169944573007 -0.4278419796903028 0 -0.059775586818595829 -0.41787661413097049 0 -0.052509649903146327 -0.40794203844841681 0 -0.055571169944573007 -0.4278419796903028 0 -0.052509649903146327 -0.40794203844841681 0 -0.038621424185474637 -0.4207153063468223 0 -0.055571169944573007 -0.4278419796903028 0 -0.052509649903146327 -0.40794203844841681 0 -0.052509649903146327 -0.40794203844841681 0 -0.070248957975066639 -0.42074520084202788 0 -0.059775586818595829 -0.41787661413097049 0 -0.052509649903146327 -0.40794203844841681 0 -0.070248957975066639 -0.42074520084202788 0 -0.052509649903146327 -0.40794203844841681 0 -0.050493754208297943 -0.40648708655034188 0 -0.041470954428671609 -0.41006675355118111 0 -0.052509649903146327 -0.40794203844841681 0 -0.050493754208297943 -0.40648708655034188 0 -0.052509649903146327 -0.40794203844841681 0 -0.038621424185474637 -0.4207153063468223 0 -0.033287388117186109 -0.40399871831440642 0 -0.050493754208297943 -0.40648708655034188 0 -0.041470954428671609 -0.41006675355118111 0 -0.052509649903146327 -0.40794203844841681 0 -0.041470954428671609 -0.41006675355118111 0 -0.038621424185474637 -0.4207153063468223 0 -0.033287388117186109 -0.40399871831440642 0 -0.041470954428671609 -0.41006675355118111 0 -0.027792962261932352 -0.41547375898907968 0 -0.041470954428671609 -0.41006675355118111 0 -0.038621424185474637 -0.4207153063468223 0 -0.027792962261932352 -0.41547375898907968 0 -0.055571169944573007 -0.4278419796903028 0 -0.038621424185474637 -0.4207153063468223 0 -0.04142135733128624 -0.43391233418184683 0 -0.038621424185474637 -0.4207153063468223 0 -0.026103506495360269 -0.43222827563723731 0 -0.038621424185474637 -0.4207153063468223 0 -0.04142135733128624 -0.43391233418184683 0 -0.026103506495360269 -0.43222827563723731 0 -0.04142135733128624 -0.43391233418184683 0 -0.026103506495360269 -0.43222827563723731 0 -0.035662081446574762 -0.44437129177822371 0 -0.026103506495360269 -0.43222827563723731 0 -0.027792962261932352 -0.41547375898907968 0 -0.009537301248459449 -0.42510302968362512 0 -0.026103506495360269 -0.43222827563723731 0 -0.009537301248459449 -0.42510302968362512 0 -0.019709463090837601 -0.44530454005801179 0 -0.038621424185474637 -0.4207153063468223 0 -0.026103506495360269 -0.43222827563723731 0 -0.027792962261932352 -0.41547375898907968 0 -0.017737199096442072 -0.40073047040120602 0 -0.027792962261932352 -0.41547375898907968 0 -0.009537301248459449 -0.42510302968362512 0 -0.017737199096442072 -0.40073047040120602 0 -0.033287388117186109 -0.40399871831440642 0 -0.027792962261932352 -0.41547375898907968 0 -0.001728596279610697 -0.40597762003102339 0 -0.017737199096442072 -0.40073047040120602 0 -0.009537301248459449 -0.42510302968362512 0 -0.017737199096442072 -0.40073047040120602 0 -0.009537301248459449 -0.42510302968362512 0 -0.001728596279610697 -0.40597762003102339 0 -0.009537301248459449 -0.42510302968362512 0 0.0082246319185010179 -0.41465428951275207 0 -0.009537301248459449 -0.42510302968362512 0 -0.0013374034004768371 -0.44947558896604423 0 -0.009537301248459449 -0.42510302968362512 0 -0.0013374034004768371 -0.44947558896604423 0 0.01039378864355619 -0.42848339288335913 0 -0.009537301248459449 -0.42510302968362512 0 -0.0013374034004768371 -0.44947558896604423 0 -0.019709463090837601 -0.44530454005801179 0 -0.0013374034004768371 -0.44947558896604423 0 -0.014612752260004851 -0.46155177919014362 0 -0.019709463090837601 -0.44530454005801179 0 -0.0013374034004768371 -0.44947558896604423 0 -0.014612752260004851 -0.46155177919014362 0 0.0068624944475057766 -0.47384814824846327 0 -0.014612752260004851 -0.46155177919014362 0 -0.028521420705905499 -0.4674310816654948 0 -0.030789477839635839 -0.45543267362212791 0 -0.014612752260004851 -0.46155177919014362 0 -0.030789477839635839 -0.45543267362212791 0 -0.019709463090837601 -0.44530454005801179 0 -0.030789477839635839 -0.45543267362212791 0 -0.019709463090837601 -0.44530454005801179 0 -0.035662081446574762 -0.44437129177822371 0 -0.026103506495360269 -0.43222827563723731 0 -0.019709463090837601 -0.44530454005801179 0 -0.035662081446574762 -0.44437129177822371 0 -0.015217900669161011 -0.5 0 -0.01418124297067914 -0.47781864258071971 0 0.0024053695883212941 -0.48891336768777249 0 -0.01418124297067914 -0.47781864258071971 0 0.0068624944475057766 -0.47384814824846327 0 0.0024053695883212941 -0.48891336768777249 0 -0.014612752260004851 -0.46155177919014362 0 -0.01418124297067914 -0.47781864258071971 0 0.0068624944475057766 -0.47384814824846327 0 -0.014612752260004851 -0.46155177919014362 0 -0.028521420705905499 -0.4674310816654948 0 -0.01418124297067914 -0.47781864258071971 0 -0.028521420705905499 -0.4674310816654948 0 -0.01418124297067914 -0.47781864258071971 0 -0.027752274071966478 -0.47742461628286209 0 -0.015217900669161011 -0.5 0 -0.027752274071966478 -0.47742461628286209 0 -0.038171784631523778 -0.48284131767108018 0 -0.015217900669161011 -0.5 0 -0.01418124297067914 -0.47781864258071971 0 -0.027752274071966478 -0.47742461628286209 0 -0.015217900669161011 -0.5 0 -0.043972809743024373 -0.5 0 -0.038171784631523778 -0.48284131767108018 0 -0.043972809743024373 -0.5 0 -0.038171784631523778 -0.48284131767108018 0 -0.049841179956411519 -0.48183723669954598 0 -0.038171784631523778 -0.48284131767108018 0 -0.048675315621036823 -0.47094071089761919 0 -0.038171784631523778 -0.48284131767108018 0 -0.048675315621036823 -0.47094071089761919 0 -0.049841179956411519 -0.48183723669954598 0 -0.027752274071966478 -0.47742461628286209 0 -0.038171784631523778 -0.48284131767108018 0 -0.038764373548703768 -0.47063519779216179 0 -0.028521420705905499 -0.4674310816654948 0 -0.027752274071966478 -0.47742461628286209 0 -0.038764373548703768 -0.47063519779216179 0 -0.038764373548703768 -0.47063519779216179 0 -0.048675315621036823 -0.47094071089761919 0 -0.045335619097383061 -0.46570514195792412 0 -0.038171784631523778 -0.48284131767108018 0 -0.038764373548703768 -0.47063519779216179 0 -0.048675315621036823 -0.47094071089761919 0 -0.048675315621036823 -0.47094071089761919 0 -0.055120034750126161 -0.47128965669693351 0 -0.049841179956411519 -0.48183723669954598 0 -0.048675315621036823 -0.47094071089761919 0 -0.055120034750126161 -0.47128965669693351 0 -0.057384894248553399 -0.46524593439390849 0 -0.055120034750126161 -0.47128965669693351 0 -0.059149819292987238 -0.47777467248794547 0 -0.064422500494955764 -0.4650694252783244 0 -0.059149819292987238 -0.47777467248794547 0 -0.049841179956411519 -0.48183723669954598 0 -0.058853327493046781 -0.48842932436532971 0 -0.055120034750126161 -0.47128965669693351 0 -0.059149819292987238 -0.47777467248794547 0 -0.049841179956411519 -0.48183723669954598 0 -0.059149819292987238 -0.47777467248794547 0 -0.058853327493046781 -0.48842932436532971 0 -0.068575109655922298 -0.48253471263916042 0 -0.043972809743024373 -0.5 0 -0.058853327493046781 -0.48842932436532971 0 -0.072727718816887776 -0.49999999999999672 0 -0.043972809743024373 -0.5 0 -0.049841179956411519 -0.48183723669954598 0 -0.058853327493046781 -0.48842932436532971 0 -0.045123684251444827 -0.45223268167437758 0 -0.035662081446574762 -0.44437129177822371 0 -0.048623679129421588 -0.44273110985945369 0 -0.04142135733128624 -0.43391233418184683 0 -0.035662081446574762 -0.44437129177822371 0 -0.048623679129421588 -0.44273110985945369 0 -0.030789477839635839 -0.45543267362212791 0 -0.045123684251444827 -0.45223268167437758 0 -0.035662081446574762 -0.44437129177822371 0 -0.030789477839635839 -0.45543267362212791 0 -0.045123684251444827 -0.45223268167437758 0 -0.04007978340352341 -0.46172459869688548 0 -0.028521420705905499 -0.4674310816654948 0 -0.030789477839635839 -0.45543267362212791 0 -0.04007978340352341 -0.46172459869688548 0 -0.028521420705905499 -0.4674310816654948 0 -0.038764373548703768 -0.47063519779216179 0 -0.04007978340352341 -0.46172459869688548 0 -0.038764373548703768 -0.47063519779216179 0 -0.04007978340352341 -0.46172459869688548 0 -0.045335619097383061 -0.46570514195792412 0 -0.04007978340352341 -0.46172459869688548 0 -0.045335619097383061 -0.46570514195792412 0 -0.047248161051959649 -0.4591011094540644 0 -0.045123684251444827 -0.45223268167437758 0 -0.04007978340352341 -0.46172459869688548 0 -0.047248161051959649 -0.4591011094540644 0 -0.045123684251444827 -0.45223268167437758 0 -0.050581796861615229 -0.45333412325219669 0 -0.047248161051959649 -0.4591011094540644 0 -0.050581796861615229 -0.45333412325219669 0 -0.047248161051959649 -0.4591011094540644 0 -0.051910461861691633 -0.46612409294888979 0 -0.051910461861691633 -0.46612409294888979 0 -0.05917884661055 -0.4590401041241583 0 -0.060002998013559863 -0.44648162232419802 0 -0.051910461861691633 -0.46612409294888979 0 -0.060002998013559863 -0.44648162232419802 0 -0.050581796861615229 -0.45333412325219669 0 -0.051910461861691633 -0.46612409294888979 0 -0.060002998013559863 -0.44648162232419802 0 -0.048675315621036823 -0.47094071089761919 0 -0.05917884661055 -0.4590401041241583 0 -0.048675315621036823 -0.47094071089761919 0 -0.051910461861691633 -0.46612409294888979 0 -0.05917884661055 -0.4590401041241583 0 -0.048675315621036823 -0.47094071089761919 0 -0.045335619097383061 -0.46570514195792412 0 -0.051910461861691633 -0.46612409294888979 0 -0.045335619097383061 -0.46570514195792412 0 -0.047248161051959649 -0.4591011094540644 0 -0.051910461861691633 -0.46612409294888979 0 -0.055120034750126161 -0.47128965669693351 0 -0.057384894248553399 -0.46524593439390849 0 -0.064422500494955764 -0.4650694252783244 0 -0.048675315621036823 -0.47094071089761919 0 -0.057384894248553399 -0.46524593439390849 0 -0.05917884661055 -0.4590401041241583 0 -0.057384894248553399 -0.46524593439390849 0 -0.05917884661055 -0.4590401041241583 0 -0.059237257045792073 -0.46090013765886428 0 -0.064422500494955764 -0.4650694252783244 0 -0.057384894248553399 -0.46524593439390849 0 -0.059237257045792073 -0.46090013765886428 0 -0.064422500494955764 -0.4650694252783244 0 -0.057384894248553399 -0.46524593439390849 0 -0.059237257045792073 -0.46090013765886428 0 -0.05917884661055 -0.4590401041241583 0 -0.059237257045792073 -0.46090013765886428 0 -0.062180371227510647 -0.45563934639583059 0 -0.064422500494955764 -0.4650694252783244 0 -0.059237257045792073 -0.46090013765886428 0 -0.05917884661055 -0.4590401041241583 0 -0.062180371227510647 -0.45563934639583059 0 -0.05917884661055 -0.4590401041241583 0 -0.062180371227510647 -0.45563934639583059 0 -0.05917884661055 -0.4590401041241583 0 -0.061269440441321127 -0.45180810022505591 0 -0.05917884661055 -0.4590401041241583 0 -0.062180371227510647 -0.45563934639583059 0 -0.061269440441321127 -0.45180810022505591 0 -0.062180371227510647 -0.45563934639583059 0 -0.061269440441321127 -0.45180810022505591 0 -0.055571169944573007 -0.4278419796903028 0 -0.060002998013559863 -0.44648162232419802 0 -0.048623679129421588 -0.44273110985945369 0 -0.05917884661055 -0.4590401041241583 0 -0.061269440441321127 -0.45180810022505591 0 -0.060002998013559863 -0.44648162232419802 0 -0.061269440441321127 -0.45180810022505591 0 -0.060002998013559863 -0.44648162232419802 0 -0.050581796861615229 -0.45333412325219669 0 -0.060002998013559863 -0.44648162232419802 0 -0.048623679129421588 -0.44273110985945369 0 -0.045123684251444827 -0.45223268167437758 0 -0.050581796861615229 -0.45333412325219669 0 -0.048623679129421588 -0.44273110985945369 0 -0.061269440441321127 -0.45180810022505591 0 -0.069408814394604765 -0.42365151461769918 0 -0.062180371227510647 -0.45563934639583059 0 -0.061269440441321127 -0.45180810022505591 0 -0.077098496045509793 -0.43873696019506903 0 -0.062180371227510647 -0.45563934639583059 0 -0.077098496045509793 -0.43873696019506903 0 -0.073769461018799692 -0.45951707792468061 0 -0.061269440441321127 -0.45180810022505591 0 -0.077098496045509793 -0.43873696019506903 0 -0.069408814394604765 -0.42365151461769918 0 -0.061269440441321127 -0.45180810022505591 0 -0.060002998013559863 -0.44648162232419802 0 -0.069408814394604765 -0.42365151461769918 0 -0.062180371227510647 -0.45563934639583059 0 -0.077098496045509793 -0.43873696019506903 0 -0.062180371227510647 -0.45563934639583059 0 -0.064422500494955764 -0.4650694252783244 0 -0.062180371227510647 -0.45563934639583059 0 -0.064422500494955764 -0.4650694252783244 0 -0.073769461018799692 -0.45951707792468061 0 -0.084521355142842869 -0.45759592347480388 0 -0.086143661312174283 -0.48253471263916248 0 -0.099165393688022629 -0.46120376842987459 0 -0.073769461018799692 -0.45951707792468061 0 -0.084521355142842869 -0.45759592347480388 0 -0.086143661312174283 -0.48253471263916248 0 -0.084521355142842869 -0.45759592347480388 0 -0.089624247433654214 -0.44685599598904568 0 -0.099165393688022629 -0.46120376842987459 0 -0.077098496045509793 -0.43873696019506903 0 -0.084521355142842869 -0.45759592347480388 0 -0.089624247433654214 -0.44685599598904568 0 -0.077098496045509793 -0.43873696019506903 0 -0.073769461018799692 -0.45951707792468061 0 -0.084521355142842869 -0.45759592347480388 0 -0.089624247433654214 -0.44685599598904568 0 -0.099878095611554862 -0.4393977270813314 0 -0.089545628933694749 -0.43673796215895883 0 -0.077098496045509793 -0.43873696019506903 0 -0.089624247433654214 -0.44685599598904568 0 -0.089545628933694749 -0.43673796215895883 0 -0.072727718816887776 -0.49999999999999672 0 -0.068575109655922298 -0.48253471263916042 0 -0.058853327493046781 -0.48842932436532971 0 -0.072727718816887776 -0.49999999999999672 0 -0.068575109655922298 -0.48253471263916042 0 -0.072727718816887776 -0.49999999999999672 0 -0.068575109655922298 -0.48253471263916042 0 -0.086143661312174283 -0.48253471263916248 0 -0.064422500494955764 -0.4650694252783244 0 -0.068575109655922298 -0.48253471263916042 0 -0.059149819292987238 -0.47777467248794547 0 -0.064422500494955764 -0.4650694252783244 0 -0.068575109655922298 -0.48253471263916042 0 -0.064422500494955764 -0.4650694252783244 0 -0.073769461018799692 -0.45951707792468061 0 -0.086143661312174283 -0.48253471263916248 0 -0.064422500494955764 -0.4650694252783244 0 -0.068575109655922298 -0.48253471263916042 0 -0.086143661312174283 -0.48253471263916248 0 -0.064422500494955764 -0.4650694252783244 0 -0.086143661312174283 -0.48253471263916248 0 -0.072727718816887776 -0.49999999999999672 0 -0.086143661312174283 -0.48253471263916248 0 -0.090296270473140428 -0.5 0 -0.086143661312174283 -0.48253471263916248 0 -0.090296270473140428 -0.5 0 -0.10786482212939311 -0.50000000000000011 0 -0.086143661312174283 -0.48253471263916248 0 -0.10786482212939311 -0.50000000000000011 0 -0.086143661312174283 -0.48253471263916248 0 -0.10786482212939311 -0.50000000000000011 0 -0.1056577076014347 -0.47999846360012538 0 -0.086143661312174283 -0.48253471263916248 0 -0.1056577076014347 -0.47999846360012538 0 -0.099165393688022629 -0.46120376842987459 0 -0.1056577076014347 -0.47999846360012538 0 -0.12108079434187891 -0.47202921183540031 0 -0.099165393688022629 -0.46120376842987459 0 -0.1056577076014347 -0.47999846360012538 0 -0.12108079434187891 -0.47202921183540031 0 -0.1206292342060253 -0.48641385964910883 0 -0.131118449396015 -0.5 0 -0.10786482212939311 -0.50000000000000011 0 -0.1206292342060253 -0.48641385964910883 0 -0.10786482212939311 -0.50000000000000011 0 -0.1056577076014347 -0.47999846360012538 0 -0.1206292342060253 -0.48641385964910883 0 -0.099878095611554862 -0.4393977270813314 0 -0.099165393688022629 -0.46120376842987459 0 -0.099878095611554862 -0.4393977270813314 0 -0.099165393688022629 -0.46120376842987459 0 -0.11615585050415531 -0.45102464773050138 0 -0.089624247433654214 -0.44685599598904568 0 -0.099878095611554862 -0.4393977270813314 0 -0.099165393688022629 -0.46120376842987459 0 -0.12108079434187891 -0.47202921183540031 0 -0.099165393688022629 -0.46120376842987459 0 -0.11615585050415531 -0.45102464773050138 0 -0.13077987840644981 -0.46069854066347632 0 -0.12108079434187891 -0.47202921183540031 0 -0.11615585050415531 -0.45102464773050138 0 -0.13194602454298601 -0.43962244526902572 0 -0.11615585050415531 -0.45102464773050138 0 -0.1129403580353462 -0.43280081863281078 0 -0.099878095611554862 -0.4393977270813314 0 -0.11615585050415531 -0.45102464773050138 0 -0.1129403580353462 -0.43280081863281078 0 -0.13194602454298601 -0.43962244526902572 0 -0.1165997240041481 -0.41847011486561592 0 -0.13194602454298601 -0.43962244526902572 0 -0.1129403580353462 -0.43280081863281078 0 -0.1165997240041481 -0.41847011486561592 0 -0.1129403580353462 -0.43280081863281078 0 -0.1079125428112538 -0.41892639524425412 0 -0.1165997240041481 -0.41847011486561592 0 -0.099878095611554862 -0.4393977270813314 0 -0.100590797535087 -0.41759168573278821 0 -0.092016620863508841 -0.4218345739943074 0 -0.099878095611554862 -0.4393977270813314 0 -0.089545628933694749 -0.43673796215895883 0 -0.092016620863508841 -0.4218345739943074 0 -0.099878095611554862 -0.4393977270813314 0 -0.1129403580353462 -0.43280081863281078 0 -0.10283731640903 -0.42510314405888588 0 -0.099878095611554862 -0.4393977270813314 0 -0.100590797535087 -0.41759168573278821 0 -0.099878095611554862 -0.4393977270813314 0 -0.10283731640903 -0.42510314405888588 0 -0.100590797535087 -0.41759168573278821 0 -0.1129403580353462 -0.43280081863281078 0 -0.10283731640903 -0.42510314405888588 0 -0.1079125428112538 -0.41892639524425412 0 -0.100590797535087 -0.41759168573278821 0 -0.1012534234653099 -0.39731778446220639 0 -0.1165997240041481 -0.41847011486561592 0 -0.1012534234653099 -0.39731778446220639 0 -0.100590797535087 -0.41759168573278821 0 -0.094499944748829334 -0.39722631626938482 0 -0.088610052547492879 -0.41006814396079783 0 -0.100590797535087 -0.41759168573278821 0 -0.1079125428112538 -0.41892639524425412 0 -0.1012534234653099 -0.39731778446220639 0 -0.100590797535087 -0.41759168573278821 0 -0.094499944748829334 -0.39722631626938482 0 -0.1079125428112538 -0.41892639524425412 0 -0.1165997240041481 -0.41847011486561592 0 -0.1012534234653099 -0.39731778446220639 0 -0.10283731640903 -0.42510314405888588 0 -0.100590797535087 -0.41759168573278821 0 -0.1079125428112538 -0.41892639524425412 0 -0.10283731640903 -0.42510314405888588 0 -0.100590797535087 -0.41759168573278821 0 -0.12592730430259419 -0.40432488328170318 0 -0.1165997240041481 -0.41847011486561592 0 -0.1152538145686829 -0.39895411709426332 0 -0.1165997240041481 -0.41847011486561592 0 -0.1152538145686829 -0.39895411709426332 0 -0.1012534234653099 -0.39731778446220639 0 -0.12526638733901391 -0.39147447277512609 0 -0.12592730430259419 -0.40432488328170318 0 -0.1152538145686829 -0.39895411709426332 0 -0.12526638733901391 -0.39147447277512609 0 -0.1152538145686829 -0.39895411709426332 0 -0.1147112201852714 -0.38836266809632891 0 -0.1152538145686829 -0.39895411709426332 0 -0.1147112201852714 -0.38836266809632891 0 -0.1077648281157602 -0.39377477908459929 0 -0.12526638733901391 -0.39147447277512609 0 -0.12201267174342199 -0.37938718301114999 0 -0.1147112201852714 -0.38836266809632891 0 -0.1147112201852714 -0.38836266809632891 0 -0.1094440337948836 -0.37923577087639421 0 -0.1073228884697877 -0.3875649225559597 0 -0.1147112201852714 -0.38836266809632891 0 -0.1073228884697877 -0.3875649225559597 0 -0.1077648281157602 -0.39377477908459929 0 -0.12201267174342199 -0.37938718301114999 0 -0.1147112201852714 -0.38836266809632891 0 -0.1094440337948836 -0.37923577087639421 0 -0.1159926709000937 -0.36685414663024191 0 -0.12201267174342199 -0.37938718301114999 0 -0.1094440337948836 -0.37923577087639421 0 -0.1024060606807759 -0.36205135125861898 0 -0.1094440337948836 -0.37923577087639421 0 -0.1016559479587178 -0.38500202459504551 0 -0.1094440337948836 -0.37923577087639421 0 -0.1016559479587178 -0.38500202459504551 0 -0.1073228884697877 -0.3875649225559597 0 -0.1016559479587178 -0.38500202459504551 0 -0.1014693111655476 -0.390712419775258 0 -0.1016559479587178 -0.38500202459504551 0 -0.1073228884697877 -0.3875649225559597 0 -0.1014693111655476 -0.390712419775258 0 -0.1016559479587178 -0.38500202459504551 0 -0.091585827134305964 -0.3839926061052007 0 -0.1016559479587178 -0.38500202459504551 0 -0.1014693111655476 -0.390712419775258 0 -0.093729726096669103 -0.3869476153003294 0 -0.1016559479587178 -0.38500202459504551 0 -0.091585827134305964 -0.3839926061052007 0 -0.093729726096669103 -0.3869476153003294 0 -0.1014693111655476 -0.390712419775258 0 -0.093729726096669103 -0.3869476153003294 0 -0.1016559479587178 -0.38500202459504551 0 -0.095426438310298192 -0.37780241062099151 0 -0.091585827134305964 -0.3839926061052007 0 -0.100590797535087 -0.41759168573278821 0 -0.1012534234653099 -0.39731778446220639 0 -0.099487365185966847 -0.39952233119993291 0 -0.100590797535087 -0.41759168573278821 0 -0.094499944748829334 -0.39722631626938482 0 -0.099487365185966847 -0.39952233119993291 0 -0.1152538145686829 -0.39895411709426332 0 -0.1077648281157602 -0.39377477908459929 0 -0.1012534234653099 -0.39731778446220639 0 -0.1073228884697877 -0.3875649225559597 0 -0.1077648281157602 -0.39377477908459929 0 -0.1014693111655476 -0.390712419775258 0 -0.1077648281157602 -0.39377477908459929 0 -0.1012534234653099 -0.39731778446220639 0 -0.1014693111655476 -0.390712419775258 0 -0.1077648281157602 -0.39377477908459929 0 -0.1014693111655476 -0.390712419775258 0 -0.1012534234653099 -0.39731778446220639 0 -0.094499944748829334 -0.39722631626938482 0 -0.099487365185966847 -0.39952233119993291 0 -0.1012534234653099 -0.39731778446220639 0 -0.094499944748829334 -0.39722631626938482 0 -0.093729726096669103 -0.3869476153003294 0 -0.1012534234653099 -0.39731778446220639 0 -0.1014693111655476 -0.390712419775258 0 -0.093729726096669103 -0.3869476153003294 0 -0.1012534234653099 -0.39731778446220639 0 -0.093729726096669103 -0.3869476153003294 0 -0.1012534234653099 -0.39731778446220639 0 -0.1014693111655476 -0.390712419775258 0 -0.094499944748829334 -0.39722631626938482 0 -0.099487365185966847 -0.39952233119993291 0 -0.094499944748829334 -0.39722631626938482 0 -0.085553154766675646 -0.40134027138503481 0 -0.088610052547492879 -0.41006814396079783 0 -0.094499944748829334 -0.39722631626938482 0 -0.082560309743270749 -0.39172977139542609 0 -0.085553154766675646 -0.40134027138503481 0 -0.094499944748829334 -0.39722631626938482 0 -0.082560309743270749 -0.39172977139542609 0 -0.091033556626635648 -0.38563610430902873 0 -0.094499944748829334 -0.39722631626938482 0 -0.082560309743270749 -0.39172977139542609 0 -0.094499944748829334 -0.39722631626938482 0 -0.091033556626635648 -0.38563610430902873 0 -0.082560309743270749 -0.39172977139542609 0 -0.079097438192195432 -0.39013559964190198 0 -0.074673198083630793 -0.40544040024196493 0 -0.082560309743270749 -0.39172977139542609 0 -0.079097438192195432 -0.39013559964190198 0 -0.082560309743270749 -0.39172977139542609 0 -0.076542312027108539 -0.406336853914531 0 -0.082560309743270749 -0.39172977139542609 0 -0.085553154766675646 -0.40134027138503481 0 -0.076542312027108539 -0.406336853914531 0 -0.085553154766675646 -0.40134027138503481 0 -0.076542312027108539 -0.406336853914531 0 -0.088610052547492879 -0.41006814396079783 0 -0.090139611558562177 -0.37333304007799939 0 -0.088525620654428705 -0.37725057202694517 0 -0.088525620654428705 -0.37725057202694517 0 -0.087954911787112483 -0.37534235041220648 0 -0.08170780991661282 -0.38109255286014232 0 -0.090139611558562177 -0.37333304007799939 0 -0.088525620654428705 -0.37725057202694517 0 -0.087954911787112483 -0.37534235041220648 0 -0.088525620654428705 -0.37725057202694517 0 -0.087954911787112483 -0.37534235041220648 0 -0.090139611558562177 -0.37333304007799939 0 -0.095426438310298192 -0.37780241062099151 0 -0.088525620654428705 -0.37725057202694517 0 -0.088525620654428705 -0.37725057202694517 0 -0.091585827134305964 -0.3839926061052007 0 -0.095426438310298192 -0.37780241062099151 0 -0.088525620654428705 -0.37725057202694517 0 -0.091585827134305964 -0.3839926061052007 0 -0.088525620654428705 -0.37725057202694517 0 -0.086634605294488312 -0.38349630075200858 0 -0.088525620654428705 -0.37725057202694517 0 -0.086634605294488312 -0.38349630075200858 0 -0.091585827134305964 -0.3839926061052007 0 -0.082560309743270749 -0.39172977139542609 0 -0.086634605294488312 -0.38349630075200858 0 -0.091033556626635648 -0.38563610430902873 0 -0.094499944748829334 -0.39722631626938482 0 -0.091033556626635648 -0.38563610430902873 0 -0.093729726096669103 -0.3869476153003294 0 -0.086634605294488312 -0.38349630075200858 0 -0.091585827134305964 -0.3839926061052007 0 -0.086634605294488312 -0.38349630075200858 0 -0.091033556626635648 -0.38563610430902873 0 -0.086634605294488312 -0.38349630075200858 0 -0.091585827134305964 -0.3839926061052007 0 -0.091033556626635648 -0.38563610430902873 0 -0.091585827134305964 -0.3839926061052007 0 -0.091033556626635648 -0.38563610430902873 0 -0.093729726096669103 -0.3869476153003294 0 -0.091033556626635648 -0.38563610430902873 0 -0.093729726096669103 -0.3869476153003294 0 -0.091585827134305964 -0.3839926061052007 0 -0.093729726096669103 -0.3869476153003294 0 -0.091585827134305964 -0.3839926061052007 0 -0.091033556626635648 -0.38563610430902873 0 -0.082560309743270749 -0.39172977139542609 0 -0.086634605294488312 -0.38349630075200858 0 -0.082560309743270749 -0.39172977139542609 0 -0.086634605294488312 -0.38349630075200858 0 -0.081174899406055781 -0.38294902548401538 0 -0.082560309743270749 -0.39172977139542609 0 -0.079097438192195432 -0.39013559964190198 0 -0.081174899406055781 -0.38294902548401538 0 -0.079097438192195432 -0.39013559964190198 0 -0.081174899406055781 -0.38294902548401538 0 -0.074281153156084773 -0.38791836881244668 0 -0.079097438192195432 -0.39013559964190198 0 -0.081174899406055781 -0.38294902548401538 0 -0.086634605294488312 -0.38349630075200858 0 -0.081174899406055781 -0.38294902548401538 0 -0.088525620654428705 -0.37725057202694517 0 -0.086634605294488312 -0.38349630075200858 0 -0.08170780991661282 -0.38109255286014232 0 -0.086634605294488312 -0.38349630075200858 0 -0.081174899406055781 -0.38294902548401538 0 -0.08170780991661282 -0.38109255286014232 0 -0.086634605294488312 -0.38349630075200858 0 -0.08170780991661282 -0.38109255286014232 0 -0.081174899406055781 -0.38294902548401538 0 -0.08170780991661282 -0.38109255286014232 0 -0.087954911787112483 -0.37534235041220648 0 -0.08170780991661282 -0.38109255286014232 0 -0.055512870853615448 -0.39455951290216967 0 -0.058563253679506787 -0.38068245751723601 0 -0.074281153156084773 -0.38791836881244668 0 -0.058563253679506787 -0.38068245751723601 0 -0.074281153156084773 -0.38791836881244668 0 -0.058387822440418388 -0.36975607908058028 0 -0.08170780991661282 -0.38109255286014232 0 -0.058387822440418388 -0.36975607908058028 0 -0.081174899406055781 -0.38294902548401538 0 -0.08170780991661282 -0.38109255286014232 0 -0.058563253679506787 -0.38068245751723601 0 -0.081174899406055781 -0.38294902548401538 0 -0.074281153156084773 -0.38791836881244668 0 -0.058563253679506787 -0.38068245751723601 0 -0.081174899406055781 -0.38294902548401538 0 -0.058387822440418388 -0.36975607908058028 0 -0.058563253679506787 -0.38068245751723601 0 -0.081174899406055781 -0.38294902548401538 0 -0.081174899406055781 -0.38294902548401538 0 -0.074281153156084773 -0.38791836881244668 0 -0.079097438192195432 -0.39013559964190198 0 -0.074281153156084773 -0.38791836881244668 0 -0.079097438192195432 -0.39013559964190198 0 -0.074281153156084773 -0.38791836881244668 0 -0.074673198083630793 -0.40544040024196493 0 -0.052509649903146327 -0.40794203844841681 0 -0.074281153156084773 -0.38791836881244668 0 -0.052509649903146327 -0.40794203844841681 0 -0.074281153156084773 -0.38791836881244668 0 -0.074673198083630793 -0.40544040024196493 0 -0.082560309743270749 -0.39172977139542609 0 -0.074673198083630793 -0.40544040024196493 0 -0.076542312027108539 -0.406336853914531 0 -0.079097438192195432 -0.39013559964190198 0 -0.074673198083630793 -0.40544040024196493 0 -0.052509649903146327 -0.40794203844841681 0 -0.074673198083630793 -0.40544040024196493 0 -0.070248957975066639 -0.42074520084202788 0 -0.076542312027108539 -0.406336853914531 0 -0.070248957975066639 -0.42074520084202788 0 -0.074673198083630793 -0.40544040024196493 0 -0.070248957975066639 -0.42074520084202788 0 -0.074673198083630793 -0.40544040024196493 0 -0.076542312027108539 -0.406336853914531 0 -0.070248957975066639 -0.42074520084202788 0 -0.070248957975066639 -0.42074520084202788 0 -0.077246521605040669 -0.42579562012280953 0 -0.078194253298280558 -0.41865647959270891 0 -0.076542312027108539 -0.406336853914531 0 -0.070248957975066639 -0.42074520084202788 0 -0.078194253298280558 -0.41865647959270891 0 -0.059775586818595829 -0.41787661413097049 0 -0.070248957975066639 -0.42074520084202788 0 -0.069408814394604765 -0.42365151461769918 0 -0.060002998013559863 -0.44648162232419802 0 -0.069408814394604765 -0.42365151461769918 0 -0.070248957975066639 -0.42074520084202788 0 -0.069408814394604765 -0.42365151461769918 0 -0.077098496045509793 -0.43873696019506903 0 -0.069408814394604765 -0.42365151461769918 0 -0.077246521605040669 -0.42579562012280953 0 -0.070248957975066639 -0.42074520084202788 0 -0.069408814394604765 -0.42365151461769918 0 -0.077246521605040669 -0.42579562012280953 0 -0.070248957975066639 -0.42074520084202788 0 -0.077246521605040669 -0.42579562012280953 0 -0.077246521605040669 -0.42579562012280953 0 -0.082943237868067593 -0.4239856173255338 0 -0.078194253298280558 -0.41865647959270891 0 -0.077098496045509793 -0.43873696019506903 0 -0.082943237868067593 -0.4239856173255338 0 -0.092016620863508841 -0.4218345739943074 0 -0.077098496045509793 -0.43873696019506903 0 -0.089545628933694749 -0.43673796215895883 0 -0.092016620863508841 -0.4218345739943074 0 -0.077098496045509793 -0.43873696019506903 0 -0.092016620863508841 -0.4218345739943074 0 -0.077098496045509793 -0.43873696019506903 0 -0.077246521605040669 -0.42579562012280953 0 -0.082943237868067593 -0.4239856173255338 0 -0.100590797535087 -0.41759168573278821 0 -0.092016620863508841 -0.4218345739943074 0 -0.088610052547492879 -0.41006814396079783 0 -0.082943237868067593 -0.4239856173255338 0 -0.092016620863508841 -0.4218345739943074 0 -0.083714880680240453 -0.41622037016703428 0 -0.092016620863508841 -0.4218345739943074 0 -0.088610052547492879 -0.41006814396079783 0 -0.083714880680240453 -0.41622037016703428 0 -0.076542312027108539 -0.406336853914531 0 -0.088610052547492879 -0.41006814396079783 0 -0.083714880680240453 -0.41622037016703428 0 -0.076542312027108539 -0.406336853914531 0 -0.078194253298280558 -0.41865647959270891 0 -0.083714880680240453 -0.41622037016703428 0 -0.082943237868067593 -0.4239856173255338 0 -0.078194253298280558 -0.41865647959270891 0 -0.083714880680240453 -0.41622037016703428 0 -0.081808777729522386 -0.083143660930833002 0 -0.073985000225153141 -0.099795971436559522 0 -0.085935801107842547 -0.09579043756499836 0 -0.081808777729522386 -0.083143660930833002 0 -0.085935801107842547 -0.09579043756499836 0 -0.094306078709463503 -0.087148618235937392 0 -0.081808777729522386 -0.083143660930833002 0 -0.094306078709463503 -0.087148618235937392 0 -0.095869533599057435 -0.074719864200214883 0 -0.081808777729522386 -0.083143660930833002 0 -0.087640100333796281 -0.066301869750421821 0 -0.076351800502585221 -0.068318825045574613 0 -0.081808777729522386 -0.083143660930833002 0 -0.087640100333796281 -0.066301869750421821 0 -0.095869533599057435 -0.074719864200214883 0 -0.087640100333796281 -0.066301869750421821 0 -0.095869533599057435 -0.074719864200214883 0 -0.097041901727127691 -0.062312633498474219 0 -0.087640100333796281 -0.066301869750421821 0 -0.076351800502585221 -0.068318825045574613 0 -0.079773765115028039 -0.057914828426178573 0 -0.081808777729522386 -0.083143660930833002 0 -0.076351800502585221 -0.068318825045574613 0 -0.068001603171865072 -0.074911341683796137 0 -0.068001603171865072 -0.074911341683796137 0 -0.065822825648978775 -0.060485584973140792 0 -0.05753372126900759 -0.073422836261521005 0 -0.076351800502585221 -0.068318825045574613 0 -0.068001603171865072 -0.074911341683796137 0 -0.065822825648978775 -0.060485584973140792 0 -0.068001603171865072 -0.074911341683796137 0 -0.066670257350634976 -0.085780572793309681 0 -0.05753372126900759 -0.073422836261521005 0 -0.081808777729522386 -0.083143660930833002 0 -0.066670257350634976 -0.085780572793309681 0 -0.073985000225153141 -0.099795971436559522 0 -0.081808777729522386 -0.083143660930833002 0 -0.068001603171865072 -0.074911341683796137 0 -0.066670257350634976 -0.085780572793309681 0 -0.066670257350634976 -0.085780572793309681 0 -0.073985000225153141 -0.099795971436559522 0 -0.05982498813170789 -0.10249801488187529 0 -0.073985000225153141 -0.099795971436559522 0 -0.065415314349395459 -0.11473522154729129 0 -0.05982498813170789 -0.10249801488187529 0 -0.073985000225153141 -0.099795971436559522 0 -0.065415314349395459 -0.11473522154729129 0 -0.07727601190464152 -0.1134926659633375 0 -0.065415314349395459 -0.11473522154729129 0 -0.060446148579459319 -0.1303024678998376 0 -0.071674103496310607 -0.1250344835198243 0 -0.07727601190464152 -0.1134926659633375 0 -0.082994471061899833 -0.1234246307735777 0 -0.071674103496310607 -0.1250344835198243 0 -0.065415314349395459 -0.11473522154729129 0 -0.07727601190464152 -0.1134926659633375 0 -0.071674103496310607 -0.1250344835198243 0 -0.07727601190464152 -0.1134926659633375 0 -0.082994471061899833 -0.1234246307735777 0 -0.08680817640523622 -0.1078855820033275 0 -0.082994471061899833 -0.1234246307735777 0 -0.08680817640523622 -0.1078855820033275 0 -0.095277368860953449 -0.1178446661751102 0 -0.082994471061899833 -0.1234246307735777 0 -0.095277368860953449 -0.1178446661751102 0 -0.095971306836852913 -0.13086642389395989 0 -0.085935801107842547 -0.09579043756499836 0 -0.08680817640523622 -0.1078855820033275 0 -0.1020424425883536 -0.1015565670732166 0 -0.073985000225153141 -0.099795971436559522 0 -0.085935801107842547 -0.09579043756499836 0 -0.08680817640523622 -0.1078855820033275 0 -0.073985000225153141 -0.099795971436559522 0 -0.07727601190464152 -0.1134926659633375 0 -0.08680817640523622 -0.1078855820033275 0 -0.085935801107842547 -0.09579043756499836 0 -0.1020424425883536 -0.1015565670732166 0 -0.094306078709463503 -0.087148618235937392 0 -0.08680817640523622 -0.1078855820033275 0 -0.1020424425883536 -0.1015565670732166 0 -0.095277368860953449 -0.1178446661751102 0 -0.1020424425883536 -0.1015565670732166 0 -0.095277368860953449 -0.1178446661751102 0 -0.1085913382140784 -0.11903379143832921 0 -0.095277368860953449 -0.1178446661751102 0 -0.1085913382140784 -0.11903379143832921 0 -0.095971306836852913 -0.13086642389395989 0 -0.1085913382140784 -0.11903379143832921 0 -0.11893842975153809 -0.10446969177473921 0 -0.12736410167423581 -0.1213878944680517 0 -0.1020424425883536 -0.1015565670732166 0 -0.11893842975153809 -0.10446969177473921 0 -0.1189291253072135 -0.086669643832799348 0 -0.1020424425883536 -0.1015565670732166 0 -0.1085913382140784 -0.11903379143832921 0 -0.11893842975153809 -0.10446969177473921 0 -0.1189291253072135 -0.086669643832799348 0 -0.1056068239719813 -0.08097964138995771 0 -0.1139735316209595 -0.069866863539540053 0 -0.1020424425883536 -0.1015565670732166 0 -0.1189291253072135 -0.086669643832799348 0 -0.1056068239719813 -0.08097964138995771 0 -0.1020424425883536 -0.1015565670732166 0 -0.1056068239719813 -0.08097964138995771 0 -0.094306078709463503 -0.087148618235937392 0 -0.1056068239719813 -0.08097964138995771 0 -0.094306078709463503 -0.087148618235937392 0 -0.095869533599057435 -0.074719864200214883 0 -0.095869533599057435 -0.074719864200214883 0 -0.1039382096783972 -0.069282752438140638 0 -0.097041901727127691 -0.062312633498474219 0 -0.1056068239719813 -0.08097964138995771 0 -0.1039382096783972 -0.069282752438140638 0 -0.1139735316209595 -0.069866863539540053 0 -0.1056068239719813 -0.08097964138995771 0 -0.095869533599057435 -0.074719864200214883 0 -0.1039382096783972 -0.069282752438140638 0 -0.1039382096783972 -0.069282752438140638 0 -0.097041901727127691 -0.062312633498474219 0 -0.1071992574728602 -0.058534759562516372 0 -0.1039382096783972 -0.069282752438140638 0 -0.1139735316209595 -0.069866863539540053 0 -0.1071992574728602 -0.058534759562516372 0 -0.1189291253072135 -0.086669643832799348 0 -0.1139735316209595 -0.069866863539540053 0 -0.12930964035960699 -0.069761515268982097 0 -0.1139735316209595 -0.069866863539540053 0 -0.1161384697585349 -0.056806249932135858 0 -0.12930964035960699 -0.069761515268982097 0 -0.1161384697585349 -0.056806249932135858 0 -0.1208541397454049 -0.045822468476665427 0 -0.12930964035960699 -0.069761515268982097 0 -0.1248214427799455 -0.0491876577223027 0 -0.1208541397454049 -0.045822468476665427 0 -0.12930964035960699 -0.069761515268982097 0 -0.1161384697585349 -0.056806249932135858 0 -0.10991932193075039 -0.048940588969216672 0 -0.1071992574728602 -0.058534759562516372 0 -0.1139735316209595 -0.069866863539540053 0 -0.1161384697585349 -0.056806249932135858 0 -0.1071992574728602 -0.058534759562516372 0 -0.1161384697585349 -0.056806249932135858 0 -0.10991932193075039 -0.048940588969216672 0 -0.1149357203506014 -0.047989794102068162 0 -0.1161384697585349 -0.056806249932135858 0 -0.1149357203506014 -0.047989794102068162 0 -0.1208541397454049 -0.045822468476665427 0 -0.1248214427799455 -0.0491876577223027 0 -0.1208541397454049 -0.045822468476665427 0 -0.1246368416492639 -0.024787675353444869 0 -0.1128309499677153 -0.040389869030254703 0 -0.10841128816168021 -0.033720593740292633 0 -0.11239863913120279 -0.021883421684348751 0 -0.1208541397454049 -0.045822468476665427 0 -0.11239863913120279 -0.021883421684348751 0 -0.1208541397454049 -0.045822468476665427 0 -0.1128309499677153 -0.040389869030254703 0 -0.11239863913120279 -0.021883421684348751 0 -0.1248214427799455 -0.0491876577223027 0 -0.1246368416492639 -0.024787675353444869 0 -0.1149357203506014 -0.047989794102068162 0 -0.1208541397454049 -0.045822468476665427 0 -0.1128309499677153 -0.040389869030254703 0 -0.10991932193075039 -0.048940588969216672 0 -0.1149357203506014 -0.047989794102068162 0 -0.1128309499677153 -0.040389869030254703 0 -0.10991932193075039 -0.048940588969216672 0 -0.1128309499677153 -0.040389869030254703 0 -0.1049963107845597 -0.040407454994133042 0 -0.10991932193075039 -0.048940588969216672 0 -0.1049963107845597 -0.040407454994133042 0 -0.1002598709818909 -0.049694841596422852 0 -0.1049963107845597 -0.040407454994133042 0 -0.10841128816168021 -0.033720593740292633 0 -0.1012581714839781 -0.029848849592015819 0 -0.1128309499677153 -0.040389869030254703 0 -0.1049963107845597 -0.040407454994133042 0 -0.10841128816168021 -0.033720593740292633 0 -0.097298262181343159 -0.039849987036595598 0 -0.1012581714839781 -0.029848849592015819 0 -0.091929659262116575 -0.033133953101480262 0 -0.1049963107845597 -0.040407454994133042 0 -0.097298262181343159 -0.039849987036595598 0 -0.1012581714839781 -0.029848849592015819 0 -0.1049963107845597 -0.040407454994133042 0 -0.097298262181343159 -0.039849987036595598 0 -0.1002598709818909 -0.049694841596422852 0 -0.097298262181343159 -0.039849987036595598 0 -0.1002598709818909 -0.049694841596422852 0 -0.087030839425688053 -0.044306376809862227 0 -0.1002598709818909 -0.049694841596422852 0 -0.097041901727127691 -0.062312633498474219 0 -0.1071992574728602 -0.058534759562516372 0 -0.1002598709818909 -0.049694841596422852 0 -0.097041901727127691 -0.062312633498474219 0 -0.090164156554830718 -0.055563028782557922 0 -0.10991932193075039 -0.048940588969216672 0 -0.1002598709818909 -0.049694841596422852 0 -0.1071992574728602 -0.058534759562516372 0 -0.1244522405185825 -0.00038769298458709092 0 -0.11239863913120279 -0.021883421684348751 0 -0.10394313851700079 0.0020556251079679459 0 -0.1244522405185825 -0.00038769298458709092 0 -0.1246368416492639 -0.024787675353444869 0 -0.1244522405185825 -0.00038769298458709092 0 -0.11239863913120279 -0.021883421684348751 0 -0.1246368416492639 -0.024787675353444869 0 -0.1208541397454049 -0.045822468476665427 0 -0.11239863913120279 -0.021883421684348751 0 -0.1246368416492639 -0.024787675353444869 0 -0.10841128816168021 -0.033720593740292633 0 -0.11239863913120279 -0.021883421684348751 0 -0.1012581714839781 -0.029848849592015819 0 -0.1012581714839781 -0.029848849592015819 0 -0.090677970328949406 -0.022917020247476879 0 -0.091929659262116575 -0.033133953101480262 0 -0.1012581714839781 -0.029848849592015819 0 -0.1001126671493681 -0.016491083843961009 0 -0.090677970328949406 -0.022917020247476879 0 -0.1001126671493681 -0.016491083843961009 0 -0.092285416285709382 -0.0098617528039315269 0 -0.090677970328949406 -0.022917020247476879 0 -0.11239863913120279 -0.021883421684348751 0 -0.1012581714839781 -0.029848849592015819 0 -0.1001126671493681 -0.016491083843961009 0 -0.1001126671493681 -0.016491083843961009 0 -0.092285416285709382 -0.0098617528039315269 0 -0.10394313851700079 0.0020556251079679459 0 -0.11239863913120279 -0.021883421684348751 0 -0.1001126671493681 -0.016491083843961009 0 -0.10394313851700079 0.0020556251079679459 0 -0.092285416285709382 -0.0098617528039315269 0 -0.10394313851700079 0.0020556251079679459 0 -0.085958893623968774 0.001514634656162053 0 -0.11239863913120279 -0.021883421684348751 0 -0.10394313851700079 0.0020556251079679459 0 -0.092285416285709382 -0.0098617528039315269 0 -0.077949881484559239 -0.01307625006729682 0 -0.085958893623968774 0.001514634656162053 0 -0.092285416285709382 -0.0098617528039315269 0 -0.090677970328949406 -0.022917020247476879 0 -0.077949881484559239 -0.01307625006729682 0 -0.090677970328949406 -0.022917020247476879 0 -0.073841780976804383 -0.025706854857452392 0 -0.077949881484559239 -0.01307625006729682 0 -0.090677970328949406 -0.022917020247476879 0 -0.073841780976804383 -0.025706854857452392 0 -0.082102255714859004 -0.034759692131612618 0 -0.090677970328949406 -0.022917020247476879 0 -0.091929659262116575 -0.033133953101480262 0 -0.082102255714859004 -0.034759692131612618 0 -0.073841780976804383 -0.025706854857452392 0 -0.077949881484559239 -0.01307625006729682 0 -0.060674527584339763 -0.015412449877807689 0 -0.073841780976804383 -0.025706854857452392 0 -0.060674527584339763 -0.015412449877807689 0 -0.060703590497751453 -0.03101491529774986 0 -0.077949881484559239 -0.01307625006729682 0 -0.085958893623968774 0.001514634656162053 0 -0.065648076432031049 0.00090955339710942099 0 -0.077949881484559239 -0.01307625006729682 0 -0.060674527584339763 -0.015412449877807689 0 -0.065648076432031049 0.00090955339710942099 0 -0.079773765115028039 -0.057914828426178573 0 -0.087030839425688053 -0.044306376809862227 0 -0.074827122987446398 -0.047817820925290022 0 -0.079773765115028039 -0.057914828426178573 0 -0.090164156554830718 -0.055563028782557922 0 -0.087030839425688053 -0.044306376809862227 0 -0.087640100333796281 -0.066301869750421821 0 -0.079773765115028039 -0.057914828426178573 0 -0.090164156554830718 -0.055563028782557922 0 -0.087640100333796281 -0.066301869750421821 0 -0.097041901727127691 -0.062312633498474219 0 -0.090164156554830718 -0.055563028782557922 0 -0.1002598709818909 -0.049694841596422852 0 -0.090164156554830718 -0.055563028782557922 0 -0.087030839425688053 -0.044306376809862227 0 -0.097298262181343159 -0.039849987036595598 0 -0.087030839425688053 -0.044306376809862227 0 -0.091929659262116575 -0.033133953101480262 0 -0.087030839425688053 -0.044306376809862227 0 -0.091929659262116575 -0.033133953101480262 0 -0.082102255714859004 -0.034759692131612618 0 -0.087030839425688053 -0.044306376809862227 0 -0.082102255714859004 -0.034759692131612618 0 -0.074827122987446398 -0.047817820925290022 0 -0.082102255714859004 -0.034759692131612618 0 -0.070942460250367517 -0.03706080152277047 0 -0.074827122987446398 -0.047817820925290022 0 -0.073841780976804383 -0.025706854857452392 0 -0.082102255714859004 -0.034759692131612618 0 -0.070942460250367517 -0.03706080152277047 0 -0.073841780976804383 -0.025706854857452392 0 -0.070942460250367517 -0.03706080152277047 0 -0.060703590497751453 -0.03101491529774986 0 -0.070942460250367517 -0.03706080152277047 0 -0.061850736208416378 -0.044087883634974623 0 -0.060703590497751453 -0.03101491529774986 0 -0.070942460250367517 -0.03706080152277047 0 -0.074827122987446398 -0.047817820925290022 0 -0.061850736208416378 -0.044087883634974623 0 -0.074827122987446398 -0.047817820925290022 0 -0.065822825648978775 -0.060485584973140792 0 -0.061850736208416378 -0.044087883634974623 0 -0.079773765115028039 -0.057914828426178573 0 -0.074827122987446398 -0.047817820925290022 0 -0.065822825648978775 -0.060485584973140792 0 -0.076351800502585221 -0.068318825045574613 0 -0.079773765115028039 -0.057914828426178573 0 -0.065822825648978775 -0.060485584973140792 0 -0.065822825648978775 -0.060485584973140792 0 -0.051906109188989122 -0.051634581827710108 0 -0.055146373663134192 -0.063188587977351315 0 -0.065822825648978775 -0.060485584973140792 0 -0.051906109188989122 -0.051634581827710108 0 -0.061850736208416378 -0.044087883634974623 0 -0.051906109188989122 -0.051634581827710108 0 -0.044968642856814678 -0.064628327886466996 0 -0.055146373663134192 -0.063188587977351315 0 -0.061850736208416378 -0.044087883634974623 0 -0.048286593140243993 -0.039377229684959138 0 -0.060703590497751453 -0.03101491529774986 0 -0.051906109188989122 -0.051634581827710108 0 -0.061850736208416378 -0.044087883634974623 0 -0.048286593140243993 -0.039377229684959138 0 -0.048286593140243993 -0.039377229684959138 0 -0.039642814346724391 -0.052475069278980747 0 -0.030584103036016622 -0.035608219704199993 0 -0.039642814346724391 -0.052475069278980747 0 -0.024435088609687641 -0.049746151716912712 0 -0.030584103036016622 -0.035608219704199993 0 -0.048286593140243993 -0.039377229684959138 0 -0.044331283213942488 -0.020119990811347448 0 -0.030584103036016622 -0.035608219704199993 0 -0.039642814346724391 -0.052475069278980747 0 -0.03034189778213453 -0.060014988360291517 0 -0.024435088609687641 -0.049746151716912712 0 -0.039642814346724391 -0.052475069278980747 0 -0.03034189778213453 -0.060014988360291517 0 -0.044968642856814678 -0.064628327886466996 0 -0.051906109188989122 -0.051634581827710108 0 -0.039642814346724391 -0.052475069278980747 0 -0.044968642856814678 -0.064628327886466996 0 -0.051906109188989122 -0.051634581827710108 0 -0.048286593140243993 -0.039377229684959138 0 -0.039642814346724391 -0.052475069278980747 0 -0.060674527584339763 -0.015412449877807689 0 -0.044331283213942488 -0.020119990811347448 0 -0.045118160941850949 -0.00049033847668307538 0 -0.060674527584339763 -0.015412449877807689 0 -0.045118160941850949 -0.00049033847668307538 0 -0.065648076432031049 0.00090955339710942099 0 -0.048286593140243993 -0.039377229684959138 0 -0.060703590497751453 -0.03101491529774986 0 -0.044331283213942488 -0.020119990811347448 0 -0.060674527584339763 -0.015412449877807689 0 -0.060703590497751453 -0.03101491529774986 0 -0.044331283213942488 -0.020119990811347448 0 -0.044331283213942488 -0.020119990811347448 0 -0.027025641752002061 -0.0079319500279313396 0 -0.030584103036016622 -0.035608219704199993 0 -0.044331283213942488 -0.020119990811347448 0 -0.045118160941850949 -0.00049033847668307538 0 -0.027025641752002061 -0.0079319500279313396 0 -0.027025641752002061 -0.0079319500279313396 0 -0.0118242871531395 -0.020545428430059291 0 -0.0091716063734174208 -0.003332990253060792 0 -0.027025641752002061 -0.0079319500279313396 0 -0.0091716063734174208 -0.003332990253060792 0 -0.01566814095190756 0.010235570601176981 0 -0.027025641752002061 -0.0079319500279313396 0 -0.0118242871531395 -0.020545428430059291 0 -0.030584103036016622 -0.035608219704199993 0 -0.0118242871531395 -0.020545428430059291 0 -0.030584103036016622 -0.035608219704199993 0 -0.0118242871531395 -0.020545428430059291 0 0.006935528729737548 -0.0054826371559186567 0 0.0027408304473846411 -0.028176541972939319 0 -0.0118242871531395 -0.020545428430059291 0 -0.01026660782967455 -0.041229232136501717 0 0.0027408304473846411 -0.028176541972939319 0 -0.0118242871531395 -0.020545428430059291 0 -0.0091716063734174208 -0.003332990253060792 0 0.006935528729737548 -0.0054826371559186567 0 -0.0118242871531395 -0.020545428430059291 0 0.006935528729737548 -0.0054826371559186567 0 -0.024435088609687641 -0.049746151716912712 0 -0.01026660782967455 -0.041229232136501717 0 -0.01499476028908407 -0.06055090283160456 0 -0.03034189778213453 -0.060014988360291517 0 -0.01499476028908407 -0.06055090283160456 0 -0.03034189778213453 -0.060014988360291517 0 -0.024435088609687641 -0.049746151716912712 0 -0.01499476028908407 -0.06055090283160456 0 -0.024435088609687641 -0.049746151716912712 0 -0.030584103036016622 -0.035608219704199993 0 -0.01026660782967455 -0.041229232136501717 0 -0.0118242871531395 -0.020545428430059291 0 -0.030584103036016622 -0.035608219704199993 0 -0.01026660782967455 -0.041229232136501717 0 -0.01026660782967455 -0.041229232136501717 0 0.0096258971738255473 -0.043108802377643002 0 0.00035237720396625368 -0.061086817302918282 0 -0.01026660782967455 -0.041229232136501717 0 -0.01499476028908407 -0.06055090283160456 0 0.00035237720396625368 -0.061086817302918282 0 -0.01499476028908407 -0.06055090283160456 0 0.00035237720396625368 -0.061086817302918282 0 -0.011408129540087309 -0.083886203777590068 0 0.0065051428120863272 -0.082127796022149757 0 0.00035237720396625368 -0.061086817302918282 0 -0.011408129540087309 -0.083886203777590068 0 0.00035237720396625368 -0.061086817302918282 0 -0.01499476028908407 -0.06055090283160456 0 -0.011408129540087309 -0.083886203777590068 0 0.00035237720396625368 -0.061086817302918282 0 -0.011408129540087309 -0.083886203777590068 0 0.001856719827670471 -0.098182337095309047 0 0.0065051428120863272 -0.082127796022149757 0 -0.011408129540087309 -0.083886203777590068 0 -0.03053113156520738 -0.089911417014305078 0 -0.02316863628414112 -0.10668559025226169 0 -0.011408129540087309 -0.083886203777590068 0 -0.03053113156520738 -0.089911417014305078 0 -0.026049830403481512 -0.075342802050597457 0 -0.01499476028908407 -0.06055090283160456 0 -0.011408129540087309 -0.083886203777590068 0 -0.026049830403481512 -0.075342802050597457 0 -0.03034189778213453 -0.060014988360291517 0 -0.01499476028908407 -0.06055090283160456 0 -0.026049830403481512 -0.075342802050597457 0 -0.03034189778213453 -0.060014988360291517 0 -0.026049830403481512 -0.075342802050597457 0 -0.041349905228919973 -0.078428718904655664 0 -0.03034189778213453 -0.060014988360291517 0 -0.044968642856814678 -0.064628327886466996 0 -0.041349905228919973 -0.078428718904655664 0 -0.03053113156520738 -0.089911417014305078 0 -0.026049830403481512 -0.075342802050597457 0 -0.041349905228919973 -0.078428718904655664 0 -0.03053113156520738 -0.089911417014305078 0 -0.041349905228919973 -0.078428718904655664 0 -0.047432501145458397 -0.097370211357339573 0 -0.041349905228919973 -0.078428718904655664 0 -0.053879666709155317 -0.08598560359304859 0 -0.05753372126900759 -0.073422836261521005 0 -0.041349905228919973 -0.078428718904655664 0 -0.053879666709155317 -0.08598560359304859 0 -0.047432501145458397 -0.097370211357339573 0 -0.066670257350634976 -0.085780572793309681 0 -0.053879666709155317 -0.08598560359304859 0 -0.05982498813170789 -0.10249801488187529 0 -0.066670257350634976 -0.085780572793309681 0 -0.053879666709155317 -0.08598560359304859 0 -0.05753372126900759 -0.073422836261521005 0 -0.044968642856814678 -0.064628327886466996 0 -0.041349905228919973 -0.078428718904655664 0 -0.05753372126900759 -0.073422836261521005 0 -0.065822825648978775 -0.060485584973140792 0 -0.05753372126900759 -0.073422836261521005 0 -0.055146373663134192 -0.063188587977351315 0 -0.044968642856814678 -0.064628327886466996 0 -0.05753372126900759 -0.073422836261521005 0 -0.055146373663134192 -0.063188587977351315 0 -0.065415314349395459 -0.11473522154729129 0 -0.048239208743362072 -0.1165718691901324 0 -0.05982498813170789 -0.10249801488187529 0 -0.065415314349395459 -0.11473522154729129 0 -0.048239208743362072 -0.1165718691901324 0 -0.060446148579459319 -0.1303024678998376 0 -0.048239208743362072 -0.1165718691901324 0 -0.05982498813170789 -0.10249801488187529 0 -0.047432501145458397 -0.097370211357339573 0 -0.053879666709155317 -0.08598560359304859 0 -0.05982498813170789 -0.10249801488187529 0 -0.047432501145458397 -0.097370211357339573 0 -0.048239208743362072 -0.1165718691901324 0 -0.047432501145458397 -0.097370211357339573 0 -0.02316863628414112 -0.10668559025226169 0 -0.03053113156520738 -0.089911417014305078 0 -0.047432501145458397 -0.097370211357339573 0 -0.02316863628414112 -0.10668559025226169 0 -0.048239208743362072 -0.1165718691901324 0 -0.02316863628414112 -0.10668559025226169 0 -0.029948833034415319 -0.13246817914486481 0 -0.02316863628414112 -0.10668559025226169 0 -0.01250087523651249 -0.12826546419306251 0 -0.029948833034415319 -0.13246817914486481 0 -0.011408129540087309 -0.083886203777590068 0 -0.02316863628414112 -0.10668559025226169 0 -0.02316863628414112 -0.10668559025226169 0 0.0015243557028834459 -0.11711868301268021 0 0.001856719827670471 -0.098182337095309047 0 -0.011408129540087309 -0.083886203777590068 0 -0.02316863628414112 -0.10668559025226169 0 0.001856719827670471 -0.098182337095309047 0 -0.02316863628414112 -0.10668559025226169 0 -0.01250087523651249 -0.12826546419306251 0 0.0015243557028834459 -0.11711868301268021 0 -0.01250087523651249 -0.12826546419306251 0 -0.013317386200938249 -0.14799664519887931 0 0.0088678229424013627 -0.13941235935176011 0 -0.01250087523651249 -0.12826546419306251 0 0.0088678229424013627 -0.13941235935176011 0 0.0015243557028834459 -0.11711868301268021 0 -0.01250087523651249 -0.12826546419306251 0 -0.029948833034415319 -0.13246817914486481 0 -0.013317386200938249 -0.14799664519887931 0 -0.013317386200938249 -0.14799664519887931 0 -0.035502595344277812 -0.15658093104599841 0 -0.029948833034415319 -0.13246817914486481 0 -0.013317386200938249 -0.14799664519887931 0 -0.035502595344277812 -0.15658093104599841 0 -0.013317386200938249 -0.14799664519887931 0 0.0088678229424013627 -0.13941235935176011 0 -0.013317386200938249 -0.14799664519887931 0 0.0027310736070901482 -0.15493719994590471 0 0.0088678229424013627 -0.13941235935176011 0 -0.013317386200938249 -0.14799664519887931 0 -0.0013673002328405961 -0.1767093328090546 0 0.0027310736070901482 -0.15493719994590471 0 -0.013317386200938249 -0.14799664519887931 0 -0.0013673002328405961 -0.1767093328090546 0 -0.029934926785222919 -0.1776443960910804 0 -0.0013673002328405961 -0.1767093328090546 0 -0.0217915143334447 -0.19785215020996011 0 -0.0013673002328405961 -0.1767093328090546 0 -0.029934926785222919 -0.1776443960910804 0 -0.0217915143334447 -0.19785215020996011 0 -0.013317386200938249 -0.14799664519887931 0 -0.029934926785222919 -0.1776443960910804 0 -0.035502595344277812 -0.15658093104599841 0 -0.035502595344277812 -0.15658093104599841 0 -0.057687804487617317 -0.16516521689311761 0 -0.029934926785222919 -0.1776443960910804 0 -0.035502595344277812 -0.15658093104599841 0 -0.057687804487617317 -0.16516521689311761 0 -0.029934926785222919 -0.1776443960910804 0 -0.048583433801033478 -0.18728911877980611 0 -0.034676635542126917 -0.191298641696723 0 -0.029934926785222919 -0.1776443960910804 0 -0.048583433801033478 -0.18728911877980611 0 -0.057687804487617317 -0.16516521689311761 0 -0.048583433801033478 -0.18728911877980611 0 -0.057687804487617317 -0.16516521689311761 0 -0.063770138428779252 -0.18079669395549949 0 -0.035502595344277812 -0.15658093104599841 0 -0.057687804487617317 -0.16516521689311761 0 -0.06059931965736505 -0.14742373122833671 0 -0.035502595344277812 -0.15658093104599841 0 -0.06059931965736505 -0.14742373122833671 0 -0.046947221071775923 -0.13666943570183401 0 -0.048239208743362072 -0.1165718691901324 0 -0.046947221071775923 -0.13666943570183401 0 -0.060446148579459319 -0.1303024678998376 0 -0.06059931965736505 -0.14742373122833671 0 -0.046947221071775923 -0.13666943570183401 0 -0.060446148579459319 -0.1303024678998376 0 -0.048239208743362072 -0.1165718691901324 0 -0.029948833034415319 -0.13246817914486481 0 -0.046947221071775923 -0.13666943570183401 0 -0.029948833034415319 -0.13246817914486481 0 -0.035502595344277812 -0.15658093104599841 0 -0.046947221071775923 -0.13666943570183401 0 -0.03064478186574425 -0.25326356670072259 0 -0.026067501294639708 -0.24850247980592871 0 -0.033387688564450117 -0.24425465961654741 0 -0.026067501294639708 -0.24850247980592871 0 -0.02456862519526215 -0.24210395604782819 0 -0.033387688564450117 -0.24425465961654741 0 -0.02974340118516787 -0.23585106297766359 0 -0.02456862519526215 -0.24210395604782819 0 -0.02062871475200042 -0.2320366992723622 0 -0.02974340118516787 -0.23585106297766359 0 -0.02456862519526215 -0.24210395604782819 0 -0.033387688564450117 -0.24425465961654741 0 -0.02456862519526215 -0.24210395604782819 0 -0.01660477195623393 -0.2403164687020414 0 -0.02062871475200042 -0.2320366992723622 0 -0.02456862519526215 -0.24210395604782819 0 -0.01660477195623393 -0.2403164687020414 0 -0.01887874476148543 -0.24814250919209771 0 -0.026067501294639708 -0.24850247980592871 0 -0.02456862519526215 -0.24210395604782819 0 -0.01887874476148543 -0.24814250919209771 0 -0.01660477195623393 -0.2403164687020414 0 -0.01887874476148543 -0.24814250919209771 0 -0.0080727856436109482 -0.2481099565327444 0 -0.0080727856436109482 -0.2481099565327444 0 -0.0084819670471955304 -0.2367225590632196 0 0.0055632338660241776 -0.24332209518663511 0 -0.01660477195623393 -0.2403164687020414 0 -0.0084819670471955304 -0.2367225590632196 0 -0.02062871475200042 -0.2320366992723622 0 -0.01660477195623393 -0.2403164687020414 0 -0.0080727856436109482 -0.2481099565327444 0 -0.0084819670471955304 -0.2367225590632196 0 -0.0084819670471955304 -0.2367225590632196 0 -0.0075276580997289226 -0.21896018305478171 0 0.0032521440618358652 -0.23009641691855939 0 -0.0084819670471955304 -0.2367225590632196 0 -0.0075276580997289226 -0.21896018305478171 0 -0.02062871475200042 -0.2320366992723622 0 -0.0075276580997289226 -0.21896018305478171 0 -0.02062871475200042 -0.2320366992723622 0 -0.024832472176938718 -0.21885173135413241 0 -0.02974340118516787 -0.23585106297766359 0 -0.02062871475200042 -0.2320366992723622 0 -0.031998745265470661 -0.22641465662269231 0 -0.02062871475200042 -0.2320366992723622 0 -0.024832472176938718 -0.21885173135413241 0 -0.031998745265470661 -0.22641465662269231 0 -0.0075276580997289226 -0.21896018305478171 0 -0.024832472176938718 -0.21885173135413241 0 -0.0217915143334447 -0.19785215020996011 0 -0.024832472176938718 -0.21885173135413241 0 -0.0217915143334447 -0.19785215020996011 0 -0.042215728434048867 -0.21899496761086559 0 -0.0075276580997289226 -0.21896018305478171 0 -0.0217915143334447 -0.19785215020996011 0 0.003555539334036632 -0.19934620758084881 0 -0.0013673002328405961 -0.1767093328090546 0 -0.0217915143334447 -0.19785215020996011 0 0.003555539334036632 -0.19934620758084881 0 -0.029934926785222919 -0.1776443960910804 0 -0.0217915143334447 -0.19785215020996011 0 -0.034676635542126917 -0.191298641696723 0 -0.0217915143334447 -0.19785215020996011 0 -0.034676635542126917 -0.191298641696723 0 -0.04224094911505525 -0.20168175555289891 0 -0.048583433801033478 -0.18728911877980611 0 -0.034676635542126917 -0.191298641696723 0 -0.04224094911505525 -0.20168175555289891 0 -0.048583433801033478 -0.18728911877980611 0 -0.058327232484387218 -0.2013044317948425 0 -0.063770138428779252 -0.18079669395549949 0 -0.048583433801033478 -0.18728911877980611 0 -0.04224094911505525 -0.20168175555289891 0 -0.058327232484387218 -0.2013044317948425 0 -0.058327232484387218 -0.2013044317948425 0 -0.04785115009529034 -0.21335122322519601 0 -0.065984069430329237 -0.21594808513783789 0 -0.04224094911505525 -0.20168175555289891 0 -0.058327232484387218 -0.2013044317948425 0 -0.04785115009529034 -0.21335122322519601 0 -0.04785115009529034 -0.21335122322519601 0 -0.065984069430329237 -0.21594808513783789 0 -0.04785115009529034 -0.21335122322519601 0 -0.050089297127046031 -0.22131182591420251 0 -0.065984069430329237 -0.21594808513783789 0 -0.0217915143334447 -0.19785215020996011 0 -0.042215728434048867 -0.21899496761086559 0 -0.0217915143334447 -0.19785215020996011 0 -0.04224094911505525 -0.20168175555289891 0 -0.042215728434048867 -0.21899496761086559 0 -0.04224094911505525 -0.20168175555289891 0 -0.04785115009529034 -0.21335122322519601 0 -0.042215728434048867 -0.21899496761086559 0 -0.04785115009529034 -0.21335122322519601 0 -0.042215728434048867 -0.21899496761086559 0 -0.050089297127046031 -0.22131182591420251 0 -0.024832472176938718 -0.21885173135413241 0 -0.031998745265470661 -0.22641465662269231 0 -0.042215728434048867 -0.21899496761086559 0 -0.031998745265470661 -0.22641465662269231 0 -0.042215728434048867 -0.21899496761086559 0 -0.041320068815934301 -0.22639292378782619 0 -0.031998745265470661 -0.22641465662269231 0 -0.041320068815934301 -0.22639292378782619 0 -0.038133232148655979 -0.23444534332888789 0 -0.02974340118516787 -0.23585106297766359 0 -0.031998745265470661 -0.22641465662269231 0 -0.038133232148655979 -0.23444534332888789 0 -0.041320068815934301 -0.22639292378782619 0 -0.052151212760384272 -0.22988480121754831 0 -0.038133232148655979 -0.23444534332888789 0 -0.042215728434048867 -0.21899496761086559 0 -0.041320068815934301 -0.22639292378782619 0 -0.050089297127046031 -0.22131182591420251 0 -0.041320068815934301 -0.22639292378782619 0 -0.050089297127046031 -0.22131182591420251 0 -0.052151212760384272 -0.22988480121754831 0 -0.0567919256119837 -0.24387644547435741 0 -0.065984069430329237 -0.21594808513783789 0 -0.050089297127046031 -0.22131182591420251 0 -0.052151212760384272 -0.22988480121754831 0 -0.065984069430329237 -0.21594808513783789 0 -0.052151212760384272 -0.22988480121754831 0 -0.0567919256119837 -0.24387644547435741 0 -0.065984069430329237 -0.21594808513783789 0 -0.052151212760384272 -0.22988480121754831 0 -0.0567919256119837 -0.24387644547435741 0 -0.045207486351244337 -0.24272005325013779 0 -0.046517308340487992 -0.25474718453952289 0 -0.0567919256119837 -0.24387644547435741 0 -0.045207486351244337 -0.24272005325013779 0 -0.038581934025118947 -0.25114857380685968 0 -0.046517308340487992 -0.25474718453952289 0 -0.045207486351244337 -0.24272005325013779 0 -0.052151212760384272 -0.22988480121754831 0 -0.045207486351244337 -0.24272005325013779 0 -0.038133232148655979 -0.23444534332888789 0 -0.02974340118516787 -0.23585106297766359 0 -0.038133232148655979 -0.23444534332888789 0 -0.033387688564450117 -0.24425465961654741 0 -0.045207486351244337 -0.24272005325013779 0 -0.038133232148655979 -0.23444534332888789 0 -0.033387688564450117 -0.24425465961654741 0 -0.038581934025118947 -0.25114857380685968 0 -0.03064478186574425 -0.25326356670072259 0 -0.033387688564450117 -0.24425465961654741 0 -0.038581934025118947 -0.25114857380685968 0 -0.045207486351244337 -0.24272005325013779 0 -0.033387688564450117 -0.24425465961654741 0 -0.076282262678724011 -0.24169347649274159 0 -0.094544528280961701 -0.23130979592197831 0 -0.1005321994236209 -0.2431127607729493 0 -0.090174700483665673 -0.26498018187443112 0 -0.076282262678724011 -0.24169347649274159 0 -0.1005321994236209 -0.2431127607729493 0 -0.063484538676239377 -0.26413124226689111 0 -0.0567919256119837 -0.24387644547435741 0 -0.076282262678724011 -0.24169347649274159 0 -0.0567919256119837 -0.24387644547435741 0 -0.076282262678724011 -0.24169347649274159 0 -0.076216545617433393 -0.2267874217425101 0 -0.0567919256119837 -0.24387644547435741 0 -0.076216545617433393 -0.2267874217425101 0 -0.065984069430329237 -0.21594808513783789 0 -0.076216545617433393 -0.2267874217425101 0 -0.089079986681209755 -0.21925571071859279 0 -0.065984069430329237 -0.21594808513783789 0 -0.076282262678724011 -0.24169347649274159 0 -0.076216545617433393 -0.2267874217425101 0 -0.089079986681209755 -0.21925571071859279 0 -0.076282262678724011 -0.24169347649274159 0 -0.089079986681209755 -0.21925571071859279 0 -0.076282262678724011 -0.24169347649274159 0 -0.089079986681209755 -0.21925571071859279 0 -0.094544528280961701 -0.23130979592197831 0 -0.089079986681209755 -0.21925571071859279 0 -0.087982693832912948 -0.20610030108417279 0 -0.065984069430329237 -0.21594808513783789 0 -0.089079986681209755 -0.21925571071859279 0 -0.091681034097487346 -0.21469539259619891 0 -0.087982693832912948 -0.20610030108417279 0 -0.089079986681209755 -0.21925571071859279 0 -0.091681034097487346 -0.21469539259619891 0 -0.089079986681209755 -0.21925571071859279 0 -0.065984069430329237 -0.21594808513783789 0 -0.058327232484387218 -0.2013044317948425 0 -0.065984069430329237 -0.21594808513783789 0 -0.072928541530643487 -0.1948487939390374 0 -0.065984069430329237 -0.21594808513783789 0 -0.072928541530643487 -0.1948487939390374 0 -0.087982693832912948 -0.20610030108417279 0 -0.065984069430329237 -0.21594808513783789 0 -0.072928541530643487 -0.1948487939390374 0 -0.058327232484387218 -0.2013044317948425 0 -0.072928541530643487 -0.1948487939390374 0 -0.063770138428779252 -0.18079669395549949 0 -0.087982693832912948 -0.20610030108417279 0 -0.072928541530643487 -0.1948487939390374 0 -0.088647710124579282 -0.1895137930351245 0 -0.087982693832912948 -0.20610030108417279 0 -0.088647710124579282 -0.1895137930351245 0 -0.098413722631135098 -0.19641739989264009 0 -0.088647710124579282 -0.1895137930351245 0 -0.098413722631135098 -0.19641739989264009 0 -0.1039428787252024 -0.18306303235069041 0 -0.087982693832912948 -0.20610030108417279 0 -0.098413722631135098 -0.19641739989264009 0 -0.1018219586260966 -0.2062222809526808 0 -0.098413722631135098 -0.19641739989264009 0 -0.10967337184688419 -0.19718759204053191 0 -0.1018219586260966 -0.2062222809526808 0 -0.098413722631135098 -0.19641739989264009 0 -0.10967337184688419 -0.19718759204053191 0 -0.1039428787252024 -0.18306303235069041 0 -0.1039428787252024 -0.18306303235069041 0 -0.1280127438194481 -0.19237656196114411 0 -0.10967337184688419 -0.19718759204053191 0 -0.1178174188303993 -0.20556040013348681 0 -0.1280127438194481 -0.19237656196114411 0 -0.10967337184688419 -0.19718759204053191 0 -0.1039428787252024 -0.18306303235069041 0 -0.1280127438194481 -0.19237656196114411 0 -0.10967337184688419 -0.19718759204053191 0 -0.10961342770230489 -0.21003706569406461 0 -0.1178174188303993 -0.20556040013348681 0 -0.1178174188303993 -0.20556040013348681 0 -0.1109550451866443 -0.21888036136960631 0 -0.13246178853905299 -0.20873151589840269 0 -0.1109550451866443 -0.21888036136960631 0 -0.13246178853905299 -0.20873151589840269 0 -0.1109550451866443 -0.21888036136960631 0 -0.12407830270498089 -0.22426790937284519 0 -0.13246178853905299 -0.20873151589840269 0 -0.10961342770230489 -0.21003706569406461 0 -0.1178174188303993 -0.20556040013348681 0 -0.1109550451866443 -0.21888036136960631 0 -0.10961342770230489 -0.21003706569406461 0 -0.103172625086798 -0.22127395363072039 0 -0.1109550451866443 -0.21888036136960631 0 -0.10961342770230489 -0.21003706569406461 0 -0.1018219586260966 -0.2062222809526808 0 -0.103172625086798 -0.22127395363072039 0 -0.10967337184688419 -0.19718759204053191 0 -0.10961342770230489 -0.21003706569406461 0 -0.1018219586260966 -0.2062222809526808 0 -0.091681034097487346 -0.21469539259619891 0 -0.087982693832912948 -0.20610030108417279 0 -0.103172625086798 -0.22127395363072039 0 -0.089079986681209755 -0.21925571071859279 0 -0.091681034097487346 -0.21469539259619891 0 -0.103172625086798 -0.22127395363072039 0 -0.087982693832912948 -0.20610030108417279 0 -0.103172625086798 -0.22127395363072039 0 -0.087982693832912948 -0.20610030108417279 0 -0.1018219586260966 -0.2062222809526808 0 -0.103172625086798 -0.22127395363072039 0 -0.094544528280961701 -0.23130979592197831 0 -0.103172625086798 -0.22127395363072039 0 -0.1005321994236209 -0.2431127607729493 0 -0.089079986681209755 -0.21925571071859279 0 -0.103172625086798 -0.22127395363072039 0 -0.089079986681209755 -0.21925571071859279 0 -0.094544528280961701 -0.23130979592197831 0 -0.103172625086798 -0.22127395363072039 0 -0.103172625086798 -0.22127395363072039 0 -0.1223681628105569 -0.24044891992886891 0 -0.103172625086798 -0.22127395363072039 0 -0.12407830270498089 -0.22426790937284519 0 -0.1238233973506119 -0.23541481827178831 0 -0.103172625086798 -0.22127395363072039 0 -0.1223681628105569 -0.24044891992886891 0 -0.1238233973506119 -0.23541481827178831 0 -0.103172625086798 -0.22127395363072039 0 -0.12407830270498089 -0.22426790937284519 0 -0.103172625086798 -0.22127395363072039 0 -0.1109550451866443 -0.21888036136960631 0 -0.12407830270498089 -0.22426790937284519 0 -0.11757885349586771 -0.25701660664448461 0 -0.1223681628105569 -0.24044891992886891 0 -0.1005321994236209 -0.2431127607729493 0 -0.11757885349586771 -0.25701660664448461 0 -0.1223681628105569 -0.24044891992886891 0 -0.1223681628105569 -0.24044891992886891 0 -0.1238233973506119 -0.23541481827178831 0 -0.103172625086798 -0.22127395363072039 0 -0.1223681628105569 -0.24044891992886891 0 -0.1005321994236209 -0.2431127607729493 0 -0.088441251280713618 -0.1477167476767523 0 -0.085474651021334253 -0.13655174303235951 0 -0.077236065216807342 -0.1460130695171887 0 -0.088441251280713618 -0.1477167476767523 0 -0.077236065216807342 -0.1460130695171887 0 -0.072985053953480025 -0.15595005707556001 0 -0.088441251280713618 -0.1477167476767523 0 -0.093538562727787294 -0.15940564464812701 0 -0.098894310772838973 -0.14952020789867901 0 -0.088441251280713618 -0.1477167476767523 0 -0.085474651021334253 -0.13655174303235951 0 -0.095252038160572317 -0.1406191133899993 0 -0.085474651021334253 -0.13655174303235951 0 -0.095971306836852913 -0.13086642389395989 0 -0.095252038160572317 -0.1406191133899993 0 -0.082994471061899833 -0.1234246307735777 0 -0.085474651021334253 -0.13655174303235951 0 -0.095971306836852913 -0.13086642389395989 0 -0.082994471061899833 -0.1234246307735777 0 -0.085474651021334253 -0.13655174303235951 0 -0.073596501371478315 -0.1364787996572045 0 -0.085474651021334253 -0.13655174303235951 0 -0.073596501371478315 -0.1364787996572045 0 -0.077236065216807342 -0.1460130695171887 0 -0.06059931965736505 -0.14742373122833671 0 -0.060446148579459319 -0.1303024678998376 0 -0.073596501371478315 -0.1364787996572045 0 -0.082994471061899833 -0.1234246307735777 0 -0.073596501371478315 -0.1364787996572045 0 -0.071674103496310607 -0.1250344835198243 0 -0.060446148579459319 -0.1303024678998376 0 -0.073596501371478315 -0.1364787996572045 0 -0.071674103496310607 -0.1250344835198243 0 -0.06059931965736505 -0.14742373122833671 0 -0.073596501371478315 -0.1364787996572045 0 -0.077236065216807342 -0.1460130695171887 0 -0.057687804487617317 -0.16516521689311761 0 -0.06059931965736505 -0.14742373122833671 0 -0.072985053953480025 -0.15595005707556001 0 -0.06059931965736505 -0.14742373122833671 0 -0.077236065216807342 -0.1460130695171887 0 -0.072985053953480025 -0.15595005707556001 0 -0.057687804487617317 -0.16516521689311761 0 -0.079873013630956835 -0.17374950274023659 0 -0.057687804487617317 -0.16516521689311761 0 -0.072985053953480025 -0.15595005707556001 0 -0.079873013630956835 -0.17374950274023659 0 -0.072928541530643487 -0.1948487939390374 0 -0.079873013630956835 -0.17374950274023659 0 -0.057687804487617317 -0.16516521689311761 0 -0.063770138428779252 -0.18079669395549949 0 -0.079873013630956835 -0.17374950274023659 0 -0.072928541530643487 -0.1948487939390374 0 -0.063770138428779252 -0.18079669395549949 0 -0.079873013630956835 -0.17374950274023659 0 -0.072928541530643487 -0.1948487939390374 0 -0.088647710124579282 -0.1895137930351245 0 -0.079873013630956835 -0.17374950274023659 0 -0.079873013630956835 -0.17374950274023659 0 -0.1039428787252024 -0.18306303235069041 0 -0.088647710124579282 -0.1895137930351245 0 -0.079873013630956835 -0.17374950274023659 0 -0.1039428787252024 -0.18306303235069041 0 -0.088441251280713618 -0.1477167476767523 0 -0.079873013630956835 -0.17374950274023659 0 -0.079873013630956835 -0.17374950274023659 0 -0.093538562727787294 -0.15940564464812701 0 -0.098088850166783578 -0.16700629557107341 0 -0.088441251280713618 -0.1477167476767523 0 -0.079873013630956835 -0.17374950274023659 0 -0.093538562727787294 -0.15940564464812701 0 -0.088441251280713618 -0.1477167476767523 0 -0.072985053953480025 -0.15595005707556001 0 -0.079873013630956835 -0.17374950274023659 0 -0.093538562727787294 -0.15940564464812701 0 -0.098088850166783578 -0.16700629557107341 0 -0.1023953877876435 -0.15903546935389351 0 -0.098088850166783578 -0.16700629557107341 0 -0.1039428787252024 -0.18306303235069041 0 -0.1119878388851908 -0.16231915977259129 0 -0.098088850166783578 -0.16700629557107341 0 -0.1023953877876435 -0.15903546935389351 0 -0.1119878388851908 -0.16231915977259129 0 -0.079873013630956835 -0.17374950274023659 0 -0.098088850166783578 -0.16700629557107341 0 -0.1039428787252024 -0.18306303235069041 0 -0.1039428787252024 -0.18306303235069041 0 -0.11859204859796291 -0.17560578940816099 0 -0.1119878388851908 -0.16231915977259129 0 -0.1039428787252024 -0.18306303235069041 0 -0.11859204859796291 -0.17560578940816099 0 -0.1280127438194481 -0.19237656196114411 0 -0.1023953877876435 -0.15903546935389351 0 -0.1119878388851908 -0.16231915977259129 0 -0.1169630623746598 -0.14907522687480429 0 -0.11859204859796291 -0.17560578940816099 0 -0.1119878388851908 -0.16231915977259129 0 -0.12588679133122799 -0.1624874708491951 0 -0.1119878388851908 -0.16231915977259129 0 -0.1169630623746598 -0.14907522687480429 0 -0.12588679133122799 -0.1624874708491951 0 -0.1119878388851908 -0.16231915977259129 0 -0.1169630623746598 -0.14907522687480429 0 -0.1023953877876435 -0.15903546935389351 0 -0.1169630623746598 -0.14907522687480429 0 -0.098894310772838973 -0.14952020789867901 0 -0.1169630623746598 -0.14907522687480429 0 -0.098894310772838973 -0.14952020789867901 0 -0.1169630623746598 -0.14907522687480429 0 -0.098894310772838973 -0.14952020789867901 0 -0.1074786708911218 -0.1384404444482458 0 -0.088441251280713618 -0.1477167476767523 0 -0.098894310772838973 -0.14952020789867901 0 -0.095252038160572317 -0.1406191133899993 0 -0.098894310772838973 -0.14952020789867901 0 -0.095252038160572317 -0.1406191133899993 0 -0.1074786708911218 -0.1384404444482458 0 -0.093538562727787294 -0.15940564464812701 0 -0.1023953877876435 -0.15903546935389351 0 -0.098894310772838973 -0.14952020789867901 0 -0.1085913382140784 -0.11903379143832921 0 -0.095971306836852913 -0.13086642389395989 0 -0.1074786708911218 -0.1384404444482458 0 -0.095971306836852913 -0.13086642389395989 0 -0.095252038160572317 -0.1406191133899993 0 -0.1074786708911218 -0.1384404444482458 0 -0.1085913382140784 -0.11903379143832921 0 -0.1074786708911218 -0.1384404444482458 0 -0.12736410167423581 -0.1213878944680517 0 -0.1169630623746598 -0.14907522687480429 0 -0.1074786708911218 -0.1384404444482458 0 -0.12736410167423581 -0.1213878944680517 0 -0.1169630623746598 -0.14907522687480429 0 -0.12736410167423581 -0.1213878944680517 0 -0.13746664940214659 -0.13470709103134659 0 -0.12736410167423581 -0.1213878944680517 0 -0.14737054533773081 -0.1208951937003558 0 -0.1169630623746598 -0.14907522687480429 0 -0.13746664940214659 -0.13470709103134659 0 -0.12736410167423581 -0.1213878944680517 0 -0.1569759497016511 -0.14808982533941309 0 -0.14737054533773081 -0.1208951937003558 0 -0.13746664940214659 -0.13470709103134659 0 -0.1569759497016511 -0.14808982533941309 0 -0.14737054533773081 -0.1208951937003558 0 -0.1369695060381555 -0.1485825261071109 0 -0.1526603788815559 -0.1573596194762775 0 -0.1569759497016511 -0.14808982533941309 0 -0.13746664940214659 -0.13470709103134659 0 -0.1369695060381555 -0.1485825261071109 0 -0.1569759497016511 -0.14808982533941309 0 -0.1369695060381555 -0.1485825261071109 0 -0.1569759497016511 -0.14808982533941309 0 -0.1169630623746598 -0.14907522687480429 0 -0.1369695060381555 -0.1485825261071109 0 -0.1169630623746598 -0.14907522687480429 0 -0.1369695060381555 -0.1485825261071109 0 -0.12588679133122799 -0.1624874708491951 0 -0.1169630623746598 -0.14907522687480429 0 -0.13746664940214659 -0.13470709103134659 0 -0.1369695060381555 -0.1485825261071109 0 -0.11859204859796291 -0.17560578940816099 0 -0.12588679133122799 -0.1624874708491951 0 -0.13147554750711021 -0.17522771154146191 0 -0.12588679133122799 -0.1624874708491951 0 -0.13147554750711021 -0.17522771154146191 0 -0.14107140235061469 -0.16358211752318311 0 -0.13147554750711021 -0.17522771154146191 0 -0.14520517551865919 -0.17294749126987599 0 -0.14107140235061469 -0.16358211752318311 0 -0.1369695060381555 -0.1485825261071109 0 -0.12588679133122799 -0.1624874708491951 0 -0.14107140235061469 -0.16358211752318311 0 -0.11859204859796291 -0.17560578940816099 0 -0.13147554750711021 -0.17522771154146191 0 -0.1280127438194481 -0.19237656196114411 0 -0.13147554750711021 -0.17522771154146191 0 -0.1398254013782112 -0.18365029146927231 0 -0.1280127438194481 -0.19237656196114411 0 -0.13147554750711021 -0.17522771154146191 0 -0.1398254013782112 -0.18365029146927231 0 -0.14520517551865919 -0.17294749126987599 0 -0.1398254013782112 -0.18365029146927231 0 -0.14820117369214661 -0.18035874543477601 0 -0.1498687104188495 -0.18767128888863599 0 -0.1398254013782112 -0.18365029146927231 0 -0.14820117369214661 -0.18035874543477601 0 -0.14520517551865919 -0.17294749126987599 0 -0.14820117369214661 -0.18035874543477601 0 -0.14520517551865919 -0.17294749126987599 0 -0.1568216795970071 -0.17538216601134321 0 -0.14820117369214661 -0.18035874543477601 0 -0.15608754076248521 -0.18190001438557629 0 -0.1568216795970071 -0.17538216601134321 0 -0.14520517551865919 -0.17294749126987599 0 -0.15263532751206779 -0.16758471640843459 0 -0.1568216795970071 -0.17538216601134321 0 -0.14820117369214661 -0.18035874543477601 0 -0.15608754076248521 -0.18190001438557629 0 -0.1498687104188495 -0.18767128888863599 0 -0.15608754076248521 -0.18190001438557629 0 -0.1607184616130248 -0.18728683910860641 0 -0.1498687104188495 -0.18767128888863599 0 -0.1369695060381555 -0.1485825261071109 0 -0.14107140235061469 -0.16358211752318311 0 -0.1526603788815559 -0.1573596194762775 0 -0.14520517551865919 -0.17294749126987599 0 -0.14107140235061469 -0.16358211752318311 0 -0.15263532751206779 -0.16758471640843459 0 -0.15263532751206779 -0.16758471640843459 0 -0.1526603788815559 -0.1573596194762775 0 -0.16142564196989831 -0.16655703171874039 0 -0.14107140235061469 -0.16358211752318311 0 -0.15263532751206779 -0.16758471640843459 0 -0.1526603788815559 -0.1573596194762775 0 -0.1526603788815559 -0.1573596194762775 0 -0.16142564196989831 -0.16655703171874039 0 -0.16326087804426159 -0.16588359066980229 0 -0.16326087804426159 -0.16588359066980229 0 -0.1569759497016511 -0.14808982533941309 0 -0.1526603788815559 -0.1573596194762775 0 -0.16326087804426159 -0.16588359066980229 0 -0.1569759497016511 -0.14808982533941309 0 -0.1594122663447772 -0.17133307891758459 0 -0.16142564196989831 -0.16655703171874039 0 -0.16676641630013581 -0.17580840153182001 0 -0.15263532751206779 -0.16758471640843459 0 -0.1594122663447772 -0.17133307891758459 0 -0.16142564196989831 -0.16655703171874039 0 -0.16142564196989831 -0.16655703171874039 0 -0.16326087804426159 -0.16588359066980229 0 -0.16676641630013581 -0.17580840153182001 0 -0.15263532751206779 -0.16758471640843459 0 -0.1594122663447772 -0.17133307891758459 0 -0.1568216795970071 -0.17538216601134321 0 -0.16142564196989831 -0.16655703171874039 0 -0.16326087804426159 -0.16588359066980229 0 -0.16326087804426159 -0.16588359066980229 0 -0.16676641630013581 -0.17580840153182001 0 -0.1783922457352059 -0.17293489930968209 0 -0.16326087804426159 -0.16588359066980229 0 -0.16676641630013581 -0.17580840153182001 0 -0.15608754076248521 -0.18190001438557629 0 -0.1607184616130248 -0.18728683910860641 0 -0.16676641630013581 -0.17580840153182001 0 -0.15608754076248521 -0.18190001438557629 0 -0.1568216795970071 -0.17538216601134321 0 -0.16676641630013581 -0.17580840153182001 0 -0.1594122663447772 -0.17133307891758459 0 -0.1568216795970071 -0.17538216601134321 0 -0.16676641630013581 -0.17580840153182001 0 -0.1607184616130248 -0.18728683910860641 0 -0.16676641630013581 -0.17580840153182001 0 -0.17547527524387041 -0.1884338249559952 0 -0.17547527524387041 -0.1884338249559952 0 -0.1969820185962792 -0.17828497948479149 0 -0.1783922457352059 -0.17293489930968209 0 -0.17547527524387041 -0.1884338249559952 0 -0.1969820185962792 -0.17828497948479149 0 -0.16676641630013581 -0.17580840153182001 0 -0.1783922457352059 -0.17293489930968209 0 -0.17547527524387041 -0.1884338249559952 0 -0.16326087804426159 -0.16588359066980229 0 -0.18947664049148261 -0.1562636999060015 0 -0.16326087804426159 -0.16588359066980229 0 -0.18633417632017751 -0.14736681724080919 0 -0.18947664049148261 -0.1562636999060015 0 -0.16326087804426159 -0.16588359066980229 0 -0.1783922457352059 -0.17293489930968209 0 -0.18947664049148261 -0.1562636999060015 0 -0.18633417632017751 -0.14736681724080919 0 -0.16621773075288121 -0.1295318635244681 0 -0.18400621351090571 -0.1217110611121094 0 -0.16621773075288121 -0.1295318635244681 0 -0.1569759497016511 -0.14808982533941309 0 -0.14737054533773081 -0.1208951937003558 0 -0.18633417632017751 -0.14736681724080919 0 -0.16621773075288121 -0.1295318635244681 0 -0.1569759497016511 -0.14808982533941309 0 -0.18633417632017751 -0.14736681724080919 0 -0.1569759497016511 -0.14808982533941309 0 -0.16326087804426159 -0.16588359066980229 0 -0.18633417632017751 -0.14736681724080919 0 -0.1569759497016511 -0.14808982533941309 0 -0.1377523016625678 -0.25581657194563601 0 -0.15263230708737521 -0.24356194903458239 0 -0.13476861079800859 -0.2391754021203874 0 -0.15263230708737521 -0.24356194903458239 0 -0.13476861079800859 -0.2391754021203874 0 -0.14055595197029169 -0.22979662500526149 0 -0.1377523016625678 -0.25581657194563601 0 -0.1223681628105569 -0.24044891992886891 0 -0.13476861079800859 -0.2391754021203874 0 -0.1377523016625678 -0.25581657194563601 0 -0.1223681628105569 -0.24044891992886891 0 -0.1238233973506119 -0.23541481827178831 0 -0.13476861079800859 -0.2391754021203874 0 -0.13139441447274411 -0.22962184130071481 0 -0.1223681628105569 -0.24044891992886891 0 -0.1238233973506119 -0.23541481827178831 0 -0.13476861079800859 -0.2391754021203874 0 -0.13476861079800859 -0.2391754021203874 0 -0.14055595197029169 -0.22979662500526149 0 -0.13139441447274411 -0.22962184130071481 0 -0.12407830270498089 -0.22426790937284519 0 -0.1238233973506119 -0.23541481827178831 0 -0.13139441447274411 -0.22962184130071481 0 -0.12407830270498089 -0.22426790937284519 0 -0.13139441447274411 -0.22962184130071481 0 -0.13441394179160859 -0.22010184774946731 0 -0.14055595197029169 -0.22979662500526149 0 -0.13139441447274411 -0.22962184130071481 0 -0.13441394179160859 -0.22010184774946731 0 -0.14055595197029169 -0.22979662500526149 0 -0.13441394179160859 -0.22010184774946731 0 -0.14940536450650499 -0.21373664043116339 0 -0.15263230708737521 -0.24356194903458239 0 -0.14940536450650499 -0.21373664043116339 0 -0.15263230708737521 -0.24356194903458239 0 -0.14940536450650499 -0.21373664043116339 0 -0.16621803193972459 -0.22739125443424221 0 -0.15263230708737521 -0.24356194903458239 0 -0.14055595197029169 -0.22979662500526149 0 -0.14940536450650499 -0.21373664043116339 0 -0.14940536450650499 -0.21373664043116339 0 -0.13246178853905299 -0.20873151589840269 0 -0.1539685318914617 -0.1985826704271989 0 -0.13246178853905299 -0.20873151589840269 0 -0.1539685318914617 -0.1985826704271989 0 -0.13441394179160859 -0.22010184774946731 0 -0.14940536450650499 -0.21373664043116339 0 -0.13246178853905299 -0.20873151589840269 0 -0.12407830270498089 -0.22426790937284519 0 -0.13441394179160859 -0.22010184774946731 0 -0.13246178853905299 -0.20873151589840269 0 -0.1178174188303993 -0.20556040013348681 0 -0.13246178853905299 -0.20873151589840269 0 -0.1280127438194481 -0.19237656196114411 0 -0.13246178853905299 -0.20873151589840269 0 -0.1280127438194481 -0.19237656196114411 0 -0.14041115317576749 -0.19424917250638599 0 -0.1398254013782112 -0.18365029146927231 0 -0.1280127438194481 -0.19237656196114411 0 -0.14041115317576749 -0.19424917250638599 0 -0.13246178853905299 -0.20873151589840269 0 -0.14041115317576749 -0.19424917250638599 0 -0.1539685318914617 -0.1985826704271989 0 -0.14041115317576749 -0.19424917250638599 0 -0.1539685318914617 -0.1985826704271989 0 -0.1498687104188495 -0.18767128888863599 0 -0.1398254013782112 -0.18365029146927231 0 -0.14041115317576749 -0.19424917250638599 0 -0.1498687104188495 -0.18767128888863599 0 -0.1607184616130248 -0.18728683910860641 0 -0.1539685318914617 -0.1985826704271989 0 -0.1498687104188495 -0.18767128888863599 0 -0.1607184616130248 -0.18728683910860641 0 -0.1539685318914617 -0.1985826704271989 0 -0.17547527524387041 -0.1884338249559952 0 -0.1539685318914617 -0.1985826704271989 0 -0.17547527524387041 -0.1884338249559952 0 -0.16825702714884239 -0.20885775366498019 0 -0.1539685318914617 -0.1985826704271989 0 -0.17547527524387041 -0.1884338249559952 0 -0.17547527524387041 -0.1884338249559952 0 -0.18277425339256639 -0.2026996383603622 0 -0.16825702714884239 -0.20885775366498019 0 -0.17547527524387041 -0.1884338249559952 0 -0.18277425339256639 -0.2026996383603622 0 -0.1902080517791363 -0.1917922864575213 0 -0.18277425339256639 -0.2026996383603622 0 -0.16825702714884239 -0.20885775366498019 0 -0.18626938338499441 -0.22517712183416291 0 -0.14940536450650499 -0.21373664043116339 0 -0.1539685318914617 -0.1985826704271989 0 -0.16825702714884239 -0.20885775366498019 0 -0.14940536450650499 -0.21373664043116339 0 -0.16825702714884239 -0.20885775366498019 0 -0.16621803193972459 -0.22739125443424221 0 -0.16825702714884239 -0.20885775366498019 0 -0.16621803193972459 -0.22739125443424221 0 -0.18626938338499441 -0.22517712183416291 0 -0.16621803193972459 -0.22739125443424221 0 -0.18626938338499441 -0.22517712183416291 0 -0.1745260775709061 -0.24562280720632229 0 -0.18626938338499441 -0.22517712183416291 0 -0.1745260775709061 -0.24562280720632229 0 -0.19988453840298659 -0.24176205441804 0 -0.18626938338499441 -0.22517712183416291 0 -0.1745260775709061 -0.24562280720632229 0 -0.15263230708737521 -0.24356194903458239 0 -0.16621803193972459 -0.22739125443424221 0 -0.1745260775709061 -0.24562280720632229 0 -0.1689202540561075 -0.25519621835756329 0 -0.15263230708737521 -0.24356194903458239 0 -0.1745260775709061 -0.24562280720632229 0 -0.21854221021918649 -0.25236034283526498 0 -0.19988453840298659 -0.24176205441804 0 -0.21493562756427159 -0.22243862284749449 0 -0.19160736129165659 -0.25262396586623759 0 -0.1745260775709061 -0.24562280720632229 0 -0.19988453840298659 -0.24176205441804 0 -0.18626938338499441 -0.22517712183416291 0 -0.19988453840298659 -0.24176205441804 0 -0.21493562756427159 -0.22243862284749449 0 -0.21493562756427159 -0.22243862284749449 0 -0.19801268919908249 -0.2047314364620034 0 -0.21541309520260529 -0.20113031717637361 0 -0.18626938338499441 -0.22517712183416291 0 -0.19801268919908249 -0.2047314364620034 0 -0.18277425339256639 -0.2026996383603622 0 -0.18626938338499441 -0.22517712183416291 0 -0.19801268919908249 -0.2047314364620034 0 -0.18626938338499441 -0.22517712183416291 0 -0.21493562756427159 -0.22243862284749449 0 -0.19801268919908249 -0.2047314364620034 0 -0.19801268919908249 -0.2047314364620034 0 -0.1902080517791363 -0.1917922864575213 0 -0.20975599501317069 -0.18428575108984399 0 -0.18277425339256639 -0.2026996383603622 0 -0.19801268919908249 -0.2047314364620034 0 -0.1902080517791363 -0.1917922864575213 0 -0.21541309520260529 -0.20113031717637361 0 -0.20975599501317069 -0.18428575108984399 0 -0.229896455205026 -0.18225842567294781 0 -0.19801268919908249 -0.2047314364620034 0 -0.21541309520260529 -0.20113031717637361 0 -0.20975599501317069 -0.18428575108984399 0 -0.19801268919908249 -0.2047314364620034 0 -0.20975599501317069 -0.18428575108984399 0 -0.21541309520260529 -0.20113031717637361 0 -0.23384346774119599 -0.2034651679104556 0 -0.229896455205026 -0.18225842567294781 0 -0.24262172765942899 -0.19089247064050549 0 -0.25644706280453389 -0.1995927939493197 0 -0.25029992488695979 -0.1782534950292988 0 -0.24262172765942899 -0.19089247064050549 0 -0.23384346774119599 -0.2034651679104556 0 -0.25644706280453389 -0.1995927939493197 0 -0.24262172765942899 -0.19089247064050549 0 -0.23384346774119599 -0.2034651679104556 0 -0.229896455205026 -0.18225842567294781 0 -0.23384346774119599 -0.2034651679104556 0 -0.2377451423251814 -0.23136366228574551 0 -0.25674041691710447 -0.22108212323078871 0 -0.23384346774119599 -0.2034651679104556 0 -0.25674041691710447 -0.22108212323078871 0 -0.25644706280453389 -0.1995927939493197 0 -0.21493562756427159 -0.22243862284749449 0 -0.21541309520260529 -0.20113031717637361 0 -0.23384346774119599 -0.2034651679104556 0 -0.21493562756427159 -0.22243862284749449 0 -0.23384346774119599 -0.2034651679104556 0 -0.2377451423251814 -0.23136366228574551 0 -0.24465976002352091 -0.25387891845332877 0 -0.2377451423251814 -0.23136366228574551 0 -0.25992972331208369 -0.2410680052130979 0 -0.24465976002352091 -0.25387891845332877 0 -0.21854221021918649 -0.25236034283526498 0 -0.2377451423251814 -0.23136366228574551 0 -0.21854221021918649 -0.25236034283526498 0 -0.21493562756427159 -0.22243862284749449 0 -0.2377451423251814 -0.23136366228574551 0 -0.21854221021918649 -0.25236034283526498 0 -0.2377451423251814 -0.23136366228574551 0 -0.21569240293870359 -0.1466438091422006 0 -0.18947664049148261 -0.1562636999060015 0 -0.2105647825198341 -0.15627799774793921 0 -0.2105647825198341 -0.15627799774793921 0 -0.22149930082725899 -0.1638400657176845 0 -0.22047208921520459 -0.14652609931143951 0 -0.21569240293870359 -0.1466438091422006 0 -0.2105647825198341 -0.15627799774793921 0 -0.22047208921520459 -0.14652609931143951 0 -0.21569240293870359 -0.1466438091422006 0 -0.22047208921520459 -0.14652609931143951 0 -0.20228853596836749 -0.13187567246267581 0 -0.2244809527826766 -0.1321180186971766 0 -0.2129261089666101 -0.1196792574727195 0 -0.21569240293870359 -0.1466438091422006 0 -0.20228853596836749 -0.13187567246267581 0 -0.2244809527826766 -0.1321180186971766 0 -0.18633417632017751 -0.14736681724080919 0 -0.20228853596836749 -0.13187567246267581 0 -0.18400621351090571 -0.1217110611121094 0 -0.21569240293870359 -0.1466438091422006 0 -0.18947664049148261 -0.1562636999060015 0 -0.18633417632017751 -0.14736681724080919 0 -0.21569240293870359 -0.1466438091422006 0 -0.18947664049148261 -0.1562636999060015 0 -0.18633417632017751 -0.14736681724080919 0 -0.21569240293870359 -0.1466438091422006 0 -0.18633417632017751 -0.14736681724080919 0 -0.21569240293870359 -0.1466438091422006 0 -0.20228853596836749 -0.13187567246267581 0 -0.1783922457352059 -0.17293489930968209 0 -0.18947664049148261 -0.1562636999060015 0 -0.1969820185962792 -0.17828497948479149 0 -0.18947664049148261 -0.1562636999060015 0 -0.1969820185962792 -0.17828497948479149 0 -0.20568347912652049 -0.16811631466237001 0 -0.18947664049148261 -0.1562636999060015 0 -0.20568347912652049 -0.16811631466237001 0 -0.2105647825198341 -0.15627799774793921 0 -0.1902080517791363 -0.1917922864575213 0 -0.1969820185962792 -0.17828497948479149 0 -0.20975599501317069 -0.18428575108984399 0 -0.17547527524387041 -0.1884338249559952 0 -0.1902080517791363 -0.1917922864575213 0 -0.1969820185962792 -0.17828497948479149 0 -0.20975599501317069 -0.18428575108984399 0 -0.22149930082725899 -0.1638400657176845 0 -0.20975599501317069 -0.18428575108984399 0 -0.20568347912652049 -0.16811631466237001 0 -0.22149930082725899 -0.1638400657176845 0 -0.1969820185962792 -0.17828497948479149 0 -0.20975599501317069 -0.18428575108984399 0 -0.20568347912652049 -0.16811631466237001 0 -0.20568347912652049 -0.16811631466237001 0 -0.2105647825198341 -0.15627799774793921 0 -0.22149930082725899 -0.1638400657176845 0 -0.22149930082725899 -0.1638400657176845 0 -0.2402834514435094 -0.1667894474332684 0 -0.2341322288468432 -0.15422277024092529 0 -0.22149930082725899 -0.1638400657176845 0 -0.229896455205026 -0.18225842567294781 0 -0.2402834514435094 -0.1667894474332684 0 -0.20975599501317069 -0.18428575108984399 0 -0.22149930082725899 -0.1638400657176845 0 -0.229896455205026 -0.18225842567294781 0 -0.229896455205026 -0.18225842567294781 0 -0.2402834514435094 -0.1667894474332684 0 -0.25029992488695979 -0.1782534950292988 0 -0.24262172765942899 -0.19089247064050549 0 -0.229896455205026 -0.18225842567294781 0 -0.25029992488695979 -0.1782534950292988 0 -0.2402834514435094 -0.1667894474332684 0 -0.25029992488695979 -0.1782534950292988 0 -0.25761979100978533 -0.16665415002795461 0 -0.2402834514435094 -0.1667894474332684 0 -0.24825300788518309 -0.1555077779107997 0 -0.25761979100978533 -0.16665415002795461 0 -0.2402834514435094 -0.1667894474332684 0 -0.24825300788518309 -0.1555077779107997 0 -0.2341322288468432 -0.15422277024092529 0 -0.24825300788518309 -0.1555077779107997 0 -0.2405789555143194 -0.1375116727892334 0 -0.25601133851015478 -0.1487044986697981 0 -0.24825300788518309 -0.1555077779107997 0 -0.2341322288468432 -0.15422277024092529 0 -0.2405789555143194 -0.1375116727892334 0 -0.21569240293870359 -0.1466438091422006 0 -0.22047208921520459 -0.14652609931143951 0 -0.2405789555143194 -0.1375116727892334 0 -0.22149930082725899 -0.1638400657176845 0 -0.2341322288468432 -0.15422277024092529 0 -0.22047208921520459 -0.14652609931143951 0 -0.21569240293870359 -0.1466438091422006 0 -0.2405789555143194 -0.1375116727892334 0 -0.2341322288468432 -0.15422277024092529 0 -0.22047208921520459 -0.14652609931143951 0 -0.2405789555143194 -0.1375116727892334 0 -0.21569240293870359 -0.1466438091422006 0 -0.2244809527826766 -0.1321180186971766 0 -0.2405789555143194 -0.1375116727892334 0 -0.2244809527826766 -0.1321180186971766 0 -0.2405789555143194 -0.1375116727892334 0 -0.23651179230599079 -0.1199754775459997 0 -0.2405789555143194 -0.1375116727892334 0 -0.23651179230599079 -0.1199754775459997 0 -0.25054446979338107 -0.12912519928877991 0 -0.23651179230599079 -0.1199754775459997 0 -0.24959534238117709 -0.1078054475449232 0 -0.26009747564537128 -0.1202716976192799 0 -0.23651179230599079 -0.1199754775459997 0 -0.26009747564537128 -0.1202716976192799 0 -0.23651179230599079 -0.1199754775459997 0 -0.26009747564537128 -0.1202716976192799 0 -0.25054446979338107 -0.12912519928877991 0 -0.23651179230599079 -0.1199754775459997 0 -0.24959534238117709 -0.1078054475449232 0 -0.23746734258601571 -0.1067534300414448 0 -0.24098124084432149 -0.095291905336151436 0 -0.23746734258601571 -0.1067534300414448 0 -0.22473934926471251 -0.1042306158888877 0 -0.24959534238117709 -0.1078054475449232 0 -0.24098124084432149 -0.095291905336151436 0 -0.25687551172258971 -0.095275519396915032 0 -0.24959534238117709 -0.1078054475449232 0 -0.24098124084432149 -0.095291905336151436 0 -0.23746734258601571 -0.1067534300414448 0 -0.22473934926471251 -0.1042306158888877 0 -0.22774604229393439 -0.087804120453188278 0 -0.20897213189474381 -0.093424031558921927 0 -0.24098124084432149 -0.095291905336151436 0 -0.22473934926471251 -0.1042306158888877 0 -0.22774604229393439 -0.087804120453188278 0 -0.2244809527826766 -0.1321180186971766 0 -0.23651179230599079 -0.1199754775459997 0 -0.2129261089666101 -0.1196792574727195 0 -0.23651179230599079 -0.1199754775459997 0 -0.2129261089666101 -0.1196792574727195 0 -0.23651179230599079 -0.1199754775459997 0 -0.23746734258601571 -0.1067534300414448 0 -0.22473934926471251 -0.1042306158888877 0 -0.23651179230599079 -0.1199754775459997 0 -0.22473934926471251 -0.1042306158888877 0 -0.2129261089666101 -0.1196792574727195 0 -0.2466384096447127 -0.069214282175018252 0 -0.23144064811545881 -0.071679072189906365 0 -0.24006258296416741 -0.059977364163272567 0 -0.2466384096447127 -0.069214282175018252 0 -0.23867713564867771 -0.0818228939715063 0 -0.25106785873748549 -0.083001848322642804 0 -0.2466384096447127 -0.069214282175018252 0 -0.23867713564867771 -0.0818228939715063 0 -0.23144064811545881 -0.071679072189906365 0 -0.24098124084432149 -0.095291905336151436 0 -0.25106785873748549 -0.083001848322642804 0 -0.25687551172258971 -0.095275519396915032 0 -0.24098124084432149 -0.095291905336151436 0 -0.23867713564867771 -0.0818228939715063 0 -0.25106785873748549 -0.083001848322642804 0 -0.24098124084432149 -0.095291905336151436 0 -0.23867713564867771 -0.0818228939715063 0 -0.22774604229393439 -0.087804120453188278 0 -0.22048160989483939 -0.080833284582646742 0 -0.22774604229393439 -0.087804120453188278 0 -0.23144064811545881 -0.071679072189906365 0 -0.23867713564867771 -0.0818228939715063 0 -0.22774604229393439 -0.087804120453188278 0 -0.23144064811545881 -0.071679072189906365 0 -0.22048160989483939 -0.080833284582646742 0 -0.22774604229393439 -0.087804120453188278 0 -0.20897213189474381 -0.093424031558921927 0 -0.23144064811545881 -0.071679072189906365 0 -0.2137676172752207 -0.070425914128570383 0 -0.21856310265569601 -0.047427796698218422 0 -0.22048160989483939 -0.080833284582646742 0 -0.23144064811545881 -0.071679072189906365 0 -0.2137676172752207 -0.070425914128570383 0 -0.23144064811545881 -0.071679072189906365 0 -0.23092663332862359 -0.057189961691847993 0 -0.24006258296416741 -0.059977364163272567 0 -0.20335705558913081 -0.063140738221072371 0 -0.2137676172752207 -0.070425914128570383 0 -0.20224544779007569 -0.076575791796341275 0 -0.2137676172752207 -0.070425914128570383 0 -0.20897213189474381 -0.093424031558921927 0 -0.20224544779007569 -0.076575791796341275 0 -0.2137676172752207 -0.070425914128570383 0 -0.20897213189474381 -0.093424031558921927 0 -0.22048160989483939 -0.080833284582646742 0 -0.2137676172752207 -0.070425914128570383 0 -0.20897213189474381 -0.093424031558921927 0 -0.20897213189474381 -0.093424031558921927 0 -0.18864483179057751 -0.079783658531738119 0 -0.20224544779007569 -0.076575791796341275 0 -0.20897213189474381 -0.093424031558921927 0 -0.18864483179057751 -0.079783658531738119 0 -0.1843208979706715 -0.098582101900239388 0 -0.20335705558913081 -0.063140738221072371 0 -0.18864483179057751 -0.079783658531738119 0 -0.20224544779007569 -0.076575791796341275 0 -0.20335705558913081 -0.063140738221072371 0 -0.18864483179057751 -0.079783658531738119 0 -0.20335705558913081 -0.063140738221072371 0 -0.18864483179057751 -0.079783658531738119 0 -0.18476368522970901 -0.060313507398174523 0 -0.22473934926471251 -0.1042306158888877 0 -0.2129261089666101 -0.1196792574727195 0 -0.1994025973422491 -0.10829052452779669 0 -0.20228853596836749 -0.13187567246267581 0 -0.2129261089666101 -0.1196792574727195 0 -0.1994025973422491 -0.10829052452779669 0 -0.22473934926471251 -0.1042306158888877 0 -0.20897213189474381 -0.093424031558921927 0 -0.1994025973422491 -0.10829052452779669 0 -0.20897213189474381 -0.093424031558921927 0 -0.1994025973422491 -0.10829052452779669 0 -0.1843208979706715 -0.098582101900239388 0 -0.20228853596836749 -0.13187567246267581 0 -0.1994025973422491 -0.10829052452779669 0 -0.18400621351090571 -0.1217110611121094 0 -0.1994025973422491 -0.10829052452779669 0 -0.18400621351090571 -0.1217110611121094 0 -0.1843208979706715 -0.098582101900239388 0 -0.16621773075288121 -0.1295318635244681 0 -0.18400621351090571 -0.1217110611121094 0 -0.16647442841019139 -0.11035058163789351 0 -0.18400621351090571 -0.1217110611121094 0 -0.16647442841019139 -0.11035058163789351 0 -0.1843208979706715 -0.098582101900239388 0 -0.16621773075288121 -0.1295318635244681 0 -0.16647442841019139 -0.11035058163789351 0 -0.14737054533773081 -0.1208951937003558 0 -0.16647442841019139 -0.11035058163789351 0 -0.16521255597131029 -0.094363556792246006 0 -0.15171862691764881 -0.097019712797942706 0 -0.16647442841019139 -0.11035058163789351 0 -0.16521255597131029 -0.094363556792246006 0 -0.1843208979706715 -0.098582101900239388 0 -0.16521255597131029 -0.094363556792246006 0 -0.1843208979706715 -0.098582101900239388 0 -0.1718657805157274 -0.077566403117392158 0 -0.18864483179057751 -0.079783658531738119 0 -0.1843208979706715 -0.098582101900239388 0 -0.1718657805157274 -0.077566403117392158 0 -0.18864483179057751 -0.079783658531738119 0 -0.1718657805157274 -0.077566403117392158 0 -0.18476368522970901 -0.060313507398174523 0 -0.1718657805157274 -0.077566403117392158 0 -0.16766997596840549 -0.055069670457126463 0 -0.18476368522970901 -0.060313507398174523 0 -0.1718657805157274 -0.077566403117392158 0 -0.1555984100513392 -0.067553704814911478 0 -0.16766997596840549 -0.055069670457126463 0 -0.1718657805157274 -0.077566403117392158 0 -0.15451520526235171 -0.083858215916353424 0 -0.1555984100513392 -0.067553704814911478 0 -0.16521255597131029 -0.094363556792246006 0 -0.1718657805157274 -0.077566403117392158 0 -0.15451520526235171 -0.083858215916353424 0 -0.16521255597131029 -0.094363556792246006 0 -0.15451520526235171 -0.083858215916353424 0 -0.15171862691764881 -0.097019712797942706 0 -0.15451520526235171 -0.083858215916353424 0 -0.14334301715898221 -0.074859018030624863 0 -0.13903100861317999 -0.090330850909877913 0 -0.15451520526235171 -0.083858215916353424 0 -0.13903100861317999 -0.090330850909877913 0 -0.15171862691764881 -0.097019712797942706 0 -0.1377651409738101 -0.093700562061298426 0 -0.13903100861317999 -0.090330850909877913 0 -0.15171862691764881 -0.097019712797942706 0 -0.15451520526235171 -0.083858215916353424 0 -0.1555984100513392 -0.067553704814911478 0 -0.14334301715898221 -0.074859018030624863 0 -0.1555984100513392 -0.067553704814911478 0 -0.14334301715898221 -0.074859018030624863 0 -0.13945189113323761 -0.059806177835795588 0 -0.14334301715898221 -0.074859018030624863 0 -0.12930964035960699 -0.069761515268982097 0 -0.13945189113323761 -0.059806177835795588 0 -0.12930964035960699 -0.069761515268982097 0 -0.1377651409738101 -0.093700562061298426 0 -0.12930964035960699 -0.069761515268982097 0 -0.1377651409738101 -0.093700562061298426 0 -0.13903100861317999 -0.090330850909877913 0 -0.1189291253072135 -0.086669643832799348 0 -0.12930964035960699 -0.069761515268982097 0 -0.1377651409738101 -0.093700562061298426 0 -0.14334301715898221 -0.074859018030624863 0 -0.12930964035960699 -0.069761515268982097 0 -0.13903100861317999 -0.090330850909877913 0 -0.1377651409738101 -0.093700562061298426 0 -0.13903100861317999 -0.090330850909877913 0 -0.11893842975153809 -0.10446969177473921 0 -0.1377651409738101 -0.093700562061298426 0 -0.12736410167423581 -0.1213878944680517 0 -0.1377651409738101 -0.093700562061298426 0 -0.12736410167423581 -0.1213878944680517 0 -0.11893842975153809 -0.10446969177473921 0 -0.1189291253072135 -0.086669643832799348 0 -0.1377651409738101 -0.093700562061298426 0 -0.1377651409738101 -0.093700562061298426 0 -0.12736410167423581 -0.1213878944680517 0 -0.14737054533773081 -0.1208951937003558 0 -0.16647442841019139 -0.11035058163789351 0 -0.14737054533773081 -0.1208951937003558 0 -0.15171862691764881 -0.097019712797942706 0 -0.1377651409738101 -0.093700562061298426 0 -0.14737054533773081 -0.1208951937003558 0 -0.15171862691764881 -0.097019712797942706 0 -0.1377651409738101 -0.093700562061298426 0 -0.14737054533773081 -0.1208951937003558 0 -0.14925834278157041 -0.027771983247297551 0 -0.15381676672243971 -0.0048344028756085976 0 -0.16158573310271521 -0.019122381719964599 0 -0.14925834278157041 -0.027771983247297551 0 -0.15381676672243971 -0.0048344028756085976 0 -0.14925834278157041 -0.027771983247297551 0 -0.13622810944285851 -0.025664644749336048 0 -0.13728148428220571 -0.03631729474545041 0 -0.15381676672243971 -0.0048344028756085976 0 -0.13373576905839379 -0.01378162565115138 0 -0.13796817939809339 -7.5853332940862265e-05 0 -0.14925834278157041 -0.027771983247297551 0 -0.15381676672243971 -0.0048344028756085976 0 -0.13373576905839379 -0.01378162565115138 0 -0.1244522405185825 -0.00038769298458709092 0 -0.1246368416492639 -0.024787675353444869 0 -0.13373576905839379 -0.01378162565115138 0 -0.1244522405185825 -0.00038769298458709092 0 -0.13373576905839379 -0.01378162565115138 0 -0.13796817939809339 -7.5853332940862265e-05 0 -0.1244522405185825 -0.00038769298458709092 0 -0.13373576905839379 -0.01378162565115138 0 -0.1246368416492639 -0.024787675353444869 0 -0.13373576905839379 -0.01378162565115138 0 -0.13622810944285851 -0.025664644749336048 0 -0.14925834278157041 -0.027771983247297551 0 -0.13373576905839379 -0.01378162565115138 0 -0.13622810944285851 -0.025664644749336048 0 -0.1246368416492639 -0.024787675353444869 0 -0.13622810944285851 -0.025664644749336048 0 -0.13728148428220571 -0.03631729474545041 0 -0.1248214427799455 -0.0491876577223027 0 -0.1246368416492639 -0.024787675353444869 0 -0.13067566527459321 -0.039597081228004503 0 -0.1246368416492639 -0.024787675353444869 0 -0.13067566527459321 -0.039597081228004503 0 -0.13728148428220571 -0.03631729474545041 0 -0.1248214427799455 -0.0491876577223027 0 -0.13067566527459321 -0.039597081228004503 0 -0.1359628923869578 -0.048095697090820053 0 -0.13067566527459321 -0.039597081228004503 0 -0.13728148428220571 -0.03631729474545041 0 -0.1359628923869578 -0.048095697090820053 0 -0.13728148428220571 -0.03631729474545041 0 -0.1359628923869578 -0.048095697090820053 0 -0.14767594406259391 -0.049379474087132447 0 -0.1248214427799455 -0.0491876577223027 0 -0.12930964035960699 -0.069761515268982097 0 -0.13945189113323761 -0.059806177835795588 0 -0.1208541397454049 -0.045822468476665427 0 -0.12930964035960699 -0.069761515268982097 0 -0.1248214427799455 -0.0491876577223027 0 -0.1359628923869578 -0.048095697090820053 0 -0.13945189113323761 -0.059806177835795588 0 -0.1555984100513392 -0.067553704814911478 0 -0.13945189113323761 -0.059806177835795588 0 -0.14767594406259391 -0.049379474087132447 0 -0.1359628923869578 -0.048095697090820053 0 -0.13945189113323761 -0.059806177835795588 0 -0.14767594406259391 -0.049379474087132447 0 -0.14925834278157041 -0.027771983247297551 0 -0.14767594406259391 -0.049379474087132447 0 -0.16346190388351911 -0.035477368974388322 0 -0.14925834278157041 -0.027771983247297551 0 -0.13728148428220571 -0.03631729474545041 0 -0.14767594406259391 -0.049379474087132447 0 -0.14767594406259391 -0.049379474087132447 0 -0.16346190388351911 -0.035477368974388322 0 -0.16766997596840549 -0.055069670457126463 0 -0.16346190388351911 -0.035477368974388322 0 -0.16766997596840549 -0.055069670457126463 0 -0.1792130821544009 -0.041655239440509813 0 -0.1555984100513392 -0.067553704814911478 0 -0.14767594406259391 -0.049379474087132447 0 -0.16766997596840549 -0.055069670457126463 0 -0.16766997596840549 -0.055069670457126463 0 -0.18476368522970901 -0.060313507398174523 0 -0.1792130821544009 -0.041655239440509813 0 -0.18476368522970901 -0.060313507398174523 0 -0.1792130821544009 -0.041655239440509813 0 -0.19607578221694649 -0.043845816873478577 0 -0.16346190388351911 -0.035477368974388322 0 -0.1792130821544009 -0.041655239440509813 0 -0.1747539590121796 -0.02148713112583673 0 -0.1792130821544009 -0.041655239440509813 0 -0.1747539590121796 -0.02148713112583673 0 -0.18874747204970219 -0.028974905836781941 0 -0.1747539590121796 -0.02148713112583673 0 -0.18814241231787171 -0.014961103822567131 0 -0.18874747204970219 -0.028974905836781941 0 -0.14925834278157041 -0.027771983247297551 0 -0.16346190388351911 -0.035477368974388322 0 -0.16158573310271521 -0.019122381719964599 0 -0.16346190388351911 -0.035477368974388322 0 -0.1747539590121796 -0.02148713112583673 0 -0.16158573310271521 -0.019122381719964599 0 -0.1747539590121796 -0.02148713112583673 0 -0.16158573310271521 -0.019122381719964599 0 -0.1670666400728934 -0.0075955490013497832 0 -0.15381676672243971 -0.0048344028756085976 0 -0.1670666400728934 -0.0075955490013497832 0 -0.16872927738725291 0.0066655648670224509 0 -0.15381676672243971 -0.0048344028756085976 0 -0.16158573310271521 -0.019122381719964599 0 -0.1670666400728934 -0.0075955490013497832 0 -0.1670666400728934 -0.0075955490013497832 0 -0.1785064095432054 -0.0066611219507198768 0 -0.16872927738725291 0.0066655648670224509 0 -0.1747539590121796 -0.02148713112583673 0 -0.1670666400728934 -0.0075955490013497832 0 -0.1785064095432054 -0.0066611219507198768 0 -0.1747539590121796 -0.02148713112583673 0 -0.1785064095432054 -0.0066611219507198768 0 -0.18814241231787171 -0.014961103822567131 0 -0.1785064095432054 -0.0066611219507198768 0 -0.18814241231787171 -0.014961103822567131 0 -0.193034969706537 0.00064734206737222756 0 -0.20555212454711219 -0.022925237921517471 0 -0.20993853639106591 -0.0035380738047605968 0 -0.193034969706537 0.00064734206737222756 0 -0.18814241231787171 -0.014961103822567131 0 -0.20555212454711219 -0.022925237921517471 0 -0.193034969706537 0.00064734206737222756 0 -0.20555212454711219 -0.022925237921517471 0 -0.193034969706537 0.00064734206737222756 0 -0.20993853639106591 -0.0035380738047605968 0 -0.193034969706537 0.00064734206737222756 0 -0.18814241231787171 -0.014961103822567131 0 -0.18874747204970219 -0.028974905836781941 0 -0.20555212454711219 -0.022925237921517471 0 -0.20555212454711219 -0.022925237921517471 0 -0.21630961893328751 -0.01519709454307171 0 -0.22290571171937651 -0.026601576769118469 0 -0.20993853639106591 -0.0035380738047605968 0 -0.22684210307559549 -0.0077234896768903086 0 -0.21568563774484731 0.0082874278720449449 0 -0.20993853639106591 -0.0035380738047605968 0 -0.21630961893328751 -0.01519709454307171 0 -0.22684210307559549 -0.0077234896768903086 0 -0.20555212454711219 -0.022925237921517471 0 -0.20993853639106591 -0.0035380738047605968 0 -0.21630961893328751 -0.01519709454307171 0 -0.20993853639106591 -0.0035380738047605968 0 -0.22684210307559549 -0.0077234896768903086 0 -0.20335705558913081 -0.063140738221072371 0 -0.18476368522970901 -0.060313507398174523 0 -0.19607578221694649 -0.043845816873478577 0 -0.1792130821544009 -0.041655239440509813 0 -0.18874747204970219 -0.028974905836781941 0 -0.19607578221694649 -0.043845816873478577 0 -0.18874747204970219 -0.028974905836781941 0 -0.20555212454711219 -0.022925237921517471 0 -0.19607578221694649 -0.043845816873478577 0 -0.20555212454711219 -0.022925237921517471 0 -0.21856310265569601 -0.047427796698218422 0 -0.20555212454711219 -0.022925237921517471 0 -0.21856310265569601 -0.047427796698218422 0 -0.21896932036315811 -0.045479663861346789 0 -0.20555212454711219 -0.022925237921517471 0 -0.19607578221694649 -0.043845816873478577 0 -0.21856310265569601 -0.047427796698218422 0 -0.20555212454711219 -0.022925237921517471 0 -0.21896932036315811 -0.045479663861346789 0 -0.22290571171937651 -0.026601576769118469 0 -0.2137676172752207 -0.070425914128570383 0 -0.21856310265569601 -0.047427796698218422 0 -0.20335705558913081 -0.063140738221072371 0 -0.2137676172752207 -0.070425914128570383 0 -0.21856310265569601 -0.047427796698218422 0 -0.20335705558913081 -0.063140738221072371 0 -0.19607578221694649 -0.043845816873478577 0 -0.21856310265569601 -0.047427796698218422 0 -0.20335705558913081 -0.063140738221072371 0 -0.21856310265569601 -0.047427796698218422 0 -0.23144064811545881 -0.071679072189906365 0 -0.21856310265569601 -0.047427796698218422 0 -0.23092663332862359 -0.057189961691847993 0 -0.23144064811545881 -0.071679072189906365 0 -0.21856310265569601 -0.047427796698218422 0 -0.21856310265569601 -0.047427796698218422 0 -0.23092663332862359 -0.057189961691847993 0 -0.22458774444026389 -0.046948698447319907 0 -0.23092663332862359 -0.057189961691847993 0 -0.2320274706224234 -0.04981915803055513 0 -0.23892230415514151 -0.050781370399802413 0 -0.23092663332862359 -0.057189961691847993 0 -0.22458774444026389 -0.046948698447319907 0 -0.2320274706224234 -0.04981915803055513 0 -0.21896932036315811 -0.045479663861346789 0 -0.2306307955349908 -0.032287844280089482 0 -0.22290571171937651 -0.026601576769118469 0 -0.21896932036315811 -0.045479663861346789 0 -0.22290571171937651 -0.026601576769118469 0 -0.22458774444026389 -0.046948698447319907 0 -0.2320274706224234 -0.04981915803055513 0 -0.23529860714157019 -0.041169280456794459 0 -0.22458774444026389 -0.046948698447319907 0 -0.2306307955349908 -0.032287844280089482 0 -0.23529860714157019 -0.041169280456794459 0 -0.22458774444026389 -0.046948698447319907 0 -0.21896932036315811 -0.045479663861346789 0 -0.2306307955349908 -0.032287844280089482 0 -0.21856310265569601 -0.047427796698218422 0 -0.22458774444026389 -0.046948698447319907 0 -0.21896932036315811 -0.045479663861346789 0 -0.21856310265569601 -0.047427796698218422 0 -0.21896932036315811 -0.045479663861346789 0 -0.21896932036315811 -0.045479663861346789 0 -0.2306307955349908 -0.032287844280089482 0 -0.2306307955349908 -0.032287844280089482 0 -0.23529860714157019 -0.041169280456794459 0 -0.241537864008738 -0.030171217790278881 0 -0.24798951326795751 -0.035882587373858313 0 -0.23529860714157019 -0.041169280456794459 0 -0.241537864008738 -0.030171217790278881 0 -0.24798951326795751 -0.035882587373858313 0 -0.24357205858261219 -0.044359355700093257 0 -0.23529860714157019 -0.041169280456794459 0 -0.24798951326795751 -0.035882587373858313 0 -0.24357205858261219 -0.044359355700093257 0 -0.25238491957690051 -0.051022134359787842 0 -0.24357205858261219 -0.044359355700093257 0 -0.23529860714157019 -0.041169280456794459 0 -0.23892230415514151 -0.050781370399802413 0 -0.2466384096447127 -0.069214282175018252 0 -0.24006258296416741 -0.059977364163272567 0 -0.25238491957690051 -0.051022134359787842 0 -0.2320274706224234 -0.04981915803055513 0 -0.23529860714157019 -0.041169280456794459 0 -0.23892230415514151 -0.050781370399802413 0 -0.23892230415514151 -0.050781370399802413 0 -0.24006258296416741 -0.059977364163272567 0 -0.25238491957690051 -0.051022134359787842 0 -0.24357205858261219 -0.044359355700093257 0 -0.23892230415514151 -0.050781370399802413 0 -0.25238491957690051 -0.051022134359787842 0 -0.23092663332862359 -0.057189961691847993 0 -0.23892230415514151 -0.050781370399802413 0 -0.24006258296416741 -0.059977364163272567 0 -0.21630961893328751 -0.01519709454307171 0 -0.22684210307559549 -0.0077234896768903086 0 -0.22290571171937651 -0.026601576769118469 0 -0.22684210307559549 -0.0077234896768903086 0 -0.22290571171937651 -0.026601576769118469 0 -0.23226271327452069 -0.02198020745377605 0 -0.22684210307559549 -0.0077234896768903086 0 -0.22290571171937651 -0.026601576769118469 0 -0.2306307955349908 -0.032287844280089482 0 -0.22290571171937651 -0.026601576769118469 0 -0.23226271327452069 -0.02198020745377605 0 -0.22684210307559549 -0.0077234896768903086 0 -0.23226271327452069 -0.02198020745377605 0 -0.24229227070682269 -0.019096024698831499 0 -0.2306307955349908 -0.032287844280089482 0 -0.241537864008738 -0.030171217790278881 0 -0.24229227070682269 -0.019096024698831499 0 -0.2306307955349908 -0.032287844280089482 0 -0.23226271327452069 -0.02198020745377605 0 -0.24229227070682269 -0.019096024698831499 0 -0.2306307955349908 -0.032287844280089482 0 -0.24229227070682269 -0.019096024698831499 0 -0.24798951326795751 -0.035882587373858313 0 -0.241537864008738 -0.030171217790278881 0 -0.25387676547985721 -0.02452441136234379 0 -0.241537864008738 -0.030171217790278881 0 -0.24229227070682269 -0.019096024698831499 0 -0.25387676547985721 -0.02452441136234379 0 -0.24229227070682269 -0.019096024698831499 0 -0.24826461013585729 -0.013027819984466921 0 -0.25387676547985721 -0.02452441136234379 0 -0.22684210307559549 -0.0077234896768903086 0 -0.24826461013585729 -0.013027819984466921 0 -0.24598119983726671 0.0037338506766126851 0 -0.22684210307559549 -0.0077234896768903086 0 -0.24229227070682269 -0.019096024698831499 0 -0.24826461013585729 -0.013027819984466921 0 -0.22684210307559549 -0.0077234896768903086 0 -0.24826461013585729 -0.013027819984466921 0 -0.24826461013585729 -0.013027819984466921 0 -0.26003022337954462 -0.0038093911555793728 0 -0.24598119983726671 0.0037338506766126851 0 -0.24826461013585729 -0.013027819984466921 0 -0.26003022337954462 -0.0038093911555793728 0 -0.26968711719611937 -0.018332150292041979 0 -0.24826461013585729 -0.013027819984466921 0 -0.26968711719611937 -0.018332150292041979 0 -0.25387676547985721 -0.02452441136234379 0 -0.26968711719611937 -0.018332150292041979 0 -0.26155562347943467 -0.037861138146123199 0 -0.24826461013585729 -0.013027819984466921 0 -0.25387676547985721 -0.02452441136234379 0 -0.26968711719611937 -0.018332150292041979 0 -0.26968711719611937 -0.018332150292041979 0 -0.28953187906397732 -0.034281883787379987 0 -0.27524211720584768 -0.038538427260779863 0 -0.26003022337954462 -0.0038093911555793728 0 -0.26968711719611937 -0.018332150292041979 0 -0.27433688946420332 -0.0007833753365484626 0 -0.26968711719611937 -0.018332150292041979 0 -0.27433688946420332 -0.0007833753365484626 0 -0.28631392786639209 -0.0070506759659385472 0 -0.28631392786639209 -0.0070506759659385472 0 -0.29653674479957171 -0.021015146411400301 0 -0.3025805037907468 -0.0027432771802810229 0 -0.28631392786639209 -0.0070506759659385472 0 -0.3025805037907468 -0.0027432771802810229 0 -0.28842838408131971 0.0076205693905790281 0 -0.27433688946420332 -0.0007833753365484626 0 -0.28631392786639209 -0.0070506759659385472 0 -0.28842838408131971 0.0076205693905790281 0 -0.26968711719611937 -0.018332150292041979 0 -0.28631392786639209 -0.0070506759659385472 0 -0.29653674479957171 -0.021015146411400301 0 -0.26968711719611937 -0.018332150292041979 0 -0.29653674479957171 -0.021015146411400301 0 -0.28953187906397732 -0.034281883787379987 0 -0.29653674479957171 -0.021015146411400301 0 -0.28953187906397732 -0.034281883787379987 0 -0.31718310516035308 -0.038172790333745737 0 -0.29653674479957171 -0.021015146411400301 0 -0.31459326366374579 -0.01532774276474733 0 -0.31718310516035308 -0.038172790333745737 0 -0.29653674479957171 -0.021015146411400301 0 -0.3025805037907468 -0.0027432771802810229 0 -0.31459326366374579 -0.01532774276474733 0 -0.30229462048881822 -0.056161209871372138 0 -0.29850594913894141 -0.055440370537233663 0 -0.30849544073550722 -0.074776909133231664 0 -0.30229462048881822 -0.056161209871372138 0 -0.29366820665513949 -0.048519954280836622 0 -0.31370341578724742 -0.051143824177853653 0 -0.30229462048881822 -0.056161209871372138 0 -0.29850594913894141 -0.055440370537233663 0 -0.29366820665513949 -0.048519954280836622 0 -0.30229462048881822 -0.056161209871372138 0 -0.31629816603535338 -0.060261719535131632 0 -0.30229462048881822 -0.056161209871372138 0 -0.31178497446605258 -0.064623658022855565 0 -0.31629816603535338 -0.060261719535131632 0 -0.30229462048881822 -0.056161209871372138 0 -0.31370341578724742 -0.051143824177853653 0 -0.31629816603535338 -0.060261719535131632 0 -0.29366820665513949 -0.048519954280836622 0 -0.31718310516035308 -0.038172790333745737 0 -0.29366820665513949 -0.048519954280836622 0 -0.31718310516035308 -0.038172790333745737 0 -0.31370341578724742 -0.051143824177853653 0 -0.28953187906397732 -0.034281883787379987 0 -0.29366820665513949 -0.048519954280836622 0 -0.31718310516035308 -0.038172790333745737 0 -0.28953187906397732 -0.034281883787379987 0 -0.29366820665513949 -0.048519954280836622 0 -0.27524211720584768 -0.038538427260779863 0 -0.29366820665513949 -0.048519954280836622 0 -0.27015330814992611 -0.058867118227927437 0 -0.29366820665513949 -0.048519954280836622 0 -0.28660483069534037 -0.061918496488246169 0 -0.27015330814992611 -0.058867118227927437 0 -0.29850594913894141 -0.055440370537233663 0 -0.28660483069534037 -0.061918496488246169 0 -0.29557893925590151 -0.069462416794053169 0 -0.29850594913894141 -0.055440370537233663 0 -0.29366820665513949 -0.048519954280836622 0 -0.28660483069534037 -0.061918496488246169 0 -0.29366820665513949 -0.048519954280836622 0 -0.27015330814992611 -0.058867118227927437 0 -0.27524211720584768 -0.038538427260779863 0 -0.26968711719611937 -0.018332150292041979 0 -0.27524211720584768 -0.038538427260779863 0 -0.26155562347943467 -0.037861138146123199 0 -0.27015330814992611 -0.058867118227927437 0 -0.27524211720584768 -0.038538427260779863 0 -0.26155562347943467 -0.037861138146123199 0 -0.24798951326795751 -0.035882587373858313 0 -0.26155562347943467 -0.037861138146123199 0 -0.25238491957690051 -0.051022134359787842 0 -0.24798951326795751 -0.035882587373858313 0 -0.25387676547985721 -0.02452441136234379 0 -0.26155562347943467 -0.037861138146123199 0 -0.27015330814992611 -0.058867118227927437 0 -0.26155562347943467 -0.037861138146123199 0 -0.25238491957690051 -0.051022134359787842 0 -0.2466384096447127 -0.069214282175018252 0 -0.27015330814992611 -0.058867118227927437 0 -0.25238491957690051 -0.051022134359787842 0 -0.2466384096447127 -0.069214282175018252 0 -0.27015330814992611 -0.058867118227927437 0 -0.26102584033089798 -0.073534373921212107 0 -0.2466384096447127 -0.069214282175018252 0 -0.27015330814992611 -0.058867118227927437 0 -0.2466384096447127 -0.069214282175018252 0 -0.26102584033089798 -0.073534373921212107 0 -0.25106785873748549 -0.083001848322642804 0 -0.25106785873748549 -0.083001848322642804 0 -0.26431637422662529 -0.083961298504163229 0 -0.25687551172258971 -0.095275519396915032 0 -0.26431637422662529 -0.083961298504163229 0 -0.25687551172258971 -0.095275519396915032 0 -0.26922948176741379 -0.094556007429682482 0 -0.26102584033089798 -0.073534373921212107 0 -0.25106785873748549 -0.083001848322642804 0 -0.26431637422662529 -0.083961298504163229 0 -0.26431637422662529 -0.083961298504163229 0 -0.27622487875609619 -0.085738752979791055 0 -0.27411142324960069 -0.07331497732508381 0 -0.26431637422662529 -0.083961298504163229 0 -0.27622487875609619 -0.085738752979791055 0 -0.26922948176741379 -0.094556007429682482 0 -0.27622487875609619 -0.085738752979791055 0 -0.26922948176741379 -0.094556007429682482 0 -0.28208733676033698 -0.099544680508420066 0 -0.27622487875609619 -0.085738752979791055 0 -0.27411142324960069 -0.07331497732508381 0 -0.28634330733871821 -0.075869823829162894 0 -0.28660483069534037 -0.061918496488246169 0 -0.27015330814992611 -0.058867118227927437 0 -0.27411142324960069 -0.07331497732508381 0 -0.27015330814992611 -0.058867118227927437 0 -0.26102584033089798 -0.073534373921212107 0 -0.27411142324960069 -0.07331497732508381 0 -0.26102584033089798 -0.073534373921212107 0 -0.26431637422662529 -0.083961298504163229 0 -0.27411142324960069 -0.07331497732508381 0 -0.24959534238117709 -0.1078054475449232 0 -0.26009747564537128 -0.1202716976192799 0 -0.26511094786836592 -0.1069062435210571 0 -0.24959534238117709 -0.1078054475449232 0 -0.26511094786836592 -0.1069062435210571 0 -0.25687551172258971 -0.095275519396915032 0 -0.26511094786836592 -0.1069062435210571 0 -0.25687551172258971 -0.095275519396915032 0 -0.26922948176741379 -0.094556007429682482 0 -0.26511094786836592 -0.1069062435210571 0 -0.27676276389741278 -0.11052104179975 0 -0.28208733676033698 -0.099544680508420066 0 -0.26511094786836592 -0.1069062435210571 0 -0.26922948176741379 -0.094556007429682482 0 -0.28208733676033698 -0.099544680508420066 0 -0.26511094786836592 -0.1069062435210571 0 -0.28208733676033698 -0.099544680508420066 0 -0.26009747564537128 -0.1202716976192799 0 -0.28368315898475188 -0.1205679176925603 0 -0.26697405985724948 -0.1304210152969853 0 -0.26009747564537128 -0.1202716976192799 0 -0.27676276389741278 -0.11052104179975 0 -0.28368315898475188 -0.1205679176925603 0 -0.26009747564537128 -0.1202716976192799 0 -0.28368315898475188 -0.1205679176925603 0 -0.26009747564537128 -0.1202716976192799 0 -0.26511094786836592 -0.1069062435210571 0 -0.27676276389741278 -0.11052104179975 0 -0.28368315898475188 -0.1205679176925603 0 -0.30807566230962469 -0.12087427087378499 0 -0.28368315898475188 -0.1205679176925603 0 -0.29137344231852969 -0.1063755175941712 0 -0.30807566230962469 -0.12087427087378499 0 -0.27676276389741278 -0.11052104179975 0 -0.28368315898475188 -0.1205679176925603 0 -0.29137344231852969 -0.1063755175941712 0 -0.28368315898475188 -0.1205679176925603 0 -0.29137344231852969 -0.1063755175941712 0 -0.29137344231852969 -0.1063755175941712 0 -0.28208733676033698 -0.099544680508420066 0 -0.29906372565230788 -0.092183117495782341 0 -0.28208733676033698 -0.099544680508420066 0 -0.29906372565230788 -0.092183117495782341 0 -0.27676276389741278 -0.11052104179975 0 -0.29137344231852969 -0.1063755175941712 0 -0.28208733676033698 -0.099544680508420066 0 -0.29137344231852969 -0.1063755175941712 0 -0.29906372565230788 -0.092183117495782341 0 -0.30690970986333499 -0.10413412755240679 0 -0.29906372565230788 -0.092183117495782341 0 -0.31411573014289268 -0.085656035662949492 0 -0.29137344231852969 -0.1063755175941712 0 -0.30690970986333499 -0.10413412755240679 0 -0.29906372565230788 -0.092183117495782341 0 -0.28368315898475188 -0.1205679176925603 0 -0.30807566230962469 -0.12087427087378499 0 -0.30140371581860798 -0.1292511186866305 0 -0.29137344231852969 -0.1063755175941712 0 -0.30690970986333499 -0.10413412755240679 0 -0.30807566230962469 -0.12087427087378499 0 -0.29557893925590151 -0.069462416794053169 0 -0.28634330733871821 -0.075869823829162894 0 -0.29528406594296941 -0.079953964946478426 0 -0.28660483069534037 -0.061918496488246169 0 -0.29557893925590151 -0.069462416794053169 0 -0.28634330733871821 -0.075869823829162894 0 -0.28660483069534037 -0.061918496488246169 0 -0.27411142324960069 -0.07331497732508381 0 -0.28634330733871821 -0.075869823829162894 0 -0.27622487875609619 -0.085738752979791055 0 -0.28634330733871821 -0.075869823829162894 0 -0.28693891673241251 -0.08747755748016231 0 -0.28208733676033698 -0.099544680508420066 0 -0.28693891673241251 -0.08747755748016231 0 -0.29906372565230788 -0.092183117495782341 0 -0.27622487875609619 -0.085738752979791055 0 -0.28208733676033698 -0.099544680508420066 0 -0.28693891673241251 -0.08747755748016231 0 -0.28693891673241251 -0.08747755748016231 0 -0.29528406594296941 -0.079953964946478426 0 -0.29906372565230788 -0.092183117495782341 0 -0.28634330733871821 -0.075869823829162894 0 -0.28693891673241251 -0.08747755748016231 0 -0.29528406594296941 -0.079953964946478426 0 -0.29528406594296941 -0.079953964946478426 0 -0.29906372565230788 -0.092183117495782341 0 -0.30849544073550722 -0.074776909133231664 0 -0.29906372565230788 -0.092183117495782341 0 -0.30849544073550722 -0.074776909133231664 0 -0.29906372565230788 -0.092183117495782341 0 -0.30849544073550722 -0.074776909133231664 0 -0.31411573014289268 -0.085656035662949492 0 -0.29906372565230788 -0.092183117495782341 0 -0.31411573014289268 -0.085656035662949492 0 -0.30849544073550722 -0.074776909133231664 0 -0.31411573014289268 -0.085656035662949492 0 -0.30229462048881822 -0.056161209871372138 0 -0.30849544073550722 -0.074776909133231664 0 -0.31178497446605258 -0.064623658022855565 0 -0.29850594913894141 -0.055440370537233663 0 -0.29557893925590151 -0.069462416794053169 0 -0.30849544073550722 -0.074776909133231664 0 -0.30849544073550722 -0.074776909133231664 0 -0.31286059459191501 -0.066721027791507209 0 -0.29850594913894141 -0.055440370537233663 0 -0.30849544073550722 -0.074776909133231664 0 -0.29557893925590151 -0.069462416794053169 0 -0.29528406594296941 -0.079953964946478426 0 -0.30849544073550722 -0.074776909133231664 0 -0.30849544073550722 -0.074776909133231664 0 -0.31178497446605258 -0.064623658022855565 0 -0.31286059459191501 -0.066721027791507209 0 -0.31178497446605258 -0.064623658022855565 0 -0.31286059459191501 -0.066721027791507209 0 -0.31286059459191501 -0.066721027791507209 0 -0.32103296817657878 -0.082656476452658639 0 -0.31286059459191501 -0.066721027791507209 0 -0.32103296817657878 -0.082656476452658639 0 -0.32352590008436471 -0.062378140209921912 0 -0.31178497446605258 -0.064623658022855565 0 -0.31286059459191501 -0.066721027791507209 0 -0.31629816603535338 -0.060261719535131632 0 -0.30849544073550722 -0.074776909133231664 0 -0.31286059459191501 -0.066721027791507209 0 -0.32103296817657878 -0.082656476452658639 0 -0.31286059459191501 -0.066721027791507209 0 -0.31629816603535338 -0.060261719535131632 0 -0.31286059459191501 -0.066721027791507209 0 -0.31629816603535338 -0.060261719535131632 0 -0.32352590008436471 -0.062378140209921912 0 -0.32103296817657878 -0.082656476452658639 0 -0.33093834944883532 -0.101971145942244 0 -0.30849544073550722 -0.074776909133231664 0 -0.31411573014289268 -0.085656035662949492 0 -0.32103296817657878 -0.082656476452658639 0 -0.31411573014289268 -0.085656035662949492 0 -0.32103296817657878 -0.082656476452658639 0 -0.32329194788869442 -0.1034183298589804 0 -0.31411573014289268 -0.085656035662949492 0 -0.32103296817657878 -0.082656476452658639 0 -0.32103296817657878 -0.082656476452658639 0 -0.33692687914299491 -0.089632102483736459 0 -0.33093834944883532 -0.101971145942244 0 -0.32103296817657878 -0.082656476452658639 0 -0.33692687914299491 -0.089632102483736459 0 -0.3453529791357649 -0.07211045902320197 0 -0.32103296817657878 -0.082656476452658639 0 -0.3453529791357649 -0.07211045902320197 0 -0.32352590008436471 -0.062378140209921912 0 -0.34475717967991132 -0.068595070548471249 0 -0.3453529791357649 -0.07211045902320197 0 -0.32352590008436471 -0.062378140209921912 0 -0.34475717967991132 -0.068595070548471249 0 -0.32352590008436471 -0.062378140209921912 0 -0.32103296817657878 -0.082656476452658639 0 -0.3453529791357649 -0.07211045902320197 0 -0.30807566230962469 -0.12087427087378499 0 -0.32329194788869442 -0.1034183298589804 0 -0.33246816563449738 -0.1211806240550105 0 -0.30807566230962469 -0.12087427087378499 0 -0.33246816563449738 -0.1211806240550105 0 -0.30807566230962469 -0.12087427087378499 0 -0.32007374605487132 -0.12494213909402439 0 -0.33246816563449738 -0.1211806240550105 0 -0.30690970986333499 -0.10413412755240679 0 -0.30807566230962469 -0.12087427087378499 0 -0.32329194788869442 -0.1034183298589804 0 -0.32329194788869442 -0.1034183298589804 0 -0.33246816563449738 -0.1211806240550105 0 -0.32007374605487132 -0.12494213909402439 0 -0.33441303965894859 -0.1249452932850653 0 -0.30690970986333499 -0.10413412755240679 0 -0.31411573014289268 -0.085656035662949492 0 -0.32329194788869442 -0.1034183298589804 0 -0.32103296817657878 -0.082656476452658639 0 -0.32329194788869442 -0.1034183298589804 0 -0.33093834944883532 -0.101971145942244 0 -0.31411573014289268 -0.085656035662949492 0 -0.32329194788869442 -0.1034183298589804 0 -0.32329194788869442 -0.1034183298589804 0 -0.33093834944883532 -0.101971145942244 0 -0.33246816563449738 -0.1211806240550105 0 -0.33692687914299491 -0.089632102483736459 0 -0.33093834944883532 -0.101971145942244 0 -0.35038321981080389 -0.10179032851684799 0 -0.33093834944883532 -0.101971145942244 0 -0.34773438721257438 -0.1121772477149196 0 -0.35038321981080389 -0.10179032851684799 0 -0.33093834944883532 -0.101971145942244 0 -0.3408437307210912 -0.1212858154318297 0 -0.33093834944883532 -0.101971145942244 0 -0.3408437307210912 -0.1212858154318297 0 -0.33246816563449738 -0.1211806240550105 0 -0.33093834944883532 -0.101971145942244 0 -0.3408437307210912 -0.1212858154318297 0 -0.34773438721257438 -0.1121772477149196 0 -0.34272140335036932 -0.124947120862287 0 -0.3408437307210912 -0.1212858154318297 0 -0.33441303965894859 -0.1249452932850653 0 -0.3408437307210912 -0.1212858154318297 0 -0.33246816563449738 -0.1211806240550105 0 -0.34272140335036932 -0.124947120862287 0 -0.33441303965894859 -0.1249452932850653 0 -0.34272140335036932 -0.124947120862287 0 -0.3408437307210912 -0.1212858154318297 0 -0.32007374605487132 -0.12494213909402439 0 -0.33441303965894859 -0.1249452932850653 0 -0.33246816563449738 -0.1211806240550105 0 -0.3408437307210912 -0.1212858154318297 0 -0.33441303965894859 -0.1249452932850653 0 -0.33246816563449738 -0.1211806240550105 0 -0.33441303965894859 -0.1249452932850653 0 -0.33246816563449738 -0.1211806240550105 0 -0.34272140335036932 -0.124947120862287 0 -0.35433435295871402 -0.1214552484327875 0 -0.36893450279197471 -0.1249528869149899 0 -0.34272140335036932 -0.124947120862287 0 -0.36893450279197471 -0.1249528869149899 0 -0.3408437307210912 -0.1212858154318297 0 -0.35433435295871402 -0.1214552484327875 0 -0.3408437307210912 -0.1212858154318297 0 -0.35433435295871402 -0.1214552484327875 0 -0.34773438721257438 -0.1121772477149196 0 -0.34272140335036932 -0.124947120862287 0 -0.3408437307210912 -0.1212858154318297 0 -0.35433435295871402 -0.1214552484327875 0 -0.35433435295871402 -0.1214552484327875 0 -0.34773438721257438 -0.1121772477149196 0 -0.3623387343604032 -0.1125517513480446 0 -0.34773438721257438 -0.1121772477149196 0 -0.35038321981080389 -0.10179032851684799 0 -0.3623387343604032 -0.1125517513480446 0 -0.37380044498630338 -0.100392191664622 0 -0.3623387343604032 -0.1125517513480446 0 -0.3789649235099295 -0.11270856972454819 0 -0.35038321981080389 -0.10179032851684799 0 -0.37380044498630338 -0.100392191664622 0 -0.36747037526515469 -0.088210616938563927 0 -0.35038321981080389 -0.10179032851684799 0 -0.37380044498630338 -0.100392191664622 0 -0.3623387343604032 -0.1125517513480446 0 -0.3623387343604032 -0.1125517513480446 0 -0.36893450279197471 -0.1249528869149899 0 -0.3789649235099295 -0.11270856972454819 0 -0.35433435295871402 -0.1214552484327875 0 -0.3623387343604032 -0.1125517513480446 0 -0.36893450279197471 -0.1249528869149899 0 -0.34995192587724822 -0.070116192960804249 0 -0.35645509357982358 -0.081628608772215283 0 -0.36843110820579178 -0.075527255856609146 0 -0.34995192587724822 -0.070116192960804249 0 -0.36608399240098949 -0.063120758007335118 0 -0.35494834161021771 -0.06194377696909157 0 -0.34995192587724822 -0.070116192960804249 0 -0.36843110820579178 -0.075527255856609146 0 -0.34995192587724822 -0.070116192960804249 0 -0.36608399240098949 -0.063120758007335118 0 -0.34995192587724822 -0.070116192960804249 0 -0.34475717967991132 -0.068595070548471249 0 -0.35494834161021771 -0.06194377696909157 0 -0.34995192587724822 -0.070116192960804249 0 -0.34475717967991132 -0.068595070548471249 0 -0.34995192587724822 -0.070116192960804249 0 -0.34475717967991132 -0.068595070548471249 0 -0.3453529791357649 -0.07211045902320197 0 -0.34995192587724822 -0.070116192960804249 0 -0.3453529791357649 -0.07211045902320197 0 -0.34995192587724822 -0.070116192960804249 0 -0.3453529791357649 -0.07211045902320197 0 -0.35645509357982358 -0.081628608772215283 0 -0.34475717967991132 -0.068595070548471249 0 -0.3453529791357649 -0.07211045902320197 0 -0.35038321981080389 -0.10179032851684799 0 -0.35645509357982358 -0.081628608772215283 0 -0.36747037526515469 -0.088210616938563927 0 -0.35038321981080389 -0.10179032851684799 0 -0.3453529791357649 -0.07211045902320197 0 -0.35645509357982358 -0.081628608772215283 0 -0.33692687914299491 -0.089632102483736459 0 -0.35038321981080389 -0.10179032851684799 0 -0.3453529791357649 -0.07211045902320197 0 -0.35038321981080389 -0.10179032851684799 0 -0.3453529791357649 -0.07211045902320197 0 -0.36747037526515469 -0.088210616938563927 0 -0.36843110820579178 -0.075527255856609146 0 -0.38691029053433551 -0.080938318752413793 0 -0.35645509357982358 -0.081628608772215283 0 -0.36747037526515469 -0.088210616938563927 0 -0.36843110820579178 -0.075527255856609146 0 -0.34995192587724822 -0.070116192960804249 0 -0.36843110820579178 -0.075527255856609146 0 -0.36608399240098949 -0.063120758007335118 0 -0.36843110820579178 -0.075527255856609146 0 -0.36608399240098949 -0.063120758007335118 0 -0.37978412082390189 -0.068029865631836883 0 -0.36608399240098949 -0.063120758007335118 0 -0.37085155020467431 -0.050438611479832557 0 -0.38221605892473098 -0.056125323053866277 0 -0.36608399240098949 -0.063120758007335118 0 -0.38221605892473098 -0.056125323053866277 0 -0.37085155020467431 -0.050438611479832557 0 -0.36177701350261748 -0.054750595911384127 0 -0.36329546327126672 -0.041142767418341691 0 -0.36608399240098949 -0.063120758007335118 0 -0.36177701350261748 -0.054750595911384127 0 -0.35494834161021771 -0.06194377696909157 0 -0.36608399240098949 -0.063120758007335118 0 -0.37085155020467431 -0.050438611479832557 0 -0.36177701350261748 -0.054750595911384127 0 -0.36177701350261748 -0.054750595911384127 0 -0.35494834161021771 -0.06194377696909157 0 -0.35217159659032232 -0.05313626741746251 0 -0.34475717967991132 -0.068595070548471249 0 -0.35217159659032232 -0.05313626741746251 0 -0.34008173660725832 -0.04100860914713586 0 -0.36177701350261748 -0.054750595911384127 0 -0.35217159659032232 -0.05313626741746251 0 -0.36329546327126672 -0.041142767418341691 0 -0.34475717967991132 -0.068595070548471249 0 -0.35494834161021771 -0.06194377696909157 0 -0.35217159659032232 -0.05313626741746251 0 -0.35217159659032232 -0.05313626741746251 0 -0.35233090603521772 -0.034345905606361089 0 -0.36329546327126672 -0.041142767418341691 0 -0.35217159659032232 -0.05313626741746251 0 -0.35233090603521772 -0.034345905606361089 0 -0.34008173660725832 -0.04100860914713586 0 -0.35233090603521772 -0.034345905606361089 0 -0.34677261788783459 -0.022263095799622792 0 -0.34008173660725832 -0.04100860914713586 0 -0.35233090603521772 -0.034345905606361089 0 -0.36329546327126672 -0.041142767418341691 0 -0.36125368123050811 -0.029816691131076791 0 -0.36329546327126672 -0.041142767418341691 0 -0.37015544225173291 -0.03012439130571171 0 -0.36125368123050811 -0.029816691131076791 0 -0.37085155020467431 -0.050438611479832557 0 -0.36329546327126672 -0.041142767418341691 0 -0.37439980638912518 -0.038891661293645137 0 -0.36329546327126672 -0.041142767418341691 0 -0.37439980638912518 -0.038891661293645137 0 -0.37015544225173291 -0.03012439130571171 0 -0.37439980638912518 -0.038891661293645137 0 -0.37015544225173291 -0.03012439130571171 0 -0.37866743010551202 -0.02906954498465647 0 -0.37015544225173291 -0.03012439130571171 0 -0.37402384376206249 -0.023759624541515059 0 -0.37866743010551202 -0.02906954498465647 0 -0.37015544225173291 -0.03012439130571171 0 -0.37402384376206249 -0.023759624541515059 0 -0.36652472594663232 -0.022500501643346649 0 -0.37402384376206249 -0.023759624541515059 0 -0.37465439862472261 -0.016787835852634068 0 -0.36652472594663232 -0.022500501643346649 0 -0.37465439862472261 -0.016787835852634068 0 -0.36652472594663232 -0.022500501643346649 0 -0.3596530522362773 -0.017262546391789129 0 -0.36652472594663232 -0.022500501643346649 0 -0.3596530522362773 -0.017262546391789129 0 -0.35649867437881472 -0.022585523222405649 0 -0.36652472594663232 -0.022500501643346649 0 -0.36125368123050811 -0.029816691131076791 0 -0.35649867437881472 -0.022585523222405649 0 -0.37015544225173291 -0.03012439130571171 0 -0.36652472594663232 -0.022500501643346649 0 -0.36125368123050811 -0.029816691131076791 0 -0.37465439862472261 -0.016787835852634068 0 -0.3596530522362773 -0.017262546391789129 0 -0.34857824671955512 -0.007874197240844389 0 -0.37465439862472261 -0.016787835852634068 0 -0.3597652811465577 -0.0058215117475868012 0 -0.34857824671955512 -0.007874197240844389 0 -0.37465439862472261 -0.016787835852634068 0 -0.34857824671955512 -0.007874197240844389 0 -0.37126952376897032 -0.00085078512189483576 0 -0.36867541047690239 -0.006920070417115203 0 -0.36494834593608783 -0.001298186014321303 0 -0.37126952376897032 -0.00085078512189483576 0 -0.37464851222799189 -0.0076089195940836872 0 -0.37774077980655368 -0.001289555558904682 0 -0.37126952376897032 -0.00085078512189483576 0 -0.37464851222799189 -0.0076089195940836872 0 -0.36867541047690239 -0.006920070417115203 0 -0.37465439862472261 -0.016787835852634068 0 -0.36867541047690239 -0.006920070417115203 0 -0.3597652811465577 -0.0058215117475868012 0 -0.37465439862472261 -0.016787835852634068 0 -0.37464851222799189 -0.0076089195940836872 0 -0.36867541047690239 -0.006920070417115203 0 -0.36867541047690239 -0.006920070417115203 0 -0.3597652811465577 -0.0058215117475868012 0 -0.36494834593608783 -0.001298186014321303 0 -0.3597652811465577 -0.0058215117475868012 0 -0.36494834593608783 -0.001298186014321303 0 -0.35900139338342918 0.0020097317905480609 0 -0.3597652811465577 -0.0058215117475868012 0 -0.35221409618436439 -0.0049109655465913588 0 -0.34857824671955512 -0.007874197240844389 0 -0.3597652811465577 -0.0058215117475868012 0 -0.35509488683577939 -0.0004162838960613095 0 -0.35900139338342918 0.0020097317905480609 0 -0.3597652811465577 -0.0058215117475868012 0 -0.35509488683577939 -0.0004162838960613095 0 -0.35221409618436439 -0.0049109655465913588 0 -0.3596530522362773 -0.017262546391789129 0 -0.34857824671955512 -0.007874197240844389 0 -0.35200921551166209 -0.0165646739997149 0 -0.34857824671955512 -0.007874197240844389 0 -0.34618108527798752 -0.01472783018749277 0 -0.35200921551166209 -0.0165646739997149 0 -0.35233090603521772 -0.034345905606361089 0 -0.36125368123050811 -0.029816691131076791 0 -0.35649867437881472 -0.022585523222405649 0 -0.35233090603521772 -0.034345905606361089 0 -0.35649867437881472 -0.022585523222405649 0 -0.34677261788783459 -0.022263095799622792 0 -0.35649867437881472 -0.022585523222405649 0 -0.35200921551166209 -0.0165646739997149 0 -0.34677261788783459 -0.022263095799622792 0 -0.3596530522362773 -0.017262546391789129 0 -0.35649867437881472 -0.022585523222405649 0 -0.35200921551166209 -0.0165646739997149 0 -0.34618108527798752 -0.01472783018749277 0 -0.35200921551166209 -0.0165646739997149 0 -0.34677261788783459 -0.022263095799622792 0 -0.33540629353460438 -0.01342214774580049 0 -0.31718310516035308 -0.038172790333745737 0 -0.34008173660725832 -0.04100860914713586 0 -0.33540629353460438 -0.01342214774580049 0 -0.34008173660725832 -0.04100860914713586 0 -0.34677261788783459 -0.022263095799622792 0 -0.33540629353460438 -0.01342214774580049 0 -0.34008173660725832 -0.04100860914713586 0 -0.34618108527798752 -0.01472783018749277 0 -0.34677261788783459 -0.022263095799622792 0 -0.33540629353460438 -0.01342214774580049 0 -0.33540629353460438 -0.01342214774580049 0 -0.3204068892458079 -0.0014125807301150939 0 -0.33073085046195078 0.01416431365553468 0 -0.34857824671955512 -0.007874197240844389 0 -0.33540629353460438 -0.01342214774580049 0 -0.33073085046195078 0.01416431365553468 0 -0.34857824671955512 -0.007874197240844389 0 -0.34618108527798752 -0.01472783018749277 0 -0.33540629353460438 -0.01342214774580049 0 -0.3025805037907468 -0.0027432771802810229 0 -0.31459326366374579 -0.01532774276474733 0 -0.3204068892458079 -0.0014125807301150939 0 -0.33540629353460438 -0.01342214774580049 0 -0.31459326366374579 -0.01532774276474733 0 -0.3204068892458079 -0.0014125807301150939 0 -0.33540629353460438 -0.01342214774580049 0 -0.31459326366374579 -0.01532774276474733 0 -0.31718310516035308 -0.038172790333745737 0 -0.31718310516035308 -0.038172790333745737 0 -0.3268834079531176 -0.05023453433316457 0 -0.34008173660725832 -0.04100860914713586 0 -0.31718310516035308 -0.038172790333745737 0 -0.31370341578724742 -0.051143824177853653 0 -0.3268834079531176 -0.05023453433316457 0 -0.31370341578724742 -0.051143824177853653 0 -0.31629816603535338 -0.060261719535131632 0 -0.32352590008436471 -0.062378140209921912 0 -0.31629816603535338 -0.060261719535131632 0 -0.32352590008436471 -0.062378140209921912 0 -0.32352590008436471 -0.062378140209921912 0 -0.3268834079531176 -0.05023453433316457 0 -0.33381205608116321 -0.055554088559673351 0 -0.31370341578724742 -0.051143824177853653 0 -0.32352590008436471 -0.062378140209921912 0 -0.3268834079531176 -0.05023453433316457 0 -0.34475717967991132 -0.068595070548471249 0 -0.32352590008436471 -0.062378140209921912 0 -0.33381205608116321 -0.055554088559673351 0 -0.34475717967991132 -0.068595070548471249 0 -0.33381205608116321 -0.055554088559673351 0 -0.34008173660725832 -0.04100860914713586 0 -0.3268834079531176 -0.05023453433316457 0 -0.33381205608116321 -0.055554088559673351 0 -0.34008173660725832 -0.04100860914713586 0 -0.34475717967991132 -0.068595070548471249 0 -0.34008173660725832 -0.04100860914713586 0 -0.29131753467172561 -0.25675805269722002 0 -0.30769212114973271 -0.24578220261295139 0 -0.29241592956139478 -0.23974284613727589 0 -0.30769212114973271 -0.24578220261295139 0 -0.30829656048542242 -0.23127198481015249 0 -0.29241592956139478 -0.23974284613727589 0 -0.30829656048542242 -0.23127198481015249 0 -0.29279532374442052 -0.2217612167757172 0 -0.3129652712195421 -0.2114706657937139 0 -0.30829656048542242 -0.23127198481015249 0 -0.29279532374442052 -0.2217612167757172 0 -0.29241592956139478 -0.23974284613727589 0 -0.29279532374442052 -0.2217612167757172 0 -0.29241592956139478 -0.23974284613727589 0 -0.27798049023744681 -0.23352671123603991 0 -0.29279532374442052 -0.2217612167757172 0 -0.27798049023744681 -0.23352671123603991 0 -0.27449661508218531 -0.21747639879007349 0 -0.29131753467172561 -0.25675805269722002 0 -0.29241592956139478 -0.23974284613727589 0 -0.27722523139620658 -0.24922189107985179 0 -0.29241592956139478 -0.23974284613727589 0 -0.27722523139620658 -0.24922189107985179 0 -0.27798049023744681 -0.23352671123603991 0 -0.27722523139620658 -0.24922189107985179 0 -0.25992972331208369 -0.2410680052130979 0 -0.27798049023744681 -0.23352671123603991 0 -0.26398002587916253 -0.25656090854441049 0 -0.27722523139620658 -0.24922189107985179 0 -0.25992972331208369 -0.2410680052130979 0 -0.25992972331208369 -0.2410680052130979 0 -0.25674041691710447 -0.22108212323078871 0 -0.27798049023744681 -0.23352671123603991 0 -0.2377451423251814 -0.23136366228574551 0 -0.25992972331208369 -0.2410680052130979 0 -0.25674041691710447 -0.22108212323078871 0 -0.25674041691710447 -0.22108212323078871 0 -0.27798049023744681 -0.23352671123603991 0 -0.27449661508218531 -0.21747639879007349 0 -0.27449661508218531 -0.21747639879007349 0 -0.25644706280453389 -0.1995927939493197 0 -0.27817485521465529 -0.19463925610534399 0 -0.27449661508218531 -0.21747639879007349 0 -0.27817485521465529 -0.19463925610534399 0 -0.25674041691710447 -0.22108212323078871 0 -0.27449661508218531 -0.21747639879007349 0 -0.25644706280453389 -0.1995927939493197 0 -0.25644706280453389 -0.1995927939493197 0 -0.27817485521465529 -0.19463925610534399 0 -0.26629571781906192 -0.18034234132084431 0 -0.27817485521465529 -0.19463925610534399 0 -0.29367807880863189 -0.20345752952089671 0 -0.29386082525749962 -0.1848532680646672 0 -0.27449661508218531 -0.21747639879007349 0 -0.27817485521465529 -0.19463925610534399 0 -0.29367807880863189 -0.20345752952089671 0 -0.29279532374442052 -0.2217612167757172 0 -0.27449661508218531 -0.21747639879007349 0 -0.29367807880863189 -0.20345752952089671 0 -0.29279532374442052 -0.2217612167757172 0 -0.29367807880863189 -0.20345752952089671 0 -0.3129652712195421 -0.2114706657937139 0 -0.29367807880863189 -0.20345752952089671 0 -0.30717411826112789 -0.1920401195635244 0 -0.29386082525749962 -0.1848532680646672 0 -0.29367807880863189 -0.20345752952089671 0 -0.30717411826112789 -0.1920401195635244 0 -0.3129652712195421 -0.2114706657937139 0 -0.30551265723832022 -0.17938492804960809 0 -0.29677214667513702 -0.1677956617280158 0 -0.29386082525749962 -0.1848532680646672 0 -0.30717411826112789 -0.1920401195635244 0 -0.30551265723832022 -0.17938492804960809 0 -0.29386082525749962 -0.1848532680646672 0 -0.30717411826112789 -0.1920401195635244 0 -0.30551265723832022 -0.17938492804960809 0 -0.31489114071409963 -0.18333745750317351 0 -0.30551265723832022 -0.17938492804960809 0 -0.31220508881165993 -0.16846949012138551 0 -0.29677214667513702 -0.1677956617280158 0 -0.30551265723832022 -0.17938492804960809 0 -0.31220508881165993 -0.16846949012138551 0 -0.31489114071409963 -0.18333745750317351 0 -0.31220508881165993 -0.16846949012138551 0 -0.2949530938874384 -0.15245549241185349 0 -0.31498630483336881 -0.15987728715749039 0 -0.31220508881165993 -0.16846949012138551 0 -0.2949530938874384 -0.15245549241185349 0 -0.31220508881165993 -0.16846949012138551 0 -0.29677214667513702 -0.1677956617280158 0 -0.2949530938874384 -0.15245549241185349 0 -0.28185309534712533 -0.17180211342061449 0 -0.28553133547959519 -0.14896497073588499 0 -0.29677214667513702 -0.1677956617280158 0 -0.28185309534712533 -0.17180211342061449 0 -0.2949530938874384 -0.15245549241185349 0 -0.28185309534712533 -0.17180211342061449 0 -0.28553133547959519 -0.14896497073588499 0 -0.2949530938874384 -0.15245549241185349 0 -0.27817485521465529 -0.19463925610534399 0 -0.28185309534712533 -0.17180211342061449 0 -0.29386082525749962 -0.1848532680646672 0 -0.29677214667513702 -0.1677956617280158 0 -0.28185309534712533 -0.17180211342061449 0 -0.29386082525749962 -0.1848532680646672 0 -0.27817485521465529 -0.19463925610534399 0 -0.28185309534712533 -0.17180211342061449 0 -0.27817485521465529 -0.19463925610534399 0 -0.28185309534712533 -0.17180211342061449 0 -0.26629571781906192 -0.18034234132084431 0 -0.26629571781906192 -0.18034234132084431 0 -0.25029992488695979 -0.1782534950292988 0 -0.25761979100978533 -0.16665415002795461 0 -0.25644706280453389 -0.1995927939493197 0 -0.26629571781906192 -0.18034234132084431 0 -0.25029992488695979 -0.1782534950292988 0 -0.26629571781906192 -0.18034234132084431 0 -0.25761979100978533 -0.16665415002795461 0 -0.26933386928146391 -0.16300442301689841 0 -0.24825300788518309 -0.1555077779107997 0 -0.25761979100978533 -0.16665415002795461 0 -0.26108146703715113 -0.15708396540124031 0 -0.25761979100978533 -0.16665415002795461 0 -0.26108146703715113 -0.15708396540124031 0 -0.26933386928146391 -0.16300442301689841 0 -0.28185309534712533 -0.17180211342061449 0 -0.27598770130958522 -0.15333886838191951 0 -0.28553133547959519 -0.14896497073588499 0 -0.28185309534712533 -0.17180211342061449 0 -0.26629571781906192 -0.18034234132084431 0 -0.26933386928146391 -0.16300442301689841 0 -0.26108146703715113 -0.15708396540124031 0 -0.26933386928146391 -0.16300442301689841 0 -0.26726071412102442 -0.15087550168963329 0 -0.28185309534712533 -0.17180211342061449 0 -0.26933386928146391 -0.16300442301689841 0 -0.27598770130958522 -0.15333886838191951 0 -0.27598770130958522 -0.15333886838191951 0 -0.271177428866754 -0.14364721368904659 0 -0.28553133547959519 -0.14896497073588499 0 -0.271177428866754 -0.14364721368904659 0 -0.28662611268527088 -0.1421678116724244 0 -0.28553133547959519 -0.14896497073588499 0 -0.271177428866754 -0.14364721368904659 0 -0.28553133547959519 -0.14896497073588499 0 -0.271177428866754 -0.14364721368904659 0 -0.26726071412102442 -0.15087550168963329 0 -0.25891484533836889 -0.13910423861407881 0 -0.271177428866754 -0.14364721368904659 0 -0.26726071412102442 -0.15087550168963329 0 -0.27598770130958522 -0.15333886838191951 0 -0.271177428866754 -0.14364721368904659 0 -0.26726071412102442 -0.15087550168963329 0 -0.26933386928146391 -0.16300442301689841 0 -0.27598770130958522 -0.15333886838191951 0 -0.26726071412102442 -0.15087550168963329 0 -0.2405789555143194 -0.1375116727892334 0 -0.25601133851015478 -0.1487044986697981 0 -0.25891484533836889 -0.13910423861407881 0 -0.26108146703715113 -0.15708396540124031 0 -0.26726071412102442 -0.15087550168963329 0 -0.25601133851015478 -0.1487044986697981 0 -0.271177428866754 -0.14364721368904659 0 -0.25891484533836889 -0.13910423861407881 0 -0.26726071412102442 -0.15087550168963329 0 -0.25601133851015478 -0.1487044986697981 0 -0.25891484533836889 -0.13910423861407881 0 -0.24825300788518309 -0.1555077779107997 0 -0.26108146703715113 -0.15708396540124031 0 -0.25601133851015478 -0.1487044986697981 0 -0.26009747564537128 -0.1202716976192799 0 -0.25054446979338107 -0.12912519928877991 0 -0.26697405985724948 -0.1304210152969853 0 -0.25054446979338107 -0.12912519928877991 0 -0.25891484533836889 -0.13910423861407881 0 -0.26697405985724948 -0.1304210152969853 0 -0.2405789555143194 -0.1375116727892334 0 -0.25054446979338107 -0.12912519928877991 0 -0.25891484533836889 -0.13910423861407881 0 -0.28368315898475188 -0.1205679176925603 0 -0.271177428866754 -0.14364721368904659 0 -0.26697405985724948 -0.1304210152969853 0 -0.28368315898475188 -0.1205679176925603 0 -0.271177428866754 -0.14364721368904659 0 -0.28514813781506088 -0.1345929107172644 0 -0.28368315898475188 -0.1205679176925603 0 -0.271177428866754 -0.14364721368904659 0 -0.271177428866754 -0.14364721368904659 0 -0.25891484533836889 -0.13910423861407881 0 -0.26697405985724948 -0.1304210152969853 0 -0.271177428866754 -0.14364721368904659 0 -0.28514813781506088 -0.1345929107172644 0 -0.28662611268527088 -0.1421678116724244 0 -0.28368315898475188 -0.1205679176925603 0 -0.29492821592448881 -0.13453805291007029 0 -0.28514813781506088 -0.1345929107172644 0 -0.28368315898475188 -0.1205679176925603 0 -0.29492821592448881 -0.13453805291007029 0 -0.30140371581860798 -0.1292511186866305 0 -0.29492821592448881 -0.13453805291007029 0 -0.2912775948780732 -0.1389862943003273 0 -0.28514813781506088 -0.1345929107172644 0 -0.29657756063899582 -0.140013172184488 0 -0.29492821592448881 -0.13453805291007029 0 -0.2912775948780732 -0.1389862943003273 0 -0.2912775948780732 -0.1389862943003273 0 -0.28514813781506088 -0.1345929107172644 0 -0.28662611268527088 -0.1421678116724244 0 -0.28662611268527088 -0.1421678116724244 0 -0.28553133547959519 -0.14896497073588499 0 -0.28662611268527088 -0.1421678116724244 0 -0.28553133547959519 -0.14896497073588499 0 -0.28937009998544028 -0.14621975116982991 0 -0.28553133547959519 -0.14896497073588499 0 -0.2922536480049423 -0.1499497578362777 0 -0.28937009998544028 -0.14621975116982991 0 -0.28553133547959519 -0.14896497073588499 0 -0.2922536480049423 -0.1499497578362777 0 -0.2949530938874384 -0.15245549241185349 0 -0.28553133547959519 -0.14896497073588499 0 -0.2949530938874384 -0.15245549241185349 0 -0.2922536480049423 -0.1499497578362777 0 -0.2949530938874384 -0.15245549241185349 0 -0.29617843115691228 -0.14802272380236281 0 -0.2922536480049423 -0.1499497578362777 0 -0.2949530938874384 -0.15245549241185349 0 -0.2912775948780732 -0.1389862943003273 0 -0.28662611268527088 -0.1421678116724244 0 -0.29310794732654949 -0.1436195240173895 0 -0.28662611268527088 -0.1421678116724244 0 -0.28937009998544028 -0.14621975116982991 0 -0.29310794732654949 -0.1436195240173895 0 -0.2922536480049423 -0.1499497578362777 0 -0.28937009998544028 -0.14621975116982991 0 -0.29310794732654949 -0.1436195240173895 0 -0.29617843115691228 -0.14802272380236281 0 -0.29310794732654949 -0.1436195240173895 0 -0.29956135480037449 -0.14472193576336759 0 -0.2922536480049423 -0.1499497578362777 0 -0.29617843115691228 -0.14802272380236281 0 -0.29310794732654949 -0.1436195240173895 0 -0.29657756063899582 -0.140013172184488 0 -0.2912775948780732 -0.1389862943003273 0 -0.29310794732654949 -0.1436195240173895 0 -0.29657756063899582 -0.140013172184488 0 -0.29310794732654949 -0.1436195240173895 0 -0.29956135480037449 -0.14472193576336759 0 -0.29956135480037449 -0.14472193576336759 0 -0.30554397810907652 -0.146919348525368 0 -0.30456114821214081 -0.13888567554976469 0 -0.2949530938874384 -0.15245549241185349 0 -0.30620642865757891 -0.15285211384445899 0 -0.31498630483336881 -0.15987728715749039 0 -0.2949530938874384 -0.15245549241185349 0 -0.31498630483336881 -0.15987728715749039 0 -0.29657756063899582 -0.140013172184488 0 -0.29956135480037449 -0.14472193576336759 0 -0.30456114821214081 -0.13888567554976469 0 -0.29617843115691228 -0.14802272380236281 0 -0.29956135480037449 -0.14472193576336759 0 -0.30052761464898298 -0.14908162957255741 0 -0.29956135480037449 -0.14472193576336759 0 -0.30052761464898298 -0.14908162957255741 0 -0.30554397810907652 -0.146919348525368 0 -0.2949530938874384 -0.15245549241185349 0 -0.30052761464898298 -0.14908162957255741 0 -0.30620642865757891 -0.15285211384445899 0 -0.2949530938874384 -0.15245549241185349 0 -0.29617843115691228 -0.14802272380236281 0 -0.30052761464898298 -0.14908162957255741 0 -0.30052761464898298 -0.14908162957255741 0 -0.30620642865757891 -0.15285211384445899 0 -0.30554397810907652 -0.146919348525368 0 -0.30620642865757891 -0.15285211384445899 0 -0.31211863317072019 -0.1538765410016501 0 -0.31498630483336881 -0.15987728715749039 0 -0.30620642865757891 -0.15285211384445899 0 -0.31071230574427161 -0.15022116190891349 0 -0.30554397810907652 -0.146919348525368 0 -0.30620642865757891 -0.15285211384445899 0 -0.31071230574427161 -0.15022116190891349 0 -0.31211863317072019 -0.1538765410016501 0 -0.31246836027323899 -0.14497521722301901 0 -0.31246708178415561 -0.13872402753426441 0 -0.30456114821214081 -0.13888567554976469 0 -0.30554397810907652 -0.146919348525368 0 -0.31246836027323899 -0.14497521722301901 0 -0.30456114821214081 -0.13888567554976469 0 -0.31071230574427161 -0.15022116190891349 0 -0.30554397810907652 -0.146919348525368 0 -0.31246836027323899 -0.14497521722301901 0 -0.30140371581860798 -0.1292511186866305 0 -0.30456114821214081 -0.13888567554976469 0 -0.31280589771709483 -0.13181614145056869 0 -0.31246708178415561 -0.13872402753426441 0 -0.30456114821214081 -0.13888567554976469 0 -0.31280589771709483 -0.13181614145056869 0 -0.30807566230962469 -0.12087427087378499 0 -0.30140371581860798 -0.1292511186866305 0 -0.31280589771709483 -0.13181614145056869 0 -0.29657756063899582 -0.140013172184488 0 -0.29492821592448881 -0.13453805291007029 0 -0.30456114821214081 -0.13888567554976469 0 -0.29492821592448881 -0.13453805291007029 0 -0.30140371581860798 -0.1292511186866305 0 -0.30456114821214081 -0.13888567554976469 0 -0.3226930215385343 -0.13395567837890529 0 -0.31855308997834159 -0.13934265221991729 0 -0.32506280578504959 -0.14064102607364051 0 -0.3226930215385343 -0.13395567837890529 0 -0.32506280578504959 -0.14064102607364051 0 -0.33047387389575927 -0.1369340691945744 0 -0.3226930215385343 -0.13395567837890529 0 -0.32807010768985068 -0.12986880773923029 0 -0.33047387389575927 -0.1369340691945744 0 -0.32007374605487132 -0.12494213909402439 0 -0.33441303965894859 -0.1249452932850653 0 -0.32807010768985068 -0.12986880773923029 0 -0.32007374605487132 -0.12494213909402439 0 -0.3226930215385343 -0.13395567837890529 0 -0.32807010768985068 -0.12986880773923029 0 -0.32007374605487132 -0.12494213909402439 0 -0.3226930215385343 -0.13395567837890529 0 -0.31280589771709483 -0.13181614145056869 0 -0.30807566230962469 -0.12087427087378499 0 -0.32007374605487132 -0.12494213909402439 0 -0.31280589771709483 -0.13181614145056869 0 -0.3226930215385343 -0.13395567837890529 0 -0.31280589771709483 -0.13181614145056869 0 -0.31855308997834159 -0.13934265221991729 0 -0.31246708178415561 -0.13872402753426441 0 -0.31280589771709483 -0.13181614145056869 0 -0.31855308997834159 -0.13934265221991729 0 -0.31246836027323899 -0.14497521722301901 0 -0.31246708178415561 -0.13872402753426441 0 -0.31855308997834159 -0.13934265221991729 0 -0.31246836027323899 -0.14497521722301901 0 -0.31855308997834159 -0.13934265221991729 0 -0.32096396999162452 -0.14503749675666289 0 -0.31246836027323899 -0.14497521722301901 0 -0.31722412851074311 -0.15248258895007169 0 -0.32096396999162452 -0.14503749675666289 0 -0.31211863317072019 -0.1538765410016501 0 -0.31722412851074311 -0.15248258895007169 0 -0.31498630483336881 -0.15987728715749039 0 -0.31071230574427161 -0.15022116190891349 0 -0.31246836027323899 -0.14497521722301901 0 -0.31722412851074311 -0.15248258895007169 0 -0.31071230574427161 -0.15022116190891349 0 -0.31211863317072019 -0.1538765410016501 0 -0.31722412851074311 -0.15248258895007169 0 -0.32096396999162452 -0.14503749675666289 0 -0.32506280578504959 -0.14064102607364051 0 -0.33039285730051032 -0.1475567648151897 0 -0.31722412851074311 -0.15248258895007169 0 -0.32096396999162452 -0.14503749675666289 0 -0.33039285730051032 -0.1475567648151897 0 -0.31855308997834159 -0.13934265221991729 0 -0.32096396999162452 -0.14503749675666289 0 -0.32506280578504959 -0.14064102607364051 0 -0.33039285730051032 -0.1475567648151897 0 -0.33813688440009898 -0.15615522653291031 0 -0.34198145815712638 -0.1395953898376964 0 -0.32506280578504959 -0.14064102607364051 0 -0.33039285730051032 -0.1475567648151897 0 -0.33047387389575927 -0.1369340691945744 0 -0.31722412851074311 -0.15248258895007169 0 -0.33039285730051032 -0.1475567648151897 0 -0.33813688440009898 -0.15615522653291031 0 -0.33039285730051032 -0.1475567648151897 0 -0.34198145815712638 -0.1395953898376964 0 -0.33047387389575927 -0.1369340691945744 0 -0.33813688440009898 -0.15615522653291031 0 -0.34198145815712638 -0.1395953898376964 0 -0.34954987665533299 -0.15424548639031271 0 -0.34198145815712638 -0.1395953898376964 0 -0.3337346198504213 -0.1328358900141379 0 -0.33047387389575927 -0.1369340691945744 0 -0.32807010768985068 -0.12986880773923029 0 -0.3337346198504213 -0.1328358900141379 0 -0.33047387389575927 -0.1369340691945744 0 -0.33441303965894859 -0.1249452932850653 0 -0.32807010768985068 -0.12986880773923029 0 -0.3337346198504213 -0.1328358900141379 0 -0.33441303965894859 -0.1249452932850653 0 -0.34198145815712638 -0.1395953898376964 0 -0.34272140335036932 -0.124947120862287 0 -0.33441303965894859 -0.1249452932850653 0 -0.34198145815712638 -0.1395953898376964 0 -0.33441303965894859 -0.1249452932850653 0 -0.34198145815712638 -0.1395953898376964 0 -0.3337346198504213 -0.1328358900141379 0 -0.34272140335036932 -0.124947120862287 0 -0.35413341494744088 -0.14719959415449421 0 -0.34272140335036932 -0.124947120862287 0 -0.35599685079288468 -0.13305792836185981 0 -0.35413341494744088 -0.14719959415449421 0 -0.34272140335036932 -0.124947120862287 0 -0.34198145815712638 -0.1395953898376964 0 -0.35413341494744088 -0.14719959415449421 0 -0.34272140335036932 -0.124947120862287 0 -0.36893450279197471 -0.1249528869149899 0 -0.35599685079288468 -0.13305792836185981 0 -0.35599685079288468 -0.13305792836185981 0 -0.36484224068191412 -0.14157370685753851 0 -0.35413341494744088 -0.14719959415449421 0 -0.36893450279197471 -0.1249528869149899 0 -0.35599685079288468 -0.13305792836185981 0 -0.36484224068191412 -0.14157370685753851 0 -0.36893450279197471 -0.1249528869149899 0 -0.36484224068191412 -0.14157370685753851 0 -0.3777566452334315 -0.14913711856379011 0 -0.3679743334396014 -0.15408772885571331 0 -0.37696591512674532 -0.1609827341034305 0 -0.3777566452334315 -0.14913711856379011 0 -0.3679743334396014 -0.15408772885571331 0 -0.36484224068191412 -0.14157370685753851 0 -0.3777566452334315 -0.14913711856379011 0 -0.3679743334396014 -0.15408772885571331 0 -0.36484224068191412 -0.14157370685753851 0 -0.35413341494744088 -0.14719959415449421 0 -0.35413341494744088 -0.14719959415449421 0 -0.34954987665533299 -0.15424548639031271 0 -0.35445721343992059 -0.1619675590177023 0 -0.34198145815712638 -0.1395953898376964 0 -0.34954987665533299 -0.15424548639031271 0 -0.34198145815712638 -0.1395953898376964 0 -0.35413341494744088 -0.14719959415449421 0 -0.34954987665533299 -0.15424548639031271 0 -0.33813688440009898 -0.15615522653291031 0 -0.34954987665533299 -0.15424548639031271 0 -0.34648545334868369 -0.16311147615285329 0 -0.34648545334868369 -0.16311147615285329 0 -0.35788001493839611 -0.17576831496813999 0 -0.33501951577929873 -0.16729908190312789 0 -0.34954987665533299 -0.15424548639031271 0 -0.34648545334868369 -0.16311147615285329 0 -0.35445721343992059 -0.1619675590177023 0 -0.35413341494744088 -0.14719959415449421 0 -0.35445721343992059 -0.1619675590177023 0 -0.36554542654456429 -0.16945206744667471 0 -0.35788001493839611 -0.17576831496813999 0 -0.33501951577929873 -0.16729908190312789 0 -0.34648545334868369 -0.16311147615285329 0 -0.35445721343992059 -0.1619675590177023 0 -0.35788001493839611 -0.17576831496813999 0 -0.35445721343992059 -0.1619675590177023 0 -0.36554542654456429 -0.16945206744667471 0 -0.35788001493839611 -0.17576831496813999 0 -0.35413341494744088 -0.14719959415449421 0 -0.36554542654456429 -0.16945206744667471 0 -0.3679743334396014 -0.15408772885571331 0 -0.35413341494744088 -0.14719959415449421 0 -0.36554542654456429 -0.16945206744667471 0 -0.3679743334396014 -0.15408772885571331 0 -0.36554542654456429 -0.16945206744667471 0 -0.37696591512674532 -0.1609827341034305 0 -0.37016556171889331 -0.18126023377528719 0 -0.3536864721015115 -0.18284124587119119 0 -0.37235342842372432 -0.19838340983925429 0 -0.36554542654456429 -0.16945206744667471 0 -0.37016556171889331 -0.18126023377528719 0 -0.38426477739238413 -0.17192867897072969 0 -0.37016556171889331 -0.18126023377528719 0 -0.3536864721015115 -0.18284124587119119 0 -0.35788001493839611 -0.17576831496813999 0 -0.36554542654456429 -0.16945206744667471 0 -0.37016556171889331 -0.18126023377528719 0 -0.35788001493839611 -0.17576831496813999 0 -0.3536864721015115 -0.18284124587119119 0 -0.33501951577929873 -0.16729908190312789 0 -0.3536864721015115 -0.18284124587119119 0 -0.35788001493839611 -0.17576831496813999 0 -0.33501951577929873 -0.16729908190312789 0 -0.3536864721015115 -0.18284124587119119 0 -0.32945708373588178 -0.18448348783091689 0 -0.33501951577929873 -0.16729908190312789 0 -0.31722412851074311 -0.15248258895007169 0 -0.33813688440009898 -0.15615522653291031 0 -0.33501951577929873 -0.16729908190312789 0 -0.33813688440009898 -0.15615522653291031 0 -0.34648545334868369 -0.16311147615285329 0 -0.33501951577929873 -0.16729908190312789 0 -0.31722412851074311 -0.15248258895007169 0 -0.33501951577929873 -0.16729908190312789 0 -0.31722412851074311 -0.15248258895007169 0 -0.33501951577929873 -0.16729908190312789 0 -0.31498630483336881 -0.15987728715749039 0 -0.31220508881165993 -0.16846949012138551 0 -0.33501951577929873 -0.16729908190312789 0 -0.31498630483336881 -0.15987728715749039 0 -0.33501951577929873 -0.16729908190312789 0 -0.31498630483336881 -0.15987728715749039 0 -0.31220508881165993 -0.16846949012138551 0 -0.32945708373588178 -0.18448348783091689 0 -0.31489114071409963 -0.18333745750317351 0 -0.31220508881165993 -0.16846949012138551 0 -0.32945708373588178 -0.18448348783091689 0 -0.31220508881165993 -0.16846949012138551 0 -0.32945708373588178 -0.18448348783091689 0 -0.33501951577929873 -0.16729908190312789 0 -0.32945708373588178 -0.18448348783091689 0 -0.31489114071409963 -0.18333745750317351 0 -0.32010675552350842 -0.19230926195043291 0 -0.30717411826112789 -0.1920401195635244 0 -0.32010675552350842 -0.19230926195043291 0 -0.3129652712195421 -0.2114706657937139 0 -0.32945708373588178 -0.18448348783091689 0 -0.32010675552350842 -0.19230926195043291 0 -0.32566449460190838 -0.20326261146105551 0 -0.32010675552350842 -0.19230926195043291 0 -0.3129652712195421 -0.2114706657937139 0 -0.32566449460190838 -0.20326261146105551 0 -0.30717411826112789 -0.1920401195635244 0 -0.31489114071409963 -0.18333745750317351 0 -0.32010675552350842 -0.19230926195043291 0 -0.3129652712195421 -0.2114706657937139 0 -0.32566449460190838 -0.20326261146105551 0 -0.33208474862113468 -0.21873250337862821 0 -0.33208474862113468 -0.21873250337862821 0 -0.34670907866010381 -0.20049748554044841 0 -0.34896881396179619 -0.22434135344573131 0 -0.32566449460190838 -0.20326261146105551 0 -0.33208474862113468 -0.21873250337862821 0 -0.34670907866010381 -0.20049748554044841 0 -0.3536864721015115 -0.18284124587119119 0 -0.32945708373588178 -0.18448348783091689 0 -0.34670907866010381 -0.20049748554044841 0 -0.32945708373588178 -0.18448348783091689 0 -0.32566449460190838 -0.20326261146105551 0 -0.34670907866010381 -0.20049748554044841 0 -0.32945708373588178 -0.18448348783091689 0 -0.34670907866010381 -0.20049748554044841 0 -0.3536864721015115 -0.18284124587119119 0 -0.35917751319241631 -0.19955840612521841 0 -0.34670907866010381 -0.20049748554044841 0 -0.3536864721015115 -0.18284124587119119 0 -0.37235342842372432 -0.19838340983925429 0 -0.3536864721015115 -0.18284124587119119 0 -0.35917751319241631 -0.19955840612521841 0 -0.37235342842372432 -0.19838340983925429 0 -0.37235342842372432 -0.19838340983925429 0 -0.36396107358432572 -0.21651148324997979 0 -0.37772562505684643 -0.22219038377974651 0 -0.35917751319241631 -0.19955840612521841 0 -0.37235342842372432 -0.19838340983925429 0 -0.36396107358432572 -0.21651148324997979 0 -0.34670907866010381 -0.20049748554044841 0 -0.36396107358432572 -0.21651148324997979 0 -0.34896881396179619 -0.22434135344573131 0 -0.34670907866010381 -0.20049748554044841 0 -0.36396107358432572 -0.21651148324997979 0 -0.35917751319241631 -0.19955840612521841 0 -0.34670907866010381 -0.20049748554044841 0 -0.36396107358432572 -0.21651148324997979 0 -0.34896881396179619 -0.22434135344573131 0 -0.36764811873304098 -0.23322730847002751 0 -0.35305879752332059 -0.24486073726717009 0 -0.36396107358432572 -0.21651148324997979 0 -0.36764811873304098 -0.23322730847002751 0 -0.37772562505684643 -0.22219038377974651 0 -0.36396107358432572 -0.21651148324997979 0 -0.34896881396179619 -0.22434135344573131 0 -0.36764811873304098 -0.23322730847002751 0 -0.37533687834285862 -0.25417213976024849 0 -0.36764811873304098 -0.23322730847002751 0 -0.35305879752332059 -0.24486073726717009 0 -0.34896881396179619 -0.22434135344573131 0 -0.35305879752332059 -0.24486073726717009 0 -0.33568364413539042 -0.23615154195274179 0 -0.33623326073948312 -0.25365348176558788 0 -0.33568364413539042 -0.23615154195274179 0 -0.32213598881581812 -0.2442700999577708 0 -0.33623326073948312 -0.25365348176558788 0 -0.35305879752332059 -0.24486073726717009 0 -0.33568364413539042 -0.23615154195274179 0 -0.33208474862113468 -0.21873250337862821 0 -0.33568364413539042 -0.23615154195274179 0 -0.32219037366776621 -0.22897372759534659 0 -0.33208474862113468 -0.21873250337862821 0 -0.34896881396179619 -0.22434135344573131 0 -0.33568364413539042 -0.23615154195274179 0 -0.30829656048542242 -0.23127198481015249 0 -0.3129652712195421 -0.2114706657937139 0 -0.32219037366776621 -0.22897372759534659 0 -0.3129652712195421 -0.2114706657937139 0 -0.33208474862113468 -0.21873250337862821 0 -0.32219037366776621 -0.22897372759534659 0 -0.30769212114973271 -0.24578220261295139 0 -0.30829656048542242 -0.23127198481015249 0 -0.32213598881581812 -0.2442700999577708 0 -0.30829656048542242 -0.23127198481015249 0 -0.32219037366776621 -0.22897372759534659 0 -0.32213598881581812 -0.2442700999577708 0 -0.31968345090478489 -0.25798973640781447 0 -0.30769212114973271 -0.24578220261295139 0 -0.32213598881581812 -0.2442700999577708 0 -0.33568364413539042 -0.23615154195274179 0 -0.32219037366776621 -0.22897372759534659 0 -0.32213598881581812 -0.2442700999577708 0 -0.43598079583492633 -0.24721882136819351 0 -0.42311134176242837 -0.2304528026464861 0 -0.41615383063077721 -0.2466412503256647 0 -0.43598079583492633 -0.24721882136819351 0 -0.42311134176242837 -0.2304528026464861 0 -0.43908324849522451 -0.2287046610080686 0 -0.42311134176242837 -0.2304528026464861 0 -0.41411505562058892 -0.2091502018577929 0 -0.42948217154750851 -0.21815887616964899 0 -0.42311134176242837 -0.2304528026464861 0 -0.42948217154750851 -0.21815887616964899 0 -0.43908324849522451 -0.2287046610080686 0 -0.42948217154750851 -0.21815887616964899 0 -0.43955036875351089 -0.21658504913102711 0 -0.43908324849522451 -0.2287046610080686 0 -0.40619246279161347 -0.2313797712556602 0 -0.41411505562058892 -0.2091502018577929 0 -0.42311134176242837 -0.2304528026464861 0 -0.40619246279161347 -0.2313797712556602 0 -0.41411505562058892 -0.2091502018577929 0 -0.39826986996263802 -0.25360934065352753 0 -0.41615383063077721 -0.2466412503256647 0 -0.40619246279161347 -0.2313797712556602 0 -0.42311134176242837 -0.2304528026464861 0 -0.41615383063077721 -0.2466412503256647 0 -0.40619246279161347 -0.2313797712556602 0 -0.39826986996263802 -0.25360934065352753 0 -0.38632210934187061 -0.2364082567837591 0 -0.40619246279161347 -0.2313797712556602 0 -0.39826986996263802 -0.25360934065352753 0 -0.40619246279161347 -0.2313797712556602 0 -0.37533687834285862 -0.25417213976024849 0 -0.36764811873304098 -0.23322730847002751 0 -0.38632210934187061 -0.2364082567837591 0 -0.37533687834285862 -0.25417213976024849 0 -0.39826986996263802 -0.25360934065352753 0 -0.38632210934187061 -0.2364082567837591 0 -0.36764811873304098 -0.23322730847002751 0 -0.38632210934187061 -0.2364082567837591 0 -0.37772562505684643 -0.22219038377974651 0 -0.38632210934187061 -0.2364082567837591 0 -0.37772562505684643 -0.22219038377974651 0 -0.39102038474593709 -0.2139255738073175 0 -0.38632210934187061 -0.2364082567837591 0 -0.40619246279161347 -0.2313797712556602 0 -0.39102038474593709 -0.2139255738073175 0 -0.39102038474593709 -0.2139255738073175 0 -0.40351751052996843 -0.1957217498792192 0 -0.41411505562058892 -0.2091502018577929 0 -0.40619246279161347 -0.2313797712556602 0 -0.39102038474593709 -0.2139255738073175 0 -0.41411505562058892 -0.2091502018577929 0 -0.37235342842372432 -0.19838340983925429 0 -0.39102038474593709 -0.2139255738073175 0 -0.37235342842372432 -0.19838340983925429 0 -0.37772562505684643 -0.22219038377974651 0 -0.39102038474593709 -0.2139255738073175 0 -0.37016556171889331 -0.18126023377528719 0 -0.37235342842372432 -0.19838340983925429 0 -0.38726325091278008 -0.18918768555573329 0 -0.37235342842372432 -0.19838340983925429 0 -0.39102038474593709 -0.2139255738073175 0 -0.38726325091278008 -0.18918768555573329 0 -0.38726325091278008 -0.18918768555573329 0 -0.40351751052996843 -0.1957217498792192 0 -0.40315121292097328 -0.17942465571532731 0 -0.39102038474593709 -0.2139255738073175 0 -0.38726325091278008 -0.18918768555573329 0 -0.40351751052996843 -0.1957217498792192 0 -0.41411505562058892 -0.2091502018577929 0 -0.42203764844956237 -0.18692063245992491 0 -0.40351751052996843 -0.1957217498792192 0 -0.41411505562058892 -0.2091502018577929 0 -0.42203764844956237 -0.18692063245992491 0 -0.41411505562058892 -0.2091502018577929 0 -0.42948217154750851 -0.21815887616964899 0 -0.43155084310578928 -0.2059016662048701 0 -0.42948217154750851 -0.21815887616964899 0 -0.43155084310578928 -0.2059016662048701 0 -0.43955036875351089 -0.21658504913102711 0 -0.42203764844956237 -0.18692063245992491 0 -0.44484374680150301 -0.19597231310248839 0 -0.41411505562058892 -0.2091502018577929 0 -0.43155084310578928 -0.2059016662048701 0 -0.42203764844956237 -0.18692063245992491 0 -0.43155084310578928 -0.2059016662048701 0 -0.42203764844956237 -0.18692063245992491 0 -0.44484374680150301 -0.19597231310248839 0 -0.42203764844956237 -0.18692063245992491 0 -0.44134853753678083 -0.18159229851429221 0 -0.44484374680150301 -0.19597231310248839 0 -0.42203764844956237 -0.18692063245992491 0 -0.42880774722037651 -0.1679247830322266 0 -0.42203764844956237 -0.18692063245992491 0 -0.42880774722037651 -0.1679247830322266 0 -0.44134853753678083 -0.18159229851429221 0 -0.42880774722037651 -0.1679247830322266 0 -0.43557784599118871 -0.14892893360452769 0 -0.44631139980808621 -0.1631836851414229 0 -0.42880774722037651 -0.1679247830322266 0 -0.43557784599118871 -0.14892893360452769 0 -0.42880774722037651 -0.1679247830322266 0 -0.41236960909879722 -0.16540507401591409 0 -0.42079860369606048 -0.15043713941075901 0 -0.42203764844956237 -0.18692063245992491 0 -0.42880774722037651 -0.1679247830322266 0 -0.41236960909879722 -0.16540507401591409 0 -0.40351751052996843 -0.1957217498792192 0 -0.42203764844956237 -0.18692063245992491 0 -0.40315121292097328 -0.17942465571532731 0 -0.42203764844956237 -0.18692063245992491 0 -0.40315121292097328 -0.17942465571532731 0 -0.42203764844956237 -0.18692063245992491 0 -0.41236960909879722 -0.16540507401591409 0 -0.40315121292097328 -0.17942465571532731 0 -0.38726325091278008 -0.18918768555573329 0 -0.40315121292097328 -0.17942465571532731 0 -0.38426477739238413 -0.17192867897072969 0 -0.40315121292097328 -0.17942465571532731 0 -0.38426477739238413 -0.17192867897072969 0 -0.37016556171889331 -0.18126023377528719 0 -0.38726325091278008 -0.18918768555573329 0 -0.38426477739238413 -0.17192867897072969 0 -0.36554542654456429 -0.16945206744667471 0 -0.38426477739238413 -0.17192867897072969 0 -0.37696591512674532 -0.1609827341034305 0 -0.38426477739238413 -0.17192867897072969 0 -0.37696591512674532 -0.1609827341034305 0 -0.39230106084837368 -0.15838844905994759 0 -0.40315121292097328 -0.17942465571532731 0 -0.38426477739238413 -0.17192867897072969 0 -0.39230106084837368 -0.15838844905994759 0 -0.41236960909879722 -0.16540507401591409 0 -0.39230106084837368 -0.15838844905994759 0 -0.40587711449475489 -0.1449624873806776 0 -0.41236960909879722 -0.16540507401591409 0 -0.40315121292097328 -0.17942465571532731 0 -0.39230106084837368 -0.15838844905994759 0 -0.39230106084837368 -0.15838844905994759 0 -0.39162863389564362 -0.14105630786861159 0 -0.40587711449475489 -0.1449624873806776 0 -0.39230106084837368 -0.15838844905994759 0 -0.39162863389564362 -0.14105630786861159 0 -0.3777566452334315 -0.14913711856379011 0 -0.37696591512674532 -0.1609827341034305 0 -0.39230106084837368 -0.15838844905994759 0 -0.3777566452334315 -0.14913711856379011 0 -0.36893450279197471 -0.1249528869149899 0 -0.39162863389564362 -0.14105630786861159 0 -0.3777566452334315 -0.14913711856379011 0 -0.36893450279197471 -0.1249528869149899 0 -0.39162863389564362 -0.14105630786861159 0 -0.39514760223357998 -0.1249586529677193 0 -0.39162863389564362 -0.14105630786861159 0 -0.40587711449475489 -0.1449624873806776 0 -0.39514760223357998 -0.1249586529677193 0 -0.40587711449475489 -0.1449624873806776 0 -0.39514760223357998 -0.1249586529677193 0 -0.42136070167518519 -0.1249644190204488 0 -0.40587711449475489 -0.1449624873806776 0 -0.42079860369606048 -0.15043713941075901 0 -0.42136070167518519 -0.1249644190204488 0 -0.41236960909879722 -0.16540507401591409 0 -0.40587711449475489 -0.1449624873806776 0 -0.42079860369606048 -0.15043713941075901 0 -0.42079860369606048 -0.15043713941075901 0 -0.43557784599118871 -0.14892893360452769 0 -0.42136070167518519 -0.1249644190204488 0 -0.42880774722037651 -0.1679247830322266 0 -0.42079860369606048 -0.15043713941075901 0 -0.43557784599118871 -0.14892893360452769 0 -0.43557784599118871 -0.14892893360452769 0 -0.42136070167518519 -0.1249644190204488 0 -0.44757380111679052 -0.12497018507317829 0 -0.43557784599118871 -0.14892893360452769 0 -0.45596445488588 -0.14427568033770541 0 -0.44757380111679052 -0.12497018507317829 0 -0.43557784599118871 -0.14892893360452769 0 -0.45596445488588 -0.14427568033770541 0 -0.44631139980808621 -0.1631836851414229 0 -0.45596445488588 -0.14427568033770541 0 -0.46278066629215481 -0.1610158872753634 0 -0.44631139980808621 -0.1631836851414229 0 -0.45596445488588 -0.14427568033770541 0 -0.47930750267908417 -0.1480635854121114 0 -0.46278066629215481 -0.1610158872753634 0 -0.45596445488588 -0.14427568033770541 0 -0.44757380111679052 -0.12497018507317829 0 -0.47378690055839578 -0.1249759511259078 0 -0.48827360080937021 -0.13531742911399189 0 -0.47930750267908417 -0.1480635854121114 0 -0.47378690055839578 -0.1249759511259078 0 -0.45596445488588 -0.14427568033770541 0 -0.47930750267908417 -0.1480635854121114 0 -0.47378690055839578 -0.1249759511259078 0 -0.48827360080937021 -0.13531742911399189 0 -0.5 -0.14324846273931111 0 -0.50000000000000111 -0.12498171717863731 0 -0.48827360080937021 -0.13531742911399189 0 -0.47378690055839578 -0.1249759511259078 0 -0.50000000000000111 -0.12498171717863731 0 -0.5 -0.14324846273931111 0 -0.47930750267908417 -0.1480635854121114 0 -0.49999999999999961 -0.161515208299985 0 -0.48827360080937021 -0.13531742911399189 0 -0.5 -0.14324846273931111 0 -0.47930750267908417 -0.1480635854121114 0 -0.47930750267908417 -0.1480635854121114 0 -0.47738728335761421 -0.1682509267597351 0 -0.46278066629215481 -0.1610158872753634 0 -0.47738728335761421 -0.1682509267597351 0 -0.49999999999999961 -0.161515208299985 0 -0.48839409620634278 -0.18039624849769001 0 -0.49999999999999961 -0.161515208299985 0 -0.48839409620634278 -0.18039624849769001 0 -0.47930750267908417 -0.1480635854121114 0 -0.47738728335761421 -0.1682509267597351 0 -0.49999999999999961 -0.161515208299985 0 -0.49999999999999961 -0.161515208299985 0 -0.5 -0.18618779176616679 0 -0.48839409620634278 -0.18039624849769001 0 -0.5 -0.18618779176616679 0 -0.48839409620634278 -0.18039624849769001 0 -0.48957789370491162 -0.19386933705848941 0 -0.47738728335761421 -0.1682509267597351 0 -0.48839409620634278 -0.18039624849769001 0 -0.47328693949397721 -0.18411760774338479 0 -0.47738728335761421 -0.1682509267597351 0 -0.47328693949397721 -0.18411760774338479 0 -0.45860677246597031 -0.17520894370368309 0 -0.47328693949397721 -0.18411760774338479 0 -0.45860677246597031 -0.17520894370368309 0 -0.45906836497473352 -0.19043479360484361 0 -0.47738728335761421 -0.1682509267597351 0 -0.45860677246597031 -0.17520894370368309 0 -0.46278066629215481 -0.1610158872753634 0 -0.45860677246597031 -0.17520894370368309 0 -0.46278066629215481 -0.1610158872753634 0 -0.44631139980808621 -0.1631836851414229 0 -0.42880774722037651 -0.1679247830322266 0 -0.44631139980808621 -0.1631836851414229 0 -0.44134853753678083 -0.18159229851429221 0 -0.45860677246597031 -0.17520894370368309 0 -0.44631139980808621 -0.1631836851414229 0 -0.44134853753678083 -0.18159229851429221 0 -0.45860677246597031 -0.17520894370368309 0 -0.44134853753678083 -0.18159229851429221 0 -0.45906836497473352 -0.19043479360484361 0 -0.44134853753678083 -0.18159229851429221 0 -0.45906836497473352 -0.19043479360484361 0 -0.44134853753678083 -0.18159229851429221 0 -0.44484374680150301 -0.19597231310248839 0 -0.45906836497473352 -0.19043479360484361 0 -0.43155084310578928 -0.2059016662048701 0 -0.44484374680150301 -0.19597231310248839 0 -0.44343463088850471 -0.20721188330797369 0 -0.43155084310578928 -0.2059016662048701 0 -0.44343463088850471 -0.20721188330797369 0 -0.43955036875351089 -0.21658504913102711 0 -0.44343463088850471 -0.20721188330797369 0 -0.43955036875351089 -0.21658504913102711 0 -0.44966782191270221 -0.21345696714665749 0 -0.44966782191270221 -0.21345696714665749 0 -0.45691127413918359 -0.218140336649912 0 -0.44903912237987481 -0.22310222333220869 0 -0.43955036875351089 -0.21658504913102711 0 -0.44966782191270221 -0.21345696714665749 0 -0.44903912237987481 -0.22310222333220869 0 -0.44484374680150301 -0.19597231310248839 0 -0.44343463088850471 -0.20721188330797369 0 -0.45285363365211462 -0.2065344908709397 0 -0.44343463088850471 -0.20721188330797369 0 -0.44966782191270221 -0.21345696714665749 0 -0.45285363365211462 -0.2065344908709397 0 -0.45285363365211462 -0.2065344908709397 0 -0.4586721235044201 -0.2110072970525271 0 -0.46764984515344349 -0.20502399374505181 0 -0.44966782191270221 -0.21345696714665749 0 -0.45285363365211462 -0.2065344908709397 0 -0.4586721235044201 -0.2110072970525271 0 -0.44966782191270221 -0.21345696714665749 0 -0.4586721235044201 -0.2110072970525271 0 -0.45691127413918359 -0.218140336649912 0 -0.4586721235044201 -0.2110072970525271 0 -0.45691127413918359 -0.218140336649912 0 -0.46757130244775341 -0.21427176676618889 0 -0.4586721235044201 -0.2110072970525271 0 -0.46757130244775341 -0.21427176676618889 0 -0.46764984515344349 -0.20502399374505181 0 -0.44484374680150301 -0.19597231310248839 0 -0.46764984515344349 -0.20502399374505181 0 -0.45906836497473352 -0.19043479360484361 0 -0.44484374680150301 -0.19597231310248839 0 -0.45285363365211462 -0.2065344908709397 0 -0.46764984515344349 -0.20502399374505181 0 -0.45906836497473352 -0.19043479360484361 0 -0.47678819241268611 -0.1992772886953951 0 -0.44484374680150301 -0.19597231310248839 0 -0.46764984515344349 -0.20502399374505181 0 -0.46764984515344349 -0.20502399374505181 0 -0.45906836497473352 -0.19043479360484361 0 -0.47678819241268611 -0.1992772886953951 0 -0.47328693949397721 -0.18411760774338479 0 -0.45906836497473352 -0.19043479360484361 0 -0.47678819241268611 -0.1992772886953951 0 -0.48839409620634278 -0.18039624849769001 0 -0.47328693949397721 -0.18411760774338479 0 -0.47678819241268611 -0.1992772886953951 0 -0.48839409620634278 -0.18039624849769001 0 -0.47678819241268611 -0.1992772886953951 0 -0.47678819241268611 -0.1992772886953951 0 -0.48957789370491162 -0.19386933705848941 0 -0.50000000000000222 -0.21086037523234849 0 -0.48839409620634278 -0.18039624849769001 0 -0.47678819241268611 -0.1992772886953951 0 -0.48957789370491162 -0.19386933705848941 0 -0.5 -0.18618779176616679 0 -0.48957789370491162 -0.19386933705848941 0 -0.50000000000000222 -0.21086037523234849 0 -0.50000000000000222 -0.21086037523234849 0 -0.48101414991814051 -0.21220490785157131 0 -0.4775447229854059 -0.22535576830415929 0 -0.47678819241268611 -0.1992772886953951 0 -0.50000000000000222 -0.21086037523234849 0 -0.47678819241268611 -0.1992772886953951 0 -0.50000000000000222 -0.21086037523234849 0 -0.48101414991814051 -0.21220490785157131 0 -0.46757130244775341 -0.21427176676618889 0 -0.47678819241268611 -0.1992772886953951 0 -0.48101414991814051 -0.21220490785157131 0 -0.46757130244775341 -0.21427176676618889 0 -0.47678819241268611 -0.1992772886953951 0 -0.46757130244775341 -0.21427176676618889 0 -0.46764984515344349 -0.20502399374505181 0 -0.47678819241268611 -0.1992772886953951 0 -0.46757130244775341 -0.21427176676618889 0 -0.48101414991814051 -0.21220490785157131 0 -0.4775447229854059 -0.22535576830415929 0 -0.46757130244775341 -0.21427176676618889 0 -0.4775447229854059 -0.22535576830415929 0 -0.46571952953094348 -0.22577651025912229 0 -0.4775447229854059 -0.22535576830415929 0 -0.4726071657750785 -0.240360200228666 0 -0.45676275941016609 -0.23628729483617639 0 -0.50000000000000222 -0.21086037523234849 0 -0.4775447229854059 -0.22535576830415929 0 -0.48548116721245049 -0.23774912910784329 0 -0.50000000000000222 -0.21086037523234849 0 -0.5 -0.2401545466321974 0 -0.48548116721245049 -0.23774912910784329 0 -0.48050148842732221 -0.25523221810557922 0 -0.5 -0.2401545466321974 0 -0.48548116721245049 -0.23774912910784329 0 -0.48050148842732221 -0.25523221810557922 0 -0.4726071657750785 -0.240360200228666 0 -0.46267023581878858 -0.24817136713935201 0 -0.48050148842732221 -0.25523221810557922 0 -0.48548116721245049 -0.23774912910784329 0 -0.4726071657750785 -0.240360200228666 0 -0.4775447229854059 -0.22535576830415929 0 -0.48548116721245049 -0.23774912910784329 0 -0.4726071657750785 -0.240360200228666 0 -0.4726071657750785 -0.240360200228666 0 -0.46267023581878858 -0.24817136713935201 0 -0.45676275941016609 -0.23628729483617639 0 -0.46267023581878858 -0.24817136713935201 0 -0.45676275941016609 -0.23628729483617639 0 -0.45139902778349827 -0.24711062934306771 0 -0.4775447229854059 -0.22535576830415929 0 -0.45676275941016609 -0.23628729483617639 0 -0.46571952953094348 -0.22577651025912229 0 -0.4775447229854059 -0.22535576830415929 0 -0.45676275941016609 -0.23628729483617639 0 -0.46757130244775341 -0.21427176676618889 0 -0.45835441248282049 -0.22926624483698249 0 -0.45691127413918359 -0.218140336649912 0 -0.46757130244775341 -0.21427176676618889 0 -0.45835441248282049 -0.22926624483698249 0 -0.46757130244775341 -0.21427176676618889 0 -0.46571952953094348 -0.22577651025912229 0 -0.45835441248282049 -0.22926624483698249 0 -0.45691127413918359 -0.218140336649912 0 -0.45835441248282049 -0.22926624483698249 0 -0.44903912237987481 -0.22310222333220869 0 -0.45676275941016609 -0.23628729483617639 0 -0.46571952953094348 -0.22577651025912229 0 -0.45835441248282049 -0.22926624483698249 0 -0.45676275941016609 -0.23628729483617639 0 -0.45835441248282049 -0.22926624483698249 0 -0.44784406772060242 -0.23291584907632601 0 -0.45835441248282049 -0.22926624483698249 0 -0.44784406772060242 -0.23291584907632601 0 -0.44903912237987481 -0.22310222333220869 0 -0.44784406772060242 -0.23291584907632601 0 -0.44903912237987481 -0.22310222333220869 0 -0.43908324849522451 -0.2287046610080686 0 -0.43955036875351089 -0.21658504913102711 0 -0.44903912237987481 -0.22310222333220869 0 -0.43908324849522451 -0.2287046610080686 0 -0.43598079583492633 -0.24721882136819351 0 -0.44784406772060242 -0.23291584907632601 0 -0.43908324849522451 -0.2287046610080686 0 -0.43598079583492633 -0.24721882136819351 0 -0.45676275941016609 -0.23628729483617639 0 -0.45139902778349827 -0.24711062934306771 0 -0.43598079583492633 -0.24721882136819351 0 -0.45676275941016609 -0.23628729483617639 0 -0.44784406772060242 -0.23291584907632601 0 -0.43598079583492633 -0.24721882136819351 0 -0.45676275941016609 -0.23628729483617639 0 -0.41513049604948221 -0.033942569896895612 0 -0.42680670243505803 -0.034615113076212713 0 -0.40073055052989021 -0.025701474464423758 0 -0.41513049604948221 -0.033942569896895612 0 -0.42462943043776058 -0.041038039404546971 0 -0.40237332615973681 -0.030676944162886681 0 -0.42462943043776058 -0.041038039404546971 0 -0.40237332615973681 -0.030676944162886681 0 -0.41105872637709778 -0.041104419315527559 0 -0.42462943043776058 -0.041038039404546971 0 -0.40237332615973681 -0.030676944162886681 0 -0.41795689190558921 -0.046390941043723911 0 -0.41105872637709778 -0.041104419315527559 0 -0.42462943043776058 -0.041038039404546971 0 -0.41513049604948221 -0.033942569896895612 0 -0.42462943043776058 -0.041038039404546971 0 -0.4243569293735685 -0.037306081984415762 0 -0.41105872637709778 -0.041104419315527559 0 -0.4050251302254127 -0.045922345921936697 0 -0.40306291723554027 -0.039039715031688543 0 -0.41795689190558921 -0.046390941043723911 0 -0.41105872637709778 -0.041104419315527559 0 -0.41174405323292163 -0.047949206462353358 0 -0.41105872637709778 -0.041104419315527559 0 -0.41174405323292163 -0.047949206462353358 0 -0.4050251302254127 -0.045922345921936697 0 -0.41174405323292163 -0.047949206462353358 0 -0.4050251302254127 -0.045922345921936697 0 -0.40603099279739802 -0.054788986838451827 0 -0.41174405323292163 -0.047949206462353358 0 -0.4187470457232762 -0.053937065845881961 0 -0.40603099279739802 -0.054788986838451827 0 -0.4187470457232762 -0.053937065845881961 0 -0.40603099279739802 -0.054788986838451827 0 -0.41284572228237681 -0.064006668923108523 0 -0.4187470457232762 -0.053937065845881961 0 -0.41284572228237681 -0.064006668923108523 0 -0.42746868386642678 -0.066478460468227696 0 -0.41795689190558921 -0.046390941043723911 0 -0.41174405323292163 -0.047949206462353358 0 -0.4187470457232762 -0.053937065845881961 0 -0.41795689190558921 -0.046390941043723911 0 -0.4187470457232762 -0.053937065845881961 0 -0.42320145590089769 -0.048540393412862697 0 -0.42320145590089769 -0.048540393412862697 0 -0.43147245553696489 -0.05279552735729795 0 -0.42462943043776058 -0.041038039404546971 0 -0.4187470457232762 -0.053937065845881961 0 -0.42320145590089769 -0.048540393412862697 0 -0.43147245553696489 -0.05279552735729795 0 -0.43147245553696489 -0.05279552735729795 0 -0.42462943043776058 -0.041038039404546971 0 -0.44688553471578463 -0.051399134646207288 0 -0.4187470457232762 -0.053937065845881961 0 -0.43147245553696489 -0.05279552735729795 0 -0.42746868386642678 -0.066478460468227696 0 -0.43147245553696489 -0.05279552735729795 0 -0.42746868386642678 -0.066478460468227696 0 -0.43950717444435422 -0.063784996514660589 0 -0.42818951741271921 -0.038310772776573528 0 -0.43628267576141971 -0.035329403205585218 0 -0.44688553471578463 -0.051399134646207288 0 -0.42462943043776058 -0.041038039404546971 0 -0.42818951741271921 -0.038310772776573528 0 -0.44688553471578463 -0.051399134646207288 0 -0.42462943043776058 -0.041038039404546971 0 -0.44688553471578463 -0.051399134646207288 0 -0.41795689190558921 -0.046390941043723911 0 -0.42320145590089769 -0.048540393412862697 0 -0.42462943043776058 -0.041038039404546971 0 -0.41513049604948221 -0.033942569896895612 0 -0.4243569293735685 -0.037306081984415762 0 -0.42680670243505803 -0.034615113076212713 0 -0.42462943043776058 -0.041038039404546971 0 -0.4243569293735685 -0.037306081984415762 0 -0.42818951741271921 -0.038310772776573528 0 -0.42818951741271921 -0.038310772776573528 0 -0.42680670243505803 -0.034615113076212713 0 -0.4243569293735685 -0.037306081984415762 0 -0.42818951741271921 -0.038310772776573528 0 -0.42680670243505803 -0.034615113076212713 0 -0.42818951741271921 -0.038310772776573528 0 -0.42680670243505803 -0.034615113076212713 0 -0.42995577540377822 -0.032900560567165532 0 -0.42818951741271921 -0.038310772776573528 0 -0.42995577540377822 -0.032900560567165532 0 -0.43628267576141971 -0.035329403205585218 0 -0.42995577540377822 -0.032900560567165532 0 -0.43628267576141971 -0.035329403205585218 0 -0.4327931004709421 -0.029092843067932112 0 -0.42680670243505803 -0.034615113076212713 0 -0.4285090787839364 -0.025262373234060161 0 -0.41794895562780338 -0.01094222954485795 0 -0.42680670243505803 -0.034615113076212713 0 -0.41794895562780338 -0.01094222954485795 0 -0.43628267576141971 -0.035329403205585218 0 -0.4327931004709421 -0.029092843067932112 0 -0.43710875721387199 -0.026668229939385779 0 -0.42995577540377822 -0.032900560567165532 0 -0.4327931004709421 -0.029092843067932112 0 -0.4285090787839364 -0.025262373234060161 0 -0.43210921519170409 -0.025303648393463829 0 -0.43710875721387199 -0.026668229939385779 0 -0.43108579893039811 -0.01948839847471974 0 -0.4327931004709421 -0.029092843067932112 0 -0.43210921519170409 -0.025303648393463829 0 -0.4285090787839364 -0.025262373234060161 0 -0.4327931004709421 -0.029092843067932112 0 -0.43210921519170409 -0.025303648393463829 0 -0.43710875721387199 -0.026668229939385779 0 -0.43108579893039811 -0.01948839847471974 0 -0.43397544616601241 -0.014244232554068349 0 -0.43928417642389239 -0.017661557407765791 0 -0.43710875721387199 -0.026668229939385779 0 -0.43108579893039811 -0.01948839847471974 0 -0.43928417642389239 -0.017661557407765791 0 -0.43210921519170409 -0.025303648393463829 0 -0.43108579893039811 -0.01948839847471974 0 -0.4285090787839364 -0.025262373234060161 0 -0.43108579893039811 -0.01948839847471974 0 -0.4285090787839364 -0.025262373234060161 0 -0.41794895562780338 -0.01094222954485795 0 -0.42680670243505803 -0.034615113076212713 0 -0.42995577540377822 -0.032900560567165532 0 -0.4285090787839364 -0.025262373234060161 0 -0.43591977417237449 -0.008065469867085449 0 -0.42907061680018699 -0.010664914002041091 0 -0.42583279771702431 0.00046528033667210148 0 -0.43108579893039811 -0.01948839847471974 0 -0.43397544616601241 -0.014244232554068349 0 -0.42907061680018699 -0.010664914002041091 0 -0.43591977417237449 -0.008065469867085449 0 -0.43397544616601241 -0.014244232554068349 0 -0.43928417642389239 -0.017661557407765791 0 -0.43591977417237449 -0.008065469867085449 0 -0.43397544616601241 -0.014244232554068349 0 -0.42907061680018699 -0.010664914002041091 0 -0.43108579893039811 -0.01948839847471974 0 -0.42907061680018699 -0.010664914002041091 0 -0.41794895562780338 -0.01094222954485795 0 -0.42907061680018699 -0.010664914002041091 0 -0.41794895562780338 -0.01094222954485795 0 -0.42583279771702431 0.00046528033667210148 0 -0.41794895562780338 -0.01094222954485795 0 -0.4102220184461346 -0.019351118920435541 0 -0.40021295305484711 -0.013852611056198059 0 -0.41794895562780338 -0.01094222954485795 0 -0.40352261506359649 -0.001038070178381474 0 -0.40021295305484711 -0.013852611056198059 0 -0.42680670243505803 -0.034615113076212713 0 -0.41794895562780338 -0.01094222954485795 0 -0.4102220184461346 -0.019351118920435541 0 -0.42680670243505803 -0.034615113076212713 0 -0.4102220184461346 -0.019351118920435541 0 -0.40073055052989021 -0.025701474464423758 0 -0.42680670243505803 -0.034615113076212713 0 -0.40073055052989021 -0.025701474464423758 0 -0.41513049604948221 -0.033942569896895612 0 -0.40073055052989021 -0.025701474464423758 0 -0.40237332615973681 -0.030676944162886681 0 -0.40073055052989021 -0.025701474464423758 0 -0.40237332615973681 -0.030676944162886681 0 -0.38011722188171299 -0.020315848921226409 0 -0.40237332615973681 -0.030676944162886681 0 -0.38011722188171299 -0.020315848921226409 0 -0.4102220184461346 -0.019351118920435541 0 -0.40073055052989021 -0.025701474464423758 0 -0.40021295305484711 -0.013852611056198059 0 -0.40073055052989021 -0.025701474464423758 0 -0.40021295305484711 -0.013852611056198059 0 -0.38745402304870558 -0.01483805838738575 0 -0.40352261506359649 -0.001038070178381474 0 -0.40021295305484711 -0.013852611056198059 0 -0.39408165103759368 -0.0019794594859314238 0 -0.40021295305484711 -0.013852611056198059 0 -0.39408165103759368 -0.0019794594859314238 0 -0.39005949432245718 -0.0085411321607220259 0 -0.40021295305484711 -0.013852611056198059 0 -0.39005949432245718 -0.0085411321607220259 0 -0.38745402304870558 -0.01483805838738575 0 -0.39408165103759368 -0.0019794594859314238 0 -0.3848191179490616 -0.0027051675553946518 0 -0.39005949432245718 -0.0085411321607220259 0 -0.3848191179490616 -0.0027051675553946518 0 -0.38372972652207787 -0.0093303643187002475 0 -0.39005949432245718 -0.0085411321607220259 0 -0.38372972652207787 -0.0093303643187002475 0 -0.38745402304870558 -0.01483805838738575 0 -0.3791207175096093 -0.01135650732177081 0 -0.38372972652207787 -0.0093303643187002475 0 -0.39005949432245718 -0.0085411321607220259 0 -0.38745402304870558 -0.01483805838738575 0 -0.37465439862472261 -0.016787835852634068 0 -0.37464851222799189 -0.0076089195940836872 0 -0.3791207175096093 -0.01135650732177081 0 -0.37465439862472261 -0.016787835852634068 0 -0.38745402304870558 -0.01483805838738575 0 -0.3791207175096093 -0.01135650732177081 0 -0.37464851222799189 -0.0076089195940836872 0 -0.3791207175096093 -0.01135650732177081 0 -0.37960876280762101 -0.0064231604720931881 0 -0.38372972652207787 -0.0093303643187002475 0 -0.3791207175096093 -0.01135650732177081 0 -0.37960876280762101 -0.0064231604720931881 0 -0.3848191179490616 -0.0027051675553946518 0 -0.38372972652207787 -0.0093303643187002475 0 -0.37960876280762101 -0.0064231604720931881 0 -0.37464851222799189 -0.0076089195940836872 0 -0.37960876280762101 -0.0064231604720931881 0 -0.37774077980655368 -0.001289555558904682 0 -0.3848191179490616 -0.0027051675553946518 0 -0.37960876280762101 -0.0064231604720931881 0 -0.37774077980655368 -0.001289555558904682 0 -0.37465439862472261 -0.016787835852634068 0 -0.40073055052989021 -0.025701474464423758 0 -0.38745402304870558 -0.01483805838738575 0 -0.40237332615973681 -0.030676944162886681 0 -0.38781453024876661 -0.02996800237218563 0 -0.38011722188171299 -0.020315848921226409 0 -0.37465439862472261 -0.016787835852634068 0 -0.40073055052989021 -0.025701474464423758 0 -0.38011722188171299 -0.020315848921226409 0 -0.37465439862472261 -0.016787835852634068 0 -0.40073055052989021 -0.025701474464423758 0 -0.37402384376206249 -0.023759624541515059 0 -0.37465439862472261 -0.016787835852634068 0 -0.38011722188171299 -0.020315848921226409 0 -0.37402384376206249 -0.023759624541515059 0 -0.38011722188171299 -0.020315848921226409 0 -0.37866743010551202 -0.02906954498465647 0 -0.38781453024876661 -0.02996800237218563 0 -0.38011722188171299 -0.020315848921226409 0 -0.37866743010551202 -0.02906954498465647 0 -0.37439980638912518 -0.038891661293645137 0 -0.37866743010551202 -0.02906954498465647 0 -0.38394575501216083 -0.036535335565972972 0 -0.37439980638912518 -0.038891661293645137 0 -0.37993408630244868 -0.045501240077299353 0 -0.38394575501216083 -0.036535335565972972 0 -0.37085155020467431 -0.050438611479832557 0 -0.37439980638912518 -0.038891661293645137 0 -0.37993408630244868 -0.045501240077299353 0 -0.37993408630244868 -0.045501240077299353 0 -0.38895054345211377 -0.045335196083553769 0 -0.38394575501216083 -0.036535335565972972 0 -0.38895054345211377 -0.045335196083553769 0 -0.38394575501216083 -0.036535335565972972 0 -0.39396365166307989 -0.03445798481758762 0 -0.38781453024876661 -0.02996800237218563 0 -0.38394575501216083 -0.036535335565972972 0 -0.39396365166307989 -0.03445798481758762 0 -0.38781453024876661 -0.02996800237218563 0 -0.37866743010551202 -0.02906954498465647 0 -0.38394575501216083 -0.036535335565972972 0 -0.40237332615973681 -0.030676944162886681 0 -0.38781453024876661 -0.02996800237218563 0 -0.39396365166307989 -0.03445798481758762 0 -0.39396365166307989 -0.03445798481758762 0 -0.39750411751227832 -0.042292212187568533 0 -0.39928834571923882 -0.035924112998793431 0 -0.38895054345211377 -0.045335196083553769 0 -0.39396365166307989 -0.03445798481758762 0 -0.39750411751227832 -0.042292212187568533 0 -0.39750411751227832 -0.042292212187568533 0 -0.4050251302254127 -0.045922345921936697 0 -0.40306291723554027 -0.039039715031688543 0 -0.39750411751227832 -0.042292212187568533 0 -0.40306291723554027 -0.039039715031688543 0 -0.39928834571923882 -0.035924112998793431 0 -0.40237332615973681 -0.030676944162886681 0 -0.39396365166307989 -0.03445798481758762 0 -0.39928834571923882 -0.035924112998793431 0 -0.41105872637709778 -0.041104419315527559 0 -0.40237332615973681 -0.030676944162886681 0 -0.40306291723554027 -0.039039715031688543 0 -0.40237332615973681 -0.030676944162886681 0 -0.40306291723554027 -0.039039715031688543 0 -0.39928834571923882 -0.035924112998793431 0 -0.40603099279739802 -0.054788986838451827 0 -0.39527915405366182 -0.064437672488960096 0 -0.41284572228237681 -0.064006668923108523 0 -0.40603099279739802 -0.054788986838451827 0 -0.39443592701229091 -0.053019652188425637 0 -0.39527915405366182 -0.064437672488960096 0 -0.4050251302254127 -0.045922345921936697 0 -0.40603099279739802 -0.054788986838451827 0 -0.39443592701229091 -0.053019652188425637 0 -0.39750411751227832 -0.042292212187568533 0 -0.4050251302254127 -0.045922345921936697 0 -0.39443592701229091 -0.053019652188425637 0 -0.38895054345211377 -0.045335196083553769 0 -0.39750411751227832 -0.042292212187568533 0 -0.39443592701229091 -0.053019652188425637 0 -0.39443592701229091 -0.053019652188425637 0 -0.38221605892473098 -0.056125323053866277 0 -0.39527915405366182 -0.064437672488960096 0 -0.36608399240098949 -0.063120758007335118 0 -0.38221605892473098 -0.056125323053866277 0 -0.37978412082390189 -0.068029865631836883 0 -0.38895054345211377 -0.045335196083553769 0 -0.39443592701229091 -0.053019652188425637 0 -0.38221605892473098 -0.056125323053866277 0 -0.37993408630244868 -0.045501240077299353 0 -0.38895054345211377 -0.045335196083553769 0 -0.38221605892473098 -0.056125323053866277 0 -0.37085155020467431 -0.050438611479832557 0 -0.37993408630244868 -0.045501240077299353 0 -0.38221605892473098 -0.056125323053866277 0 -0.36843110820579178 -0.075527255856609146 0 -0.37978412082390189 -0.068029865631836883 0 -0.38691029053433551 -0.080938318752413793 0 -0.37978412082390189 -0.068029865631836883 0 -0.38691029053433551 -0.080938318752413793 0 -0.39527915405366182 -0.064437672488960096 0 -0.38221605892473098 -0.056125323053866277 0 -0.37978412082390189 -0.068029865631836883 0 -0.39527915405366182 -0.064437672488960096 0 -0.37380044498630338 -0.100392191664622 0 -0.36747037526515469 -0.088210616938563927 0 -0.38691029053433551 -0.080938318752413793 0 -0.36843110820579178 -0.075527255856609146 0 -0.38691029053433551 -0.080938318752413793 0 -0.40007542381043809 -0.086939242353532731 0 -0.39460333317738627 -0.1006873657273652 0 -0.41352047356827321 -0.0909948847898496 0 -0.38691029053433551 -0.080938318752413793 0 -0.40007542381043809 -0.086939242353532731 0 -0.40767355229219521 -0.074626636544090755 0 -0.38691029053433551 -0.080938318752413793 0 -0.40007542381043809 -0.086939242353532731 0 -0.39460333317738627 -0.1006873657273652 0 -0.38691029053433551 -0.080938318752413793 0 -0.39527915405366182 -0.064437672488960096 0 -0.40767355229219521 -0.074626636544090755 0 -0.39527915405366182 -0.064437672488960096 0 -0.41284572228237681 -0.064006668923108523 0 -0.40767355229219521 -0.074626636544090755 0 -0.36893450279197471 -0.1249528869149899 0 -0.3789649235099295 -0.11270856972454819 0 -0.39514760223357998 -0.1249586529677193 0 -0.36893450279197471 -0.1249528869149899 0 -0.39514760223357998 -0.1249586529677193 0 -0.3789649235099295 -0.11270856972454819 0 -0.39460333317738627 -0.1006873657273652 0 -0.39514760223357998 -0.1249586529677193 0 -0.37380044498630338 -0.100392191664622 0 -0.38691029053433551 -0.080938318752413793 0 -0.39460333317738627 -0.1006873657273652 0 -0.37380044498630338 -0.100392191664622 0 -0.3789649235099295 -0.11270856972454819 0 -0.39460333317738627 -0.1006873657273652 0 -0.39460333317738627 -0.1006873657273652 0 -0.39514760223357998 -0.1249586529677193 0 -0.4114708495464785 -0.1093321351213095 0 -0.42136070167518519 -0.1249644190204488 0 -0.4114708495464785 -0.1093321351213095 0 -0.43272213707796769 -0.1050553531011644 0 -0.39514760223357998 -0.1249586529677193 0 -0.42136070167518519 -0.1249644190204488 0 -0.39514760223357998 -0.1249586529677193 0 -0.42136070167518519 -0.1249644190204488 0 -0.4114708495464785 -0.1093321351213095 0 -0.39460333317738627 -0.1006873657273652 0 -0.4114708495464785 -0.1093321351213095 0 -0.41352047356827321 -0.0909948847898496 0 -0.4114708495464785 -0.1093321351213095 0 -0.43272213707796769 -0.1050553531011644 0 -0.41352047356827321 -0.0909948847898496 0 -0.42136070167518519 -0.1249644190204488 0 -0.43272213707796769 -0.1050553531011644 0 -0.44757380111679052 -0.12497018507317829 0 -0.42136070167518519 -0.1249644190204488 0 -0.44757380111679052 -0.12497018507317829 0 -0.42023793718526542 -0.076451056482049876 0 -0.41284572228237681 -0.064006668923108523 0 -0.42746868386642678 -0.066478460468227696 0 -0.42023793718526542 -0.076451056482049876 0 -0.41284572228237681 -0.064006668923108523 0 -0.40767355229219521 -0.074626636544090755 0 -0.42023793718526542 -0.076451056482049876 0 -0.40767355229219521 -0.074626636544090755 0 -0.41352047356827321 -0.0909948847898496 0 -0.40007542381043809 -0.086939242353532731 0 -0.40767355229219521 -0.074626636544090755 0 -0.41352047356827321 -0.0909948847898496 0 -0.42023793718526542 -0.076451056482049876 0 -0.41352047356827321 -0.0909948847898496 0 -0.43051036701793649 -0.083964229305721505 0 -0.43272213707796769 -0.1050553531011644 0 -0.41352047356827321 -0.0909948847898496 0 -0.43051036701793649 -0.083964229305721505 0 -0.43272213707796769 -0.1050553531011644 0 -0.43051036701793649 -0.083964229305721505 0 -0.44869793539396702 -0.090613631575090198 0 -0.43051036701793649 -0.083964229305721505 0 -0.42746868386642678 -0.066478460468227696 0 -0.43938561630945938 -0.075374003134316428 0 -0.42023793718526542 -0.076451056482049876 0 -0.43051036701793649 -0.083964229305721505 0 -0.42746868386642678 -0.066478460468227696 0 -0.42746868386642678 -0.066478460468227696 0 -0.43950717444435422 -0.063784996514660589 0 -0.43938561630945938 -0.075374003134316428 0 -0.43950717444435422 -0.063784996514660589 0 -0.45074392082461212 -0.072028697807882153 0 -0.43938561630945938 -0.075374003134316428 0 -0.43051036701793649 -0.083964229305721505 0 -0.43938561630945938 -0.075374003134316428 0 -0.44869793539396702 -0.090613631575090198 0 -0.45074392082461212 -0.072028697807882153 0 -0.43938561630945938 -0.075374003134316428 0 -0.44869793539396702 -0.090613631575090198 0 -0.45074392082461212 -0.072028697807882153 0 -0.44869793539396702 -0.090613631575090198 0 -0.4647336852437608 -0.080388630180202481 0 -0.44869793539396702 -0.090613631575090198 0 -0.4647336852437608 -0.080388630180202481 0 -0.47380622041468068 -0.096022360055862885 0 -0.4647336852437608 -0.080388630180202481 0 -0.46264955769922828 -0.069236149835977229 0 -0.47254815090776853 -0.069469283055039688 0 -0.45074392082461212 -0.072028697807882153 0 -0.46264955769922828 -0.069236149835977229 0 -0.44688553471578463 -0.051399134646207288 0 -0.46264955769922828 -0.069236149835977229 0 -0.47254815090776853 -0.069469283055039688 0 -0.46914163899380801 -0.061760229887868598 0 -0.45074392082461212 -0.072028697807882153 0 -0.4647336852437608 -0.080388630180202481 0 -0.46264955769922828 -0.069236149835977229 0 -0.43272213707796769 -0.1050553531011644 0 -0.44757380111679052 -0.12497018507317829 0 -0.46022938895027038 -0.10869066194517669 0 -0.43272213707796769 -0.1050553531011644 0 -0.44869793539396702 -0.090613631575090198 0 -0.46022938895027038 -0.10869066194517669 0 -0.44869793539396702 -0.090613631575090198 0 -0.46022938895027038 -0.10869066194517669 0 -0.47380622041468068 -0.096022360055862885 0 -0.44757380111679052 -0.12497018507317829 0 -0.47378690055839578 -0.1249759511259078 0 -0.44757380111679052 -0.12497018507317829 0 -0.46022938895027038 -0.10869066194517669 0 -0.47378690055839578 -0.1249759511259078 0 -0.46022938895027038 -0.10869066194517669 0 -0.47378690055839578 -0.1249759511259078 0 -0.48374478807960558 -0.1092121363906397 0 -0.46022938895027038 -0.10869066194517669 0 -0.48374478807960558 -0.1092121363906397 0 -0.47380622041468068 -0.096022360055862885 0 -0.48374478807960558 -0.1092121363906397 0 -0.47380622041468068 -0.096022360055862885 0 -0.48832582805197727 -0.092109142267116931 0 -0.48374478807960558 -0.1092121363906397 0 -0.5 -0.10055386622176241 0 -0.48832582805197727 -0.092109142267116931 0 -0.47378690055839578 -0.1249759511259078 0 -0.48374478807960558 -0.1092121363906397 0 -0.50000000000000111 -0.12498171717863731 0 -0.48374478807960558 -0.1092121363906397 0 -0.5 -0.10055386622176241 0 -0.50000000000000111 -0.12498171717863731 0 -0.47378690055839578 -0.1249759511259078 0 -0.50000000000000111 -0.12498171717863731 0 -0.47254815090776853 -0.069469283055039688 0 -0.47913967023945842 -0.082463322467565006 0 -0.48457081949690362 -0.068943122576377761 0 -0.47913967023945842 -0.082463322467565006 0 -0.48808502354595151 -0.080031310268457945 0 -0.48457081949690362 -0.068943122576377761 0 -0.48457081949690362 -0.068943122576377761 0 -0.46914163899380801 -0.061760229887868598 0 -0.48457081949690362 -0.068943122576377761 0 -0.48230491698392047 -0.057318093012348498 0 -0.46914163899380801 -0.061760229887868598 0 -0.47254815090776853 -0.069469283055039688 0 -0.48457081949690362 -0.068943122576377761 0 -0.46914163899380801 -0.061760229887868598 0 -0.47254815090776853 -0.069469283055039688 0 -0.46914163899380801 -0.061760229887868598 0 -0.4647336852437608 -0.080388630180202481 0 -0.47254815090776853 -0.069469283055039688 0 -0.47913967023945842 -0.082463322467565006 0 -0.4647336852437608 -0.080388630180202481 0 -0.47380622041468068 -0.096022360055862885 0 -0.47913967023945842 -0.082463322467565006 0 -0.47380622041468068 -0.096022360055862885 0 -0.47913967023945842 -0.082463322467565006 0 -0.48832582805197727 -0.092109142267116931 0 -0.5 -0.10055386622176241 0 -0.48832582805197727 -0.092109142267116931 0 -0.499999999999999 -0.07612601526488752 0 -0.48808502354595151 -0.080031310268457945 0 -0.48832582805197727 -0.092109142267116931 0 -0.499999999999999 -0.07612601526488752 0 -0.47913967023945842 -0.082463322467565006 0 -0.48808502354595151 -0.080031310268457945 0 -0.48832582805197727 -0.092109142267116931 0 -0.499999999999999 -0.07612601526488752 0 -0.48457081949690362 -0.068943122576377761 0 -0.499999999999999 -0.07612601526488752 0 -0.48457081949690362 -0.068943122576377761 0 -0.5 -0.055081012739928707 0 -0.48808502354595151 -0.080031310268457945 0 -0.499999999999999 -0.07612601526488752 0 -0.48457081949690362 -0.068943122576377761 0 -0.48457081949690362 -0.068943122576377761 0 -0.5 -0.055081012739928707 0 -0.48230491698392047 -0.057318093012348498 0 -0.5 -0.055081012739928707 0 -0.48157039955536241 -0.044558511477442143 0 -0.48230491698392047 -0.057318093012348498 0 -0.5 -0.055081012739928707 0 -0.500000000000004 -0.034036010214970061 0 -0.48157039955536241 -0.044558511477442143 0 -0.500000000000004 -0.034036010214970061 0 -0.48157039955536241 -0.044558511477442143 0 -0.48148290990478199 -0.029591545163434652 0 -0.48157039955536241 -0.044558511477442143 0 -0.45768975774058179 -0.035844230274481748 0 -0.48148290990478199 -0.029591545163434652 0 -0.48157039955536241 -0.044558511477442143 0 -0.46914163899380801 -0.061760229887868598 0 -0.45768975774058179 -0.035844230274481748 0 -0.48157039955536241 -0.044558511477442143 0 -0.48230491698392047 -0.057318093012348498 0 -0.46914163899380801 -0.061760229887868598 0 -0.46914163899380801 -0.061760229887868598 0 -0.45768975774058179 -0.035844230274481748 0 -0.44688553471578463 -0.051399134646207288 0 -0.46914163899380801 -0.061760229887868598 0 -0.45768975774058179 -0.035844230274481748 0 -0.46264955769922828 -0.069236149835977229 0 -0.46914163899380801 -0.061760229887868598 0 -0.44688553471578463 -0.051399134646207288 0 -0.46914163899380801 -0.061760229887868598 0 -0.44688553471578463 -0.051399134646207288 0 -0.43628267576141971 -0.035329403205585218 0 -0.44354830351403418 -0.034418653902415733 0 -0.44688553471578463 -0.051399134646207288 0 -0.45768975774058179 -0.035844230274481748 0 -0.44354830351403418 -0.034418653902415733 0 -0.44688553471578463 -0.051399134646207288 0 -0.45768975774058179 -0.035844230274481748 0 -0.44354830351403418 -0.034418653902415733 0 -0.44312252706978628 -0.024928407146411868 0 -0.43628267576141971 -0.035329403205585218 0 -0.43710875721387199 -0.026668229939385779 0 -0.44354830351403418 -0.034418653902415733 0 -0.43950717444435422 -0.063784996514660589 0 -0.45074392082461212 -0.072028697807882153 0 -0.44688553471578463 -0.051399134646207288 0 -0.43147245553696489 -0.05279552735729795 0 -0.43950717444435422 -0.063784996514660589 0 -0.44688553471578463 -0.051399134646207288 0 -0.43591977417237449 -0.008065469867085449 0 -0.44623787648735791 -0.0099282306610938807 0 -0.43740981058492812 0.01004998492246997 0 -0.43591977417237449 -0.008065469867085449 0 -0.44623787648735791 -0.0099282306610938807 0 -0.43928417642389239 -0.017661557407765791 0 -0.43591977417237449 -0.008065469867085449 0 -0.44623787648735791 -0.0099282306610938807 0 -0.43710875721387199 -0.026668229939385779 0 -0.43928417642389239 -0.017661557407765791 0 -0.44312252706978628 -0.024928407146411868 0 -0.45768975774058179 -0.035844230274481748 0 -0.44623787648735791 -0.0099282306610938807 0 -0.44312252706978628 -0.024928407146411868 0 -0.45768975774058179 -0.035844230274481748 0 -0.44623787648735791 -0.0099282306610938807 0 -0.44623787648735791 -0.0099282306610938807 0 -0.43928417642389239 -0.017661557407765791 0 -0.44312252706978628 -0.024928407146411868 0 -0.43710875721387199 -0.026668229939385779 0 -0.44354830351403418 -0.034418653902415733 0 -0.44312252706978628 -0.024928407146411868 0 -0.45768975774058179 -0.035844230274481748 0 -0.44623787648735791 -0.0099282306610938807 0 -0.47146408957177099 -0.01448240150379307 0 -0.44623787648735791 -0.0099282306610938807 0 -0.47146408957177099 -0.01448240150379307 0 -0.44623787648735791 -0.0099282306610938807 0 -0.47146408957177099 -0.01448240150379307 0 -0.46048772545436639 0.0043098071123656434 0 -0.47146408957177099 -0.01448240150379307 0 -0.47882554305316488 -0.0018417715126103191 0 -0.46048772545436639 0.0043098071123656434 0 -0.47146408957177099 -0.01448240150379307 0 -0.47882554305316488 -0.0018417715126103191 0 -0.49669030265618502 -0.01903657234648758 0 -0.47146408957177099 -0.01448240150379307 0 -0.49669030265618502 -0.01903657234648758 0 -0.47146408957177099 -0.01448240150379307 0 -0.48148290990478199 -0.029591545163434652 0 -0.49669030265618502 -0.01903657234648758 0 -0.45768975774058179 -0.035844230274481748 0 -0.47146408957177099 -0.01448240150379307 0 -0.48148290990478199 -0.029591545163434652 0 -0.500000000000004 -0.034036010214970061 0 -0.48148290990478199 -0.029591545163434652 0 -0.49669030265618502 -0.01903657234648758 0 -0.49669030265618502 -0.01903657234648758 0 -0.50000000000000056 -0.019634082844440681 0 -0.500000000000004 -0.034036010214970061 0 -0.49669030265618502 -0.01903657234648758 0 -0.500000000000004 -0.034036010214970061 0 -0.49669030265618502 -0.01903657234648758 0 -0.50000000000000056 -0.019634082844440681 0 -0.47882554305316488 -0.0018417715126103191 0 -0.49669030265618502 -0.01903657234648758 0 -0.49160980924365538 0.0039880541876541054 0 -0.49669030265618502 -0.01903657234648758 0 -0.49160980924365538 0.0039880541876541054 0 -0.49669030265618502 -0.01903657234648758 0 -0.50000000000000056 -0.019634082844440681 0 -0.49160980924365538 0.0039880541876541054 0 -0.50000000000000056 -0.019634082844440681 0 -0.49160980924365538 0.0039880541876541054 0 -0.50000000000000033 0.009303662189531537 0 -0.49160980924365538 0.0039880541876541054 0 -0.48652931583112352 0.027012680721795381 0 -0.49160980924365538 0.0039880541876541054 0 -0.50000000000000033 0.009303662189531537 0 -0.48652931583112352 0.027012680721795381 0 -0.50000000000000033 0.009303662189531537 0 -0.5 0.03611151152349279 0 -0.49175907743105379 0.031398254416965428 0 -0.50000000000000033 0.009303662189531537 0 -0.49175907743105379 0.031398254416965428 0 -0.50000000000000033 0.009303662189531537 0 -0.48652931583112352 0.027012680721795381 0 -0.49175907743105379 0.031398254416965428 0 -0.48652931583112352 0.027012680721795381 0 -0.47387578833984401 0.016012254987208822 0 -0.46815351836101687 0.031449839152918539 0 -0.49160980924365538 0.0039880541876541054 0 -0.48652931583112352 0.027012680721795381 0 -0.47387578833984401 0.016012254987208822 0 -0.47882554305316488 -0.0018417715126103191 0 -0.49160980924365538 0.0039880541876541054 0 -0.47387578833984401 0.016012254987208822 0 -0.47882554305316488 -0.0018417715126103191 0 -0.47387578833984401 0.016012254987208822 0 -0.46048772545436639 0.0043098071123656434 0 -0.49282352307895688 0.045257754500502748 0 -0.5 0.03611151152349279 0 -0.5 0.062919360857453976 0 -0.49282352307895688 0.045257754500502748 0 -0.48351815486210709 0.053492846644399093 0 -0.5 0.062919360857453976 0 -0.49175907743105379 0.031398254416965428 0 -0.48144882241859149 0.050037307255936581 0 -0.48351815486210709 0.053492846644399093 0 -0.48652931583112352 0.027012680721795381 0 -0.49175907743105379 0.031398254416965428 0 -0.48144882241859149 0.050037307255936581 0 -0.49175907743105379 0.031398254416965428 0 -0.48351815486210709 0.053492846644399093 0 -0.49282352307895688 0.045257754500502748 0 -0.49175907743105379 0.031398254416965428 0 -0.48351815486210709 0.053492846644399093 0 -0.49282352307895688 0.045257754500502748 0 -0.5 0.03611151152349279 0 -0.49175907743105379 0.031398254416965428 0 -0.48144882241859149 0.050037307255936581 0 -0.4639696453013944 0.043374392403556838 0 -0.46815351836101687 0.031449839152918539 0 -0.48652931583112352 0.027012680721795381 0 -0.48144882241859149 0.050037307255936581 0 -0.48652931583112352 0.027012680721795381 0 -0.48144882241859149 0.050037307255936581 0 -0.46815351836101687 0.031449839152918539 0 -0.48144882241859149 0.050037307255936581 0 -0.45709786057011947 0.055708105081253657 0 -0.47636832900606041 0.073061933790077832 0 -0.48144882241859149 0.050037307255936581 0 -0.48351815486210709 0.053492846644399093 0 -0.47636832900606041 0.073061933790077832 0 -0.48144882241859149 0.050037307255936581 0 -0.47636832900606041 0.073061933790077832 0 -0.48144882241859149 0.050037307255936581 0 -0.45709786057011947 0.055708105081253657 0 -0.4639696453013944 0.043374392403556838 0 -0.45709786057011947 0.055708105081253657 0 -0.4639696453013944 0.043374392403556838 0 -0.45299045524759751 0.034902057762674861 0 -0.4639696453013944 0.043374392403556838 0 -0.46815351836101687 0.031449839152918539 0 -0.45299045524759751 0.034902057762674861 0 -0.46815351836101687 0.031449839152918539 0 -0.45299045524759751 0.034902057762674861 0 -0.45709786057011947 0.055708105081253657 0 -0.45299045524759751 0.034902057762674861 0 -0.43782739213417787 0.038354276372430232 0 -0.45299045524759751 0.034902057762674861 0 -0.43782739213417787 0.038354276372430232 0 -0.45299045524759751 0.034902057762674861 0 -0.43782739213417787 0.038354276372430232 0 -0.44297011017848281 0.02707887027054981 0 -0.45709786057011947 0.055708105081253657 0 -0.43782739213417787 0.038354276372430232 0 -0.43187248081207541 0.055496176207803817 0 -0.45709786057011947 0.055708105081253657 0 -0.43782739213417787 0.038354276372430232 0 -0.45709786057011947 0.055708105081253657 0 -0.43187248081207541 0.055496176207803817 0 -0.43763284036668942 0.072255399145110422 0 -0.47387578833984401 0.016012254987208822 0 -0.46048772545436639 0.0043098071123656434 0 -0.45598123469437257 0.020633802368031268 0 -0.47387578833984401 0.016012254987208822 0 -0.46815351836101687 0.031449839152918539 0 -0.45598123469437257 0.020633802368031268 0 -0.46815351836101687 0.031449839152918539 0 -0.45299045524759751 0.034902057762674861 0 -0.45598123469437257 0.020633802368031268 0 -0.45598123469437257 0.020633802368031268 0 -0.44297011017848281 0.02707887027054981 0 -0.43740981058492812 0.01004998492246997 0 -0.45299045524759751 0.034902057762674861 0 -0.45598123469437257 0.020633802368031268 0 -0.44297011017848281 0.02707887027054981 0 -0.46048772545436639 0.0043098071123656434 0 -0.45598123469437257 0.020633802368031268 0 -0.43740981058492812 0.01004998492246997 0 -0.44623787648735791 -0.0099282306610938807 0 -0.46048772545436639 0.0043098071123656434 0 -0.43740981058492812 0.01004998492246997 0 -0.44623787648735791 -0.0099282306610938807 0 -0.43740981058492812 0.01004998492246997 0 -0.43591977417237449 -0.008065469867085449 0 -0.43740981058492812 0.01004998492246997 0 -0.42583279771702431 0.00046528033667210148 0 -0.43740981058492812 0.01004998492246997 0 -0.42292027786463471 0.01349413118407828 0 -0.42583279771702431 0.00046528033667210148 0 -0.41794895562780338 -0.01094222954485795 0 -0.40909120882054839 0.01273065398649661 0 -0.41794895562780338 -0.01094222954485795 0 -0.40352261506359649 -0.001038070178381474 0 -0.40909120882054839 0.01273065398649661 0 -0.42292027786463471 0.01349413118407828 0 -0.42583279771702431 0.00046528033667210148 0 -0.40909120882054839 0.01273065398649661 0 -0.41794895562780338 -0.01094222954485795 0 -0.42583279771702431 0.00046528033667210148 0 -0.40909120882054839 0.01273065398649661 0 -0.40909120882054839 0.01273065398649661 0 -0.41494363987246979 0.023236645495722939 0 -0.40023346201329341 0.036403537517851137 0 -0.41494363987246979 0.023236645495722939 0 -0.41436175989852531 0.033604495869393458 0 -0.40023346201329341 0.036403537517851137 0 -0.42292027786463471 0.01349413118407828 0 -0.41494363987246979 0.023236645495722939 0 -0.424969395700869 0.026775135554755129 0 -0.42292027786463471 0.01349413118407828 0 -0.40909120882054839 0.01273065398649661 0 -0.41494363987246979 0.023236645495722939 0 -0.41494363987246979 0.023236645495722939 0 -0.41896391809246269 0.029132761591660509 0 -0.41436175989852531 0.033604495869393458 0 -0.41494363987246979 0.023236645495722939 0 -0.41896391809246269 0.029132761591660509 0 -0.424969395700869 0.026775135554755129 0 -0.41896391809246269 0.029132761591660509 0 -0.424969395700869 0.026775135554755129 0 -0.42158087689798668 0.032914769446770492 0 -0.424969395700869 0.026775135554755129 0 -0.42858174468249838 0.030028200506033911 0 -0.42158087689798668 0.032914769446770492 0 -0.44297011017848281 0.02707887027054981 0 -0.43740981058492812 0.01004998492246997 0 -0.42858174468249838 0.030028200506033911 0 -0.43740981058492812 0.01004998492246997 0 -0.42292027786463471 0.01349413118407828 0 -0.424969395700869 0.026775135554755129 0 -0.43740981058492812 0.01004998492246997 0 -0.42858174468249838 0.030028200506033911 0 -0.43740981058492812 0.01004998492246997 0 -0.424969395700869 0.026775135554755129 0 -0.42858174468249838 0.030028200506033911 0 -0.424969395700869 0.026775135554755129 0 -0.42858174468249838 0.030028200506033911 0 -0.43782739213417787 0.038354276372430232 0 -0.44297011017848281 0.02707887027054981 0 -0.42858174468249838 0.030028200506033911 0 -0.43782739213417787 0.038354276372430232 0 -0.42858174468249838 0.030028200506033911 0 -0.42345682706553001 0.041626064651069543 0 -0.43782739213417787 0.038354276372430232 0 -0.42345682706553001 0.041626064651069543 0 -0.43187248081207541 0.055496176207803817 0 -0.43782739213417787 0.038354276372430232 0 -0.42858174468249838 0.030028200506033911 0 -0.43782739213417787 0.038354276372430232 0 -0.42345682706553001 0.041626064651069543 0 -0.42858174468249838 0.030028200506033911 0 -0.42345682706553001 0.041626064651069543 0 -0.42158087689798668 0.032914769446770492 0 -0.42858174468249838 0.030028200506033911 0 -0.42345682706553001 0.041626064651069543 0 -0.42345682706553001 0.041626064651069543 0 -0.43187248081207541 0.055496176207803817 0 -0.4177568865966339 0.054525225210098782 0 -0.43187248081207541 0.055496176207803817 0 -0.4177568865966339 0.054525225210098782 0 -0.41753301535116211 0.067129086497859855 0 -0.42345682706553001 0.041626064651069543 0 -0.4177568865966339 0.054525225210098782 0 -0.40276573021624068 0.046336866753853997 0 -0.4177568865966339 0.054525225210098782 0 -0.40750332447406851 0.057375884956624552 0 -0.41753301535116211 0.067129086497859855 0 -0.42345682706553001 0.041626064651069543 0 -0.4177568865966339 0.054525225210098782 0 -0.4177568865966339 0.054525225210098782 0 -0.40750332447406851 0.057375884956624552 0 -0.40276573021624068 0.046336866753853997 0 -0.42345682706553001 0.041626064651069543 0 -0.40276573021624068 0.046336866753853997 0 -0.42345682706553001 0.041626064651069543 0 -0.41020444479839763 0.039492741198042178 0 -0.40276573021624068 0.046336866753853997 0 -0.42345682706553001 0.041626064651069543 0 -0.41436175989852531 0.033604495869393458 0 -0.42158087689798668 0.032914769446770492 0 -0.42345682706553001 0.041626064651069543 0 -0.41436175989852531 0.033604495869393458 0 -0.41020444479839763 0.039492741198042178 0 -0.41896391809246269 0.029132761591660509 0 -0.41436175989852531 0.033604495869393458 0 -0.42158087689798668 0.032914769446770492 0 -0.41436175989852531 0.033604495869393458 0 -0.41020444479839763 0.039492741198042178 0 -0.40023346201329341 0.036403537517851137 0 -0.40276573021624068 0.046336866753853997 0 -0.38207463336695202 0.051047668856640811 0 -0.38772007791329738 0.03985096685417347 0 -0.41020444479839763 0.039492741198042178 0 -0.40023346201329341 0.036403537517851137 0 -0.40276573021624068 0.046336866753853997 0 -0.40023346201329341 0.036403537517851137 0 -0.40276573021624068 0.046336866753853997 0 -0.38772007791329738 0.03985096685417347 0 -0.40023346201329341 0.036403537517851137 0 -0.38772007791329738 0.03985096685417347 0 -0.38925836826538629 0.030805614435688099 0 -0.40276573021624068 0.046336866753853997 0 -0.38207463336695202 0.051047668856640811 0 -0.40276573021624068 0.046336866753853997 0 -0.39689466156197101 0.057407184083191301 0 -0.38207463336695202 0.051047668856640811 0 -0.40750332447406851 0.057375884956624552 0 -0.39689466156197101 0.057407184083191301 0 -0.40210564328563447 0.066115584712721373 0 -0.40750332447406851 0.057375884956624552 0 -0.40276573021624068 0.046336866753853997 0 -0.39689466156197101 0.057407184083191301 0 -0.38207463336695202 0.051047668856640811 0 -0.38848633305814179 0.065600711414542545 0 -0.36891219827968119 0.060077996683558232 0 -0.39689466156197101 0.057407184083191301 0 -0.38207463336695202 0.051047668856640811 0 -0.38848633305814179 0.065600711414542545 0 -0.38772007791329738 0.03985096685417347 0 -0.37937813184432773 0.031366277704107569 0 -0.38925836826538629 0.030805614435688099 0 -0.38207463336695202 0.051047668856640811 0 -0.38772007791329738 0.03985096685417347 0 -0.37261014177358448 0.043145835856899219 0 -0.38772007791329738 0.03985096685417347 0 -0.37937813184432773 0.031366277704107569 0 -0.37261014177358448 0.043145835856899219 0 -0.37937813184432773 0.031366277704107569 0 -0.38391758338059062 0.022870450659759161 0 -0.37479293228070759 0.022502646493578662 0 -0.37937813184432773 0.031366277704107569 0 -0.38925836826538629 0.030805614435688099 0 -0.38391758338059062 0.022870450659759161 0 -0.38925836826538629 0.030805614435688099 0 -0.38391758338059062 0.022870450659759161 0 -0.3946160130735708 0.021551959563878339 0 -0.38391758338059062 0.022870450659759161 0 -0.38667067902898572 0.013842153393714489 0 -0.3946160130735708 0.021551959563878339 0 -0.38391758338059062 0.022870450659759161 0 -0.3778438638662554 0.014761087644765769 0 -0.38667067902898572 0.013842153393714489 0 -0.38391758338059062 0.022870450659759161 0 -0.3778438638662554 0.014761087644765769 0 -0.37479293228070759 0.022502646493578662 0 -0.3778438638662554 0.014761087644765769 0 -0.38165634421242611 0.0056742618597281089 0 -0.38667067902898572 0.013842153393714489 0 -0.3778438638662554 0.014761087644765769 0 -0.38165634421242611 0.0056742618597281089 0 -0.37464316483836829 0.0066416053135349984 0 -0.37774077980655368 -0.001289555558904682 0 -0.38165634421242611 0.0056742618597281089 0 -0.37464316483836829 0.0066416053135349984 0 -0.3848191179490616 -0.0027051675553946518 0 -0.37774077980655368 -0.001289555558904682 0 -0.38165634421242611 0.0056742618597281089 0 -0.3848191179490616 -0.0027051675553946518 0 -0.38165634421242611 0.0056742618597281089 0 -0.38845980705381639 0.0057813395070211177 0 -0.39408165103759368 -0.0019794594859314238 0 -0.3848191179490616 -0.0027051675553946518 0 -0.38845980705381639 0.0057813395070211177 0 -0.38845980705381639 0.0057813395070211177 0 -0.38667067902898572 0.013842153393714489 0 -0.39627830677719 0.008853295208583448 0 -0.38165634421242611 0.0056742618597281089 0 -0.38845980705381639 0.0057813395070211177 0 -0.38667067902898572 0.013842153393714489 0 -0.38667067902898572 0.013842153393714489 0 -0.39627830677719 0.008853295208583448 0 -0.3946160130735708 0.021551959563878339 0 -0.39408165103759368 -0.0019794594859314238 0 -0.38845980705381639 0.0057813395070211177 0 -0.39627830677719 0.008853295208583448 0 -0.40352261506359649 -0.001038070178381474 0 -0.39408165103759368 -0.0019794594859314238 0 -0.39627830677719 0.008853295208583448 0 -0.40352261506359649 -0.001038070178381474 0 -0.40909120882054839 0.01273065398649661 0 -0.39627830677719 0.008853295208583448 0 -0.40909120882054839 0.01273065398649661 0 -0.39627830677719 0.008853295208583448 0 -0.3946160130735708 0.021551959563878339 0 -0.40909120882054839 0.01273065398649661 0 -0.40023346201329341 0.036403537517851137 0 -0.3946160130735708 0.021551959563878339 0 -0.40909120882054839 0.01273065398649661 0 -0.40023346201329341 0.036403537517851137 0 -0.40023346201329341 0.036403537517851137 0 -0.38925836826538629 0.030805614435688099 0 -0.3946160130735708 0.021551959563878339 0 -0.38696142946532958 0.1003701901717608 0 -0.40164011277457379 0.081352107660276216 0 -0.40864304721671202 0.1107171055473533 0 -0.38750957741872682 0.11885909540365321 0 -0.40864304721671202 0.1107171055473533 0 -0.39401402549175851 0.1361747599337243 0 -0.38750957741872682 0.11885909540365321 0 -0.38696142946532958 0.1003701901717608 0 -0.40864304721671202 0.1107171055473533 0 -0.38750957741872682 0.11885909540365321 0 -0.38696142946532958 0.1003701901717608 0 -0.36904533532088801 0.1177582563576956 0 -0.38696142946532958 0.1003701901717608 0 -0.37090825683648998 0.098456277756480637 0 -0.36904533532088801 0.1177582563576956 0 -0.37929074908003868 0.077603726490867345 0 -0.40164011277457379 0.081352107660276216 0 -0.38696142946532958 0.1003701901717608 0 -0.37929074908003868 0.077603726490867345 0 -0.40164011277457379 0.081352107660276216 0 -0.38696142946532958 0.1003701901717608 0 -0.37929074908003868 0.077603726490867345 0 -0.37090825683648998 0.098456277756480637 0 -0.37929074908003868 0.077603726490867345 0 -0.38848633305814179 0.065600711414542545 0 -0.36891219827968119 0.060077996683558232 0 -0.37929074908003868 0.077603726490867345 0 -0.38848633305814179 0.065600711414542545 0 -0.40164011277457379 0.081352107660276216 0 -0.38848633305814179 0.065600711414542545 0 -0.40210564328563447 0.066115584712721373 0 -0.40164011277457379 0.081352107660276216 0 -0.39689466156197101 0.057407184083191301 0 -0.38848633305814179 0.065600711414542545 0 -0.40210564328563447 0.066115584712721373 0 -0.40164011277457379 0.081352107660276216 0 -0.42398947646910912 0.085100488829685086 0 -0.40164011277457379 0.081352107660276216 0 -0.42398947646910912 0.085100488829685086 0 -0.40864304721671202 0.1107171055473533 0 -0.40210564328563447 0.066115584712721373 0 -0.40164011277457379 0.081352107660276216 0 -0.41753301535116211 0.067129086497859855 0 -0.40164011277457379 0.081352107660276216 0 -0.41753301535116211 0.067129086497859855 0 -0.42398947646910912 0.085100488829685086 0 -0.40750332447406851 0.057375884956624552 0 -0.40210564328563447 0.066115584712721373 0 -0.41753301535116211 0.067129086497859855 0 -0.41753301535116211 0.067129086497859855 0 -0.42398947646910912 0.085100488829685086 0 -0.43763284036668942 0.072255399145110422 0 -0.43187248081207541 0.055496176207803817 0 -0.41753301535116211 0.067129086497859855 0 -0.43763284036668942 0.072255399145110422 0 -0.42398947646910912 0.085100488829685086 0 -0.44633884016364428 0.088848869999093971 0 -0.42398947646910912 0.085100488829685086 0 -0.43763284036668942 0.072255399145110422 0 -0.44633884016364428 0.088848869999093971 0 -0.42398947646910912 0.085100488829685086 0 -0.42906186480059683 0.10519001099972999 0 -0.44633884016364428 0.088848869999093971 0 -0.42398947646910912 0.085100488829685086 0 -0.42906186480059683 0.10519001099972999 0 -0.40864304721671202 0.1107171055473533 0 -0.40864304721671202 0.1107171055473533 0 -0.43267942878230348 0.12559175737704789 0 -0.42906186480059683 0.10519001099972999 0 -0.40864304721671202 0.1107171055473533 0 -0.43267942878230348 0.12559175737704789 0 -0.42906186480059683 0.10519001099972999 0 -0.4489383204882843 0.11104189391905871 0 -0.43267942878230348 0.12559175737704789 0 -0.4489383204882843 0.11104189391905871 0 -0.45289828098281221 0.1241297055338681 0 -0.43267942878230348 0.12559175737704789 0 -0.4489383204882843 0.11104189391905871 0 -0.43267942878230348 0.12559175737704789 0 -0.42906186480059683 0.10519001099972999 0 -0.4489383204882843 0.11104189391905871 0 -0.44633884016364428 0.088848869999093971 0 -0.4489383204882843 0.11104189391905871 0 -0.44633884016364428 0.088848869999093971 0 -0.47121921728662652 0.096397536200283296 0 -0.46607010556719342 0.11973313861048911 0 -0.47121921728662652 0.096397536200283296 0 -0.4489383204882843 0.11104189391905871 0 -0.46607010556719342 0.11973313861048911 0 -0.47121921728662652 0.096397536200283296 0 -0.4489383204882843 0.11104189391905871 0 -0.45289828098281221 0.1241297055338681 0 -0.46607010556719342 0.11973313861048911 0 -0.45709786057011947 0.055708105081253657 0 -0.43763284036668942 0.072255399145110422 0 -0.45544766770060358 0.07348919590478746 0 -0.43763284036668942 0.072255399145110422 0 -0.44633884016364428 0.088848869999093971 0 -0.45544766770060358 0.07348919590478746 0 -0.44633884016364428 0.088848869999093971 0 -0.45544766770060358 0.07348919590478746 0 -0.47121921728662652 0.096397536200283296 0 -0.45544766770060358 0.07348919590478746 0 -0.47636832900606041 0.073061933790077832 0 -0.47121921728662652 0.096397536200283296 0 -0.45709786057011947 0.055708105081253657 0 -0.47636832900606041 0.073061933790077832 0 -0.45709786057011947 0.055708105081253657 0 -0.45544766770060358 0.07348919590478746 0 -0.47636832900606041 0.073061933790077832 0 -0.48351815486210709 0.053492846644399093 0 -0.47636832900606041 0.073061933790077832 0 -0.49140909277123612 0.074197219851226057 0 -0.47636832900606041 0.073061933790077832 0 -0.48274454235378189 0.091705374172880549 0 -0.47121921728662652 0.096397536200283296 0 -0.47636832900606041 0.073061933790077832 0 -0.47121921728662652 0.096397536200283296 0 -0.47636832900606041 0.073061933790077832 0 -0.49715897998801373 0.091784747772784503 0 -0.5 0.089727210191415163 0 -0.49715897998801373 0.091784747772784503 0 -0.49140909277123612 0.074197219851226057 0 -0.47636832900606041 0.073061933790077832 0 -0.48274454235378189 0.091705374172880549 0 -0.49715897998801373 0.091784747772784503 0 -0.47636832900606041 0.073061933790077832 0 -0.49715897998801373 0.091784747772784503 0 -0.49140909277123612 0.074197219851226057 0 -0.5 0.089727210191415163 0 -0.5 0.062919360857453976 0 -0.49140909277123612 0.074197219851226057 0 -0.48351815486210709 0.053492846644399093 0 -0.5 0.062919360857453976 0 -0.49140909277123612 0.074197219851226057 0 -0.46607010556719342 0.11973313861048911 0 -0.48623164313442779 0.1055772789283768 0 -0.48453668432005692 0.123143207324586 0 -0.46607010556719342 0.11973313861048911 0 -0.47121921728662652 0.096397536200283296 0 -0.48623164313442779 0.1055772789283768 0 -0.48274454235378189 0.091705374172880549 0 -0.47121921728662652 0.096397536200283296 0 -0.48623164313442779 0.1055772789283768 0 -0.5 0.089727210191415163 0 -0.49715897998801373 0.091784747772784503 0 -0.5 0.1165350595253765 0 -0.49715897998801373 0.091784747772784503 0 -0.48623164313442779 0.1055772789283768 0 -0.5 0.1165350595253765 0 -0.48274454235378189 0.091705374172880549 0 -0.49715897998801373 0.091784747772784503 0 -0.48623164313442779 0.1055772789283768 0 -0.48623164313442779 0.1055772789283768 0 -0.5 0.1165350595253765 0 -0.48453668432005692 0.123143207324586 0 -0.5 0.1165350595253765 0 -0.48453668432005692 0.123143207324586 0 -0.5 0.1433429088593379 0 -0.48453668432005692 0.123143207324586 0 -0.48049738108946538 0.1379484740379 0 -0.5 0.1433429088593379 0 -0.46607010556719342 0.11973313861048911 0 -0.48453668432005692 0.123143207324586 0 -0.48049738108946538 0.1379484740379 0 -0.46607010556719342 0.11973313861048911 0 -0.48049738108946538 0.1379484740379 0 -0.46092099384776192 0.14306874102069511 0 -0.48464943840857888 0.15775282940309851 0 -0.46990863904630059 0.1670362475492525 0 -0.46092099384776192 0.14306874102069511 0 -0.48464943840857888 0.15775282940309851 0 -0.46092099384776192 0.14306874102069511 0 -0.48049738108946538 0.1379484740379 0 -0.48464943840857888 0.15775282940309851 0 -0.46092099384776192 0.14306874102069511 0 -0.48049738108946538 0.1379484740379 0 -0.5 0.1433429088593379 0 -0.48464943840857888 0.15775282940309851 0 -0.48464943840857888 0.15775282940309851 0 -0.5 0.17015075819329931 0 -0.4898809761324775 0.17912292006808481 0 -0.5 0.1433429088593379 0 -0.48464943840857888 0.15775282940309851 0 -0.5 0.17015075819329931 0 -0.48464943840857888 0.15775282940309851 0 -0.4898809761324775 0.17912292006808481 0 -0.47865635922375932 0.17909963177513319 0 -0.5 0.17015075819329931 0 -0.4898809761324775 0.17912292006808481 0 -0.5 0.19695860752726069 0 -0.4898809761324775 0.17912292006808481 0 -0.47865635922375932 0.17909963177513319 0 -0.48609908303004917 0.1916527734416324 0 -0.47865635922375932 0.17909963177513319 0 -0.47279817792341111 0.1948006201282925 0 -0.47865635922375932 0.17909963177513319 0 -0.46589335310649882 0.18744802338852329 0 -0.47279817792341111 0.1948006201282925 0 -0.47865635922375932 0.17909963177513319 0 -0.46927870962167312 0.17493875400548389 0 -0.46990863904630059 0.1670362475492525 0 -0.47865635922375932 0.17909963177513319 0 -0.46927870962167312 0.17493875400548389 0 -0.46555461593459269 0.18128722400797501 0 -0.47865635922375932 0.17909963177513319 0 -0.46589335310649882 0.18744802338852329 0 -0.46555461593459269 0.18128722400797501 0 -0.48464943840857888 0.15775282940309851 0 -0.47865635922375932 0.17909963177513319 0 -0.46990863904630059 0.1670362475492525 0 -0.45742932361540911 0.15889287394486271 0 -0.45393765338305497 0.17471700686903011 0 -0.46990863904630059 0.1670362475492525 0 -0.45742932361540911 0.15889287394486271 0 -0.46092099384776192 0.14306874102069511 0 -0.45742932361540911 0.15889287394486271 0 -0.46299522428203971 0.17233191268957501 0 -0.45393765338305497 0.17471700686903011 0 -0.46927870962167312 0.17493875400548389 0 -0.46990863904630059 0.1670362475492525 0 -0.46299522428203971 0.17233191268957501 0 -0.46990863904630059 0.1670362475492525 0 -0.45742932361540911 0.15889287394486271 0 -0.46299522428203971 0.17233191268957501 0 -0.46589335310649882 0.18744802338852329 0 -0.46555461593459269 0.18128722400797501 0 -0.45393765338305497 0.17471700686903011 0 -0.46589335310649882 0.18744802338852329 0 -0.46555461593459269 0.18128722400797501 0 -0.46927870962167312 0.17493875400548389 0 -0.46555461593459269 0.18128722400797501 0 -0.46299522428203971 0.17233191268957501 0 -0.46555461593459269 0.18128722400797501 0 -0.46299522428203971 0.17233191268957501 0 -0.45393765338305497 0.17471700686903011 0 -0.46589335310649882 0.18744802338852329 0 -0.45393765338305497 0.17471700686903011 0 -0.45393765338305497 0.17471700686903011 0 -0.44047241453070329 0.18324079402305421 0 -0.44820564853932793 0.20069426145875721 0 -0.45393765338305497 0.17471700686903011 0 -0.44047241453070329 0.18324079402305421 0 -0.44174290600336708 0.16173144065936321 0 -0.45742932361540911 0.15889287394486271 0 -0.44174290600336708 0.16173144065936321 0 -0.44616928685712581 0.1494742970518641 0 -0.45742932361540911 0.15889287394486271 0 -0.45393765338305497 0.17471700686903011 0 -0.44174290600336708 0.16173144065936321 0 -0.45393765338305497 0.17471700686903011 0 -0.44174290600336708 0.16173144065936321 0 -0.44174290600336708 0.16173144065936321 0 -0.44616928685712581 0.1494742970518641 0 -0.43187713239064979 0.1573343508491826 0 -0.44616928685712581 0.1494742970518641 0 -0.43700896048386301 0.14249666109927989 0 -0.43187713239064979 0.1573343508491826 0 -0.44616928685712581 0.1494742970518641 0 -0.44680021131503311 0.13433024919887079 0 -0.46092099384776192 0.14306874102069511 0 -0.44616928685712581 0.1494742970518641 0 -0.44680021131503311 0.13433024919887079 0 -0.43700896048386301 0.14249666109927989 0 -0.45289828098281221 0.1241297055338681 0 -0.44680021131503311 0.13433024919887079 0 -0.43267942878230348 0.12559175737704789 0 -0.44680021131503311 0.13433024919887079 0 -0.43267942878230348 0.12559175737704789 0 -0.43700896048386301 0.14249666109927989 0 -0.44680021131503311 0.13433024919887079 0 -0.43267942878230348 0.12559175737704789 0 -0.45289828098281221 0.1241297055338681 0 -0.44680021131503311 0.13433024919887079 0 -0.46092099384776192 0.14306874102069511 0 -0.46607010556719342 0.11973313861048911 0 -0.46092099384776192 0.14306874102069511 0 -0.45289828098281221 0.1241297055338681 0 -0.46607010556719342 0.11973313861048911 0 -0.46092099384776192 0.14306874102069511 0 -0.44680021131503311 0.13433024919887079 0 -0.46092099384776192 0.14306874102069511 0 -0.45742932361540911 0.15889287394486271 0 -0.46092099384776192 0.14306874102069511 0 -0.45742932361540911 0.15889287394486271 0 -0.44616928685712581 0.1494742970518641 0 -0.46092099384776192 0.14306874102069511 0 -0.46853242371352971 0.23544625301742969 0 -0.46993231893463527 0.26090691788180947 0 -0.48177750529808522 0.24619974485466931 0 -0.46853242371352971 0.23544625301742969 0 -0.46993231893463527 0.26090691788180947 0 -0.48177750529808522 0.24619974485466931 0 -0.48375626182904402 0.22755154475287301 0 -0.46853242371352971 0.23544625301742969 0 -0.48177750529808522 0.24619974485466931 0 -0.5 0.2461359573144368 0 -0.48375626182904402 0.22755154475287301 0 -0.5 0.2461359573144368 0 -0.48375626182904402 0.22755154475287301 0 -0.49999999999999978 0.22376645686122221 0 -0.48375626182904402 0.22755154475287301 0 -0.48639908896170481 0.20928353849475789 0 -0.5 0.2461359573144368 0 -0.49999999999999978 0.22376645686122221 0 -0.48375626182904402 0.22755154475287301 0 -0.47173343442327142 0.22048762952866541 0 -0.46713252849242448 0.20998558815304991 0 -0.46853242371352971 0.23544625301742969 0 -0.48375626182904402 0.22755154475287301 0 -0.47173343442327142 0.22048762952866541 0 -0.4670472636537164 0.20843482960316059 0 -0.48375626182904402 0.22755154475287301 0 -0.47173343442327142 0.22048762952866541 0 -0.46853242371352971 0.23544625301742969 0 -0.48375626182904402 0.22755154475287301 0 -0.4670472636537164 0.20843482960316059 0 -0.48639908896170481 0.20928353849475789 0 -0.47279817792341111 0.1948006201282925 0 -0.4670472636537164 0.20843482960316059 0 -0.48375626182904402 0.22755154475287301 0 -0.48639908896170481 0.20928353849475789 0 -0.4670472636537164 0.20843482960316059 0 -0.49999999999999978 0.22376645686122221 0 -0.48639908896170481 0.20928353849475789 0 -0.5 0.19695860752726069 0 -0.49999999999999978 0.22376645686122221 0 -0.48639908896170481 0.20928353849475789 0 -0.48639908896170481 0.20928353849475789 0 -0.5 0.19695860752726069 0 -0.48609908303004917 0.1916527734416324 0 -0.4898809761324775 0.17912292006808481 0 -0.5 0.19695860752726069 0 -0.48609908303004917 0.1916527734416324 0 -0.48639908896170481 0.20928353849475789 0 -0.48609908303004917 0.1916527734416324 0 -0.47279817792341111 0.1948006201282925 0 -0.47865635922375932 0.17909963177513319 0 -0.48609908303004917 0.1916527734416324 0 -0.47279817792341111 0.1948006201282925 0 -0.48639908896170481 0.20928353849475789 0 -0.47279817792341111 0.1948006201282925 0 -0.47279817792341111 0.1948006201282925 0 -0.4670472636537164 0.20843482960316059 0 -0.46589335310649882 0.18744802338852329 0 -0.47279817792341111 0.1948006201282925 0 -0.46589335310649882 0.18744802338852329 0 -0.4603250720810298 0.20074399020462361 0 -0.4670472636537164 0.20843482960316059 0 -0.46589335310649882 0.18744802338852329 0 -0.45393765338305497 0.17471700686903011 0 -0.44820564853932793 0.20069426145875721 0 -0.46589335310649882 0.18744802338852329 0 -0.4603250720810298 0.20074399020462361 0 -0.44820564853932793 0.20069426145875721 0 -0.46589335310649882 0.18744802338852329 0 -0.47279817792341111 0.1948006201282925 0 -0.4670472636537164 0.20843482960316059 0 -0.46589335310649882 0.18744802338852329 0 -0.4670472636537164 0.20843482960316059 0 -0.45393765338305497 0.17471700686903011 0 -0.44820564853932793 0.20069426145875721 0 -0.44820564853932793 0.20069426145875721 0 -0.45427794118362658 0.21265328965042851 0 -0.44247364369559788 0.22667151604848371 0 -0.44820564853932793 0.20069426145875721 0 -0.44247364369559788 0.22667151604848371 0 -0.44820564853932793 0.20069426145875721 0 -0.44247364369559788 0.22667151604848371 0 -0.42336320141575168 0.21609666274764849 0 -0.45880341375183131 0.2186303689721085 0 -0.45427794118362658 0.21265328965042851 0 -0.46188137931700068 0.21002659871962689 0 -0.45880341375183131 0.2186303689721085 0 -0.45427794118362658 0.21265328965042851 0 -0.4536201791639074 0.2236252940046442 0 -0.4603250720810298 0.20074399020462361 0 -0.45427794118362658 0.21265328965042851 0 -0.46188137931700068 0.21002659871962689 0 -0.4603250720810298 0.20074399020462361 0 -0.44820564853932793 0.20069426145875721 0 -0.45427794118362658 0.21265328965042851 0 -0.4603250720810298 0.20074399020462361 0 -0.46188137931700068 0.21002659871962689 0 -0.4670472636537164 0.20843482960316059 0 -0.4603250720810298 0.20074399020462361 0 -0.4670472636537164 0.20843482960316059 0 -0.46188137931700068 0.21002659871962689 0 -0.4670472636537164 0.20843482960316059 0 -0.46713252849242448 0.20998558815304991 0 -0.4670472636537164 0.20843482960316059 0 -0.46713252849242448 0.20998558815304991 0 -0.47173343442327142 0.22048762952866541 0 -0.4670472636537164 0.20843482960316059 0 -0.46713252849242448 0.20998558815304991 0 -0.45880341375183131 0.2186303689721085 0 -0.46188137931700068 0.21002659871962689 0 -0.46713252849242448 0.20998558815304991 0 -0.46713252849242448 0.20998558815304991 0 -0.45710504060219709 0.23686107433279269 0 -0.46713252849242448 0.20998558815304991 0 -0.45710504060219709 0.23686107433279269 0 -0.46853242371352971 0.23544625301742969 0 -0.45880341375183131 0.2186303689721085 0 -0.46713252849242448 0.20998558815304991 0 -0.45710504060219709 0.23686107433279269 0 -0.45880341375183131 0.2186303689721085 0 -0.4536201791639074 0.2236252940046442 0 -0.45710504060219709 0.23686107433279269 0 -0.46713252849242448 0.20998558815304991 0 -0.46853242371352971 0.23544625301742969 0 -0.45427794118362658 0.21265328965042851 0 -0.4536201791639074 0.2236252940046442 0 -0.44247364369559788 0.22667151604848371 0 -0.4536201791639074 0.2236252940046442 0 -0.44247364369559788 0.22667151604848371 0 -0.45710504060219709 0.23686107433279269 0 -0.44247364369559788 0.22667151604848371 0 -0.4367416388518679 0.25264877063821017 0 -0.44247364369559788 0.22667151604848371 0 -0.45710504060219709 0.23686107433279269 0 -0.4367416388518679 0.25264877063821017 0 -0.45710504060219709 0.23686107433279269 0 -0.46853242371352971 0.23544625301742969 0 -0.46993231893463527 0.26090691788180947 0 -0.41931835140954682 0.23739665832436521 0 -0.40367044579520373 0.24132688110038639 0 -0.41175872593851298 0.2549478601346914 0 -0.41931835140954682 0.23739665832436521 0 -0.40790513800462019 0.22799805468035339 0 -0.40367044579520373 0.24132688110038639 0 -0.41931835140954682 0.23739665832436521 0 -0.4367416388518679 0.25264877063821017 0 -0.41175872593851298 0.2549478601346914 0 -0.44247364369559788 0.22667151604848371 0 -0.41931835140954682 0.23739665832436521 0 -0.4367416388518679 0.25264877063821017 0 -0.44247364369559788 0.22667151604848371 0 -0.41931835140954682 0.23739665832436521 0 -0.42336320141575168 0.21609666274764849 0 -0.41931835140954682 0.23739665832436521 0 -0.40790513800462019 0.22799805468035339 0 -0.42336320141575168 0.21609666274764849 0 -0.40790513800462019 0.22799805468035339 0 -0.42336320141575168 0.21609666274764849 0 -0.40538393777915788 0.2123952851453417 0 -0.42336320141575168 0.21609666274764849 0 -0.42071240458675369 0.1920614743917832 0 -0.40538393777915788 0.2123952851453417 0 -0.44820564853932793 0.20069426145875721 0 -0.42336320141575168 0.21609666274764849 0 -0.42071240458675369 0.1920614743917832 0 -0.44047241453070329 0.18324079402305421 0 -0.44820564853932793 0.20069426145875721 0 -0.42071240458675369 0.1920614743917832 0 -0.42071240458675369 0.1920614743917832 0 -0.40538393777915788 0.2123952851453417 0 -0.42071240458675369 0.1920614743917832 0 -0.4022878927449296 0.1970928012265635 0 -0.40298680868332198 0.18508216307238631 0 -0.42071240458675369 0.1920614743917832 0 -0.4022878927449296 0.1970928012265635 0 -0.40538393777915788 0.2123952851453417 0 -0.4022878927449296 0.1970928012265635 0 -0.39286614404695941 0.1920732104686422 0 -0.40298680868332198 0.18508216307238631 0 -0.4022878927449296 0.1970928012265635 0 -0.39286614404695941 0.1920732104686422 0 -0.39380007669083689 0.206464460861051 0 -0.38422654444444693 0.2008322729754812 0 -0.38088029112643113 0.1825210369279657 0 -0.38422654444444693 0.2008322729754812 0 -0.38088029112643113 0.1825210369279657 0 -0.36802074197771562 0.19700904511440151 0 -0.38422654444444693 0.2008322729754812 0 -0.37368745339656201 0.20924711939208951 0 -0.36802074197771562 0.19700904511440151 0 -0.39286614404695941 0.1920732104686422 0 -0.38422654444444693 0.2008322729754812 0 -0.38088029112643113 0.1825210369279657 0 -0.39286614404695941 0.1920732104686422 0 -0.38422654444444693 0.2008322729754812 0 -0.39380007669083689 0.206464460861051 0 -0.38422654444444693 0.2008322729754812 0 -0.38757279776246373 0.21914350902299659 0 -0.38757279776246373 0.21914350902299659 0 -0.36800338097472479 0.22147713987588341 0 -0.37368745339656201 0.20924711939208951 0 -0.38422654444444693 0.2008322729754812 0 -0.39380007669083689 0.206464460861051 0 -0.38757279776246373 0.21914350902299659 0 -0.38422654444444693 0.2008322729754812 0 -0.38757279776246373 0.21914350902299659 0 -0.37368745339656201 0.20924711939208951 0 -0.39141353052387118 0.2186855059784025 0 -0.39380007669083689 0.206464460861051 0 -0.38757279776246373 0.21914350902299659 0 -0.39141353052387118 0.2186855059784025 0 -0.39380007669083689 0.206464460861051 0 -0.40538393777915788 0.2123952851453417 0 -0.4022878927449296 0.1970928012265635 0 -0.39380007669083689 0.206464460861051 0 -0.40538393777915788 0.2123952851453417 0 -0.40790513800462019 0.22799805468035339 0 -0.39005547097156312 0.23272909589890109 0 -0.40367044579520373 0.24132688110038639 0 -0.39141353052387118 0.2186855059784025 0 -0.40538393777915788 0.2123952851453417 0 -0.39005547097156312 0.23272909589890109 0 -0.40790513800462019 0.22799805468035339 0 -0.40538393777915788 0.2123952851453417 0 -0.39005547097156312 0.23272909589890109 0 -0.40538393777915788 0.2123952851453417 0 -0.39005547097156312 0.23272909589890109 0 -0.38757279776246373 0.21914350902299659 0 -0.39005547097156312 0.23272909589890109 0 -0.38757279776246373 0.21914350902299659 0 -0.36800338097472479 0.22147713987588341 0 -0.39141353052387118 0.2186855059784025 0 -0.38757279776246373 0.21914350902299659 0 -0.39005547097156312 0.23272909589890109 0 -0.38757279776246373 0.21914350902299659 0 -0.37939186114838758 0.22424627805714001 0 -0.36800338097472479 0.22147713987588341 0 -0.38757279776246373 0.21914350902299659 0 -0.37939186114838758 0.22424627805714001 0 -0.39005547097156312 0.23272909589890109 0 -0.39141353052387118 0.2186855059784025 0 -0.38757279776246373 0.21914350902299659 0 -0.37939186114838758 0.22424627805714001 0 -0.37477717689163992 0.25299635056682518 0 -0.39005547097156312 0.23272909589890109 0 -0.39384597734802013 0.25347135609337229 0 -0.37477717689163992 0.25299635056682518 0 -0.37939186114838758 0.22424627805714001 0 -0.39005547097156312 0.23272909589890109 0 -0.37477717689163992 0.25299635056682518 0 -0.39005547097156312 0.23272909589890109 0 -0.37477717689163992 0.25299635056682518 0 -0.40367044579520373 0.24132688110038639 0 -0.41175872593851298 0.2549478601346914 0 -0.39384597734802013 0.25347135609337229 0 -0.39005547097156312 0.23272909589890109 0 -0.39384597734802013 0.25347135609337229 0 -0.39005547097156312 0.23272909589890109 0 -0.40367044579520373 0.24132688110038639 0 -0.39384597734802013 0.25347135609337229 0 -0.41485942150404181 0.14153864215909739 0 -0.41553858058260518 0.15317901213210369 0 -0.42574561826610652 0.14613969243370301 0 -0.41553858058260518 0.15317901213210369 0 -0.42574561826610652 0.14613969243370301 0 -0.42127399236650492 0.15770626544657529 0 -0.41485942150404181 0.14153864215909739 0 -0.41553858058260518 0.15317901213210369 0 -0.4044664398419977 0.15594807455379561 0 -0.40864304721671202 0.1107171055473533 0 -0.41485942150404181 0.14153864215909739 0 -0.43267942878230348 0.12559175737704789 0 -0.41485942150404181 0.14153864215909739 0 -0.43267942878230348 0.12559175737704789 0 -0.42574561826610652 0.14613969243370301 0 -0.43267942878230348 0.12559175737704789 0 -0.43700896048386301 0.14249666109927989 0 -0.42574561826610652 0.14613969243370301 0 -0.41485942150404181 0.14153864215909739 0 -0.43267942878230348 0.12559175737704789 0 -0.42574561826610652 0.14613969243370301 0 -0.43187713239064979 0.1573343508491826 0 -0.42127399236650492 0.15770626544657529 0 -0.43700896048386301 0.14249666109927989 0 -0.42574561826610652 0.14613969243370301 0 -0.43187713239064979 0.1573343508491826 0 -0.43187713239064979 0.1573343508491826 0 -0.42946357341586749 0.17496324995209989 0 -0.4216380035134229 0.16659483191912641 0 -0.44174290600336708 0.16173144065936321 0 -0.43187713239064979 0.1573343508491826 0 -0.42946357341586749 0.17496324995209989 0 -0.43187713239064979 0.1573343508491826 0 -0.42127399236650492 0.15770626544657529 0 -0.4216380035134229 0.16659483191912641 0 -0.44047241453070329 0.18324079402305421 0 -0.44174290600336708 0.16173144065936321 0 -0.42946357341586749 0.17496324995209989 0 -0.44047241453070329 0.18324079402305421 0 -0.42071240458675369 0.1920614743917832 0 -0.42946357341586749 0.17496324995209989 0 -0.42071240458675369 0.1920614743917832 0 -0.42946357341586749 0.17496324995209989 0 -0.41235879422937732 0.17543682721938669 0 -0.42071240458675369 0.1920614743917832 0 -0.41235879422937732 0.17543682721938669 0 -0.40298680868332198 0.18508216307238631 0 -0.42946357341586749 0.17496324995209989 0 -0.41235879422937732 0.17543682721938669 0 -0.4216380035134229 0.16659483191912641 0 -0.41553858058260518 0.15317901213210369 0 -0.42127399236650492 0.15770626544657529 0 -0.41302135350813218 0.1630654313638546 0 -0.42127399236650492 0.15770626544657529 0 -0.4216380035134229 0.16659483191912641 0 -0.41302135350813218 0.1630654313638546 0 -0.41235879422937732 0.17543682721938669 0 -0.4216380035134229 0.16659483191912641 0 -0.41302135350813218 0.1630654313638546 0 -0.41235879422937732 0.17543682721938669 0 -0.41302135350813218 0.1630654313638546 0 -0.40449990094882532 0.16792382984329149 0 -0.41302135350813218 0.1630654313638546 0 -0.40449990094882532 0.16792382984329149 0 -0.4044664398419977 0.15594807455379561 0 -0.41553858058260518 0.15317901213210369 0 -0.41302135350813218 0.1630654313638546 0 -0.4044664398419977 0.15594807455379561 0 -0.3926733654842145 0.1692345557408807 0 -0.4044664398419977 0.15594807455379561 0 -0.40449990094882532 0.16792382984329149 0 -0.3926733654842145 0.1692345557408807 0 -0.40078474618547688 0.17571320347163299 0 -0.40449990094882532 0.16792382984329149 0 -0.3926733654842145 0.1692345557408807 0 -0.4044664398419977 0.15594807455379561 0 -0.3926733654842145 0.1692345557408807 0 -0.39703941422577987 0.15748552694114659 0 -0.4044664398419977 0.15594807455379561 0 -0.40298680868332198 0.18508216307238631 0 -0.40078474618547688 0.17571320347163299 0 -0.39301525059178999 0.18044652774840561 0 -0.41235879422937732 0.17543682721938669 0 -0.40298680868332198 0.18508216307238631 0 -0.40078474618547688 0.17571320347163299 0 -0.41235879422937732 0.17543682721938669 0 -0.40449990094882532 0.16792382984329149 0 -0.40078474618547688 0.17571320347163299 0 -0.3926733654842145 0.1692345557408807 0 -0.40078474618547688 0.17571320347163299 0 -0.39301525059178999 0.18044652774840561 0 -0.39286614404695941 0.1920732104686422 0 -0.40298680868332198 0.18508216307238631 0 -0.39301525059178999 0.18044652774840561 0 -0.39286614404695941 0.1920732104686422 0 -0.39301525059178999 0.18044652774840561 0 -0.38088029112643113 0.1825210369279657 0 -0.3926733654842145 0.1692345557408807 0 -0.38088029112643113 0.1825210369279657 0 -0.3926733654842145 0.1692345557408807 0 -0.39301525059178999 0.18044652774840561 0 -0.38088029112643113 0.1825210369279657 0 -0.3926733654842145 0.1692345557408807 0 -0.37921940694751782 0.17343241172319571 0 -0.38088029112643113 0.1825210369279657 0 -0.37921940694751782 0.17343241172319571 0 -0.38088029112643113 0.1825210369279657 0 -0.37921940694751782 0.17343241172319571 0 -0.38088029112643113 0.1825210369279657 0 -0.37283571032282492 0.1791450959532255 0 -0.3784015845151173 0.16895715591276281 0 -0.37283571032282492 0.1791450959532255 0 -0.37921940694751782 0.17343241172319571 0 -0.3784015845151173 0.16895715591276281 0 -0.37283571032282492 0.1791450959532255 0 -0.37921940694751782 0.17343241172319571 0 -0.37283571032282492 0.1791450959532255 0 -0.39703941422577987 0.15748552694114659 0 -0.37921940694751782 0.17343241172319571 0 -0.38193020105096481 0.16249827228531991 0 -0.3784015845151173 0.16895715591276281 0 -0.38193020105096481 0.16249827228531991 0 -0.37372345991800282 0.14335770613522919 0 -0.39703941422577987 0.15748552694114659 0 -0.37921940694751782 0.17343241172319571 0 -0.3926733654842145 0.1692345557408807 0 -0.39703941422577987 0.15748552694114659 0 -0.37921940694751782 0.17343241172319571 0 -0.39703941422577987 0.15748552694114659 0 -0.38193020105096481 0.16249827228531991 0 -0.38598126975628672 0.1494316781992327 0 -0.37921940694751782 0.17343241172319571 0 -0.3784015845151173 0.16895715591276281 0 -0.38193020105096481 0.16249827228531991 0 -0.3784015845151173 0.16895715591276281 0 -0.38193020105096481 0.16249827228531991 0 -0.37921940694751782 0.17343241172319571 0 -0.3784015845151173 0.16895715591276281 0 -0.38598126975628672 0.1494316781992327 0 -0.39401402549175851 0.1361747599337243 0 -0.37372345991800282 0.14335770613522919 0 -0.38193020105096481 0.16249827228531991 0 -0.38598126975628672 0.1494316781992327 0 -0.37372345991800282 0.14335770613522919 0 -0.3784015845151173 0.16895715591276281 0 -0.37372345991800282 0.14335770613522919 0 -0.39703941422577987 0.15748552694114659 0 -0.38598126975628672 0.1494316781992327 0 -0.39401402549175851 0.1361747599337243 0 -0.41485942150404181 0.14153864215909739 0 -0.39703941422577987 0.15748552694114659 0 -0.39401402549175851 0.1361747599337243 0 -0.41485942150404181 0.14153864215909739 0 -0.39703941422577987 0.15748552694114659 0 -0.4044664398419977 0.15594807455379561 0 -0.41485942150404181 0.14153864215909739 0 -0.39703941422577987 0.15748552694114659 0 -0.40864304721671202 0.1107171055473533 0 -0.41485942150404181 0.14153864215909739 0 -0.39401402549175851 0.1361747599337243 0 -0.38750957741872682 0.11885909540365321 0 -0.37372345991800282 0.14335770613522919 0 -0.36904533532088801 0.1177582563576956 0 -0.38750957741872682 0.11885909540365321 0 -0.39401402549175851 0.1361747599337243 0 -0.37372345991800282 0.14335770613522919 0 -0.35823941519022368 0.13573745574644491 0 -0.37372345991800282 0.14335770613522919 0 -0.36904533532088801 0.1177582563576956 0 -0.37372345991800282 0.14335770613522919 0 -0.36904533532088801 0.1177582563576956 0 -0.35823941519022368 0.13573745574644491 0 -0.34455851703438989 0.13305210298766909 0 -0.35158166360451942 0.11704707172714621 0 -0.35823941519022368 0.13573745574644491 0 -0.34455851703438989 0.13305210298766909 0 -0.34873147585397152 0.15030858297792049 0 -0.35823941519022368 0.13573745574644491 0 -0.34873147585397152 0.15030858297792049 0 -0.36179603940957061 0.15290101429300901 0 -0.34873147585397152 0.15030858297792049 0 -0.34720568730415252 0.1616956217090188 0 -0.33647431770126862 0.14798842126345041 0 -0.34873147585397152 0.15030858297792049 0 -0.36179603940957061 0.15290101429300901 0 -0.35552330674067661 0.16014073544654131 0 -0.35823941519022368 0.13573745574644491 0 -0.36179603940957061 0.15290101429300901 0 -0.37372345991800282 0.14335770613522919 0 -0.3784015845151173 0.16895715591276281 0 -0.36179603940957061 0.15290101429300901 0 -0.37372345991800282 0.14335770613522919 0 -0.3784015845151173 0.16895715591276281 0 -0.36179603940957061 0.15290101429300901 0 -0.3628088848288224 0.16705289795690309 0 -0.3784015845151173 0.16895715591276281 0 -0.3628088848288224 0.16705289795690309 0 -0.36959790597703868 0.17377317275203899 0 -0.36179603940957061 0.15290101429300901 0 -0.3628088848288224 0.16705289795690309 0 -0.35552330674067661 0.16014073544654131 0 -0.38088029112643113 0.1825210369279657 0 -0.37283571032282492 0.1791450959532255 0 -0.36802074197771562 0.19700904511440151 0 -0.37283571032282492 0.1791450959532255 0 -0.36399845157591232 0.19532107462703119 0 -0.37283571032282492 0.1791450959532255 0 -0.36261880381503758 0.18828806813974089 0 -0.3784015845151173 0.16895715591276281 0 -0.36959790597703868 0.17377317275203899 0 -0.37283571032282492 0.1791450959532255 0 -0.36959790597703868 0.17377317275203899 0 -0.37283571032282492 0.1791450959532255 0 -0.36409588864576692 0.17933358541092431 0 -0.3628088848288224 0.16705289795690309 0 -0.36959790597703868 0.17377317275203899 0 -0.36409588864576692 0.17933358541092431 0 -0.3628088848288224 0.16705289795690309 0 -0.36409588864576692 0.17933358541092431 0 -0.35614161380151321 0.17761165346375071 0 -0.36409588864576692 0.17933358541092431 0 -0.35797279878738592 0.18411861580098379 0 -0.35614161380151321 0.17761165346375071 0 -0.36409588864576692 0.17933358541092431 0 -0.35797279878738592 0.18411861580098379 0 -0.36261880381503758 0.18828806813974089 0 -0.37283571032282492 0.1791450959532255 0 -0.36409588864576692 0.17933358541092431 0 -0.36261880381503758 0.18828806813974089 0 -0.35797279878738592 0.18411861580098379 0 -0.35614161380151321 0.17761165346375071 0 -0.35065229879255438 0.18593262723135329 0 -0.35797279878738592 0.18411861580098379 0 -0.35065229879255438 0.18593262723135329 0 -0.35645772166264922 0.19211102842263869 0 -0.35614161380151321 0.17761165346375071 0 -0.34811061985946878 0.17434540014992381 0 -0.35436851446084039 0.1683048517912053 0 -0.35614161380151321 0.17761165346375071 0 -0.34811061985946878 0.17434540014992381 0 -0.35065229879255438 0.18593262723135329 0 -0.35065229879255438 0.18593262723135329 0 -0.34227569468909552 0.1811403169530669 0 -0.33993633525554889 0.19055096072852831 0 -0.34811061985946878 0.17434540014992381 0 -0.35065229879255438 0.18593262723135329 0 -0.34227569468909552 0.1811403169530669 0 -0.35552330674067661 0.16014073544654131 0 -0.35436851446084039 0.1683048517912053 0 -0.34720568730415252 0.1616956217090188 0 -0.3628088848288224 0.16705289795690309 0 -0.35614161380151321 0.17761165346375071 0 -0.35436851446084039 0.1683048517912053 0 -0.3628088848288224 0.16705289795690309 0 -0.35552330674067661 0.16014073544654131 0 -0.35436851446084039 0.1683048517912053 0 -0.34811061985946878 0.17434540014992381 0 -0.34720568730415252 0.1616956217090188 0 -0.33801991010865667 0.17138732975114751 0 -0.34811061985946878 0.17434540014992381 0 -0.35436851446084039 0.1683048517912053 0 -0.34720568730415252 0.1616956217090188 0 -0.34873147585397152 0.15030858297792049 0 -0.35552330674067661 0.16014073544654131 0 -0.34720568730415252 0.1616956217090188 0 -0.34720568730415252 0.1616956217090188 0 -0.33801991010865667 0.17138732975114751 0 -0.33092539158612982 0.1609515407851054 0 -0.34720568730415252 0.1616956217090188 0 -0.33092539158612982 0.1609515407851054 0 -0.33647431770126862 0.14798842126345041 0 -0.33801991010865667 0.17138732975114751 0 -0.33092539158612982 0.1609515407851054 0 -0.3265778886375873 0.17202186172735501 0 -0.34227569468909552 0.1811403169530669 0 -0.33183788287013261 0.1831818366374682 0 -0.33993633525554889 0.19055096072852831 0 -0.34811061985946878 0.17434540014992381 0 -0.33801991010865667 0.17138732975114751 0 -0.34227569468909552 0.1811403169530669 0 -0.33801991010865667 0.17138732975114751 0 -0.34227569468909552 0.1811403169530669 0 -0.33183788287013261 0.1831818366374682 0 -0.33801991010865667 0.17138732975114751 0 -0.33183788287013261 0.1831818366374682 0 -0.3265778886375873 0.17202186172735501 0 -0.3265778886375873 0.17202186172735501 0 -0.31632076704925127 0.18575639557221951 0 -0.3167678101826048 0.16359462978275929 0 -0.33183788287013261 0.1831818366374682 0 -0.3265778886375873 0.17202186172735501 0 -0.31632076704925127 0.18575639557221951 0 -0.33092539158612982 0.1609515407851054 0 -0.3167678101826048 0.16359462978275929 0 -0.32050673558250908 0.1490213804769015 0 -0.33092539158612982 0.1609515407851054 0 -0.3265778886375873 0.17202186172735501 0 -0.3167678101826048 0.16359462978275929 0 -0.32050673558250908 0.1490213804769015 0 -0.30739524272803709 0.15185112365938391 0 -0.31211500736378339 0.1240031522641292 0 -0.3167678101826048 0.16359462978275929 0 -0.32050673558250908 0.1490213804769015 0 -0.30739524272803709 0.15185112365938391 0 -0.32050673558250908 0.1490213804769015 0 -0.30739524272803709 0.15185112365938391 0 -0.32919359534549508 0.13424827028365749 0 -0.31211500736378339 0.1240031522641292 0 -0.33231339904552459 0.1171762944261375 0 -0.32050673558250908 0.1490213804769015 0 -0.32919359534549508 0.13424827028365749 0 -0.31211500736378339 0.1240031522641292 0 -0.34455851703438989 0.13305210298766909 0 -0.32919359534549508 0.13424827028365749 0 -0.33231339904552459 0.1171762944261375 0 -0.34455851703438989 0.13305210298766909 0 -0.32919359534549508 0.13424827028365749 0 -0.33647431770126862 0.14798842126345041 0 -0.32050673558250908 0.1490213804769015 0 -0.32919359534549508 0.13424827028365749 0 -0.33647431770126862 0.14798842126345041 0 -0.33092539158612982 0.1609515407851054 0 -0.32050673558250908 0.1490213804769015 0 -0.33647431770126862 0.14798842126345041 0 -0.34455851703438989 0.13305210298766909 0 -0.34873147585397152 0.15030858297792049 0 -0.33647431770126862 0.14798842126345041 0 -0.35416421148584648 0.23888623464626721 0 -0.34843396418698602 0.22381077072877051 0 -0.33845336435013867 0.242079554605789 0 -0.35416421148584648 0.23888623464626721 0 -0.33845336435013867 0.242079554605789 0 -0.35464358931248319 0.25491115920099722 0 -0.37939186114838758 0.22424627805714001 0 -0.37013679196984273 0.23750613219799629 0 -0.37477717689163992 0.25299635056682518 0 -0.37013679196984273 0.23750613219799629 0 -0.35464358931248319 0.25491115920099722 0 -0.37477717689163992 0.25299635056682518 0 -0.35416421148584648 0.23888623464626721 0 -0.37013679196984273 0.23750613219799629 0 -0.35464358931248319 0.25491115920099722 0 -0.35416421148584648 0.23888623464626721 0 -0.37013679196984273 0.23750613219799629 0 -0.36148561266771267 0.2305011068434443 0 -0.36148561266771267 0.2305011068434443 0 -0.36975441169016687 0.228432664243616 0 -0.36800338097472479 0.22147713987588341 0 -0.37013679196984273 0.23750613219799629 0 -0.36148561266771267 0.2305011068434443 0 -0.36975441169016687 0.228432664243616 0 -0.37939186114838758 0.22424627805714001 0 -0.37013679196984273 0.23750613219799629 0 -0.36975441169016687 0.228432664243616 0 -0.37939186114838758 0.22424627805714001 0 -0.36975441169016687 0.228432664243616 0 -0.36800338097472479 0.22147713987588341 0 -0.36800338097472479 0.22147713987588341 0 -0.34843396418698602 0.22381077072877051 0 -0.35516119282899983 0.21149705330083701 0 -0.36148561266771267 0.2305011068434443 0 -0.36800338097472479 0.22147713987588341 0 -0.34843396418698602 0.22381077072877051 0 -0.36800338097472479 0.22147713987588341 0 -0.34843396418698602 0.22381077072877051 0 -0.35416421148584648 0.23888623464626721 0 -0.36148561266771267 0.2305011068434443 0 -0.34843396418698602 0.22381077072877051 0 -0.34843396418698602 0.22381077072877051 0 -0.34802604401402371 0.21953575615482759 0 -0.33982416592956399 0.21665757569738961 0 -0.34802604401402371 0.21953575615482759 0 -0.34581283434165899 0.20861347152532789 0 -0.33982416592956399 0.21665757569738961 0 -0.34802604401402371 0.21953575615482759 0 -0.34581283434165899 0.20861347152532789 0 -0.35516119282899983 0.21149705330083701 0 -0.34843396418698602 0.22381077072877051 0 -0.34802604401402371 0.21953575615482759 0 -0.35516119282899983 0.21149705330083701 0 -0.34581283434165899 0.20861347152532789 0 -0.35516119282899983 0.21149705330083701 0 -0.35389383475621161 0.20092716755479181 0 -0.34802604401402371 0.21953575615482759 0 -0.35516119282899983 0.21149705330083701 0 -0.34843396418698602 0.22381077072877051 0 -0.35516119282899983 0.21149705330083701 0 -0.36800338097472479 0.22147713987588341 0 -0.35516119282899983 0.21149705330083701 0 -0.37368745339656201 0.20924711939208951 0 -0.35516119282899983 0.21149705330083701 0 -0.37368745339656201 0.20924711939208951 0 -0.36802074197771562 0.19700904511440151 0 -0.35516119282899983 0.21149705330083701 0 -0.36399845157591232 0.19532107462703119 0 -0.35516119282899983 0.21149705330083701 0 -0.36802074197771562 0.19700904511440151 0 -0.37283571032282492 0.1791450959532255 0 -0.36399845157591232 0.19532107462703119 0 -0.36261880381503758 0.18828806813974089 0 -0.37283571032282492 0.1791450959532255 0 -0.36399845157591232 0.19532107462703119 0 -0.36802074197771562 0.19700904511440151 0 -0.35516119282899983 0.21149705330083701 0 -0.36399845157591232 0.19532107462703119 0 -0.36802074197771562 0.19700904511440151 0 -0.38088029112643113 0.1825210369279657 0 -0.36802074197771562 0.19700904511440151 0 -0.36399845157591232 0.19532107462703119 0 -0.36261880381503758 0.18828806813974089 0 -0.35645772166264922 0.19211102842263869 0 -0.35797279878738592 0.18411861580098379 0 -0.36261880381503758 0.18828806813974089 0 -0.35645772166264922 0.19211102842263869 0 -0.35065229879255438 0.18593262723135329 0 -0.35645772166264922 0.19211102842263869 0 -0.34803897337183792 0.19709320989812409 0 -0.35516119282899983 0.21149705330083701 0 -0.36399845157591232 0.19532107462703119 0 -0.35389383475621161 0.20092716755479181 0 -0.35645772166264922 0.19211102842263869 0 -0.35389383475621161 0.20092716755479181 0 -0.34803897337183792 0.19709320989812409 0 -0.36399845157591232 0.19532107462703119 0 -0.35645772166264922 0.19211102842263869 0 -0.35389383475621161 0.20092716755479181 0 -0.34581283434165899 0.20861347152532789 0 -0.35389383475621161 0.20092716755479181 0 -0.34803897337183792 0.19709320989812409 0 -0.34581283434165899 0.20861347152532789 0 -0.34803897337183792 0.19709320989812409 0 -0.33933674095816863 0.19971543786353729 0 -0.35065229879255438 0.18593262723135329 0 -0.34803897337183792 0.19709320989812409 0 -0.33993633525554889 0.19055096072852831 0 -0.33993633525554889 0.19055096072852831 0 -0.33933674095816863 0.19971543786353729 0 -0.33069942903629101 0.19625725860753851 0 -0.34803897337183792 0.19709320989812409 0 -0.33993633525554889 0.19055096072852831 0 -0.33933674095816863 0.19971543786353729 0 -0.33933674095816863 0.19971543786353729 0 -0.33069942903629101 0.19625725860753851 0 -0.33422481296465362 0.2080963853910347 0 -0.33183788287013261 0.1831818366374682 0 -0.33993633525554889 0.19055096072852831 0 -0.33069942903629101 0.19625725860753851 0 -0.31632076704925127 0.18575639557221951 0 -0.33069942903629101 0.19625725860753851 0 -0.32036655352850157 0.2095523693350691 0 -0.33183788287013261 0.1831818366374682 0 -0.31632076704925127 0.18575639557221951 0 -0.33069942903629101 0.19625725860753851 0 -0.32036655352850157 0.2095523693350691 0 -0.32458589997660492 0.2266546254550818 0 -0.30779163400160159 0.21927945841494459 0 -0.32036655352850157 0.2095523693350691 0 -0.32934906837639222 0.21536895119528529 0 -0.32458589997660492 0.2266546254550818 0 -0.32036655352850157 0.2095523693350691 0 -0.32934906837639222 0.21536895119528529 0 -0.33422481296465362 0.2080963853910347 0 -0.32934906837639222 0.21536895119528529 0 -0.33422481296465362 0.2080963853910347 0 -0.33982416592956399 0.21665757569738961 0 -0.33069942903629101 0.19625725860753851 0 -0.32036655352850157 0.2095523693350691 0 -0.33422481296465362 0.2080963853910347 0 -0.34581283434165899 0.20861347152532789 0 -0.33933674095816863 0.19971543786353729 0 -0.33422481296465362 0.2080963853910347 0 -0.34581283434165899 0.20861347152532789 0 -0.33422481296465362 0.2080963853910347 0 -0.33982416592956399 0.21665757569738961 0 -0.34843396418698602 0.22381077072877051 0 -0.33982416592956399 0.21665757569738961 0 -0.32458589997660492 0.2266546254550818 0 -0.34843396418698602 0.22381077072877051 0 -0.32458589997660492 0.2266546254550818 0 -0.34843396418698602 0.22381077072877051 0 -0.32458589997660492 0.2266546254550818 0 -0.33845336435013867 0.242079554605789 0 -0.34843396418698602 0.22381077072877051 0 -0.33845336435013867 0.242079554605789 0 -0.32934906837639222 0.21536895119528529 0 -0.33982416592956399 0.21665757569738961 0 -0.32458589997660492 0.2266546254550818 0 -0.32458589997660492 0.2266546254550818 0 -0.30073783576622393 0.22949848018139329 0 -0.32458589997660492 0.2266546254550818 0 -0.32455092720978362 0.24357057421839101 0 -0.31122576982003303 0.23714335435801151 0 -0.32455092720978362 0.24357057421839101 0 -0.311575650220281 0.24878047680599949 0 -0.31122576982003303 0.23714335435801151 0 -0.32458589997660492 0.2266546254550818 0 -0.32455092720978362 0.24357057421839101 0 -0.33845336435013867 0.242079554605789 0 -0.32455092720978362 0.24357057421839101 0 -0.33845336435013867 0.242079554605789 0 -0.32847276451329022 0.26034833848280681 0 -0.29310990672191722 0.23613872254877591 0 -0.29467853592727078 0.23721261512919359 0 -0.28985028671148488 0.25537141990030859 0 -0.29310990672191722 0.23613872254877591 0 -0.27131573767068418 0.22826101281380451 0 -0.28058301219108422 0.24181621635705669 0 -0.29310990672191722 0.23613872254877591 0 -0.28985028671148488 0.25537141990030859 0 -0.29310990672191722 0.23613872254877591 0 -0.28058301219108422 0.24181621635705669 0 -0.28985028671148488 0.25537141990030859 0 -0.28058301219108422 0.24181621635705669 0 -0.28985028671148488 0.25537141990030859 0 -0.29310990672191722 0.23613872254877591 0 -0.29467853592727078 0.23721261512919359 0 -0.29467853592727078 0.23721261512919359 0 -0.31122576982003303 0.23714335435801151 0 -0.30073783576622393 0.22949848018139329 0 -0.29467853592727078 0.23721261512919359 0 -0.311575650220281 0.24878047680599949 0 -0.31122576982003303 0.23714335435801151 0 -0.29467853592727078 0.23721261512919359 0 -0.311575650220281 0.24878047680599949 0 -0.29467853592727078 0.23721261512919359 0 -0.311575650220281 0.24878047680599949 0 -0.29523766041035199 0.26325150879709891 0 -0.32458589997660492 0.2266546254550818 0 -0.30073783576622393 0.22949848018139329 0 -0.30779163400160159 0.21927945841494459 0 -0.32458589997660492 0.2266546254550818 0 -0.31122576982003303 0.23714335435801151 0 -0.30073783576622393 0.22949848018139329 0 -0.30073783576622393 0.22949848018139329 0 -0.30779163400160159 0.21927945841494459 0 -0.29448167989639912 0.22804486553003031 0 -0.29310990672191722 0.23613872254877591 0 -0.29448167989639912 0.22804486553003031 0 -0.27369133376421262 0.22284465576077489 0 -0.29448167989639912 0.22804486553003031 0 -0.2838712618875629 0.21479465795795599 0 -0.27369133376421262 0.22284465576077489 0 -0.29448167989639912 0.22804486553003031 0 -0.29413635243235581 0.21196267741475219 0 -0.29310990672191722 0.23613872254877591 0 -0.27369133376421262 0.22284465576077489 0 -0.29467853592727078 0.23721261512919359 0 -0.30073783576622393 0.22949848018139329 0 -0.29448167989639912 0.22804486553003031 0 -0.29310990672191722 0.23613872254877591 0 -0.29467853592727078 0.23721261512919359 0 -0.29448167989639912 0.22804486553003031 0 -0.29467853592727078 0.23721261512919359 0 -0.29448167989639912 0.22804486553003031 0 -0.29310990672191722 0.23613872254877591 0 -0.29448167989639912 0.22804486553003031 0 -0.29413635243235581 0.21196267741475219 0 -0.29878620084027852 0.20264695157314819 0 -0.29379102496831272 0.19588048929947419 0 -0.29448167989639912 0.22804486553003031 0 -0.29413635243235581 0.21196267741475219 0 -0.29878620084027852 0.20264695157314819 0 -0.29448167989639912 0.22804486553003031 0 -0.29878620084027852 0.20264695157314819 0 -0.29413635243235581 0.21196267741475219 0 -0.29379102496831272 0.19588048929947419 0 -0.28522308967114912 0.20452327137286261 0 -0.29413635243235581 0.21196267741475219 0 -0.29379102496831272 0.19588048929947419 0 -0.29448167989639912 0.22804486553003031 0 -0.2838712618875629 0.21479465795795599 0 -0.29413635243235581 0.21196267741475219 0 -0.2838712618875629 0.21479465795795599 0 -0.28522308967114912 0.20452327137286261 0 -0.29413635243235581 0.21196267741475219 0 -0.32036655352850157 0.2095523693350691 0 -0.30779163400160159 0.21927945841494459 0 -0.29878620084027852 0.20264695157314819 0 -0.30779163400160159 0.21927945841494459 0 -0.29448167989639912 0.22804486553003031 0 -0.29878620084027852 0.20264695157314819 0 -0.29878620084027852 0.20264695157314819 0 -0.29379102496831272 0.19588048929947419 0 -0.30309072178415769 0.17724903761626601 0 -0.31632076704925127 0.18575639557221951 0 -0.29878620084027852 0.20264695157314819 0 -0.30309072178415769 0.17724903761626601 0 -0.31632076704925127 0.18575639557221951 0 -0.32036655352850157 0.2095523693350691 0 -0.29878620084027852 0.20264695157314819 0 -0.29878620084027852 0.20264695157314819 0 -0.30309072178415769 0.17724903761626601 0 -0.28522308967114912 0.20452327137286261 0 -0.29379102496831272 0.19588048929947419 0 -0.28124953787461371 0.1935735916895788 0 -0.29379102496831272 0.19588048929947419 0 -0.28124953787461371 0.1935735916895788 0 -0.28752446549241689 0.1832489647230989 0 -0.28124953787461371 0.1935735916895788 0 -0.2659766044530758 0.19238405035351089 0 -0.27494974420821611 0.1793112011395637 0 -0.28522308967114912 0.20452327137286261 0 -0.28124953787461371 0.1935735916895788 0 -0.27431068871210279 0.20621206129374381 0 -0.28124953787461371 0.1935735916895788 0 -0.2659766044530758 0.19238405035351089 0 -0.27431068871210279 0.20621206129374381 0 -0.25427276080650663 0.20955058897277601 0 -0.24947341468037071 0.1874691479585941 0 -0.2659766044530758 0.19238405035351089 0 -0.25427276080650663 0.20955058897277601 0 -0.24947341468037071 0.1874691479585941 0 -0.2659766044530758 0.19238405035351089 0 -0.25427276080650663 0.20955058897277601 0 -0.27431068871210279 0.20621206129374381 0 -0.25427276080650663 0.20955058897277601 0 -0.27369133376421262 0.22284465576077489 0 -0.25427276080650663 0.20955058897277601 0 -0.25977281016601761 0.2185578892770178 0 -0.27369133376421262 0.22284465576077489 0 -0.25427276080650663 0.20955058897277601 0 -0.25561524088587501 0.21572724177218369 0 -0.25977281016601761 0.2185578892770178 0 -0.25427276080650663 0.20955058897277601 0 -0.25561524088587501 0.21572724177218369 0 -0.24333230173327219 0.21221501244476959 0 -0.25427276080650663 0.20955058897277601 0 -0.25561524088587501 0.21572724177218369 0 -0.25427276080650663 0.20955058897277601 0 -0.27431068871210279 0.20621206129374381 0 -0.27369133376421262 0.22284465576077489 0 -0.2838712618875629 0.21479465795795599 0 -0.27431068871210279 0.20621206129374381 0 -0.27369133376421262 0.22284465576077489 0 -0.2838712618875629 0.21479465795795599 0 -0.28522308967114912 0.20452327137286261 0 -0.27431068871210279 0.20621206129374381 0 -0.29310990672191722 0.23613872254877591 0 -0.27369133376421262 0.22284465576077489 0 -0.27131573767068418 0.22826101281380451 0 -0.27131573767068418 0.22826101281380451 0 -0.26439065681250729 0.2289784260688752 0 -0.26819560602517328 0.23507842756581021 0 -0.27131573767068418 0.22826101281380451 0 -0.26675876456119929 0.22568570462696191 0 -0.26439065681250729 0.2289784260688752 0 -0.27369133376421262 0.22284465576077489 0 -0.26675876456119929 0.22568570462696191 0 -0.26371349664181459 0.22286429712754721 0 -0.25977281016601761 0.2185578892770178 0 -0.27369133376421262 0.22284465576077489 0 -0.26371349664181459 0.22286429712754721 0 -0.27369133376421262 0.22284465576077489 0 -0.27131573767068418 0.22826101281380451 0 -0.26675876456119929 0.22568570462696191 0 -0.26675876456119929 0.22568570462696191 0 -0.26371349664181459 0.22286429712754721 0 -0.26068259791677789 0.22548013136380779 0 -0.26068259791677789 0.22548013136380779 0 -0.25678634991227811 0.22260498734460241 0 -0.2574101570832959 0.22971939663687391 0 -0.26371349664181459 0.22286429712754721 0 -0.26068259791677789 0.22548013136380779 0 -0.25678634991227811 0.22260498734460241 0 -0.25977281016601761 0.2185578892770178 0 -0.26371349664181459 0.22286429712754721 0 -0.25678634991227811 0.22260498734460241 0 -0.25561524088587501 0.21572724177218369 0 -0.25977281016601761 0.2185578892770178 0 -0.25678634991227811 0.22260498734460241 0 -0.25678634991227811 0.22260498734460241 0 -0.249817319625419 0.2274340479663062 0 -0.24904636230289101 0.22050689045355901 0 -0.25561524088587501 0.21572724177218369 0 -0.25678634991227811 0.22260498734460241 0 -0.24904636230289101 0.22050689045355901 0 -0.25109603964961891 0.234366577265785 0 -0.2574101570832959 0.22971939663687391 0 -0.249817319625419 0.2274340479663062 0 -0.25678634991227811 0.22260498734460241 0 -0.2574101570832959 0.22971939663687391 0 -0.249817319625419 0.2274340479663062 0 -0.2574101570832959 0.22971939663687391 0 -0.26439065681250729 0.2289784260688752 0 -0.26193406046231932 0.2344272911270443 0 -0.26068259791677789 0.22548013136380779 0 -0.2574101570832959 0.22971939663687391 0 -0.26439065681250729 0.2289784260688752 0 -0.26675876456119929 0.22568570462696191 0 -0.26068259791677789 0.22548013136380779 0 -0.26439065681250729 0.2289784260688752 0 -0.26439065681250729 0.2289784260688752 0 -0.26193406046231932 0.2344272911270443 0 -0.26819560602517328 0.23507842756581021 0 -0.26193406046231932 0.2344272911270443 0 -0.26614348890836192 0.24293385421211869 0 -0.26819560602517328 0.23507842756581021 0 -0.2574101570832959 0.22971939663687391 0 -0.26193406046231932 0.2344272911270443 0 -0.25699538715464082 0.23905233796863981 0 -0.26193406046231932 0.2344272911270443 0 -0.25699538715464082 0.23905233796863981 0 -0.26614348890836192 0.24293385421211869 0 -0.25109603964961891 0.234366577265785 0 -0.25699538715464082 0.23905233796863981 0 -0.2470081454867771 0.2422065880623451 0 -0.25109603964961891 0.234366577265785 0 -0.2574101570832959 0.22971939663687391 0 -0.25699538715464082 0.23905233796863981 0 -0.25699538715464082 0.23905233796863981 0 -0.25693865295534157 0.25278860643768353 0 -0.2470081454867771 0.2422065880623451 0 -0.25699538715464082 0.23905233796863981 0 -0.26614348890836192 0.24293385421211869 0 -0.25693865295534157 0.25278860643768353 0 -0.26614348890836192 0.24293385421211869 0 -0.2724296921133022 0.25217156250687062 0 -0.25693865295534157 0.25278860643768353 0 -0.26614348890836192 0.24293385421211869 0 -0.28058301219108422 0.24181621635705669 0 -0.2724296921133022 0.25217156250687062 0 -0.28058301219108422 0.24181621635705669 0 -0.28985028671148488 0.25537141990030859 0 -0.2724296921133022 0.25217156250687062 0 -0.26614348890836192 0.24293385421211869 0 -0.26819560602517328 0.23507842756581021 0 -0.28058301219108422 0.24181621635705669 0 -0.27131573767068418 0.22826101281380451 0 -0.26819560602517328 0.23507842756581021 0 -0.28058301219108422 0.24181621635705669 0 -0.27131573767068418 0.22826101281380451 0 -0.28058301219108422 0.24181621635705669 0 -0.29326612220823411 0.13512644163735801 0 -0.28648818467010168 0.15636331808772699 0 -0.27141175194646833 0.1445184244171912 0 -0.29326612220823411 0.13512644163735801 0 -0.30739524272803709 0.15185112365938391 0 -0.28648818467010168 0.15636331808772699 0 -0.30739524272803709 0.15185112365938391 0 -0.31211500736378339 0.1240031522641292 0 -0.29326612220823411 0.13512644163735801 0 -0.30739524272803709 0.15185112365938391 0 -0.31211500736378339 0.1240031522641292 0 -0.30739524272803709 0.15185112365938391 0 -0.28648818467010168 0.15636331808772699 0 -0.30739524272803709 0.15185112365938391 0 -0.30309072178415769 0.17724903761626601 0 -0.3167678101826048 0.16359462978275929 0 -0.30739524272803709 0.15185112365938391 0 -0.30309072178415769 0.17724903761626601 0 -0.30739524272803709 0.15185112365938391 0 -0.30309072178415769 0.17724903761626601 0 -0.28648818467010168 0.15636331808772699 0 -0.31632076704925127 0.18575639557221951 0 -0.3167678101826048 0.16359462978275929 0 -0.30309072178415769 0.17724903761626601 0 -0.30309072178415769 0.17724903761626601 0 -0.28752446549241689 0.1832489647230989 0 -0.28381669143151822 0.17107272026056419 0 -0.29379102496831272 0.19588048929947419 0 -0.30309072178415769 0.17724903761626601 0 -0.28752446549241689 0.1832489647230989 0 -0.28752446549241689 0.1832489647230989 0 -0.28381669143151822 0.17107272026056419 0 -0.27494974420821611 0.1793112011395637 0 -0.30309072178415769 0.17724903761626601 0 -0.28648818467010168 0.15636331808772699 0 -0.28381669143151822 0.17107272026056419 0 -0.28648818467010168 0.15636331808772699 0 -0.28381669143151822 0.17107272026056419 0 -0.26558112661216632 0.16087551251606999 0 -0.28381669143151822 0.17107272026056419 0 -0.27494974420821611 0.1793112011395637 0 -0.26558112661216632 0.16087551251606999 0 -0.28648818467010168 0.15636331808772699 0 -0.26558112661216632 0.16087551251606999 0 -0.27494974420821611 0.1793112011395637 0 -0.26084394980388648 0.17618123618614701 0 -0.26558112661216632 0.16087551251606999 0 -0.2659766044530758 0.19238405035351089 0 -0.27494974420821611 0.1793112011395637 0 -0.26084394980388648 0.17618123618614701 0 -0.28124953787461371 0.1935735916895788 0 -0.28752446549241689 0.1832489647230989 0 -0.27494974420821611 0.1793112011395637 0 -0.2659766044530758 0.19238405035351089 0 -0.26084394980388648 0.17618123618614701 0 -0.24947341468037071 0.1874691479585941 0 -0.26084394980388648 0.17618123618614701 0 -0.24467406855423091 0.1653877069444131 0 -0.24947341468037071 0.1874691479585941 0 -0.26558112661216632 0.16087551251606999 0 -0.24467406855423091 0.1653877069444131 0 -0.26558112661216632 0.16087551251606999 0 -0.2543915534089356 0.15018751405662761 0 -0.24467406855423091 0.1653877069444131 0 -0.26084394980388648 0.17618123618614701 0 -0.26558112661216632 0.16087551251606999 0 -0.24467406855423091 0.1653877069444131 0 -0.26558112661216632 0.16087551251606999 0 -0.2543915534089356 0.15018751405662761 0 -0.27141175194646833 0.1445184244171912 0 -0.2543915534089356 0.15018751405662761 0 -0.27141175194646833 0.1445184244171912 0 -0.25477231595188199 0.13792181725732239 0 -0.28648818467010168 0.15636331808772699 0 -0.26558112661216632 0.16087551251606999 0 -0.27141175194646833 0.1445184244171912 0 -0.29326612220823411 0.13512644163735801 0 -0.27141175194646833 0.1445184244171912 0 -0.27545980130109921 0.1239996051278405 0 -0.27141175194646833 0.1445184244171912 0 -0.25477231595188199 0.13792181725732239 0 -0.27545980130109921 0.1239996051278405 0 -0.25477231595188199 0.13792181725732239 0 -0.27545980130109921 0.1239996051278405 0 -0.25477231595188199 0.13792181725732239 0 -0.27545980130109921 0.1239996051278405 0 -0.2495823492922267 0.12121763785839371 0 -0.25610310449345419 0.1041046972302731 0 -0.27545980130109921 0.1239996051278405 0 -0.2495823492922267 0.12121763785839371 0 -0.25610310449345419 0.1041046972302731 0 -0.25413031243694739 0.089521027236778197 0 -0.2427234934652894 0.090762762990284518 0 -0.25610310449345419 0.1041046972302731 0 -0.26471001572300679 0.091779207982481292 0 -0.25413031243694739 0.089521027236778197 0 -0.25610310449345419 0.1041046972302731 0 -0.27632390472144541 0.10600366135062909 0 -0.26471001572300679 0.091779207982481292 0 -0.27632390472144541 0.10600366135062909 0 -0.27815219556391091 0.091433986845849968 0 -0.26471001572300679 0.091779207982481292 0 -0.27632390472144541 0.10600366135062909 0 -0.28783094919658059 0.096999283795453681 0 -0.27815219556391091 0.091433986845849968 0 -0.25610310449345419 0.1041046972302731 0 -0.27632390472144541 0.10600366135062909 0 -0.27545980130109921 0.1239996051278405 0 -0.27545980130109921 0.1239996051278405 0 -0.29614728665031642 0.1100773929983587 0 -0.29326612220823411 0.13512644163735801 0 -0.27545980130109921 0.1239996051278405 0 -0.29614728665031642 0.1100773929983587 0 -0.27632390472144541 0.10600366135062909 0 -0.27545980130109921 0.1239996051278405 0 -0.29614728665031642 0.1100773929983587 0 -0.27632390472144541 0.10600366135062909 0 -0.29614728665031642 0.1100773929983587 0 -0.28783094919658059 0.096999283795453681 0 -0.29614728665031642 0.1100773929983587 0 -0.28783094919658059 0.096999283795453681 0 -0.29903425758953422 0.090155638130954882 0 -0.29614728665031642 0.1100773929983587 0 -0.29903425758953422 0.090155638130954882 0 -0.31683477199953253 0.096155180868875256 0 -0.29614728665031642 0.1100773929983587 0 -0.31683477199953253 0.096155180868875256 0 -0.29614728665031642 0.1100773929983587 0 -0.31211500736378339 0.1240031522641292 0 -0.31683477199953253 0.096155180868875256 0 -0.29326612220823411 0.13512644163735801 0 -0.29614728665031642 0.1100773929983587 0 -0.31211500736378339 0.1240031522641292 0 -0.30635830999651792 0.07761242167179265 0 -0.30189037325813839 0.060543452134012458 0 -0.32146679815367007 0.068824891797761426 0 -0.30635830999651792 0.07761242167179265 0 -0.29256534898171721 0.072382945427359638 0 -0.30189037325813839 0.060543452134012458 0 -0.30635830999651792 0.07761242167179265 0 -0.29903425758953422 0.090155638130954882 0 -0.29256534898171721 0.072382945427359638 0 -0.30635830999651792 0.07761242167179265 0 -0.29903425758953422 0.090155638130954882 0 -0.31683477199953253 0.096155180868875256 0 -0.29903425758953422 0.090155638130954882 0 -0.28572263353681682 0.08337299634339973 0 -0.29256534898171721 0.072382945427359638 0 -0.28783094919658059 0.096999283795453681 0 -0.29903425758953422 0.090155638130954882 0 -0.28572263353681682 0.08337299634339973 0 -0.28783094919658059 0.096999283795453681 0 -0.28572263353681682 0.08337299634339973 0 -0.27815219556391091 0.091433986845849968 0 -0.28572263353681682 0.08337299634339973 0 -0.29256534898171721 0.072382945427359638 0 -0.28059357561043269 0.073644623599786935 0 -0.29256534898171721 0.072382945427359638 0 -0.29088471103165969 0.062671374321780771 0 -0.30189037325813839 0.060543452134012458 0 -0.29256534898171721 0.072382945427359638 0 -0.29088471103165969 0.062671374321780771 0 -0.28261649390190829 0.064291953838756216 0 -0.29256534898171721 0.072382945427359638 0 -0.28261649390190829 0.064291953838756216 0 -0.28059357561043269 0.073644623599786935 0 -0.28261649390190829 0.064291953838756216 0 -0.27678196032587499 0.069585006034529676 0 -0.27195195811963518 0.06635492754641531 0 -0.26855373331756138 0.063547936276670339 0 -0.27195195811963518 0.06635492754641531 0 -0.25743728825439521 0.07924270920583569 0 -0.28261649390190829 0.064291953838756216 0 -0.27678196032587499 0.069585006034529676 0 -0.28059357561043269 0.073644623599786935 0 -0.27678196032587499 0.069585006034529676 0 -0.27196581367152378 0.074048519153160283 0 -0.27195195811963518 0.06635492754641531 0 -0.27678196032587499 0.069585006034529676 0 -0.28059357561043269 0.073644623599786935 0 -0.27196581367152378 0.074048519153160283 0 -0.28059357561043269 0.073644623599786935 0 -0.27196581367152378 0.074048519153160283 0 -0.27303575277029413 0.081855029780232597 0 -0.27196581367152378 0.074048519153160283 0 -0.27195195811963518 0.06635492754641531 0 -0.25743728825439521 0.07924270920583569 0 -0.28572263353681682 0.08337299634339973 0 -0.27815219556391091 0.091433986845849968 0 -0.27303575277029413 0.081855029780232597 0 -0.28572263353681682 0.08337299634339973 0 -0.28059357561043269 0.073644623599786935 0 -0.27303575277029413 0.081855029780232597 0 -0.27196581367152378 0.074048519153160283 0 -0.27303575277029413 0.081855029780232597 0 -0.25743728825439521 0.07924270920583569 0 -0.27815219556391091 0.091433986845849968 0 -0.27303575277029413 0.081855029780232597 0 -0.26471001572300679 0.091779207982481292 0 -0.26471001572300679 0.091779207982481292 0 -0.25743728825439521 0.07924270920583569 0 -0.25413031243694739 0.089521027236778197 0 -0.27303575277029413 0.081855029780232597 0 -0.26471001572300679 0.091779207982481292 0 -0.25743728825439521 0.07924270920583569 0 -0.25743728825439521 0.07924270920583569 0 -0.25064083865024739 0.073628726666345984 0 -0.24857020570659841 0.081659589420377987 0 -0.25743728825439521 0.07924270920583569 0 -0.25413031243694739 0.089521027236778197 0 -0.24857020570659841 0.081659589420377987 0 -0.26855373331756138 0.063547936276670339 0 -0.25743728825439521 0.07924270920583569 0 -0.25064083865024739 0.073628726666345984 0 -0.26855373331756138 0.063547936276670339 0 -0.25064083865024739 0.073628726666345984 0 -0.2562734301216873 0.062061687155910393 0 -0.26855373331756138 0.063547936276670339 0 -0.25064083865024739 0.073628726666345984 0 -0.27195195811963518 0.06635492754641531 0 -0.25743728825439521 0.07924270920583569 0 -0.25064083865024739 0.073628726666345984 0 -0.2562734301216873 0.062061687155910393 0 -0.24829977196364941 0.065213336215906109 0 -0.2623477931936597 0.053657636987073307 0 -0.25116276906762952 0.054241108780248931 0 -0.26153642505613889 0.036367366133998442 0 -0.2562734301216873 0.062061687155910393 0 -0.2623477931936597 0.053657636987073307 0 -0.25116276906762952 0.054241108780248931 0 -0.2562734301216873 0.062061687155910393 0 -0.25116276906762952 0.054241108780248931 0 -0.24829977196364941 0.065213336215906109 0 -0.26855373331756138 0.063547936276670339 0 -0.2562734301216873 0.062061687155910393 0 -0.2623477931936597 0.053657636987073307 0 -0.25116276906762952 0.054241108780248931 0 -0.26153642505613889 0.036367366133998442 0 -0.239388393447095 0.04766651035075449 0 -0.2623477931936597 0.053657636987073307 0 -0.26153642505613889 0.036367366133998442 0 -0.27323710809808138 0.049716314049096537 0 -0.26153642505613889 0.036367366133998442 0 -0.28732673365434691 0.040933413293477772 0 -0.26153642505613889 0.036367366133998442 0 -0.2825074511423824 0.030310297232740709 0 -0.28732673365434691 0.040933413293477772 0 -0.26153642505613889 0.036367366133998442 0 -0.27323710809808138 0.049716314049096537 0 -0.28732673365434691 0.040933413293477772 0 -0.26855373331756138 0.063547936276670339 0 -0.27195195811963518 0.06635492754641531 0 -0.28646662798487532 0.053467145886994819 0 -0.26855373331756138 0.063547936276670339 0 -0.28646662798487532 0.053467145886994819 0 -0.26855373331756138 0.063547936276670339 0 -0.27323710809808138 0.049716314049096537 0 -0.28646662798487532 0.053467145886994819 0 -0.27195195811963518 0.06635492754641531 0 -0.28646662798487532 0.053467145886994819 0 -0.28261649390190829 0.064291953838756216 0 -0.27195195811963518 0.06635492754641531 0 -0.28646662798487532 0.053467145886994819 0 -0.26855373331756138 0.063547936276670339 0 -0.2623477931936597 0.053657636987073307 0 -0.27323710809808138 0.049716314049096537 0 -0.26176261374782622 0.0098260211376069873 0 -0.24854849079604721 0.020569936005881421 0 -0.24598119983726671 0.0037338506766126851 0 -0.26003022337954462 -0.0038093911555793728 0 -0.26176261374782622 0.0098260211376069873 0 -0.24598119983726671 0.0037338506766126851 0 -0.26003022337954462 -0.0038093911555793728 0 -0.27433688946420332 -0.0007833753365484626 0 -0.26176261374782622 0.0098260211376069873 0 -0.26153642505613889 0.036367366133998442 0 -0.26176261374782622 0.0098260211376069873 0 -0.24854849079604721 0.020569936005881421 0 -0.26153642505613889 0.036367366133998442 0 -0.26176261374782622 0.0098260211376069873 0 -0.27684491432135683 0.017453585025194441 0 -0.26153642505613889 0.036367366133998442 0 -0.27684491432135683 0.017453585025194441 0 -0.2825074511423824 0.030310297232740709 0 -0.27433688946420332 -0.0007833753365484626 0 -0.26176261374782622 0.0098260211376069873 0 -0.27684491432135683 0.017453585025194441 0 -0.27433688946420332 -0.0007833753365484626 0 -0.27684491432135683 0.017453585025194441 0 -0.28842838408131971 0.0076205693905790281 0 -0.28842838408131971 0.0076205693905790281 0 -0.29131927560690712 0.022062190579302341 0 -0.29989828236451899 0.011495108916467369 0 -0.27684491432135683 0.017453585025194441 0 -0.29131927560690712 0.022062190579302341 0 -0.2825074511423824 0.030310297232740709 0 -0.27684491432135683 0.017453585025194441 0 -0.28842838408131971 0.0076205693905790281 0 -0.29131927560690712 0.022062190579302341 0 -0.29131927560690712 0.022062190579302341 0 -0.2825074511423824 0.030310297232740709 0 -0.29550990707316249 0.034734931131730561 0 -0.29131927560690712 0.022062190579302341 0 -0.30587597075389272 0.02137954460474218 0 -0.29550990707316249 0.034734931131730561 0 -0.30587597075389272 0.02137954460474218 0 -0.29550990707316249 0.034734931131730561 0 -0.30859873922341308 0.03381572977126493 0 -0.29131927560690712 0.022062190579302341 0 -0.30587597075389272 0.02137954460474218 0 -0.29989828236451899 0.011495108916467369 0 -0.3025805037907468 -0.0027432771802810229 0 -0.3204068892458079 -0.0014125807301150939 0 -0.31128727758972891 0.0091565171879943417 0 -0.30587597075389272 0.02137954460474218 0 -0.29989828236451899 0.011495108916467369 0 -0.31128727758972891 0.0091565171879943417 0 -0.3025805037907468 -0.0027432771802810229 0 -0.29989828236451899 0.011495108916467369 0 -0.31128727758972891 0.0091565171879943417 0 -0.3025805037907468 -0.0027432771802810229 0 -0.28842838408131971 0.0076205693905790281 0 -0.29989828236451899 0.011495108916467369 0 -0.28646662798487532 0.053467145886994819 0 -0.304010183261538 0.043594207608826187 0 -0.29088471103165969 0.062671374321780771 0 -0.28646662798487532 0.053467145886994819 0 -0.30189037325813839 0.060543452134012458 0 -0.29088471103165969 0.062671374321780771 0 -0.28261649390190829 0.064291953838756216 0 -0.28646662798487532 0.053467145886994819 0 -0.27323710809808138 0.049716314049096537 0 -0.28646662798487532 0.053467145886994819 0 -0.28732673365434691 0.040933413293477772 0 -0.28646662798487532 0.053467145886994819 0 -0.29550990707316249 0.034734931131730561 0 -0.30859873922341308 0.03381572977126493 0 -0.28646662798487532 0.053467145886994819 0 -0.28732673365434691 0.040933413293477772 0 -0.29550990707316249 0.034734931131730561 0 -0.2825074511423824 0.030310297232740709 0 -0.28732673365434691 0.040933413293477772 0 -0.29550990707316249 0.034734931131730561 0 -0.28646662798487532 0.053467145886994819 0 -0.30859873922341308 0.03381572977126493 0 -0.28646662798487532 0.053467145886994819 0 -0.304010183261538 0.043594207608826187 0 -0.30859873922341308 0.03381572977126493 0 -0.304010183261538 0.043594207608826187 0 -0.30859873922341308 0.03381572977126493 0 -0.32155373853820057 0.033721269330657687 0 -0.304010183261538 0.043594207608826187 0 -0.3137915997446068 0.051476736654279882 0 -0.31549181974187701 0.042926529004151233 0 -0.28646662798487532 0.053467145886994819 0 -0.304010183261538 0.043594207608826187 0 -0.30189037325813839 0.060543452134012458 0 -0.30189037325813839 0.060543452134012458 0 -0.3137915997446068 0.051476736654279882 0 -0.32146679815367007 0.068824891797761426 0 -0.304010183261538 0.043594207608826187 0 -0.30189037325813839 0.060543452134012458 0 -0.3137915997446068 0.051476736654279882 0 -0.3137915997446068 0.051476736654279882 0 -0.32609882430781029 0.041494602726648067 0 -0.32146679815367007 0.068824891797761426 0 -0.32609882430781029 0.041494602726648067 0 -0.32146679815367007 0.068824891797761426 0 -0.3137915997446068 0.051476736654279882 0 -0.31549181974187701 0.042926529004151233 0 -0.32609882430781029 0.041494602726648067 0 -0.304010183261538 0.043594207608826187 0 -0.31549181974187701 0.042926529004151233 0 -0.32155373853820057 0.033721269330657687 0 -0.304010183261538 0.043594207608826187 0 -0.32155373853820057 0.033721269330657687 0 -0.31549181974187701 0.042926529004151233 0 -0.32155373853820057 0.033721269330657687 0 -0.32609882430781029 0.041494602726648067 0 -0.32609882430781029 0.041494602726648067 0 -0.34385517732675519 0.031131612817745031 0 -0.35163198926140088 0.046228739452983239 0 -0.32609882430781029 0.041494602726648067 0 -0.338272543408071 0.060603673933957783 0 -0.32146679815367007 0.068824891797761426 0 -0.32609882430781029 0.041494602726648067 0 -0.338272543408071 0.060603673933957783 0 -0.35163198926140088 0.046228739452983239 0 -0.3204068892458079 -0.0014125807301150939 0 -0.31128727758972891 0.0091565171879943417 0 -0.33073085046195078 0.01416431365553468 0 -0.30587597075389272 0.02137954460474218 0 -0.31128727758972891 0.0091565171879943417 0 -0.33073085046195078 0.01416431365553468 0 -0.30859873922341308 0.03381572977126493 0 -0.33073085046195078 0.01416431365553468 0 -0.30587597075389272 0.02137954460474218 0 -0.30859873922341308 0.03381572977126493 0 -0.33073085046195078 0.01416431365553468 0 -0.32155373853820057 0.033721269330657687 0 -0.32609882430781029 0.041494602726648067 0 -0.33073085046195078 0.01416431365553468 0 -0.30859873922341308 0.03381572977126493 0 -0.32155373853820057 0.033721269330657687 0 -0.33073085046195078 0.01416431365553468 0 -0.32609882430781029 0.041494602726648067 0 -0.33073085046195078 0.01416431365553468 0 -0.33073085046195078 0.01416431365553468 0 -0.34385517732675519 0.031131612817745031 0 -0.35381837275022032 0.01853105722209741 0 -0.32609882430781029 0.041494602726648067 0 -0.33073085046195078 0.01416431365553468 0 -0.34385517732675519 0.031131612817745031 0 -0.33540629353460438 -0.01342214774580049 0 -0.33073085046195078 0.01416431365553468 0 -0.35221409618436439 -0.0049109655465913588 0 -0.33073085046195078 0.01416431365553468 0 -0.35221409618436439 -0.0049109655465913588 0 -0.34857824671955512 -0.007874197240844389 0 -0.33073085046195078 0.01416431365553468 0 -0.35221409618436439 -0.0049109655465913588 0 -0.33073085046195078 0.01416431365553468 0 -0.34939877662876639 0.0070576099193848619 0 -0.33073085046195078 0.01416431365553468 0 -0.34939877662876639 0.0070576099193848619 0 -0.35381837275022032 0.01853105722209741 0 -0.35900139338342918 0.0020097317905480609 0 -0.34939877662876639 0.0070576099193848619 0 -0.35834074471334648 0.0096788928264882005 0 -0.35509488683577939 -0.0004162838960613095 0 -0.35900139338342918 0.0020097317905480609 0 -0.34939877662876639 0.0070576099193848619 0 -0.35509488683577939 -0.0004162838960613095 0 -0.35221409618436439 -0.0049109655465913588 0 -0.34939877662876639 0.0070576099193848619 0 -0.34939877662876639 0.0070576099193848619 0 -0.35834074471334648 0.0096788928264882005 0 -0.35381837275022032 0.01853105722209741 0 -0.34385517732675519 0.031131612817745031 0 -0.35381837275022032 0.01853105722209741 0 -0.36551724687399623 0.028318485711261141 0 -0.37937813184432773 0.031366277704107569 0 -0.36551724687399623 0.028318485711261141 0 -0.37479293228070759 0.022502646493578662 0 -0.36551724687399623 0.028318485711261141 0 -0.37479293228070759 0.022502646493578662 0 -0.36730783543836809 0.01519693074799966 0 -0.3778438638662554 0.014761087644765769 0 -0.37479293228070759 0.022502646493578662 0 -0.36730783543836809 0.01519693074799966 0 -0.35381837275022032 0.01853105722209741 0 -0.36551724687399623 0.028318485711261141 0 -0.36730783543836809 0.01519693074799966 0 -0.35834074471334648 0.0096788928264882005 0 -0.36730783543836809 0.01519693074799966 0 -0.36603012090457948 0.0050917054244422654 0 -0.35834074471334648 0.0096788928264882005 0 -0.35381837275022032 0.01853105722209741 0 -0.36730783543836809 0.01519693074799966 0 -0.36730783543836809 0.01519693074799966 0 -0.37464316483836829 0.0066416053135349984 0 -0.36603012090457948 0.0050917054244422654 0 -0.3778438638662554 0.014761087644765769 0 -0.36730783543836809 0.01519693074799966 0 -0.37464316483836829 0.0066416053135349984 0 -0.37126952376897032 -0.00085078512189483576 0 -0.37774077980655368 -0.001289555558904682 0 -0.37464316483836829 0.0066416053135349984 0 -0.37126952376897032 -0.00085078512189483576 0 -0.37464316483836829 0.0066416053135349984 0 -0.36603012090457948 0.0050917054244422654 0 -0.37126952376897032 -0.00085078512189483576 0 -0.36494834593608783 -0.001298186014321303 0 -0.36603012090457948 0.0050917054244422654 0 -0.36494834593608783 -0.001298186014321303 0 -0.35900139338342918 0.0020097317905480609 0 -0.36603012090457948 0.0050917054244422654 0 -0.35900139338342918 0.0020097317905480609 0 -0.35834074471334648 0.0096788928264882005 0 -0.36603012090457948 0.0050917054244422654 0 -0.35163198926140088 0.046228739452983239 0 -0.36891219827968119 0.060077996683558232 0 -0.35298131256760962 0.063034912088641357 0 -0.338272543408071 0.060603673933957783 0 -0.35163198926140088 0.046228739452983239 0 -0.35298131256760962 0.063034912088641357 0 -0.34385517732675519 0.031131612817745031 0 -0.36551724687399623 0.028318485711261141 0 -0.35163198926140088 0.046228739452983239 0 -0.36551724687399623 0.028318485711261141 0 -0.35163198926140088 0.046228739452983239 0 -0.37261014177358448 0.043145835856899219 0 -0.37937813184432773 0.031366277704107569 0 -0.36551724687399623 0.028318485711261141 0 -0.37261014177358448 0.043145835856899219 0 -0.35163198926140088 0.046228739452983239 0 -0.37261014177358448 0.043145835856899219 0 -0.36891219827968119 0.060077996683558232 0 -0.38207463336695202 0.051047668856640811 0 -0.37261014177358448 0.043145835856899219 0 -0.36891219827968119 0.060077996683558232 0 -0.37929074908003868 0.077603726490867345 0 -0.35694138538550352 0.073855345321458488 0 -0.37929074908003868 0.077603726490867345 0 -0.36891219827968119 0.060077996683558232 0 -0.35694138538550352 0.073855345321458488 0 -0.36891219827968119 0.060077996683558232 0 -0.35298131256760962 0.063034912088641357 0 -0.35694138538550352 0.073855345321458488 0 -0.35298131256760962 0.063034912088641357 0 -0.35694138538550352 0.073855345321458488 0 -0.34914844650339177 0.074408805051249083 0 -0.35694138538550352 0.073855345321458488 0 -0.34914844650339177 0.074408805051249083 0 -0.35387282561504041 0.085789381247760657 0 -0.338272543408071 0.060603673933957783 0 -0.35298131256760962 0.063034912088641357 0 -0.34914844650339177 0.074408805051249083 0 -0.34914844650339177 0.074408805051249083 0 -0.35387282561504041 0.085789381247760657 0 -0.33299160925146271 0.085281992960062933 0 -0.35694138538550352 0.073855345321458488 0 -0.35387282561504041 0.085789381247760657 0 -0.36438159895332511 0.085691586513687634 0 -0.35387282561504041 0.085789381247760657 0 -0.36438159895332511 0.085691586513687634 0 -0.35579278546844412 0.098564625017930646 0 -0.37929074908003868 0.077603726490867345 0 -0.35694138538550352 0.073855345321458488 0 -0.36438159895332511 0.085691586513687634 0 -0.37929074908003868 0.077603726490867345 0 -0.36438159895332511 0.085691586513687634 0 -0.37090825683648998 0.098456277756480637 0 -0.37090825683648998 0.098456277756480637 0 -0.36904533532088801 0.1177582563576956 0 -0.35579278546844412 0.098564625017930646 0 -0.36438159895332511 0.085691586513687634 0 -0.37090825683648998 0.098456277756480637 0 -0.35579278546844412 0.098564625017930646 0 -0.35823941519022368 0.13573745574644491 0 -0.36904533532088801 0.1177582563576956 0 -0.35158166360451942 0.11704707172714621 0 -0.36904533532088801 0.1177582563576956 0 -0.35158166360451942 0.11704707172714621 0 -0.35579278546844412 0.098564625017930646 0 -0.35158166360451942 0.11704707172714621 0 -0.35579278546844412 0.098564625017930646 0 -0.34047962299512569 0.099373871294989508 0 -0.35387282561504041 0.085789381247760657 0 -0.35579278546844412 0.098564625017930646 0 -0.34047962299512569 0.099373871294989508 0 -0.34047962299512569 0.099373871294989508 0 -0.33231339904552459 0.1171762944261375 0 -0.31683477199953253 0.096155180868875256 0 -0.34455851703438989 0.13305210298766909 0 -0.35158166360451942 0.11704707172714621 0 -0.33231339904552459 0.1171762944261375 0 -0.35158166360451942 0.11704707172714621 0 -0.34047962299512569 0.099373871294989508 0 -0.33231339904552459 0.1171762944261375 0 -0.31211500736378339 0.1240031522641292 0 -0.31683477199953253 0.096155180868875256 0 -0.31211500736378339 0.1240031522641292 0 -0.33231339904552459 0.1171762944261375 0 -0.31683477199953253 0.096155180868875256 0 -0.30635830999651792 0.07761242167179265 0 -0.31683477199953253 0.096155180868875256 0 -0.32146679815367007 0.068824891797761426 0 -0.31683477199953253 0.096155180868875256 0 -0.32146679815367007 0.068824891797761426 0 -0.33299160925146271 0.085281992960062933 0 -0.31683477199953253 0.096155180868875256 0 -0.32146679815367007 0.068824891797761426 0 -0.31683477199953253 0.096155180868875256 0 -0.33299160925146271 0.085281992960062933 0 -0.338272543408071 0.060603673933957783 0 -0.32146679815367007 0.068824891797761426 0 -0.33576809196089219 0.072507027900731907 0 -0.32146679815367007 0.068824891797761426 0 -0.33576809196089219 0.072507027900731907 0 -0.33299160925146271 0.085281992960062933 0 -0.34914844650339177 0.074408805051249083 0 -0.33576809196089219 0.072507027900731907 0 -0.33299160925146271 0.085281992960062933 0 -0.338272543408071 0.060603673933957783 0 -0.34914844650339177 0.074408805051249083 0 -0.33576809196089219 0.072507027900731907 0 -0.35387282561504041 0.085789381247760657 0 -0.34047962299512569 0.099373871294989508 0 -0.33299160925146271 0.085281992960062933 0 -0.34914844650339177 0.074408805051249083 0 -0.33299160925146271 0.085281992960062933 0 -0.34047962299512569 0.099373871294989508 0 -0.31683477199953253 0.096155180868875256 0 -0.33299160925146271 0.085281992960062933 0 -0.3938434845513461 0.48000301234504228 0 -0.4154786193197833 0.47000451851756458 0 -0.40908183102320411 0.4845696213484928 0 -0.3938434845513461 0.48000301234504228 0 -0.40110135887996978 0.47332954189399812 0 -0.4154786193197833 0.47000451851756458 0 -0.3938434845513461 0.48000301234504228 0 -0.4154786193197833 0.47000451851756458 0 -0.3938434845513461 0.48000301234504228 0 -0.40110135887996978 0.47332954189399812 0 -0.38930270813857232 0.46778113184491188 0 -0.3938434845513461 0.48000301234504228 0 -0.39546946259238258 0.49128185561313598 0 -0.40908183102320411 0.4845696213484928 0 -0.40521342881326272 0.5 0 -0.39546946259238258 0.49128185561313598 0 -0.37789332191386737 0.5 0 -0.40521342881326272 0.5 0 -0.39546946259238258 0.49128185561313598 0 -0.40908183102320411 0.4845696213484928 0 -0.3938434845513461 0.48000301234504228 0 -0.39546946259238258 0.49128185561313598 0 -0.38517353549973538 0.49039659604947999 0 -0.3938434845513461 0.48000301234504228 0 -0.37220834978290879 0.49000150617251997 0 -0.39546946259238258 0.49128185561313598 0 -0.38517353549973538 0.49039659604947999 0 -0.37789332191386737 0.5 0 -0.3938434845513461 0.48000301234504228 0 -0.38517353549973538 0.49039659604947999 0 -0.37220834978290879 0.49000150617251997 0 -0.38517353549973538 0.49039659604947999 0 -0.37789332191386737 0.5 0 -0.37220834978290879 0.49000150617251997 0 -0.3938434845513461 0.48000301234504228 0 -0.37805640255927542 0.47903421333972468 0 -0.3842367001720054 0.47454362448235632 0 -0.3938434845513461 0.48000301234504228 0 -0.37805640255927542 0.47903421333972468 0 -0.37220834978290879 0.49000150617251997 0 -0.3842367001720054 0.47454362448235632 0 -0.37701653082709469 0.46900635458093531 0 -0.38930270813857232 0.46778113184491188 0 -0.3938434845513461 0.48000301234504228 0 -0.3842367001720054 0.47454362448235632 0 -0.38930270813857232 0.46778113184491188 0 -0.37805640255927542 0.47903421333972468 0 -0.3842367001720054 0.47454362448235632 0 -0.37701653082709469 0.46900635458093531 0 -0.37701653082709469 0.46900635458093531 0 -0.38677844954541418 0.45747132953460651 0 -0.37376195539900242 0.45249759326054367 0 -0.37701653082709469 0.46900635458093531 0 -0.38677844954541418 0.45747132953460651 0 -0.38930270813857232 0.46778113184491188 0 -0.38473584783684761 0.44354080077547992 0 -0.36778315087773072 0.43214877602771662 0 -0.37376195539900242 0.45249759326054367 0 -0.38677844954541418 0.45747132953460651 0 -0.38473584783684761 0.44354080077547992 0 -0.37376195539900242 0.45249759326054367 0 -0.38677844954541418 0.45747132953460651 0 -0.38473584783684761 0.44354080077547992 0 -0.39843898125590987 0.45231631840454728 0 -0.39843898125590987 0.45231631840454728 0 -0.4072920944712265 0.44499890251068641 0 -0.39856520721893041 0.43647578570475237 0 -0.38473584783684761 0.44354080077547992 0 -0.39843898125590987 0.45231631840454728 0 -0.39856520721893041 0.43647578570475237 0 -0.39843898125590987 0.45231631840454728 0 -0.39841490533913748 0.46178879282826651 0 -0.41709791082295028 0.45456801136960878 0 -0.40110135887996978 0.47332954189399812 0 -0.39841490533913748 0.46178879282826651 0 -0.41709791082295028 0.45456801136960878 0 -0.38677844954541418 0.45747132953460651 0 -0.38930270813857232 0.46778113184491188 0 -0.39841490533913748 0.46178879282826651 0 -0.40110135887996978 0.47332954189399812 0 -0.38930270813857232 0.46778113184491188 0 -0.39841490533913748 0.46178879282826651 0 -0.38677844954541418 0.45747132953460651 0 -0.39843898125590987 0.45231631840454728 0 -0.39841490533913748 0.46178879282826651 0 -0.40110135887996978 0.47332954189399812 0 -0.41709791082295028 0.45456801136960878 0 -0.4154786193197833 0.47000451851756458 0 -0.40110135887996978 0.47332954189399812 0 -0.41709791082295028 0.45456801136960878 0 -0.41709791082295028 0.45456801136960878 0 -0.42692569345801529 0.46340213249295897 0 -0.4154786193197833 0.47000451851756458 0 -0.41709791082295028 0.45456801136960878 0 -0.43309446276593089 0.43580648084521972 0 -0.41506627858711548 0.4366354945638371 0 -0.39843898125590987 0.45231631840454728 0 -0.41709791082295028 0.45456801136960878 0 -0.4072920944712265 0.44499890251068641 0 -0.4072920944712265 0.44499890251068641 0 -0.41506627858711548 0.4366354945638371 0 -0.39856520721893041 0.43647578570475237 0 -0.41709791082295028 0.45456801136960878 0 -0.4072920944712265 0.44499890251068641 0 -0.41506627858711548 0.4366354945638371 0 -0.41709791082295028 0.45456801136960878 0 -0.43251943231727258 0.45189802077753072 0 -0.43309446276593089 0.43580648084521972 0 -0.41709791082295028 0.45456801136960878 0 -0.43309446276593089 0.43580648084521972 0 -0.43251943231727258 0.45189802077753072 0 -0.44285055445462801 0.44408738363144917 0 -0.43309446276593089 0.43580648084521972 0 -0.43251943231727258 0.45189802077753072 0 -0.42692569345801529 0.46340213249295897 0 -0.44262854008483871 0.46162609554841733 0 -0.42692569345801529 0.46340213249295897 0 -0.43014133963940671 0.47900644757454591 0 -0.44262854008483871 0.46162609554841733 0 -0.41709791082295028 0.45456801136960878 0 -0.43251943231727258 0.45189802077753072 0 -0.42692569345801529 0.46340213249295897 0 -0.42692569345801529 0.46340213249295897 0 -0.43014133963940671 0.47900644757454591 0 -0.4154786193197833 0.47000451851756458 0 -0.43014133963940671 0.47900644757454591 0 -0.4154786193197833 0.47000451851756458 0 -0.40908183102320411 0.4845696213484928 0 -0.40521342881326272 0.5 0 -0.40908183102320411 0.4845696213484928 0 -0.43253353571265801 0.5 0 -0.43014133963940671 0.47900644757454591 0 -0.40908183102320411 0.4845696213484928 0 -0.43253353571265801 0.5 0 -0.43014133963940671 0.47900644757454591 0 -0.43253353571265801 0.5 0 -0.44984012809851409 0.48033494727474779 0 -0.43253353571265801 0.5 0 -0.44984012809851409 0.48033494727474779 0 -0.45985364261205308 0.50000000000000111 0 -0.43014133963940671 0.47900644757454591 0 -0.44984012809851409 0.48033494727474779 0 -0.44262854008483871 0.46162609554841733 0 -0.44984012809851409 0.48033494727474779 0 -0.47312811744354261 0.47395110078869013 0 -0.45820768181792781 0.46325373185340701 0 -0.45985364261205308 0.50000000000000111 0 -0.47312811744354261 0.47395110078869013 0 -0.44984012809851409 0.48033494727474779 0 -0.45985364261205308 0.50000000000000111 0 -0.47312811744354261 0.47395110078869013 0 -0.5 0.5 0 -0.47312811744354261 0.47395110078869013 0 -0.49999999999999972 0.44664233614409321 0 -0.45985364261205308 0.50000000000000111 0 -0.5 0.5 0 -0.47312811744354261 0.47395110078869013 0 -0.48640259227503152 0.44790220157737892 0 -0.49999999999999972 0.44664233614409321 0 -0.47883616718389621 0.43347798499105172 0 -0.49999999999999972 0.44664233614409321 0 -0.47883616718389621 0.43347798499105172 0 -0.47312811744354261 0.47395110078869013 0 -0.48640259227503152 0.44790220157737892 0 -0.49999999999999972 0.44664233614409321 0 -0.47312811744354261 0.47395110078869013 0 -0.48640259227503152 0.44790220157737892 0 -0.47312811744354261 0.47395110078869013 0 -0.48640259227503152 0.44790220157737892 0 -0.46932328621444303 0.45009797021529852 0 -0.46932328621444303 0.45009797021529852 0 -0.46288197751253979 0.435741310408158 0 -0.47883616718389621 0.43347798499105172 0 -0.48640259227503152 0.44790220157737892 0 -0.46932328621444303 0.45009797021529852 0 -0.47883616718389621 0.43347798499105172 0 -0.46932328621444303 0.45009797021529852 0 -0.45653044061400749 0.44574373859450739 0 -0.46288197751253979 0.435741310408158 0 -0.46932328621444303 0.45009797021529852 0 -0.45653044061400749 0.44574373859450739 0 -0.45820768181792781 0.46325373185340701 0 -0.45653044061400749 0.44574373859450739 0 -0.44988321330808601 0.43264183945635343 0 -0.46288197751253979 0.435741310408158 0 -0.47312811744354261 0.47395110078869013 0 -0.46932328621444303 0.45009797021529852 0 -0.45820768181792781 0.46325373185340701 0 -0.45653044061400749 0.44574373859450739 0 -0.45820768181792781 0.46325373185340701 0 -0.44262854008483871 0.46162609554841733 0 -0.44984012809851409 0.48033494727474779 0 -0.45820768181792781 0.46325373185340701 0 -0.44262854008483871 0.46162609554841733 0 -0.43251943231727258 0.45189802077753072 0 -0.44262854008483871 0.46162609554841733 0 -0.44285055445462801 0.44408738363144917 0 -0.45653044061400749 0.44574373859450739 0 -0.44262854008483871 0.46162609554841733 0 -0.44285055445462801 0.44408738363144917 0 -0.44285055445462801 0.44408738363144917 0 -0.44988321330808601 0.43264183945635343 0 -0.43309446276593089 0.43580648084521972 0 -0.45653044061400749 0.44574373859450739 0 -0.44285055445462801 0.44408738363144917 0 -0.44988321330808601 0.43264183945635343 0 -0.44909101470891138 0.41704495032083061 0 -0.43309446276593089 0.43580648084521972 0 -0.44988321330808601 0.43264183945635343 0 -0.44909101470891138 0.41704495032083061 0 -0.43309446276593089 0.43580648084521972 0 -0.44988321330808601 0.43264183945635343 0 -0.44909101470891138 0.41704495032083061 0 -0.45767233436779298 0.42031363383801013 0 -0.44909101470891138 0.41704495032083061 0 -0.43642708593841462 0.41129790334070748 0 -0.43309446276593089 0.43580648084521972 0 -0.44909101470891138 0.41704495032083061 0 -0.44923652684218601 0.40651161443480333 0 -0.43642708593841462 0.41129790334070748 0 -0.44909101470891138 0.41704495032083061 0 -0.46310762304278369 0.4136785712167641 0 -0.46508756665189233 0.39828341979644161 0 -0.44909101470891138 0.41704495032083061 0 -0.46508756665189233 0.39828341979644161 0 -0.44909101470891138 0.41704495032083061 0 -0.44923652684218601 0.40651161443480333 0 -0.46508756665189233 0.39828341979644161 0 -0.44909101470891138 0.41704495032083061 0 -0.45767233436779298 0.42031363383801013 0 -0.46310762304278369 0.4136785712167641 0 -0.45767233436779298 0.42031363383801013 0 -0.46310762304278369 0.4136785712167641 0 -0.4689935185142321 0.42014913325858988 0 -0.46310762304278369 0.4136785712167641 0 -0.47635794946245552 0.41312634298853379 0 -0.46508756665189233 0.39828341979644161 0 -0.45767233436779298 0.42031363383801013 0 -0.47883616718389621 0.43347798499105172 0 -0.4689935185142321 0.42014913325858988 0 -0.45767233436779298 0.42031363383801013 0 -0.46288197751253979 0.435741310408158 0 -0.47883616718389621 0.43347798499105172 0 -0.45767233436779298 0.42031363383801013 0 -0.47883616718389621 0.43347798499105172 0 -0.44988321330808601 0.43264183945635343 0 -0.45767233436779298 0.42031363383801013 0 -0.46288197751253979 0.435741310408158 0 -0.47883616718389621 0.43347798499105172 0 -0.47635794946245552 0.41312634298853379 0 -0.48714440641974271 0.42351608680749347 0 -0.47883616718389621 0.43347798499105172 0 -0.4689935185142321 0.42014913325858988 0 -0.47635794946245552 0.41312634298853379 0 -0.46310762304278369 0.4136785712167641 0 -0.4689935185142321 0.42014913325858988 0 -0.47635794946245552 0.41312634298853379 0 -0.47635794946245552 0.41312634298853379 0 -0.48901457958177968 0.41012265573874179 0 -0.48254378332594611 0.39722493186941499 0 -0.47635794946245552 0.41312634298853379 0 -0.48901457958177968 0.41012265573874179 0 -0.48714440641974271 0.42351608680749347 0 -0.48901457958177968 0.41012265573874179 0 -0.5 0.42140439004324071 0 -0.49999999999999978 0.39616644394238798 0 -0.48901457958177968 0.41012265573874179 0 -0.5 0.42140439004324071 0 -0.48714440641974271 0.42351608680749347 0 -0.49999999999999972 0.44664233614409321 0 -0.47883616718389621 0.43347798499105172 0 -0.48714440641974271 0.42351608680749347 0 -0.49999999999999972 0.44664233614409321 0 -0.5 0.42140439004324071 0 -0.48714440641974271 0.42351608680749347 0 -0.49007778645481631 0.38142997617552599 0 -0.49999999999999978 0.39616644394238798 0 -0.50000000000000311 0.3685517992903854 0 -0.49007778645481631 0.38142997617552599 0 -0.47611467569506138 0.38535029247959018 0 -0.48714178473823078 0.37241716516273898 0 -0.49999999999999978 0.39616644394238798 0 -0.48254378332594611 0.39722493186941499 0 -0.48901457958177968 0.41012265573874179 0 -0.49999999999999978 0.39616644394238798 0 -0.48254378332594611 0.39722493186941499 0 -0.49007778645481631 0.38142997617552599 0 -0.49999999999999978 0.39616644394238798 0 -0.48254378332594611 0.39722493186941499 0 -0.48254378332594611 0.39722493186941499 0 -0.46508756665189233 0.39828341979644161 0 -0.47635794946245552 0.41312634298853379 0 -0.48254378332594611 0.39722493186941499 0 -0.46508756665189233 0.39828341979644161 0 -0.48254378332594611 0.39722493186941499 0 -0.47611467569506138 0.38535029247959018 0 -0.46508756665189233 0.39828341979644161 0 -0.47611467569506138 0.38535029247959018 0 -0.46508756665189233 0.39828341979644161 0 -0.49007778645481631 0.38142997617552599 0 -0.48254378332594611 0.39722493186941499 0 -0.47611467569506138 0.38535029247959018 0 -0.47611467569506138 0.38535029247959018 0 -0.47397397291215421 0.37493689296344251 0 -0.48714178473823078 0.37241716516273898 0 -0.47611467569506138 0.38535029247959018 0 -0.48714178473823078 0.37241716516273898 0 -0.46871814716203669 0.37906981455344119 0 -0.46360543106569913 0.37231654924431878 0 -0.47397397291215421 0.37493689296344251 0 -0.47611467569506138 0.38535029247959018 0 -0.46871814716203669 0.37906981455344119 0 -0.47397397291215421 0.37493689296344251 0 -0.46871814716203669 0.37906981455344119 0 -0.46117850897523233 0.38367552352641338 0 -0.46360543106569913 0.37231654924431878 0 -0.47611467569506138 0.38535029247959018 0 -0.46871814716203669 0.37906981455344119 0 -0.46117850897523233 0.38367552352641338 0 -0.47611467569506138 0.38535029247959018 0 -0.46117850897523233 0.38367552352641338 0 -0.46508756665189233 0.39828341979644161 0 -0.46117850897523233 0.38367552352641338 0 -0.45400385251667602 0.39093091030285698 0 -0.45110956684876158 0.38402681738971201 0 -0.46117850897523233 0.38367552352641338 0 -0.45110956684876158 0.38402681738971201 0 -0.44813402172652672 0.37354371539476261 0 -0.46117850897523233 0.38367552352641338 0 -0.44813402172652672 0.37354371539476261 0 -0.46360543106569913 0.37231654924431878 0 -0.44923652684218601 0.40651161443480333 0 -0.46508756665189233 0.39828341979644161 0 -0.44634044006952572 0.39942018428123321 0 -0.46508756665189233 0.39828341979644161 0 -0.45400385251667602 0.39093091030285698 0 -0.44634044006952572 0.39942018428123321 0 -0.46508756665189233 0.39828341979644161 0 -0.44634044006952572 0.39942018428123321 0 -0.46117850897523233 0.38367552352641338 0 -0.46508756665189233 0.39828341979644161 0 -0.45400385251667602 0.39093091030285698 0 -0.45400385251667602 0.39093091030285698 0 -0.44634044006952572 0.39942018428123321 0 -0.44518347515021223 0.38837251913440451 0 -0.44634044006952572 0.39942018428123321 0 -0.44518347515021223 0.38837251913440451 0 -0.43728617553129168 0.39370672697544878 0 -0.44923652684218601 0.40651161443480333 0 -0.44634044006952572 0.39942018428123321 0 -0.43642708593841462 0.41129790334070748 0 -0.45110956684876158 0.38402681738971201 0 -0.44480856609964842 0.38185924381796288 0 -0.44813402172652672 0.37354371539476261 0 -0.45400385251667602 0.39093091030285698 0 -0.45110956684876158 0.38402681738971201 0 -0.44518347515021223 0.38837251913440451 0 -0.45110956684876158 0.38402681738971201 0 -0.44518347515021223 0.38837251913440451 0 -0.44480856609964842 0.38185924381796288 0 -0.44518347515021223 0.38837251913440451 0 -0.43913693036841173 0.38484964203092692 0 -0.43002747341826991 0.3864772557201327 0 -0.44518347515021223 0.38837251913440451 0 -0.43002747341826991 0.3864772557201327 0 -0.44518347515021223 0.38837251913440451 0 -0.43913693036841173 0.38484964203092692 0 -0.44480856609964842 0.38185924381796288 0 -0.44480856609964842 0.38185924381796288 0 -0.4393591315165738 0.37762743775392832 0 -0.44813402172652672 0.37354371539476261 0 -0.43913693036841173 0.38484964203092692 0 -0.44480856609964842 0.38185924381796288 0 -0.4393591315165738 0.37762743775392832 0 -0.43913693036841173 0.38484964203092692 0 -0.43173797726570751 0.37658334167695551 0 -0.43913693036841173 0.38484964203092692 0 -0.43173797726570751 0.37658334167695551 0 -0.43002747341826991 0.3864772557201327 0 -0.43913693036841173 0.38484964203092692 0 -0.4393591315165738 0.37762743775392832 0 -0.43173797726570751 0.37658334167695551 0 -0.4393591315165738 0.37762743775392832 0 -0.43173797726570751 0.37658334167695551 0 -0.4325639091043616 0.37180597819459837 0 -0.43173797726570751 0.37658334167695551 0 -0.43002747341826991 0.3864772557201327 0 -0.44518347515021223 0.38837251913440451 0 -0.43002747341826991 0.3864772557201327 0 -0.43728617553129168 0.39370672697544878 0 -0.43002747341826991 0.3864772557201327 0 -0.41472776448615789 0.38456402166930481 0 -0.42117367656598032 0.39254991666010941 0 -0.43002747341826991 0.3864772557201327 0 -0.41472776448615789 0.38456402166930481 0 -0.43002747341826991 0.3864772557201327 0 -0.42328890360694349 0.38021744503538613 0 -0.41472776448615789 0.38456402166930481 0 -0.43173797726570751 0.37658334167695551 0 -0.43002747341826991 0.3864772557201327 0 -0.42328890360694349 0.38021744503538613 0 -0.43173797726570751 0.37658334167695551 0 -0.42328890360694349 0.38021744503538613 0 -0.42689564018809201 0.37117335838025439 0 -0.40881671944059661 0.37920357314115732 0 -0.42689564018809201 0.37117335838025439 0 -0.42328890360694349 0.38021744503538613 0 -0.40881671944059661 0.37920357314115732 0 -0.42689564018809201 0.37117335838025439 0 -0.42328890360694349 0.38021744503538613 0 -0.41472776448615789 0.38456402166930481 0 -0.40881671944059661 0.37920357314115732 0 -0.41472776448615789 0.38456402166930481 0 -0.40724106840129259 0.39428871981441299 0 -0.42117367656598032 0.39254991666010941 0 -0.41472776448615789 0.38456402166930481 0 -0.40826438028753348 0.3817067557430866 0 -0.39942805555404642 0.38265078761847338 0 -0.41472776448615789 0.38456402166930481 0 -0.40724106840129259 0.39428871981441299 0 -0.39942805555404642 0.38265078761847338 0 -0.41472776448615789 0.38456402166930481 0 -0.39942805555404642 0.38265078761847338 0 -0.40881671944059661 0.37920357314115732 0 -0.39942805555404642 0.38265078761847338 0 -0.41098055992701871 0.3693971202961519 0 -0.40826438028753348 0.3817067557430866 0 -0.40881671944059661 0.37920357314115732 0 -0.41472776448615789 0.38456402166930481 0 -0.40826438028753348 0.3817067557430866 0 -0.40881671944059661 0.37920357314115732 0 -0.40724106840129259 0.39428871981441299 0 -0.4157685575788832 0.40127396331749671 0 -0.40157856791931718 0.40704460823596672 0 -0.42117367656598032 0.39254991666010941 0 -0.4157685575788832 0.40127396331749671 0 -0.42759331348715912 0.40055694876602499 0 -0.40724106840129259 0.39428871981441299 0 -0.42117367656598032 0.39254991666010941 0 -0.4157685575788832 0.40127396331749671 0 -0.4157685575788832 0.40127396331749671 0 -0.42759331348715912 0.40055694876602499 0 -0.44634044006952572 0.39942018428123321 0 -0.42759331348715912 0.40055694876602499 0 -0.44634044006952572 0.39942018428123321 0 -0.42759331348715912 0.40055694876602499 0 -0.43728617553129168 0.39370672697544878 0 -0.44634044006952572 0.39942018428123321 0 -0.42759331348715912 0.40055694876602499 0 -0.43642708593841462 0.41129790334070748 0 -0.43002747341826991 0.3864772557201327 0 -0.42117367656598032 0.39254991666010941 0 -0.42759331348715912 0.40055694876602499 0 -0.43002747341826991 0.3864772557201327 0 -0.42759331348715912 0.40055694876602499 0 -0.43002747341826991 0.3864772557201327 0 -0.42759331348715912 0.40055694876602499 0 -0.43728617553129168 0.39370672697544878 0 -0.43642708593841462 0.41129790334070748 0 -0.42449994900394461 0.41844961959922572 0 -0.43309446276593089 0.43580648084521972 0 -0.42759331348715912 0.40055694876602499 0 -0.43642708593841462 0.41129790334070748 0 -0.42449994900394461 0.41844961959922572 0 -0.4157685575788832 0.40127396331749671 0 -0.42759331348715912 0.40055694876602499 0 -0.42449994900394461 0.41844961959922572 0 -0.42759331348715912 0.40055694876602499 0 -0.42449994900394461 0.41844961959922572 0 -0.42449994900394461 0.41844961959922572 0 -0.43309446276593089 0.43580648084521972 0 -0.41506627858711548 0.4366354945638371 0 -0.42449994900394461 0.41844961959922572 0 -0.41506627858711548 0.4366354945638371 0 -0.40746949035714619 0.42222882353716701 0 -0.41506627858711548 0.4366354945638371 0 -0.40746949035714619 0.42222882353716701 0 -0.39856520721893041 0.43647578570475237 0 -0.42449994900394461 0.41844961959922572 0 -0.40746949035714619 0.42222882353716701 0 -0.41232914121482278 0.41224925367246401 0 -0.4157685575788832 0.40127396331749671 0 -0.42449994900394461 0.41844961959922572 0 -0.41232914121482278 0.41224925367246401 0 -0.4157685575788832 0.40127396331749671 0 -0.41232914121482278 0.41224925367246401 0 -0.40157856791931718 0.40704460823596672 0 -0.40746949035714619 0.42222882353716701 0 -0.41232914121482278 0.41224925367246401 0 -0.40157856791931718 0.40704460823596672 0 -0.40746949035714619 0.42222882353716701 0 -0.40157856791931718 0.40704460823596672 0 -0.39298749241221759 0.42119507937603923 0 -0.40746949035714619 0.42222882353716701 0 -0.39298749241221759 0.42119507937603923 0 -0.39856520721893041 0.43647578570475237 0 -0.39298749241221759 0.42119507937603923 0 -0.39856520721893041 0.43647578570475237 0 -0.38373994498284608 0.43043669407259588 0 -0.38373994498284608 0.43043669407259588 0 -0.37668454372729859 0.41206883315114529 0 -0.36778315087773072 0.43214877602771662 0 -0.38473584783684761 0.44354080077547992 0 -0.38373994498284608 0.43043669407259588 0 -0.36778315087773072 0.43214877602771662 0 -0.38473584783684761 0.44354080077547992 0 -0.39856520721893041 0.43647578570475237 0 -0.38373994498284608 0.43043669407259588 0 -0.40157856791931718 0.40704460823596672 0 -0.39298749241221759 0.42119507937603923 0 -0.37668454372729859 0.41206883315114529 0 -0.39298749241221759 0.42119507937603923 0 -0.38373994498284608 0.43043669407259588 0 -0.37668454372729859 0.41206883315114529 0 -0.40157856791931718 0.40704460823596672 0 -0.37668454372729859 0.41206883315114529 0 -0.37668454372729859 0.41206883315114529 0 -0.37844474563582792 0.390355182046278 0 -0.39076978830337122 0.39764902138512792 0 -0.40157856791931718 0.40704460823596672 0 -0.37668454372729859 0.41206883315114529 0 -0.39076978830337122 0.39764902138512792 0 -0.38141148745950948 0.38039780936179463 0 -0.39942805555404642 0.38265078761847338 0 -0.37844474563582792 0.390355182046278 0 -0.39942805555404642 0.38265078761847338 0 -0.38141148745950948 0.38039780936179463 0 -0.37844474563582792 0.390355182046278 0 -0.39942805555404642 0.38265078761847338 0 -0.37844474563582792 0.390355182046278 0 -0.39942805555404642 0.38265078761847338 0 -0.39076978830337122 0.39764902138512792 0 -0.38141148745950948 0.38039780936179463 0 -0.39942805555404642 0.38265078761847338 0 -0.39128338495032239 0.36719877308275878 0 -0.40826438028753348 0.3817067557430866 0 -0.40881671944059661 0.37920357314115732 0 -0.39942805555404642 0.38265078761847338 0 -0.40881671944059661 0.37920357314115732 0 -0.39942805555404642 0.38265078761847338 0 -0.40724106840129259 0.39428871981441299 0 -0.40157856791931718 0.40704460823596672 0 -0.39076978830337122 0.39764902138512792 0 -0.40724106840129259 0.39428871981441299 0 -0.39942805555404642 0.38265078761847338 0 -0.39076978830337122 0.39764902138512792 0 -0.39259889148010241 0.34864188780489069 0 -0.39999637464883392 0.35559476271013252 0 -0.38966798311544332 0.35610238881872369 0 -0.39259889148010241 0.34864188780489069 0 -0.39999637464883392 0.35559476271013252 0 -0.40046159691170069 0.34164056661102238 0 -0.39999637464883392 0.35559476271013252 0 -0.40046159691170069 0.34164056661102238 0 -0.41381361947694889 0.35655778899711688 0 -0.39999637464883392 0.35559476271013252 0 -0.40397412088998857 0.3623881668075713 0 -0.41381361947694889 0.35655778899711688 0 -0.39128338495032239 0.36719877308275878 0 -0.41098055992701871 0.3693971202961519 0 -0.40397412088998857 0.3623881668075713 0 -0.39128338495032239 0.36719877308275878 0 -0.41098055992701871 0.3693971202961519 0 -0.39942805555404642 0.38265078761847338 0 -0.39128338495032239 0.36719877308275878 0 -0.41098055992701871 0.3693971202961519 0 -0.39999637464883392 0.35559476271013252 0 -0.39128338495032239 0.36719877308275878 0 -0.38966798311544332 0.35610238881872369 0 -0.39999637464883392 0.35559476271013252 0 -0.40397412088998857 0.3623881668075713 0 -0.39128338495032239 0.36719877308275878 0 -0.39128338495032239 0.36719877308275878 0 -0.38070440212728118 0.35956436367519867 0 -0.38966798311544332 0.35610238881872369 0 -0.39128338495032239 0.36719877308275878 0 -0.38070440212728118 0.35956436367519867 0 -0.37158620997362618 0.36500042586936587 0 -0.39128338495032239 0.36719877308275878 0 -0.37158620997362618 0.36500042586936587 0 -0.38141148745950948 0.38039780936179463 0 -0.39128338495032239 0.36719877308275878 0 -0.37158620997362618 0.36500042586936587 0 -0.38070440212728118 0.35956436367519867 0 -0.38259242285128608 0.34975193996759602 0 -0.36960199921418602 0.35731180584905542 0 -0.38259242285128608 0.34975193996759602 0 -0.37580907906339922 0.33647878059299557 0 -0.36960199921418602 0.35731180584905542 0 -0.38070440212728118 0.35956436367519867 0 -0.38966798311544332 0.35610238881872369 0 -0.38259242285128608 0.34975193996759602 0 -0.39259889148010241 0.34864188780489069 0 -0.38966798311544332 0.35610238881872369 0 -0.38259242285128608 0.34975193996759602 0 -0.39259889148010241 0.34864188780489069 0 -0.38259242285128608 0.34975193996759602 0 -0.38794720083446621 0.34059934721089508 0 -0.38259242285128608 0.34975193996759602 0 -0.37580907906339922 0.33647878059299557 0 -0.38794720083446621 0.34059934721089508 0 -0.37580907906339922 0.33647878059299557 0 -0.38794720083446621 0.34059934721089508 0 -0.38710957434645199 0.32672334422492838 0 -0.37580907906339922 0.33647878059299557 0 -0.38201615891261242 0.31564575533693578 0 -0.38201615891261242 0.31564575533693578 0 -0.38336946241093189 0.30974931290420182 0 -0.36531193472093021 0.32454274932608829 0 -0.37580907906339922 0.33647878059299557 0 -0.38201615891261242 0.31564575533693578 0 -0.38710957434645199 0.32672334422492838 0 -0.38201615891261242 0.31564575533693578 0 -0.39350880394476312 0.31593875705230262 0 -0.38336946241093189 0.30974931290420182 0 -0.38201615891261242 0.31564575533693578 0 -0.38710957434645199 0.32672334422492838 0 -0.39350880394476312 0.31593875705230262 0 -0.38710957434645199 0.32672334422492838 0 -0.39350880394476312 0.31593875705230262 0 -0.39921774374196328 0.327754485124091 0 -0.39350880394476312 0.31593875705230262 0 -0.39921774374196328 0.327754485124091 0 -0.40602554896887638 0.32011992980008452 0 -0.39921774374196328 0.327754485124091 0 -0.40602554896887638 0.32011992980008452 0 -0.40814721749945931 0.33505042297199122 0 -0.38794720083446621 0.34059934721089508 0 -0.38710957434645199 0.32672334422492838 0 -0.40046159691170069 0.34164056661102238 0 -0.39259889148010241 0.34864188780489069 0 -0.38794720083446621 0.34059934721089508 0 -0.40046159691170069 0.34164056661102238 0 -0.38710957434645199 0.32672334422492838 0 -0.39921774374196328 0.327754485124091 0 -0.40046159691170069 0.34164056661102238 0 -0.38710957434645199 0.32672334422492838 0 -0.40046159691170069 0.34164056661102238 0 -0.39921774374196328 0.327754485124091 0 -0.40046159691170069 0.34164056661102238 0 -0.40814721749945931 0.33505042297199122 0 -0.40814721749945931 0.33505042297199122 0 -0.41954562432067788 0.33058053440738988 0 -0.41381361947694889 0.35655778899711688 0 -0.41954562432067788 0.33058053440738988 0 -0.41381361947694889 0.35655778899711688 0 -0.40602554896887638 0.32011992980008452 0 -0.40814721749945931 0.33505042297199122 0 -0.41954562432067788 0.33058053440738988 0 -0.40602554896887638 0.32011992980008452 0 -0.41954562432067788 0.33058053440738988 0 -0.42527762916440792 0.30460327981766322 0 -0.41954562432067788 0.33058053440738988 0 -0.42527762916440792 0.30460327981766322 0 -0.41954562432067788 0.33058053440738988 0 -0.44001701522470671 0.31606260091672289 0 -0.42527762916440792 0.30460327981766322 0 -0.41954562432067788 0.33058053440738988 0 -0.42420657124029282 0.3485159257420361 0 -0.43843079740841773 0.33787066219507811 0 -0.41954562432067788 0.33058053440738988 0 -0.43843079740841773 0.33787066219507811 0 -0.44001701522470671 0.31606260091672289 0 -0.42420657124029282 0.3485159257420361 0 -0.43459164588172849 0.36007712215754689 0 -0.43843079740841773 0.33787066219507811 0 -0.42420657124029282 0.3485159257420361 0 -0.41381361947694889 0.35655778899711688 0 -0.43459164588172849 0.36007712215754689 0 -0.41381361947694889 0.35655778899711688 0 -0.43459164588172849 0.36007712215754689 0 -0.43459164588172849 0.36007712215754689 0 -0.43843079740841773 0.33787066219507811 0 -0.40046159691170069 0.34164056661102238 0 -0.40814721749945931 0.33505042297199122 0 -0.41381361947694889 0.35655778899711688 0 -0.41954562432067788 0.33058053440738988 0 -0.42420657124029282 0.3485159257420361 0 -0.41381361947694889 0.35655778899711688 0 -0.39999637464883392 0.35559476271013252 0 -0.41381361947694889 0.35655778899711688 0 -0.40046159691170069 0.34164056661102238 0 -0.41381361947694889 0.35655778899711688 0 -0.41381361947694889 0.35655778899711688 0 -0.41098055992701871 0.3693971202961519 0 -0.42689564018809201 0.37117335838025439 0 -0.41098055992701871 0.3693971202961519 0 -0.42689564018809201 0.37117335838025439 0 -0.40881671944059661 0.37920357314115732 0 -0.41098055992701871 0.3693971202961519 0 -0.42689564018809201 0.37117335838025439 0 -0.40881671944059661 0.37920357314115732 0 -0.41098055992701871 0.3693971202961519 0 -0.40397412088998857 0.3623881668075713 0 -0.41381361947694889 0.35655778899711688 0 -0.41098055992701871 0.3693971202961519 0 -0.41381361947694889 0.35655778899711688 0 -0.41098055992701871 0.3693971202961519 0 -0.41381361947694889 0.35655778899711688 0 -0.42689564018809201 0.37117335838025439 0 -0.41381361947694889 0.35655778899711688 0 -0.42907199843085347 0.36486274908666949 0 -0.43459164588172849 0.36007712215754689 0 -0.42689564018809201 0.37117335838025439 0 -0.42907199843085347 0.36486274908666949 0 -0.42980351636605002 0.37149789839679431 0 -0.43173797726570751 0.37658334167695551 0 -0.42689564018809201 0.37117335838025439 0 -0.43173797726570751 0.37658334167695551 0 -0.42689564018809201 0.37117335838025439 0 -0.42980351636605002 0.37149789839679431 0 -0.42689564018809201 0.37117335838025439 0 -0.42980351636605002 0.37149789839679431 0 -0.41381361947694889 0.35655778899711688 0 -0.42689564018809201 0.37117335838025439 0 -0.42907199843085347 0.36486274908666949 0 -0.43459164588172849 0.36007712215754689 0 -0.4325639091043616 0.37180597819459837 0 -0.42907199843085347 0.36486274908666949 0 -0.43459164588172849 0.36007712215754689 0 -0.4325639091043616 0.37180597819459837 0 -0.43173797726570751 0.37658334167695551 0 -0.4325639091043616 0.37180597819459837 0 -0.43173797726570751 0.37658334167695551 0 -0.4325639091043616 0.37180597819459837 0 -0.42980351636605002 0.37149789839679431 0 -0.4325639091043616 0.37180597819459837 0 -0.42980351636605002 0.37149789839679431 0 -0.42907199843085347 0.36486274908666949 0 -0.4325639091043616 0.37180597819459837 0 -0.42980351636605002 0.37149789839679431 0 -0.4393591315165738 0.37762743775392832 0 -0.4325639091043616 0.37180597819459837 0 -0.44813402172652672 0.37354371539476261 0 -0.4325639091043616 0.37180597819459837 0 -0.44813402172652672 0.37354371539476261 0 -0.4325639091043616 0.37180597819459837 0 -0.44813402172652672 0.37354371539476261 0 -0.45404419213644692 0.3625975043188554 0 -0.43459164588172849 0.36007712215754689 0 -0.45404419213644692 0.3625975043188554 0 -0.43459164588172849 0.36007712215754689 0 -0.4325639091043616 0.37180597819459837 0 -0.45404419213644692 0.3625975043188554 0 -0.4325639091043616 0.37180597819459837 0 -0.45404419213644692 0.3625975043188554 0 -0.43459164588172849 0.36007712215754689 0 -0.44549025602952702 0.35300777224981977 0 -0.45404419213644692 0.3625975043188554 0 -0.44549025602952702 0.35300777224981977 0 -0.45575207180717081 0.34762579988211101 0 -0.43843079740841773 0.33787066219507811 0 -0.43459164588172849 0.36007712215754689 0 -0.44549025602952702 0.35300777224981977 0 -0.43843079740841773 0.33787066219507811 0 -0.44549025602952702 0.35300777224981977 0 -0.45575207180717081 0.34762579988211101 0 -0.45404419213644692 0.3625975043188554 0 -0.45575207180717081 0.34762579988211101 0 -0.46674234051517471 0.35793515390827568 0 -0.45404419213644692 0.3625975043188554 0 -0.45575207180717081 0.34762579988211101 0 -0.46674234051517471 0.35793515390827568 0 -0.46933267881425472 0.34565439271282838 0 -0.45404419213644692 0.3625975043188554 0 -0.47441064506165659 0.36523629740895902 0 -0.46674234051517471 0.35793515390827568 0 -0.45404419213644692 0.3625975043188554 0 -0.47441064506165659 0.36523629740895902 0 -0.45404419213644692 0.3625975043188554 0 -0.46360543106569913 0.37231654924431878 0 -0.47441064506165659 0.36523629740895902 0 -0.44813402172652672 0.37354371539476261 0 -0.45404419213644692 0.3625975043188554 0 -0.46360543106569913 0.37231654924431878 0 -0.46674234051517471 0.35793515390827568 0 -0.45404419213644692 0.3625975043188554 0 -0.46360543106569913 0.37231654924431878 0 -0.47397397291215421 0.37493689296344251 0 -0.47441064506165659 0.36523629740895902 0 -0.47441064506165659 0.36523629740895902 0 -0.48058358620238051 0.35168401037216412 0 -0.49477709798686631 0.36787509049906381 0 -0.47397397291215421 0.37493689296344251 0 -0.47441064506165659 0.36523629740895902 0 -0.48714178473823078 0.37241716516273898 0 -0.46674234051517471 0.35793515390827568 0 -0.47441064506165659 0.36523629740895902 0 -0.48058358620238051 0.35168401037216412 0 -0.46674234051517471 0.35793515390827568 0 -0.46933267881425472 0.34565439271282838 0 -0.48058358620238051 0.35168401037216412 0 -0.46933267881425472 0.34565439271282838 0 -0.48058358620238051 0.35168401037216412 0 -0.48121002056386808 0.3369363626790518 0 -0.48058358620238051 0.35168401037216412 0 -0.49703354506598713 0.34759711953555122 0 -0.48121002056386808 0.3369363626790518 0 -0.49703354506598713 0.34759711953555122 0 -0.5 0.34812631329607491 0 -0.49477709798686631 0.36787509049906381 0 -0.48058358620238051 0.35168401037216412 0 -0.49703354506598713 0.34759711953555122 0 -0.49477709798686631 0.36787509049906381 0 -0.49703354506598713 0.34759711953555122 0 -0.49477709798686631 0.36787509049906381 0 -0.5 0.34812631329607491 0 -0.50000000000000311 0.3685517992903854 0 -0.49477709798686631 0.36787509049906381 0 -0.47441064506165659 0.36523629740895902 0 -0.49477709798686631 0.36787509049906381 0 -0.48714178473823078 0.37241716516273898 0 -0.47441064506165659 0.36523629740895902 0 -0.49477709798686631 0.36787509049906381 0 -0.49007778645481631 0.38142997617552599 0 -0.50000000000000311 0.3685517992903854 0 -0.49477709798686631 0.36787509049906381 0 -0.50000000000000311 0.3685517992903854 0 -0.49477709798686631 0.36787509049906381 0 -0.49007778645481631 0.38142997617552599 0 -0.49477709798686631 0.36787509049906381 0 -0.48714178473823078 0.37241716516273898 0 -0.4992899921451075 0.32731914857203848 0 -0.47890896772952718 0.31636292681222472 0 -0.4992899921451075 0.32731914857203848 0 -0.48121002056386808 0.3369363626790518 0 -0.47890896772952718 0.31636292681222472 0 -0.49999999999999989 0.32093853419885771 0 -0.47890896772952718 0.31636292681222472 0 -0.48920120729889771 0.30786362236022019 0 -0.49999999999999989 0.32093853419885771 0 -0.4992899921451075 0.32731914857203848 0 -0.47890896772952718 0.31636292681222472 0 -0.49999999999999989 0.32093853419885771 0 -0.4992899921451075 0.32731914857203848 0 -0.49703354506598713 0.34759711953555122 0 -0.4992899921451075 0.32731914857203848 0 -0.49703354506598713 0.34759711953555122 0 -0.4992899921451075 0.32731914857203848 0 -0.48121002056386808 0.3369363626790518 0 -0.49703354506598713 0.34759711953555122 0 -0.5 0.34812631329607491 0 -0.4992899921451075 0.32731914857203848 0 -0.46933267881425472 0.34565439271282838 0 -0.48121002056386808 0.3369363626790518 0 -0.46237537498267961 0.3340906367225393 0 -0.48121002056386808 0.3369363626790518 0 -0.47890896772952718 0.31636292681222472 0 -0.46237537498267961 0.3340906367225393 0 -0.47890896772952718 0.31636292681222472 0 -0.45636509730576869 0.32029680939338251 0 -0.45852794331394758 0.30540670505240958 0 -0.47890896772952718 0.31636292681222472 0 -0.45636509730576869 0.32029680939338251 0 -0.46237537498267961 0.3340906367225393 0 -0.45575207180717081 0.34762579988211101 0 -0.46933267881425472 0.34565439271282838 0 -0.46237537498267961 0.3340906367225393 0 -0.45575207180717081 0.34762579988211101 0 -0.46237537498267961 0.3340906367225393 0 -0.43843079740841773 0.33787066219507811 0 -0.45636509730576869 0.32029680939338251 0 -0.46237537498267961 0.3340906367225393 0 -0.43843079740841773 0.33787066219507811 0 -0.45636509730576869 0.32029680939338251 0 -0.43843079740841773 0.33787066219507811 0 -0.44001701522470671 0.31606260091672289 0 -0.45636509730576869 0.32029680939338251 0 -0.44001701522470671 0.31606260091672289 0 -0.45852794331394758 0.30540670505240958 0 -0.4381469188983681 0.2944504832925946 0 -0.45852794331394758 0.30540670505240958 0 -0.44001701522470671 0.31606260091672289 0 -0.4381469188983681 0.2944504832925946 0 -0.45852794331394758 0.30540670505240958 0 -0.4381469188983681 0.2944504832925946 0 -0.4447805513699985 0.27737231294201392 0 -0.43100963400813791 0.27862602522793672 0 -0.4381469188983681 0.2944504832925946 0 -0.45724976864254441 0.28334965182257721 0 -0.4447805513699985 0.27737231294201392 0 -0.4381469188983681 0.2944504832925946 0 -0.45724976864254441 0.28334965182257721 0 -0.45852794331394758 0.30540670505240958 0 -0.45724976864254441 0.28334965182257721 0 -0.45852794331394758 0.30540670505240958 0 -0.47789586146606378 0.29814868652574811 0 -0.47890896772952718 0.31636292681222472 0 -0.45852794331394758 0.30540670505240958 0 -0.47890896772952718 0.31636292681222472 0 -0.47789586146606378 0.29814868652574811 0 -0.48920120729889771 0.30786362236022019 0 -0.47890896772952718 0.31636292681222472 0 -0.45852794331394758 0.30540670505240958 0 -0.47789586146606378 0.29814868652574811 0 -0.45724976864254441 0.28334965182257721 0 -0.47789586146606378 0.29814868652574811 0 -0.48102565218130672 0.27929705551177292 0 -0.5 0.29600434190405073 0 -0.5 0.27107014960924369 0 -0.48102565218130672 0.27929705551177292 0 -0.47789586146606378 0.29814868652574811 0 -0.5 0.29600434190405073 0 -0.48102565218130672 0.27929705551177292 0 -0.47789586146606378 0.29814868652574811 0 -0.5 0.29600434190405073 0 -0.48920120729889771 0.30786362236022019 0 -0.49999999999999989 0.32093853419885771 0 -0.5 0.29600434190405073 0 -0.48920120729889771 0.30786362236022019 0 -0.48177750529808522 0.24619974485466931 0 -0.5 0.2461359573144368 0 -0.48654709528280549 0.26072196503438649 0 -0.5 0.2461359573144368 0 -0.48654709528280549 0.26072196503438649 0 -0.5 0.27107014960924369 0 -0.48654709528280549 0.26072196503438649 0 -0.5 0.27107014960924369 0 -0.48102565218130672 0.27929705551177292 0 -0.48654709528280549 0.26072196503438649 0 -0.48102565218130672 0.27929705551177292 0 -0.46993231893463527 0.26090691788180947 0 -0.45724976864254441 0.28334965182257721 0 -0.48102565218130672 0.27929705551177292 0 -0.46993231893463527 0.26090691788180947 0 -0.48177750529808522 0.24619974485466931 0 -0.48654709528280549 0.26072196503438649 0 -0.46993231893463527 0.26090691788180947 0 -0.45710504060219709 0.23686107433279269 0 -0.46993231893463527 0.26090691788180947 0 -0.44707755271196942 0.2637365605125353 0 -0.45724976864254441 0.28334965182257721 0 -0.46993231893463527 0.26090691788180947 0 -0.44707755271196942 0.2637365605125353 0 -0.45724976864254441 0.28334965182257721 0 -0.4447805513699985 0.27737231294201392 0 -0.44707755271196942 0.2637365605125353 0 -0.4447805513699985 0.27737231294201392 0 -0.44707755271196942 0.2637365605125353 0 -0.43100963400813791 0.27862602522793672 0 -0.45710504060219709 0.23686107433279269 0 -0.44707755271196942 0.2637365605125353 0 -0.44707755271196942 0.2637365605125353 0 -0.4367416388518679 0.25264877063821017 0 -0.43100963400813791 0.27862602522793672 0 -0.45710504060219709 0.23686107433279269 0 -0.44707755271196942 0.2637365605125353 0 -0.4367416388518679 0.25264877063821017 0 -0.4367416388518679 0.25264877063821017 0 -0.41175872593851298 0.2549478601346914 0 -0.41885046316002428 0.26850948483906401 0 -0.41175872593851298 0.2549478601346914 0 -0.41885046316002428 0.26850948483906401 0 -0.3976364837244763 0.27421361628784369 0 -0.41885046316002428 0.26850948483906401 0 -0.41710583327712653 0.28211115190663788 0 -0.3976364837244763 0.27421361628784369 0 -0.41885046316002428 0.26850948483906401 0 -0.43100963400813791 0.27862602522793672 0 -0.41710583327712653 0.28211115190663788 0 -0.4367416388518679 0.25264877063821017 0 -0.43100963400813791 0.27862602522793672 0 -0.4367416388518679 0.25264877063821017 0 -0.41885046316002428 0.26850948483906401 0 -0.43100963400813791 0.27862602522793672 0 -0.4381469188983681 0.2944504832925946 0 -0.43100963400813791 0.27862602522793672 0 -0.42527762916440792 0.30460327981766322 0 -0.43100963400813791 0.27862602522793672 0 -0.42527762916440792 0.30460327981766322 0 -0.41710583327712653 0.28211115190663788 0 -0.43100963400813791 0.27862602522793672 0 -0.42527762916440792 0.30460327981766322 0 -0.44001701522470671 0.31606260091672289 0 -0.4381469188983681 0.2944504832925946 0 -0.42527762916440792 0.30460327981766322 0 -0.40602554896887638 0.32011992980008452 0 -0.42527762916440792 0.30460327981766322 0 -0.4014269901009333 0.29495587648231503 0 -0.41710583327712653 0.28211115190663788 0 -0.4014269901009333 0.29495587648231503 0 -0.42527762916440792 0.30460327981766322 0 -0.41710583327712653 0.28211115190663788 0 -0.4014269901009333 0.29495587648231503 0 -0.41710583327712653 0.28211115190663788 0 -0.4014269901009333 0.29495587648231503 0 -0.3976364837244763 0.27421361628784369 0 -0.4014269901009333 0.29495587648231503 0 -0.38389766901197209 0.2919764357376447 0 -0.3976364837244763 0.27421361628784369 0 -0.4014269901009333 0.29495587648231503 0 -0.3976364837244763 0.27421361628784369 0 -0.39350880394476312 0.31593875705230262 0 -0.40602554896887638 0.32011992980008452 0 -0.4014269901009333 0.29495587648231503 0 -0.4014269901009333 0.29495587648231503 0 -0.38336946241093189 0.30974931290420182 0 -0.40602554896887638 0.32011992980008452 0 -0.4014269901009333 0.29495587648231503 0 -0.39350880394476312 0.31593875705230262 0 -0.4014269901009333 0.29495587648231503 0 -0.38336946241093189 0.30974931290420182 0 -0.38336946241093189 0.30974931290420182 0 -0.38389766901197209 0.2919764357376447 0 -0.36596935852520629 0.30787018431111951 0 -0.4014269901009333 0.29495587648231503 0 -0.38336946241093189 0.30974931290420182 0 -0.38389766901197209 0.2919764357376447 0 -0.38389766901197209 0.2919764357376447 0 -0.3839238193794226 0.27871888045260418 0 -0.3976364837244763 0.27421361628784369 0 -0.38389766901197209 0.2919764357376447 0 -0.3839238193794226 0.27871888045260418 0 -0.3703732677084236 0.2804332674389724 0 -0.3839238193794226 0.27871888045260418 0 -0.38378785707281859 0.2682522023459562 0 -0.3703732677084236 0.2804332674389724 0 -0.38378785707281859 0.2682522023459562 0 -0.37477717689163992 0.25299635056682518 0 -0.3703732677084236 0.2804332674389724 0 -0.3839238193794226 0.27871888045260418 0 -0.38378785707281859 0.2682522023459562 0 -0.3976364837244763 0.27421361628784369 0 -0.38378785707281859 0.2682522023459562 0 -0.39384597734802013 0.25347135609337229 0 -0.37477717689163992 0.25299635056682518 0 -0.39384597734802013 0.25347135609337229 0 -0.3976364837244763 0.27421361628784369 0 -0.41175872593851298 0.2549478601346914 0 -0.39384597734802013 0.25347135609337229 0 -0.3976364837244763 0.27421361628784369 0 -0.38378785707281859 0.2682522023459562 0 -0.39384597734802013 0.25347135609337229 0 -0.3976364837244763 0.27421361628784369 0 -0.35834524103505527 0.27479395617319979 0 -0.34490227433735798 0.27909378963084902 0 -0.35045174428906722 0.28677843618767362 0 -0.35834524103505527 0.27479395617319979 0 -0.34490227433735798 0.27909378963084902 0 -0.34728570068091402 0.2661688508290645 0 -0.34728570068091402 0.2661688508290645 0 -0.35464358931248319 0.25491115920099722 0 -0.34150965816976359 0.25817059719828012 0 -0.33845336435013867 0.242079554605789 0 -0.35464358931248319 0.25491115920099722 0 -0.34150965816976359 0.25817059719828012 0 -0.35834524103505527 0.27479395617319979 0 -0.34728570068091402 0.2661688508290645 0 -0.35464358931248319 0.25491115920099722 0 -0.35834524103505527 0.27479395617319979 0 -0.37477717689163992 0.25299635056682518 0 -0.35834524103505527 0.27479395617319979 0 -0.35464358931248319 0.25491115920099722 0 -0.37477717689163992 0.25299635056682518 0 -0.37477717689163992 0.25299635056682518 0 -0.3703732677084236 0.2804332674389724 0 -0.35834524103505527 0.27479395617319979 0 -0.37477717689163992 0.25299635056682518 0 -0.3703732677084236 0.2804332674389724 0 -0.3703732677084236 0.2804332674389724 0 -0.36596935852520629 0.30787018431111951 0 -0.38389766901197209 0.2919764357376447 0 -0.3703732677084236 0.2804332674389724 0 -0.36596935852520629 0.30787018431111951 0 -0.35834524103505527 0.27479395617319979 0 -0.3703732677084236 0.2804332674389724 0 -0.35925388220638338 0.290827281626163 0 -0.3703732677084236 0.2804332674389724 0 -0.36596935852520629 0.30787018431111951 0 -0.35925388220638338 0.290827281626163 0 -0.36596935852520629 0.30787018431111951 0 -0.35645499353340299 0.30154574554434233 0 -0.35925388220638338 0.290827281626163 0 -0.36596935852520629 0.30787018431111951 0 -0.35645499353340299 0.30154574554434233 0 -0.35774913989266272 0.31391262040183171 0 -0.35645499353340299 0.30154574554434233 0 -0.35013945535461871 0.3105838988596446 0 -0.35774913989266272 0.31391262040183171 0 -0.35645499353340299 0.30154574554434233 0 -0.34780240298166087 0.30288468022079579 0 -0.35285886900803182 0.29452238055293539 0 -0.34780240298166087 0.30288468022079579 0 -0.34622635383862083 0.29383585221412489 0 -0.33932813284697128 0.29730713825443927 0 -0.34780240298166087 0.30288468022079579 0 -0.35285886900803182 0.29452238055293539 0 -0.34622635383862083 0.29383585221412489 0 -0.34780240298166087 0.30288468022079579 0 -0.34514961405368982 0.30758965292055213 0 -0.33997231501418312 0.30473657218964828 0 -0.35645499353340299 0.30154574554434233 0 -0.34780240298166087 0.30288468022079579 0 -0.35013945535461871 0.3105838988596446 0 -0.34780240298166087 0.30288468022079579 0 -0.34514961405368982 0.30758965292055213 0 -0.35013945535461871 0.3105838988596446 0 -0.34514961405368982 0.30758965292055213 0 -0.35013945535461871 0.3105838988596446 0 -0.34268428286429659 0.31215346041211978 0 -0.35834524103505527 0.27479395617319979 0 -0.35925388220638338 0.290827281626163 0 -0.35045174428906722 0.28677843618767362 0 -0.35645499353340299 0.30154574554434233 0 -0.35925388220638338 0.290827281626163 0 -0.35285886900803182 0.29452238055293539 0 -0.35925388220638338 0.290827281626163 0 -0.35285886900803182 0.29452238055293539 0 -0.35045174428906722 0.28677843618767362 0 -0.35285886900803182 0.29452238055293539 0 -0.34622635383862083 0.29383585221412489 0 -0.35045174428906722 0.28677843618767362 0 -0.34622635383862083 0.29383585221412489 0 -0.35045174428906722 0.28677843618767362 0 -0.34088660642111013 0.2879281286912172 0 -0.34490227433735798 0.27909378963084902 0 -0.35045174428906722 0.28677843618767362 0 -0.34088660642111013 0.2879281286912172 0 -0.34490227433735798 0.27909378963084902 0 -0.34088660642111013 0.2879281286912172 0 -0.33262910378125132 0.278293493462413 0 -0.34088660642111013 0.2879281286912172 0 -0.33227483086849752 0.29261385498347509 0 -0.33932813284697128 0.29730713825443927 0 -0.34622635383862083 0.29383585221412489 0 -0.34088660642111013 0.2879281286912172 0 -0.33932813284697128 0.29730713825443927 0 -0.33227483086849752 0.29261385498347509 0 -0.32398535199451511 0.28524421774589648 0 -0.33262910378125132 0.278293493462413 0 -0.34088660642111013 0.2879281286912172 0 -0.33227483086849752 0.29261385498347509 0 -0.33262910378125132 0.278293493462413 0 -0.33718535734333338 0.30882123026638569 0 -0.34268428286429659 0.31215346041211978 0 -0.33477104767585758 0.31524888829805342 0 -0.33718535734333338 0.30882123026638569 0 -0.34268428286429659 0.31215346041211978 0 -0.33997231501418312 0.30473657218964828 0 -0.34514961405368982 0.30758965292055213 0 -0.34268428286429659 0.31215346041211978 0 -0.33997231501418312 0.30473657218964828 0 -0.33718535734333338 0.30882123026638569 0 -0.33997231501418312 0.30473657218964828 0 -0.33396296217470239 0.30554582684384218 0 -0.33997231501418312 0.30473657218964828 0 -0.33932813284697128 0.29730713825443927 0 -0.33396296217470239 0.30554582684384218 0 -0.34780240298166087 0.30288468022079579 0 -0.33997231501418312 0.30473657218964828 0 -0.33932813284697128 0.29730713825443927 0 -0.33227483086849752 0.29261385498347509 0 -0.33396296217470239 0.30554582684384218 0 -0.32251037119006698 0.3031431883822347 0 -0.33227483086849752 0.29261385498347509 0 -0.33932813284697128 0.29730713825443927 0 -0.33396296217470239 0.30554582684384218 0 -0.33718535734333338 0.30882123026638569 0 -0.33396296217470239 0.30554582684384218 0 -0.33477104767585758 0.31524888829805342 0 -0.33396296217470239 0.30554582684384218 0 -0.32251037119006698 0.3031431883822347 0 -0.33219148171911272 0.31730370811833031 0 -0.32251037119006698 0.3031431883822347 0 -0.31456388983813333 0.31636814557902659 0 -0.33219148171911272 0.31730370811833031 0 -0.32251037119006698 0.3031431883822347 0 -0.31282926066102218 0.28898266864613842 0 -0.30402337591517081 0.3051012194244167 0 -0.32251037119006698 0.3031431883822347 0 -0.30402337591517081 0.3051012194244167 0 -0.31456388983813333 0.31636814557902659 0 -0.32251037119006698 0.3031431883822347 0 -0.33219148171911272 0.31730370811833031 0 -0.33227483086849752 0.29261385498347509 0 -0.32251037119006698 0.3031431883822347 0 -0.32398535199451511 0.28524421774589648 0 -0.32251037119006698 0.3031431883822347 0 -0.32398535199451511 0.28524421774589648 0 -0.31282926066102218 0.28898266864613842 0 -0.32251037119006698 0.3031431883822347 0 -0.31282926066102218 0.28898266864613842 0 -0.31282926066102218 0.28898266864613842 0 -0.32065101258715689 0.274665503564473 0 -0.32398535199451511 0.28524421774589648 0 -0.31282926066102218 0.28898266864613842 0 -0.32065101258715689 0.274665503564473 0 -0.32065101258715689 0.274665503564473 0 -0.32847276451329022 0.26034833848280681 0 -0.31199410965335322 0.26463258327439948 0 -0.32065101258715689 0.274665503564473 0 -0.33262910378125132 0.278293493462413 0 -0.32847276451329022 0.26034833848280681 0 -0.31282926066102218 0.28898266864613842 0 -0.32065101258715689 0.274665503564473 0 -0.30403346053568642 0.27611708872161922 0 -0.32065101258715689 0.274665503564473 0 -0.32847276451329022 0.26034833848280681 0 -0.32398535199451511 0.28524421774589648 0 -0.32065101258715689 0.274665503564473 0 -0.33262910378125132 0.278293493462413 0 -0.33262910378125132 0.278293493462413 0 -0.33869287199199061 0.26734508287274228 0 -0.32847276451329022 0.26034833848280681 0 -0.34490227433735798 0.27909378963084902 0 -0.34728570068091402 0.2661688508290645 0 -0.33869287199199061 0.26734508287274228 0 -0.34490227433735798 0.27909378963084902 0 -0.33262910378125132 0.278293493462413 0 -0.33869287199199061 0.26734508287274228 0 -0.33845336435013867 0.242079554605789 0 -0.34150965816976359 0.25817059719828012 0 -0.32847276451329022 0.26034833848280681 0 -0.33845336435013867 0.242079554605789 0 -0.32847276451329022 0.26034833848280681 0 -0.34728570068091402 0.2661688508290645 0 -0.33869287199199061 0.26734508287274228 0 -0.34150965816976359 0.25817059719828012 0 -0.33869287199199061 0.26734508287274228 0 -0.34150965816976359 0.25817059719828012 0 -0.32847276451329022 0.26034833848280681 0 -0.33869287199199061 0.26734508287274228 0 -0.32847276451329022 0.26034833848280681 0 -0.311575650220281 0.24878047680599949 0 -0.32847276451329022 0.26034833848280681 0 -0.311575650220281 0.24878047680599949 0 -0.32847276451329022 0.26034833848280681 0 -0.31199410965335322 0.26463258327439948 0 -0.32455092720978362 0.24357057421839101 0 -0.311575650220281 0.24878047680599949 0 -0.32847276451329022 0.26034833848280681 0 -0.311575650220281 0.24878047680599949 0 -0.31199410965335322 0.26463258327439948 0 -0.29523766041035199 0.26325150879709891 0 -0.30403346053568642 0.27611708872161922 0 -0.29523766041035199 0.26325150879709891 0 -0.29574151564778611 0.28671646758259889 0 -0.31199410965335322 0.26463258327439948 0 -0.30403346053568642 0.27611708872161922 0 -0.29523766041035199 0.26325150879709891 0 -0.32065101258715689 0.274665503564473 0 -0.31199410965335322 0.26463258327439948 0 -0.30403346053568642 0.27611708872161922 0 -0.30403346053568642 0.27611708872161922 0 -0.29523766041035199 0.26325150879709891 0 -0.28985028671148488 0.25537141990030859 0 -0.26863301980023729 0.26794771562718522 0 -0.28534189936007232 0.28197220440765719 0 -0.29523766041035199 0.26325150879709891 0 -0.29574151564778611 0.28671646758259889 0 -0.29523766041035199 0.26325150879709891 0 -0.29574151564778611 0.28671646758259889 0 -0.28534189936007232 0.28197220440765719 0 -0.28985028671148488 0.25537141990030859 0 -0.29523766041035199 0.26325150879709891 0 -0.28534189936007232 0.28197220440765719 0 -0.28985028671148488 0.25537141990030859 0 -0.28534189936007232 0.28197220440765719 0 -0.29467853592727078 0.23721261512919359 0 -0.29523766041035199 0.26325150879709891 0 -0.29467853592727078 0.23721261512919359 0 -0.28985028671148488 0.25537141990030859 0 -0.29523766041035199 0.26325150879709891 0 -0.28985028671148488 0.25537141990030859 0 -0.29523766041035199 0.26325150879709891 0 -0.28985028671148488 0.25537141990030859 0 -0.2724296921133022 0.25217156250687062 0 -0.26863301980023729 0.26794771562718522 0 -0.2724296921133022 0.25217156250687062 0 -0.26863301980023729 0.26794771562718522 0 -0.25693865295534157 0.25278860643768353 0 -0.26863301980023729 0.26794771562718522 0 -0.26277913973510902 0.29023342414179659 0 -0.28534189936007232 0.28197220440765719 0 -0.26277913973510902 0.29023342414179659 0 -0.2447247674615598 0.2718938593685879 0 -0.26863301980023729 0.26794771562718522 0 -0.26277913973510902 0.29023342414179659 0 -0.2447247674615598 0.2718938593685879 0 -0.26863301980023729 0.26794771562718522 0 -0.25693865295534157 0.25278860643768353 0 -0.2447247674615598 0.2718938593685879 0 -0.26277913973510902 0.29023342414179659 0 -0.25757488899104952 0.31786411623381933 0 -0.2366570207200871 0.30010935915934539 0 -0.26277913973510902 0.29023342414179659 0 -0.28083351200865853 0.30857298891500562 0 -0.28534189936007232 0.28197220440765719 0 -0.26277913973510902 0.29023342414179659 0 -0.28083351200865853 0.30857298891500562 0 -0.26277913973510902 0.29023342414179659 0 -0.28083351200865853 0.30857298891500562 0 -0.25757488899104952 0.31786411623381933 0 -0.28083351200865853 0.30857298891500562 0 -0.29574151564778611 0.28671646758259889 0 -0.30402337591517081 0.3051012194244167 0 -0.28083351200865853 0.30857298891500562 0 -0.29574151564778611 0.28671646758259889 0 -0.28534189936007232 0.28197220440765719 0 -0.28083351200865853 0.30857298891500562 0 -0.28534189936007232 0.28197220440765719 0 -0.31282926066102218 0.28898266864613842 0 -0.29574151564778611 0.28671646758259889 0 -0.30402337591517081 0.3051012194244167 0 -0.31282926066102218 0.28898266864613842 0 -0.30403346053568642 0.27611708872161922 0 -0.29574151564778611 0.28671646758259889 0 -0.31282926066102218 0.28898266864613842 0 -0.30403346053568642 0.27611708872161922 0 -0.31282926066102218 0.28898266864613842 0 -0.30402337591517081 0.3051012194244167 0 -0.30402337591517081 0.3051012194244167 0 -0.29932851783868691 0.32736014762988469 0 -0.31456388983813333 0.31636814557902659 0 -0.29932851783868691 0.32736014762988469 0 -0.31400963374603508 0.33178692824556621 0 -0.31456388983813333 0.31636814557902659 0 -0.29582778577295937 0.3462701483728044 0 -0.31354931950312093 0.34747342072874071 0 -0.31400963374603508 0.33178692824556621 0 -0.29582778577295937 0.3462701483728044 0 -0.31400963374603508 0.33178692824556621 0 -0.29932851783868691 0.32736014762988469 0 -0.29582778577295937 0.3462701483728044 0 -0.31400963374603508 0.33178692824556621 0 -0.29932851783868691 0.32736014762988469 0 -0.27670802547122531 0.33291454828341721 0 -0.29582778577295937 0.3462701483728044 0 -0.27670802547122531 0.33291454828341721 0 -0.29582778577295937 0.3462701483728044 0 -0.28186865011063378 0.34863084123191301 0 -0.28083351200865853 0.30857298891500562 0 -0.30402337591517081 0.3051012194244167 0 -0.29932851783868691 0.32736014762988469 0 -0.28083351200865853 0.30857298891500562 0 -0.29932851783868691 0.32736014762988469 0 -0.28083351200865853 0.30857298891500562 0 -0.29932851783868691 0.32736014762988469 0 -0.27670802547122531 0.33291454828341721 0 -0.28083351200865853 0.30857298891500562 0 -0.27670802547122531 0.33291454828341721 0 -0.25757488899104952 0.31786411623381933 0 -0.28083351200865853 0.30857298891500562 0 -0.27670802547122531 0.33291454828341721 0 -0.27670802547122531 0.33291454828341721 0 -0.25757488899104952 0.31786411623381933 0 -0.25368472498167011 0.34420349485172652 0 -0.2613799420943046 0.36179346951182628 0 -0.25453646971320443 0.37462232419521813 0 -0.26689531734350652 0.36931705260985792 0 -0.2613799420943046 0.36179346951182628 0 -0.25453646971320443 0.37462232419521813 0 -0.24822911175635759 0.36217347122335058 0 -0.25368472498167011 0.34420349485172652 0 -0.27258253893379292 0.35725610765182902 0 -0.2613799420943046 0.36179346951182628 0 -0.25368472498167011 0.34420349485172652 0 -0.24822911175635759 0.36217347122335058 0 -0.2613799420943046 0.36179346951182628 0 -0.25368472498167011 0.34420349485172652 0 -0.27258253893379292 0.35725610765182902 0 -0.27670802547122531 0.33291454828341721 0 -0.27258253893379292 0.35725610765182902 0 -0.27670802547122531 0.33291454828341721 0 -0.27258253893379292 0.35725610765182902 0 -0.28186865011063378 0.34863084123191301 0 -0.27670802547122531 0.33291454828341721 0 -0.25368472498167011 0.34420349485172652 0 -0.27258253893379292 0.35725610765182902 0 -0.27258253893379292 0.35725610765182902 0 -0.27764593779988228 0.36075336850004069 0 -0.28186865011063378 0.34863084123191301 0 -0.27258253893379292 0.35725610765182902 0 -0.27764593779988228 0.36075336850004069 0 -0.27764593779988228 0.36075336850004069 0 -0.27110701654299552 0.36596211494311248 0 -0.28943519450698252 0.3688961411714532 0 -0.27110701654299552 0.36596211494311248 0 -0.28943519450698252 0.3688961411714532 0 -0.27110701654299552 0.36596211494311248 0 -0.28943519450698252 0.3688961411714532 0 -0.28084635904778937 0.37544065550995409 0 -0.27258253893379292 0.35725610765182902 0 -0.27764593779988228 0.36075336850004069 0 -0.27110701654299552 0.36596211494311248 0 -0.27764593779988228 0.36075336850004069 0 -0.27110701654299552 0.36596211494311248 0 -0.2613799420943046 0.36179346951182628 0 -0.27258253893379292 0.35725610765182902 0 -0.27110701654299552 0.36596211494311248 0 -0.2613799420943046 0.36179346951182628 0 -0.27110701654299552 0.36596211494311248 0 -0.26689531734350652 0.36931705260985792 0 -0.27258253893379292 0.35725610765182902 0 -0.27110701654299552 0.36596211494311248 0 -0.27110701654299552 0.36596211494311248 0 -0.26689531734350652 0.36931705260985792 0 -0.27110701654299552 0.36596211494311248 0 -0.28084635904778937 0.37544065550995409 0 -0.27663284499009211 0.37939207802828528 0 -0.28943519450698252 0.3688961411714532 0 -0.28685204816290072 0.37621819500323123 0 -0.28084635904778937 0.37544065550995409 0 -0.27764593779988228 0.36075336850004069 0 -0.28943519450698252 0.3688961411714532 0 -0.29551252006441958 0.37309371542857861 0 -0.28943519450698252 0.3688961411714532 0 -0.28685204816290072 0.37621819500323123 0 -0.29551252006441958 0.37309371542857861 0 -0.28943519450698252 0.3688961411714532 0 -0.27764593779988228 0.36075336850004069 0 -0.29582778577295937 0.3462701483728044 0 -0.27764593779988228 0.36075336850004069 0 -0.29582778577295937 0.3462701483728044 0 -0.28186865011063378 0.34863084123191301 0 -0.28943519450698252 0.3688961411714532 0 -0.29582778577295937 0.3462701483728044 0 -0.30300283950081008 0.36051339397403093 0 -0.27764593779988228 0.36075336850004069 0 -0.28943519450698252 0.3688961411714532 0 -0.29582778577295937 0.3462701483728044 0 -0.29582778577295937 0.3462701483728044 0 -0.30300283950081008 0.36051339397403093 0 -0.31354931950312093 0.34747342072874071 0 -0.28943519450698252 0.3688961411714532 0 -0.31408843612631249 0.37197903781600761 0 -0.28943519450698252 0.3688961411714532 0 -0.30300283950081008 0.36051339397403093 0 -0.31408843612631249 0.37197903781600761 0 -0.29551252006441958 0.37309371542857861 0 -0.28943519450698252 0.3688961411714532 0 -0.31408843612631249 0.37197903781600761 0 -0.30300283950081008 0.36051339397403093 0 -0.31408843612631249 0.37197903781600761 0 -0.32472866683278162 0.35786931268145811 0 -0.31408843612631249 0.37197903781600761 0 -0.32472866683278162 0.35786931268145811 0 -0.33874167774564268 0.3750619344605613 0 -0.31408843612631249 0.37197903781600761 0 -0.33874167774564268 0.3750619344605613 0 -0.33942470910854639 0.36092010030626542 0 -0.32472866683278162 0.35786931268145811 0 -0.33874167774564268 0.3750619344605613 0 -0.33942470910854639 0.36092010030626542 0 -0.3497530714632448 0.36534695126967459 0 -0.33874167774564268 0.3750619344605613 0 -0.33815763529499693 0.35089104021064632 0 -0.32472866683278162 0.35786931268145811 0 -0.33017767166301859 0.34092732036984391 0 -0.33815763529499693 0.35089104021064632 0 -0.33017767166301859 0.34092732036984391 0 -0.34251680356524339 0.34321741671518669 0 -0.33815763529499693 0.35089104021064632 0 -0.3460879504978186 0.35511096805544279 0 -0.34556584107983002 0.34849125976349993 0 -0.33815763529499693 0.35089104021064632 0 -0.34251680356524339 0.34321741671518669 0 -0.34556584107983002 0.34849125976349993 0 -0.33942470910854639 0.36092010030626542 0 -0.33815763529499693 0.35089104021064632 0 -0.3460879504978186 0.35511096805544279 0 -0.33942470910854639 0.36092010030626542 0 -0.33815763529499693 0.35089104021064632 0 -0.32472866683278162 0.35786931268145811 0 -0.31354931950312093 0.34747342072874071 0 -0.32472866683278162 0.35786931268145811 0 -0.33017767166301859 0.34092732036984391 0 -0.30300283950081008 0.36051339397403093 0 -0.31354931950312093 0.34747342072874071 0 -0.32472866683278162 0.35786931268145811 0 -0.31400963374603508 0.33178692824556621 0 -0.33219148171911272 0.31730370811833031 0 -0.33017767166301859 0.34092732036984391 0 -0.31354931950312093 0.34747342072874071 0 -0.31400963374603508 0.33178692824556621 0 -0.33017767166301859 0.34092732036984391 0 -0.31400963374603508 0.33178692824556621 0 -0.33219148171911272 0.31730370811833031 0 -0.31400963374603508 0.33178692824556621 0 -0.31456388983813333 0.31636814557902659 0 -0.33219148171911272 0.31730370811833031 0 -0.33477104767585758 0.31524888829805342 0 -0.33219148171911272 0.31730370811833031 0 -0.34795343649956839 0.3209401758966518 0 -0.33219148171911272 0.31730370811833031 0 -0.34725440703092858 0.33933618574797492 0 -0.34795343649956839 0.3209401758966518 0 -0.33396296217470239 0.30554582684384218 0 -0.33477104767585758 0.31524888829805342 0 -0.33219148171911272 0.31730370811833031 0 -0.33477104767585758 0.31524888829805342 0 -0.33219148171911272 0.31730370811833031 0 -0.34268428286429659 0.31215346041211978 0 -0.33477104767585758 0.31524888829805342 0 -0.34795343649956839 0.3209401758966518 0 -0.33219148171911272 0.31730370811833031 0 -0.34725440703092858 0.33933618574797492 0 -0.33219148171911272 0.31730370811833031 0 -0.33017767166301859 0.34092732036984391 0 -0.34725440703092858 0.33933618574797492 0 -0.33017767166301859 0.34092732036984391 0 -0.34251680356524339 0.34321741671518669 0 -0.34725440703092858 0.33933618574797492 0 -0.34725440703092858 0.33933618574797492 0 -0.34795343649956839 0.3209401758966518 0 -0.36531193472093021 0.32454274932608829 0 -0.34251680356524339 0.34321741671518669 0 -0.35002774160894051 0.34339273059465159 0 -0.34725440703092858 0.33933618574797492 0 -0.34725440703092858 0.33933618574797492 0 -0.35848812135385522 0.33902175933596412 0 -0.36531193472093021 0.32454274932608829 0 -0.34725440703092858 0.33933618574797492 0 -0.36531193472093021 0.32454274932608829 0 -0.34251680356524339 0.34321741671518669 0 -0.34725440703092858 0.33933618574797492 0 -0.35002774160894051 0.34339273059465159 0 -0.34725440703092858 0.33933618574797492 0 -0.35002774160894051 0.34339273059465159 0 -0.35848812135385522 0.33902175933596412 0 -0.35712059876301439 0.34740413424876382 0 -0.35002774160894051 0.34339273059465159 0 -0.34725440703092858 0.33933618574797492 0 -0.35848812135385522 0.33902175933596412 0 -0.34795343649956839 0.3209401758966518 0 -0.35774913989266272 0.31391262040183171 0 -0.36531193472093021 0.32454274932608829 0 -0.35013945535461871 0.3105838988596446 0 -0.34268428286429659 0.31215346041211978 0 -0.34795343649956839 0.3209401758966518 0 -0.35013945535461871 0.3105838988596446 0 -0.34795343649956839 0.3209401758966518 0 -0.35774913989266272 0.31391262040183171 0 -0.38336946241093189 0.30974931290420182 0 -0.36596935852520629 0.30787018431111951 0 -0.36531193472093021 0.32454274932608829 0 -0.36596935852520629 0.30787018431111951 0 -0.35774913989266272 0.31391262040183171 0 -0.36531193472093021 0.32454274932608829 0 -0.37580907906339922 0.33647878059299557 0 -0.38201615891261242 0.31564575533693578 0 -0.36531193472093021 0.32454274932608829 0 -0.38336946241093189 0.30974931290420182 0 -0.36531193472093021 0.32454274932608829 0 -0.35848812135385522 0.33902175933596412 0 -0.36629538785756799 0.33494858662202331 0 -0.36491865814174967 0.34450616947628299 0 -0.35848812135385522 0.33902175933596412 0 -0.36491865814174967 0.34450616947628299 0 -0.35712059876301439 0.34740413424876382 0 -0.35848812135385522 0.33902175933596412 0 -0.36531193472093021 0.32454274932608829 0 -0.36629538785756799 0.33494858662202331 0 -0.37580907906339922 0.33647878059299557 0 -0.36531193472093021 0.32454274932608829 0 -0.36629538785756799 0.33494858662202331 0 -0.37580907906339922 0.33647878059299557 0 -0.36629538785756799 0.33494858662202331 0 -0.36491865814174967 0.34450616947628299 0 -0.37580907906339922 0.33647878059299557 0 -0.36491865814174967 0.34450616947628299 0 -0.36960199921418602 0.35731180584905542 0 -0.37580907906339922 0.33647878059299557 0 -0.36960199921418602 0.35731180584905542 0 -0.36491865814174967 0.34450616947628299 0 -0.36204010283369881 0.35293053614415609 0 -0.35712059876301439 0.34740413424876382 0 -0.36491865814174967 0.34450616947628299 0 -0.36204010283369881 0.35293053614415609 0 -0.36960199921418602 0.35731180584905542 0 -0.36231373349064938 0.3583368008115923 0 -0.36204010283369881 0.35293053614415609 0 -0.35577634304253192 0.35617190760009498 0 -0.36231373349064938 0.3583368008115923 0 -0.36204010283369881 0.35293053614415609 0 -0.36960199921418602 0.35731180584905542 0 -0.36960199921418602 0.35731180584905542 0 -0.36339491936497281 0.37814483110511521 0 -0.36960199921418602 0.35731180584905542 0 -0.37158620997362618 0.36500042586936587 0 -0.36339491936497281 0.37814483110511521 0 -0.36960199921418602 0.35731180584905542 0 -0.36108579844600058 0.36545797327707619 0 -0.36339491936497281 0.37814483110511521 0 -0.38141148745950948 0.38039780936179463 0 -0.37158620997362618 0.36500042586936587 0 -0.36339491936497281 0.37814483110511521 0 -0.38070440212728118 0.35956436367519867 0 -0.36960199921418602 0.35731180584905542 0 -0.37158620997362618 0.36500042586936587 0 -0.36231373349064938 0.3583368008115923 0 -0.36108579844600058 0.36545797327707619 0 -0.35577634304253192 0.35617190760009498 0 -0.36231373349064938 0.3583368008115923 0 -0.36960199921418602 0.35731180584905542 0 -0.36108579844600058 0.36545797327707619 0 -0.36108579844600058 0.36545797327707619 0 -0.3497530714632448 0.36534695126967459 0 -0.35577634304253192 0.35617190760009498 0 -0.3497530714632448 0.36534695126967459 0 -0.36339491936497281 0.37814483110511521 0 -0.33874167774564268 0.3750619344605613 0 -0.36108579844600058 0.36545797327707619 0 -0.3497530714632448 0.36534695126967459 0 -0.36339491936497281 0.37814483110511521 0 -0.33942470910854639 0.36092010030626542 0 -0.3497530714632448 0.36534695126967459 0 -0.3460879504978186 0.35511096805544279 0 -0.3497530714632448 0.36534695126967459 0 -0.3460879504978186 0.35511096805544279 0 -0.35577634304253192 0.35617190760009498 0 -0.3460879504978186 0.35511096805544279 0 -0.35103907443215082 0.34984414324157243 0 -0.35577634304253192 0.35617190760009498 0 -0.3460879504978186 0.35511096805544279 0 -0.34556584107983002 0.34849125976349993 0 -0.35103907443215082 0.34984414324157243 0 -0.34251680356524339 0.34321741671518669 0 -0.35002774160894051 0.34339273059465159 0 -0.34556584107983002 0.34849125976349993 0 -0.35002774160894051 0.34339273059465159 0 -0.34556584107983002 0.34849125976349993 0 -0.35103907443215082 0.34984414324157243 0 -0.35103907443215082 0.34984414324157243 0 -0.35712059876301439 0.34740413424876382 0 -0.35577634304253192 0.35617190760009498 0 -0.35002774160894051 0.34339273059465159 0 -0.35103907443215082 0.34984414324157243 0 -0.35712059876301439 0.34740413424876382 0 -0.36204010283369881 0.35293053614415609 0 -0.35712059876301439 0.34740413424876382 0 -0.35577634304253192 0.35617190760009498 0 -0.35746143571760969 0.39805957647408341 0 -0.33700984602307921 0.4055687403903776 0 -0.35746143571760969 0.39805957647408341 0 -0.36339491936497281 0.37814483110511521 0 -0.33874167774564268 0.3750619344605613 0 -0.36339491936497281 0.37814483110511521 0 -0.33874167774564268 0.3750619344605613 0 -0.38141148745950948 0.38039780936179463 0 -0.37844474563582792 0.390355182046278 0 -0.36339491936497281 0.37814483110511521 0 -0.37844474563582792 0.390355182046278 0 -0.35746143571760969 0.39805957647408341 0 -0.36339491936497281 0.37814483110511521 0 -0.35746143571760969 0.39805957647408341 0 -0.36339491936497281 0.37814483110511521 0 -0.38141148745950948 0.38039780936179463 0 -0.36339491936497281 0.37814483110511521 0 -0.37668454372729859 0.41206883315114529 0 -0.37844474563582792 0.390355182046278 0 -0.35746143571760969 0.39805957647408341 0 -0.37844474563582792 0.390355182046278 0 -0.35746143571760969 0.39805957647408341 0 -0.37668454372729859 0.41206883315114529 0 -0.36778315087773072 0.43214877602771662 0 -0.35179051953527918 0.41709305806631919 0 -0.37668454372729859 0.41206883315114529 0 -0.35746143571760969 0.39805957647408341 0 -0.35179051953527918 0.41709305806631919 0 -0.37668454372729859 0.41206883315114529 0 -0.35179051953527918 0.41709305806631919 0 -0.36778315087773072 0.43214877602771662 0 -0.35179051953527918 0.41709305806631919 0 -0.34355933144160938 0.44471966407244162 0 -0.35179051953527918 0.41709305806631919 0 -0.34355933144160938 0.44471966407244162 0 -0.35746143571760969 0.39805957647408341 0 -0.35179051953527918 0.41709305806631919 0 -0.33700984602307921 0.4055687403903776 0 -0.35746143571760969 0.39805957647408341 0 -0.35179051953527918 0.41709305806631919 0 -0.35179051953527918 0.41709305806631919 0 -0.33092261172728182 0.42130471390500562 0 -0.33700984602307921 0.4055687403903776 0 -0.35179051953527918 0.41709305806631919 0 -0.33092261172728182 0.42130471390500562 0 -0.33092261172728182 0.42130471390500562 0 -0.31655825632854873 0.41307790430667191 0 -0.33700984602307921 0.4055687403903776 0 -0.35179051953527918 0.41709305806631919 0 -0.33092261172728182 0.42130471390500562 0 -0.34355933144160938 0.44471966407244162 0 -0.33092261172728182 0.42130471390500562 0 -0.32304151796324199 0.43794530689545591 0 -0.34355933144160938 0.44471966407244162 0 -0.33092261172728182 0.42130471390500562 0 -0.31005470391928353 0.42551636974368717 0 -0.32304151796324199 0.43794530689545591 0 -0.33092261172728182 0.42130471390500562 0 -0.31005470391928353 0.42551636974368717 0 -0.31005470391928353 0.42551636974368717 0 -0.30636015846579262 0.44081646755455739 0 -0.32304151796324199 0.43794530689545591 0 -0.31655825632854873 0.41307790430667191 0 -0.32178824989383492 0.40044082628072353 0 -0.33700984602307921 0.4055687403903776 0 -0.33092261172728182 0.42130471390500562 0 -0.31655825632854873 0.41307790430667191 0 -0.31005470391928353 0.42551636974368717 0 -0.31655825632854873 0.41307790430667191 0 -0.33700984602307921 0.4055687403903776 0 -0.31655825632854873 0.41307790430667191 0 -0.32178824989383492 0.40044082628072353 0 -0.30820761894760612 0.40180007281058999 0 -0.31589124725359768 0.39098578459502642 0 -0.32178824989383492 0.40044082628072353 0 -0.30820761894760612 0.40180007281058999 0 -0.31589124725359768 0.39098578459502642 0 -0.32178824989383492 0.40044082628072353 0 -0.33127428091634248 0.39077162930095188 0 -0.35746143571760969 0.39805957647408341 0 -0.33127428091634248 0.39077162930095188 0 -0.33700984602307921 0.4055687403903776 0 -0.32178824989383492 0.40044082628072353 0 -0.33127428091634248 0.39077162930095188 0 -0.33700984602307921 0.4055687403903776 0 -0.35746143571760969 0.39805957647408341 0 -0.33127428091634248 0.39077162930095188 0 -0.33874167774564268 0.3750619344605613 0 -0.31408843612631249 0.37197903781600761 0 -0.33127428091634248 0.39077162930095188 0 -0.33874167774564268 0.3750619344605613 0 -0.31408843612631249 0.37197903781600761 0 -0.31589124725359768 0.39098578459502642 0 -0.33127428091634248 0.39077162930095188 0 -0.29551252006441958 0.37309371542857861 0 -0.31408843612631249 0.37197903781600761 0 -0.30568017353146049 0.38157918508743732 0 -0.31408843612631249 0.37197903781600761 0 -0.31589124725359768 0.39098578459502642 0 -0.30568017353146049 0.38157918508743732 0 -0.31589124725359768 0.39098578459502642 0 -0.30568017353146049 0.38157918508743732 0 -0.30603649680964828 0.39194203915736708 0 -0.30568017353146049 0.38157918508743732 0 -0.29743858983336929 0.38628170497916159 0 -0.30603649680964828 0.39194203915736708 0 -0.29551252006441958 0.37309371542857861 0 -0.30568017353146049 0.38157918508743732 0 -0.29743858983336929 0.38628170497916159 0 -0.31589124725359768 0.39098578459502642 0 -0.30820761894760612 0.40180007281058999 0 -0.30603649680964828 0.39194203915736708 0 -0.30820761894760612 0.40180007281058999 0 -0.30603649680964828 0.39194203915736708 0 -0.29604813782321171 0.40003827384795049 0 -0.29743858983336929 0.38628170497916159 0 -0.30603649680964828 0.39194203915736708 0 -0.29604813782321171 0.40003827384795049 0 -0.30820761894760612 0.40180007281058999 0 -0.29604813782321171 0.40003827384795049 0 -0.2987408814332651 0.40933989620534528 0 -0.29604813782321171 0.40003827384795049 0 -0.28905057763704689 0.40562835892549581 0 -0.28392778011776681 0.39892722844600809 0 -0.29604813782321171 0.40003827384795049 0 -0.28905057763704689 0.40562835892549581 0 -0.2987408814332651 0.40933989620534528 0 -0.29604813782321171 0.40003827384795049 0 -0.28980128107673031 0.39400368344191522 0 -0.28392778011776681 0.39892722844600809 0 -0.29743858983336929 0.38628170497916159 0 -0.29604813782321171 0.40003827384795049 0 -0.28980128107673031 0.39400368344191522 0 -0.28980128107673031 0.39400368344191522 0 -0.28179061653257348 0.3907675264945405 0 -0.28392778011776681 0.39892722844600809 0 -0.28905057763704689 0.40562835892549581 0 -0.28392778011776681 0.39892722844600809 0 -0.27817781655911977 0.40726136879628272 0 -0.29743858983336929 0.38628170497916159 0 -0.28980128107673031 0.39400368344191522 0 -0.28179061653257348 0.3907675264945405 0 -0.29743858983336929 0.38628170497916159 0 -0.28179061653257348 0.3907675264945405 0 -0.28819376848868639 0.38228739672622841 0 -0.29743858983336929 0.38628170497916159 0 -0.28179061653257348 0.3907675264945405 0 -0.29551252006441958 0.37309371542857861 0 -0.29743858983336929 0.38628170497916159 0 -0.28819376848868639 0.38228739672622841 0 -0.29551252006441958 0.37309371542857861 0 -0.28819376848868639 0.38228739672622841 0 -0.28685204816290072 0.37621819500323123 0 -0.28179061653257348 0.3907675264945405 0 -0.28158428542699082 0.38279668863870758 0 -0.28819376848868639 0.38228739672622841 0 -0.28158428542699082 0.38279668863870758 0 -0.28819376848868639 0.38228739672622841 0 -0.28685204816290072 0.37621819500323123 0 -0.28158428542699082 0.38279668863870758 0 -0.28685204816290072 0.37621819500323123 0 -0.28084635904778937 0.37544065550995409 0 -0.27110701654299552 0.36596211494311248 0 -0.26614264323177789 0.39525334800991979 0 -0.27110701654299552 0.36596211494311248 0 -0.27663284499009211 0.37939207802828528 0 -0.27229768174870289 0.38438446135480281 0 -0.27110701654299552 0.36596211494311248 0 -0.27229768174870289 0.38438446135480281 0 -0.26614264323177789 0.39525334800991979 0 -0.27110701654299552 0.36596211494311248 0 -0.26689531734350652 0.36931705260985792 0 -0.26614264323177789 0.39525334800991979 0 -0.28158428542699082 0.38279668863870758 0 -0.28084635904778937 0.37544065550995409 0 -0.27663284499009211 0.37939207802828528 0 -0.27229768174870289 0.38438446135480281 0 -0.27641046434025379 0.38710393959788297 0 -0.26614264323177789 0.39525334800991979 0 -0.28179061653257348 0.3907675264945405 0 -0.28158428542699082 0.38279668863870758 0 -0.27641046434025379 0.38710393959788297 0 -0.27663284499009211 0.37939207802828528 0 -0.27229768174870289 0.38438446135480281 0 -0.27641046434025379 0.38710393959788297 0 -0.28158428542699082 0.38279668863870758 0 -0.27663284499009211 0.37939207802828528 0 -0.27641046434025379 0.38710393959788297 0 -0.28179061653257348 0.3907675264945405 0 -0.27641046434025379 0.38710393959788297 0 -0.26614264323177789 0.39525334800991979 0 -0.28179061653257348 0.3907675264945405 0 -0.27661435207820328 0.39472461325581981 0 -0.26614264323177789 0.39525334800991979 0 -0.28179061653257348 0.3907675264945405 0 -0.28392778011776681 0.39892722844600809 0 -0.27661435207820328 0.39472461325581981 0 -0.28179061653257348 0.3907675264945405 0 -0.26614264323177789 0.39525334800991979 0 -0.28392778011776681 0.39892722844600809 0 -0.27661435207820328 0.39472461325581981 0 -0.27572094251528112 0.40196054452149499 0 -0.28392778011776681 0.39892722844600809 0 -0.27572094251528112 0.40196054452149499 0 -0.27817781655911977 0.40726136879628272 0 -0.27572094251528112 0.40196054452149499 0 -0.26416382130603389 0.40692896758786917 0 -0.27817781655911977 0.40726136879628272 0 -0.27661435207820328 0.39472461325581981 0 -0.27572094251528112 0.40196054452149499 0 -0.26416382130603389 0.40692896758786917 0 -0.27661435207820328 0.39472461325581981 0 -0.26614264323177789 0.39525334800991979 0 -0.26416382130603389 0.40692896758786917 0 -0.27661435207820328 0.39472461325581981 0 -0.26416382130603389 0.40692896758786917 0 -0.26614264323177789 0.39525334800991979 0 -0.24781733580734391 0.38604582424895789 0 -0.24388213391773941 0.40163479241199579 0 -0.26614264323177789 0.39525334800991979 0 -0.25157066981256843 0.40894445920752592 0 -0.24388213391773941 0.40163479241199579 0 -0.26614264323177789 0.39525334800991979 0 -0.24388213391773941 0.40163479241199579 0 -0.26614264323177789 0.39525334800991979 0 -0.26416382130603389 0.40692896758786917 0 -0.26614264323177789 0.39525334800991979 0 -0.25157066981256843 0.40894445920752592 0 -0.26416382130603389 0.40692896758786917 0 -0.25453646971320443 0.37462232419521813 0 -0.26614264323177789 0.39525334800991979 0 -0.24781733580734391 0.38604582424895789 0 -0.25453646971320443 0.37462232419521813 0 -0.26689531734350652 0.36931705260985792 0 -0.26614264323177789 0.39525334800991979 0 -0.26107936510946472 0.42512814796255138 0 -0.25799490891289278 0.4433273283372331 0 -0.26107936510946472 0.42512814796255138 0 -0.27138668263498972 0.43431468825499642 0 -0.25799490891289278 0.4433273283372331 0 -0.26107936510946472 0.42512814796255138 0 -0.25799490891289278 0.4433273283372331 0 -0.24263019791012411 0.42803682032005991 0 -0.25799490891289278 0.4433273283372331 0 -0.24263019791012411 0.42803682032005991 0 -0.26107936510946472 0.42512814796255138 0 -0.26416382130603389 0.40692896758786917 0 -0.26107936510946472 0.42512814796255138 0 -0.26416382130603389 0.40692896758786917 0 -0.24263019791012411 0.42803682032005991 0 -0.26416382130603389 0.40692896758786917 0 -0.24263019791012411 0.42803682032005991 0 -0.25157066981256843 0.40894445920752592 0 -0.26416382130603389 0.40692896758786917 0 -0.24263019791012411 0.42803682032005991 0 -0.26107936510946472 0.42512814796255138 0 -0.26416382130603389 0.40692896758786917 0 -0.27370875903762831 0.41905129137381081 0 -0.26416382130603389 0.40692896758786917 0 -0.27817781655911977 0.40726136879628272 0 -0.27370875903762831 0.41905129137381081 0 -0.27817781655911977 0.40726136879628272 0 -0.27370875903762831 0.41905129137381081 0 -0.28647403122915938 0.41490769911839809 0 -0.27370875903762831 0.41905129137381081 0 -0.27138668263498972 0.43431468825499642 0 -0.28359142860916292 0.42646623900898489 0 -0.26107936510946472 0.42512814796255138 0 -0.27370875903762831 0.41905129137381081 0 -0.27138668263498972 0.43431468825499642 0 -0.27138668263498972 0.43431468825499642 0 -0.28359142860916292 0.42646623900898489 0 -0.28426041238301858 0.43930471826406531 0 -0.28359142860916292 0.42646623900898489 0 -0.29576073289665422 0.43347565529899762 0 -0.28426041238301858 0.43930471826406531 0 -0.28359142860916292 0.42646623900898489 0 -0.29576073289665422 0.43347565529899762 0 -0.29610666663401819 0.4205870682229661 0 -0.28905057763704689 0.40562835892549581 0 -0.27817781655911977 0.40726136879628272 0 -0.28647403122915938 0.41490769911839809 0 -0.27370875903762831 0.41905129137381081 0 -0.28359142860916292 0.42646623900898489 0 -0.28647403122915938 0.41490769911839809 0 -0.28359142860916292 0.42646623900898489 0 -0.28647403122915938 0.41490769911839809 0 -0.29610666663401819 0.4205870682229661 0 -0.28647403122915938 0.41490769911839809 0 -0.29610666663401819 0.4205870682229661 0 -0.2987408814332651 0.40933989620534528 0 -0.28905057763704689 0.40562835892549581 0 -0.28647403122915938 0.41490769911839809 0 -0.2987408814332651 0.40933989620534528 0 -0.31655825632854873 0.41307790430667191 0 -0.29610666663401819 0.4205870682229661 0 -0.2987408814332651 0.40933989620534528 0 -0.31655825632854873 0.41307790430667191 0 -0.29610666663401819 0.4205870682229661 0 -0.31005470391928353 0.42551636974368717 0 -0.31655825632854873 0.41307790430667191 0 -0.29610666663401819 0.4205870682229661 0 -0.31655825632854873 0.41307790430667191 0 -0.30820761894760612 0.40180007281058999 0 -0.2987408814332651 0.40933989620534528 0 -0.29576073289665422 0.43347565529899762 0 -0.31005470391928353 0.42551636974368717 0 -0.30636015846579262 0.44081646755455739 0 -0.29576073289665422 0.43347565529899762 0 -0.29610666663401819 0.4205870682229661 0 -0.31005470391928353 0.42551636974368717 0 -0.29576073289665422 0.43347565529899762 0 -0.30636015846579262 0.44081646755455739 0 -0.2944743431310044 0.45228094752776682 0 -0.30636015846579262 0.44081646755455739 0 -0.30512100021830008 0.46490456032657962 0 -0.30636015846579262 0.44081646755455739 0 -0.30512100021830008 0.46490456032657962 0 -0.2944743431310044 0.45228094752776682 0 -0.30636015846579262 0.44081646755455739 0 -0.30512100021830008 0.46490456032657962 0 -0.32381548421637429 0.45642326981327008 0 -0.30512100021830008 0.46490456032657962 0 -0.2944743431310044 0.45228094752776682 0 -0.28858619761816889 0.47377087817814589 0 -0.2944743431310044 0.45228094752776682 0 -0.27329055326553048 0.45854910325768988 0 -0.28858619761816889 0.47377087817814589 0 -0.2944743431310044 0.45228094752776682 0 -0.28426041238301858 0.43930471826406531 0 -0.27329055326553048 0.45854910325768988 0 -0.29576073289665422 0.43347565529899762 0 -0.2944743431310044 0.45228094752776682 0 -0.28426041238301858 0.43930471826406531 0 -0.27138668263498972 0.43431468825499642 0 -0.28426041238301858 0.43930471826406531 0 -0.27329055326553048 0.45854910325768988 0 -0.27138668263498972 0.43431468825499642 0 -0.27329055326553048 0.45854910325768988 0 -0.25799490891289278 0.4433273283372331 0 -0.27329055326553048 0.45854910325768988 0 -0.25799490891289278 0.4433273283372331 0 -0.27329055326553048 0.45854910325768988 0 -0.28858619761816889 0.47377087817814589 0 -0.27329055326553048 0.45854910325768988 0 -0.25438198006151169 0.46464464965965441 0 -0.25799490891289278 0.4433273283372331 0 -0.27329055326553048 0.45854910325768988 0 -0.25438198006151169 0.46464464965965441 0 -0.26859377699614329 0.4811575177290362 0 -0.25438198006151169 0.46464464965965441 0 -0.25799490891289278 0.4433273283372331 0 -0.25438198006151169 0.46464464965965441 0 -0.25799490891289278 0.4433273283372331 0 -0.24356894722331929 0.44821508210096461 0 -0.25080144613104921 0.5 0 -0.26859377699614329 0.4811575177290362 0 -0.2467553297522557 0.48147402383551691 0 -0.25080144613104921 0.5 0 -0.26859377699614329 0.4811575177290362 0 -0.27705851983630159 0.5 0 -0.25438198006151169 0.46464464965965441 0 -0.26859377699614329 0.4811575177290362 0 -0.2467553297522557 0.48147402383551691 0 -0.27329055326553048 0.45854910325768988 0 -0.26859377699614329 0.4811575177290362 0 -0.28858619761816889 0.47377087817814589 0 -0.26859377699614329 0.4811575177290362 0 -0.27705851983630159 0.5 0 -0.28830299895955541 0.48893487857068268 0 -0.27705851983630159 0.5 0 -0.28830299895955541 0.48893487857068268 0 -0.30331559354155391 0.49999999999999939 0 -0.26859377699614329 0.4811575177290362 0 -0.28830299895955541 0.48893487857068268 0 -0.28858619761816889 0.47377087817814589 0 -0.28830299895955541 0.48893487857068268 0 -0.28858619761816889 0.47377087817814589 0 -0.30388184197080759 0.48899265309860168 0 -0.28858619761816889 0.47377087817814589 0 -0.30388184197080759 0.48899265309860168 0 -0.30512100021830008 0.46490456032657962 0 -0.30388184197080759 0.48899265309860168 0 -0.30512100021830008 0.46490456032657962 0 -0.30388184197080759 0.48899265309860168 0 -0.31654611508668351 0.48621885406126381 0 -0.30512100021830008 0.46490456032657962 0 -0.28858619761816889 0.47377087817814589 0 -0.30388184197080759 0.48899265309860168 0 -0.30331559354155391 0.49999999999999939 0 -0.30388184197080759 0.48899265309860168 0 -0.28830299895955541 0.48893487857068268 0 -0.30331559354155391 0.49999999999999939 0 -0.30388184197080759 0.48899265309860168 0 -0.30388184197080759 0.48899265309860168 0 -0.31494260619507058 0.500000000000002 0 -0.31654611508668351 0.48621885406126381 0 -0.30331559354155391 0.49999999999999939 0 -0.30388184197080759 0.48899265309860168 0 -0.31494260619507058 0.500000000000002 0 -0.30388184197080759 0.48899265309860168 0 -0.31494260619507058 0.500000000000002 0 -0.31654611508668351 0.48621885406126381 0 -0.33275791060477139 0.5 0 -0.32602721644446891 0.47719705688113462 0 -0.31494260619507058 0.500000000000002 0 -0.31654611508668351 0.48621885406126381 0 -0.33275791060477139 0.5 0 -0.33275791060477139 0.5 0 -0.34200011506365208 0.48331572161184322 0 -0.32602721644446891 0.47719705688113462 0 -0.33275791060477139 0.5 0 -0.34200011506365208 0.48331572161184322 0 -0.35057321501447208 0.49999999999999872 0 -0.34200011506365208 0.48331572161184322 0 -0.32602721644446891 0.47719705688113462 0 -0.33593075250063148 0.46750731867274542 0 -0.34200011506365208 0.48331572161184322 0 -0.33593075250063148 0.46750731867274542 0 -0.35201810675435108 0.4676562019538536 0 -0.30512100021830008 0.46490456032657962 0 -0.31654611508668351 0.48621885406126381 0 -0.32602721644446891 0.47719705688113462 0 -0.30512100021830008 0.46490456032657962 0 -0.32602721644446891 0.47719705688113462 0 -0.32381548421637429 0.45642326981327008 0 -0.30636015846579262 0.44081646755455739 0 -0.32381548421637429 0.45642326981327008 0 -0.32304151796324199 0.43794530689545591 0 -0.32381548421637429 0.45642326981327008 0 -0.32304151796324199 0.43794530689545591 0 -0.34355933144160938 0.44471966407244162 0 -0.32381548421637429 0.45642326981327008 0 -0.34355933144160938 0.44471966407244162 0 -0.33593075250063148 0.46750731867274542 0 -0.32602721644446891 0.47719705688113462 0 -0.32381548421637429 0.45642326981327008 0 -0.33593075250063148 0.46750731867274542 0 -0.35201810675435108 0.4676562019538536 0 -0.36028404822733179 0.44939908513577981 0 -0.36566353784044697 0.46257036423753561 0 -0.34355933144160938 0.44471966407244162 0 -0.35201810675435108 0.4676562019538536 0 -0.36028404822733179 0.44939908513577981 0 -0.34355933144160938 0.44471966407244162 0 -0.33593075250063148 0.46750731867274542 0 -0.35201810675435108 0.4676562019538536 0 -0.36778315087773072 0.43214877602771662 0 -0.34355933144160938 0.44471966407244162 0 -0.36028404822733179 0.44939908513577981 0 -0.36778315087773072 0.43214877602771662 0 -0.36028404822733179 0.44939908513577981 0 -0.37376195539900242 0.45249759326054367 0 -0.37701653082709469 0.46900635458093531 0 -0.37376195539900242 0.45249759326054367 0 -0.36566353784044697 0.46257036423753561 0 -0.36028404822733179 0.44939908513577981 0 -0.37376195539900242 0.45249759326054367 0 -0.36566353784044697 0.46257036423753561 0 -0.36552159823955549 0.47691699748014749 0 -0.37220834978290879 0.49000150617251997 0 -0.35595833756876799 0.48470827593500232 0 -0.37701653082709469 0.46900635458093531 0 -0.36566353784044697 0.46257036423753561 0 -0.36552159823955549 0.47691699748014749 0 -0.37805640255927542 0.47903421333972468 0 -0.37701653082709469 0.46900635458093531 0 -0.36552159823955549 0.47691699748014749 0 -0.35201810675435108 0.4676562019538536 0 -0.36566353784044697 0.46257036423753561 0 -0.36552159823955549 0.47691699748014749 0 -0.37805640255927542 0.47903421333972468 0 -0.36552159823955549 0.47691699748014749 0 -0.37220834978290879 0.49000150617251997 0 -0.37220834978290879 0.49000150617251997 0 -0.35057321501447208 0.49999999999999872 0 -0.35595833756876799 0.48470827593500232 0 -0.37789332191386737 0.5 0 -0.37220834978290879 0.49000150617251997 0 -0.35057321501447208 0.49999999999999872 0 -0.37220834978290879 0.49000150617251997 0 -0.35057321501447208 0.49999999999999872 0 -0.34200011506365208 0.48331572161184322 0 -0.35057321501447208 0.49999999999999872 0 -0.35595833756876799 0.48470827593500232 0 -0.34200011506365208 0.48331572161184322 0 -0.35201810675435108 0.4676562019538536 0 -0.35595833756876799 0.48470827593500232 0 -0.35201810675435108 0.4676562019538536 0 -0.36552159823955549 0.47691699748014749 0 -0.35595833756876799 0.48470827593500232 0 -0.142080771754234 0.48212662116497451 0 -0.14744519938683801 0.47523243684594829 0 -0.1380962150490555 0.47248515407185221 0 -0.142080771754234 0.48212662116497451 0 -0.14744519938683801 0.47523243684594829 0 -0.15313912830386001 0.48632871978955722 0 -0.14744519938683801 0.47523243684594829 0 -0.1380962150490555 0.47248515407185221 0 -0.1446941887002707 0.46454185114692792 0 -0.14744519938683801 0.47523243684594829 0 -0.1446941887002707 0.46454185114692792 0 -0.15815775643206659 0.473198332503178 0 -0.14744519938683801 0.47523243684594829 0 -0.15313912830386001 0.48632871978955722 0 -0.15815775643206659 0.473198332503178 0 -0.142080771754234 0.48212662116497451 0 -0.15313912830386001 0.48632871978955722 0 -0.13803845513632401 0.5 0 -0.15313912830386001 0.48632871978955722 0 -0.13803845513632401 0.5 0 -0.1663114266205577 0.50000000000000011 0 -0.142080771754234 0.48212662116497451 0 -0.13803845513632401 0.5 0 -0.12908554574303099 0.47755934496718438 0 -0.13803845513632401 0.5 0 -0.12908554574303099 0.47755934496718438 0 -0.1160402402672886 0.48503019582547341 0 -0.142080771754234 0.48212662116497451 0 -0.12908554574303099 0.47755934496718438 0 -0.1380962150490555 0.47248515407185221 0 -0.12908554574303099 0.47755934496718438 0 -0.1380962150490555 0.47248515407185221 0 -0.13097929143795109 0.46459511115351071 0 -0.12908554574303099 0.47755934496718438 0 -0.13097929143795109 0.46459511115351071 0 -0.1176294132596279 0.46872710166108278 0 -0.13097929143795109 0.46459511115351071 0 -0.1351896940807357 0.45304119368279389 0 -0.1204057133641486 0.45504160574272429 0 -0.13097929143795109 0.46459511115351071 0 -0.1351896940807357 0.45304119368279389 0 -0.1446941887002707 0.46454185114692792 0 -0.1380962150490555 0.47248515407185221 0 -0.13097929143795109 0.46459511115351071 0 -0.1446941887002707 0.46454185114692792 0 -0.1351896940807357 0.45304119368279389 0 -0.13889501351409689 0.43598263237980822 0 -0.1242648033483075 0.43981492828754482 0 -0.1351896940807357 0.45304119368279389 0 -0.1242648033483075 0.43981492828754482 0 -0.1204057133641486 0.45504160574272429 0 -0.15017718620881049 0.45777983735391498 0 -0.13889501351409689 0.43598263237980822 0 -0.1351896940807357 0.45304119368279389 0 -0.15017718620881049 0.45777983735391498 0 -0.13889501351409689 0.43598263237980822 0 -0.15995177900170021 0.44572512983606088 0 -0.15376963845050121 0.4328235067909087 0 -0.13889501351409689 0.43598263237980822 0 -0.15017718620881049 0.45777983735391498 0 -0.15995177900170021 0.44572512983606088 0 -0.13889501351409689 0.43598263237980822 0 -0.15017718620881049 0.45777983735391498 0 -0.15995177900170021 0.44572512983606088 0 -0.1446941887002707 0.46454185114692792 0 -0.15017718620881049 0.45777983735391498 0 -0.1351896940807357 0.45304119368279389 0 -0.1446941887002707 0.46454185114692792 0 -0.15017718620881049 0.45777983735391498 0 -0.1446941887002707 0.46454185114692792 0 -0.15017718620881049 0.45777983735391498 0 -0.15815775643206659 0.473198332503178 0 -0.15017718620881049 0.45777983735391498 0 -0.15868634814382429 0.46531473325554851 0 -0.15815775643206659 0.473198332503178 0 -0.15017718620881049 0.45777983735391498 0 -0.15815775643206659 0.473198332503178 0 -0.160558198289461 0.46047642425523388 0 -0.1655661766345953 0.45099185016729298 0 -0.16585225164495951 0.46980433890986678 0 -0.1655661766345953 0.45099185016729298 0 -0.17867327812258871 0.46114583139567922 0 -0.16585225164495951 0.46980433890986678 0 -0.1655661766345953 0.45099185016729298 0 -0.16585225164495951 0.46980433890986678 0 -0.15868634814382429 0.46531473325554851 0 -0.160558198289461 0.46047642425523388 0 -0.16585225164495951 0.46980433890986678 0 -0.15017718620881049 0.45777983735391498 0 -0.15868634814382429 0.46531473325554851 0 -0.160558198289461 0.46047642425523388 0 -0.15017718620881049 0.45777983735391498 0 -0.160558198289461 0.46047642425523388 0 -0.15995177900170021 0.44572512983606088 0 -0.15995177900170021 0.44572512983606088 0 -0.1655661766345953 0.45099185016729298 0 -0.1697263717945888 0.43367042231820602 0 -0.160558198289461 0.46047642425523388 0 -0.15995177900170021 0.44572512983606088 0 -0.1655661766345953 0.45099185016729298 0 -0.15995177900170021 0.44572512983606088 0 -0.1697263717945888 0.43367042231820602 0 -0.1655661766345953 0.45099185016729298 0 -0.1926513277646352 0.45119866261047992 0 -0.1697263717945888 0.43367042231820602 0 -0.1926513277646352 0.45119866261047992 0 -0.1697263717945888 0.43367042231820602 0 -0.1926513277646352 0.45119866261047992 0 -0.18693863061853061 0.43491447939059907 0 -0.1697263717945888 0.43367042231820602 0 -0.1655661766345953 0.45099185016729298 0 -0.17867327812258871 0.46114583139567922 0 -0.1926513277646352 0.45119866261047992 0 -0.17867327812258871 0.46114583139567922 0 -0.17876854714149509 0.47093865696285842 0 -0.16585225164495951 0.46980433890986678 0 -0.17867327812258871 0.46114583139567922 0 -0.1899884502156329 0.46461586120334353 0 -0.1926513277646352 0.45119866261047992 0 -0.17867327812258871 0.46114583139567922 0 -0.17876854714149509 0.47093865696285842 0 -0.1899884502156329 0.46461586120334353 0 -0.17876854714149509 0.47093865696285842 0 -0.19138341924764241 0.47827032896460842 0 -0.1899884502156329 0.46461586120334353 0 -0.1757986315986971 0.48088398659212228 0 -0.17876854714149509 0.47093865696285842 0 -0.19138341924764241 0.47827032896460842 0 -0.1757986315986971 0.48088398659212228 0 -0.17876854714149509 0.47093865696285842 0 -0.16585225164495951 0.46980433890986678 0 -0.16585225164495951 0.46980433890986678 0 -0.16613832665532341 0.48861682765244069 0 -0.16585225164495951 0.46980433890986678 0 -0.15815775643206659 0.473198332503178 0 -0.16613832665532341 0.48861682765244069 0 -0.1757986315986971 0.48088398659212228 0 -0.16585225164495951 0.46980433890986678 0 -0.16613832665532341 0.48861682765244069 0 -0.15313912830386001 0.48632871978955722 0 -0.15815775643206659 0.473198332503178 0 -0.16613832665532341 0.48861682765244069 0 -0.15815775643206659 0.473198332503178 0 -0.16613832665532341 0.48861682765244069 0 -0.15868634814382429 0.46531473325554851 0 -0.16585225164495951 0.46980433890986678 0 -0.15815775643206659 0.473198332503178 0 -0.15313912830386001 0.48632871978955722 0 -0.16613832665532341 0.48861682765244069 0 -0.1663114266205577 0.50000000000000011 0 -0.16613832665532341 0.48861682765244069 0 -0.1720302250152923 0.50000000000000022 0 -0.16613832665532341 0.48861682765244069 0 -0.1663114266205577 0.50000000000000011 0 -0.1720302250152923 0.50000000000000022 0 -0.16613832665532341 0.48861682765244069 0 -0.1663114266205577 0.50000000000000011 0 -0.16613832665532341 0.48861682765244069 0 -0.17430115969348189 0.49501483184612438 0 -0.1720302250152923 0.50000000000000022 0 -0.17430115969348189 0.49501483184612438 0 -0.1720302250152923 0.50000000000000022 0 -0.1982872987205446 0.5 0 -0.1757986315986971 0.48088398659212228 0 -0.17430115969348189 0.49501483184612438 0 -0.19138341924764241 0.47827032896460842 0 -0.17430115969348189 0.49501483184612438 0 -0.19138341924764241 0.47827032896460842 0 -0.1757986315986971 0.48088398659212228 0 -0.16613832665532341 0.48861682765244069 0 -0.17430115969348189 0.49501483184612438 0 -0.17430115969348189 0.49501483184612438 0 -0.1982872987205446 0.5 0 -0.19138341924764241 0.47827032896460842 0 -0.1982872987205446 0.5 0 -0.19138341924764241 0.47827032896460842 0 -0.21217809917650449 0.48030286392854288 0 -0.19138341924764241 0.47827032896460842 0 -0.208465678801803 0.46152582608309223 0 -0.19138341924764241 0.47827032896460842 0 -0.21217809917650449 0.48030286392854288 0 -0.208465678801803 0.46152582608309223 0 -0.1982872987205446 0.5 0 -0.21217809917650449 0.48030286392854288 0 -0.22454437242579681 0.5 0 -0.22454437242579681 0.5 0 -0.2288960980978284 0.47674808914996208 0 -0.2467553297522557 0.48147402383551691 0 -0.21217809917650449 0.48030286392854288 0 -0.22454437242579681 0.5 0 -0.2288960980978284 0.47674808914996208 0 -0.21217809917650449 0.48030286392854288 0 -0.2288960980978284 0.47674808914996208 0 -0.22325063631842021 0.46203708915627778 0 -0.25438198006151169 0.46464464965965441 0 -0.2467553297522557 0.48147402383551691 0 -0.2372897108761052 0.46028528898629889 0 -0.2288960980978284 0.47674808914996208 0 -0.2467553297522557 0.48147402383551691 0 -0.2372897108761052 0.46028528898629889 0 -0.25080144613104921 0.5 0 -0.22454437242579681 0.5 0 -0.2467553297522557 0.48147402383551691 0 -0.24356894722331929 0.44821508210096461 0 -0.22554793835596351 0.44478132320157598 0 -0.24263019791012411 0.42803682032005991 0 -0.24356894722331929 0.44821508210096461 0 -0.2372897108761052 0.46028528898629889 0 -0.22554793835596351 0.44478132320157598 0 -0.25799490891289278 0.4433273283372331 0 -0.24356894722331929 0.44821508210096461 0 -0.24263019791012411 0.42803682032005991 0 -0.25438198006151169 0.46464464965965441 0 -0.24356894722331929 0.44821508210096461 0 -0.2372897108761052 0.46028528898629889 0 -0.2288960980978284 0.47674808914996208 0 -0.2372897108761052 0.46028528898629889 0 -0.22325063631842021 0.46203708915627778 0 -0.2372897108761052 0.46028528898629889 0 -0.22325063631842021 0.46203708915627778 0 -0.22554793835596351 0.44478132320157598 0 -0.22325063631842021 0.46203708915627778 0 -0.22554793835596351 0.44478132320157598 0 -0.208465678801803 0.46152582608309223 0 -0.22554793835596351 0.44478132320157598 0 -0.20785557032720109 0.44518798724498809 0 -0.21437917226951189 0.43588067273166847 0 -0.22554793835596351 0.44478132320157598 0 -0.20785557032720109 0.44518798724498809 0 -0.208465678801803 0.46152582608309223 0 -0.22554793835596351 0.44478132320157598 0 -0.208465678801803 0.46152582608309223 0 -0.21217809917650449 0.48030286392854288 0 -0.22325063631842021 0.46203708915627778 0 -0.208465678801803 0.46152582608309223 0 -0.19138341924764241 0.47827032896460842 0 -0.208465678801803 0.46152582608309223 0 -0.1899884502156329 0.46461586120334353 0 -0.208465678801803 0.46152582608309223 0 -0.1899884502156329 0.46461586120334353 0 -0.1926513277646352 0.45119866261047992 0 -0.20785557032720109 0.44518798724498809 0 -0.1926513277646352 0.45119866261047992 0 -0.18693863061853061 0.43491447939059907 0 -0.20785557032720109 0.44518798724498809 0 -0.208465678801803 0.46152582608309223 0 -0.1926513277646352 0.45119866261047992 0 -0.19176926968858449 0.42488004754311998 0 -0.20430089696141959 0.42856004989685992 0 -0.18693863061853061 0.43491447939059907 0 -0.20785557032720109 0.44518798724498809 0 -0.20430089696141959 0.42856004989685992 0 -0.18693863061853061 0.43491447939059907 0 -0.19176926968858449 0.42488004754311998 0 -0.19667758679306771 0.41738623802377928 0 -0.20430089696141959 0.42856004989685992 0 -0.19667758679306771 0.41738623802377928 0 -0.19460267291041519 0.40299123798476227 0 -0.182164522352502 0.41833083015148409 0 -0.19460267291041519 0.40299123798476227 0 -0.182164522352502 0.41833083015148409 0 -0.19176926968858449 0.42488004754311998 0 -0.19667758679306771 0.41738623802377928 0 -0.182164522352502 0.41833083015148409 0 -0.19667758679306771 0.41738623802377928 0 -0.2074030129404133 0.4163894186605448 0 -0.20430089696141959 0.42856004989685992 0 -0.19667758679306771 0.41738623802377928 0 -0.2074030129404133 0.4163894186605448 0 -0.19460267291041519 0.40299123798476227 0 -0.2074030129404133 0.4163894186605448 0 -0.21981228343346321 0.42499333058324978 0 -0.22162162460370111 0.40801623681407218 0 -0.2074030129404133 0.4163894186605448 0 -0.22162162460370111 0.40801623681407218 0 -0.19460267291041519 0.40299123798476227 0 -0.20785557032720109 0.44518798724498809 0 -0.20430089696141959 0.42856004989685992 0 -0.21437917226951189 0.43588067273166847 0 -0.2074030129404133 0.4163894186605448 0 -0.20430089696141959 0.42856004989685992 0 -0.21981228343346321 0.42499333058324978 0 -0.20430089696141959 0.42856004989685992 0 -0.21437917226951189 0.43588067273166847 0 -0.21981228343346321 0.42499333058324978 0 -0.22554793835596351 0.44478132320157598 0 -0.24263019791012411 0.42803682032005991 0 -0.22554793835596351 0.44478132320157598 0 -0.2313941741476824 0.42795323546389102 0 -0.24263019791012411 0.42803682032005991 0 -0.22554793835596351 0.44478132320157598 0 -0.21437917226951189 0.43588067273166847 0 -0.21981228343346321 0.42499333058324978 0 -0.22554793835596351 0.44478132320157598 0 -0.2313941741476824 0.42795323546389102 0 -0.21981228343346321 0.42499333058324978 0 -0.2313941741476824 0.42795323546389102 0 -0.21981228343346321 0.42499333058324978 0 -0.2301621318308705 0.41771135234831969 0 -0.2313941741476824 0.42795323546389102 0 -0.2301621318308705 0.41771135234831969 0 -0.23881831920799079 0.42424335086624981 0 -0.21981228343346321 0.42499333058324978 0 -0.22162162460370111 0.40801623681407218 0 -0.2301621318308705 0.41771135234831969 0 -0.22162162460370111 0.40801623681407218 0 -0.2301621318308705 0.41771135234831969 0 -0.241034552697166 0.41286836770778501 0 -0.25157066981256843 0.40894445920752592 0 -0.241034552697166 0.41286836770778501 0 -0.24263019791012411 0.42803682032005991 0 -0.241034552697166 0.41286836770778501 0 -0.24263019791012411 0.42803682032005991 0 -0.23881831920799079 0.42424335086624981 0 -0.22162162460370111 0.40801623681407218 0 -0.241034552697166 0.41286836770778501 0 -0.24388213391773941 0.40163479241199579 0 -0.2301621318308705 0.41771135234831969 0 -0.241034552697166 0.41286836770778501 0 -0.23881831920799079 0.42424335086624981 0 -0.25157066981256843 0.40894445920752592 0 -0.241034552697166 0.41286836770778501 0 -0.24388213391773941 0.40163479241199579 0 -0.2313941741476824 0.42795323546389102 0 -0.24263019791012411 0.42803682032005991 0 -0.23881831920799079 0.42424335086624981 0 -0.24263019791012411 0.42803682032005991 0 -0.23881831920799079 0.42424335086624981 0 -0.25453646971320443 0.37462232419521813 0 -0.24781733580734391 0.38604582424895789 0 -0.23735930512057779 0.37349779701461089 0 -0.2365264908337599 0.38834162546439549 0 -0.24781733580734391 0.38604582424895789 0 -0.23735930512057779 0.37349779701461089 0 -0.2365264908337599 0.38834162546439549 0 -0.24781733580734391 0.38604582424895789 0 -0.24388213391773941 0.40163479241199579 0 -0.22162162460370111 0.40801623681407218 0 -0.24388213391773941 0.40163479241199579 0 -0.22162162460370111 0.40801623681407218 0 -0.2365264908337599 0.38834162546439549 0 -0.2225569648072106 0.38059728391652659 0 -0.22162162460370111 0.40801623681407218 0 -0.2365264908337599 0.38834162546439549 0 -0.24388213391773941 0.40163479241199579 0 -0.2365264908337599 0.38834162546439549 0 -0.2225569648072106 0.38059728391652659 0 -0.23735930512057779 0.37349779701461089 0 -0.2225569648072106 0.38059728391652659 0 -0.20545957084956781 0.38789926664213359 0 -0.1994770785436861 0.36691897370504389 0 -0.22162162460370111 0.40801623681407218 0 -0.2225569648072106 0.38059728391652659 0 -0.20545957084956781 0.38789926664213359 0 -0.22162162460370111 0.40801623681407218 0 -0.20545957084956781 0.38789926664213359 0 -0.19460267291041519 0.40299123798476227 0 -0.20545957084956781 0.38789926664213359 0 -0.19460267291041519 0.40299123798476227 0 -0.18736095772118591 0.3836472042370111 0 -0.20545957084956781 0.38789926664213359 0 -0.18736095772118591 0.3836472042370111 0 -0.1994770785436861 0.36691897370504389 0 -0.18736095772118591 0.3836472042370111 0 -0.16248792359233191 0.38534127627451031 0 -0.17644948136236779 0.3976803029940168 0 -0.18736095772118591 0.3836472042370111 0 -0.16248792359233191 0.38534127627451031 0 -0.1741500565645078 0.37123080613525078 0 -0.16248792359233191 0.38534127627451031 0 -0.16330635783110381 0.4038062271485704 0 -0.14438589058212131 0.3948348353259919 0 -0.16248792359233191 0.38534127627451031 0 -0.16330635783110381 0.4038062271485704 0 -0.17644948136236779 0.3976803029940168 0 -0.19460267291041519 0.40299123798476227 0 -0.17644948136236779 0.3976803029940168 0 -0.17778078602166139 0.40821888849324761 0 -0.19460267291041519 0.40299123798476227 0 -0.18736095772118591 0.3836472042370111 0 -0.17644948136236779 0.3976803029940168 0 -0.16330635783110381 0.4038062271485704 0 -0.17644948136236779 0.3976803029940168 0 -0.17778078602166139 0.40821888849324761 0 -0.19460267291041519 0.40299123798476227 0 -0.182164522352502 0.41833083015148409 0 -0.17778078602166139 0.40821888849324761 0 -0.182164522352502 0.41833083015148409 0 -0.1723808956519178 0.41828584418740389 0 -0.17778078602166139 0.40821888849324761 0 -0.19176926968858449 0.42488004754311998 0 -0.182164522352502 0.41833083015148409 0 -0.18693863061853061 0.43491447939059907 0 -0.182164522352502 0.41833083015148409 0 -0.18693863061853061 0.43491447939059907 0 -0.1697263717945888 0.43367042231820602 0 -0.182164522352502 0.41833083015148409 0 -0.1697263717945888 0.43367042231820602 0 -0.182164522352502 0.41833083015148409 0 -0.1723808956519178 0.41828584418740389 0 -0.1697263717945888 0.43367042231820602 0 -0.15995177900170021 0.44572512983606088 0 -0.1697263717945888 0.43367042231820602 0 -0.15376963845050121 0.4328235067909087 0 -0.1697263717945888 0.43367042231820602 0 -0.14650538949161929 0.41591584262955861 0 -0.15376963845050121 0.4328235067909087 0 -0.1697263717945888 0.43367042231820602 0 -0.14650538949161929 0.41591584262955861 0 -0.1723808956519178 0.41828584418740389 0 -0.1697263717945888 0.43367042231820602 0 -0.14650538949161929 0.41591584262955861 0 -0.1723808956519178 0.41828584418740389 0 -0.14650538949161929 0.41591584262955861 0 -0.16330635783110381 0.4038062271485704 0 -0.1723808956519178 0.41828584418740389 0 -0.14650538949161929 0.41591584262955861 0 -0.16330635783110381 0.4038062271485704 0 -0.1723808956519178 0.41828584418740389 0 -0.17778078602166139 0.40821888849324761 0 -0.14650538949161929 0.41591584262955861 0 -0.15376963845050121 0.4328235067909087 0 -0.13889501351409689 0.43598263237980822 0 -0.13889501351409689 0.43598263237980822 0 -0.12761284081938409 0.41418542740570108 0 -0.14650538949161929 0.41591584262955861 0 -0.13889501351409689 0.43598263237980822 0 -0.12761284081938409 0.41418542740570108 0 -0.13889501351409689 0.43598263237980822 0 -0.12761284081938409 0.41418542740570108 0 -0.1242648033483075 0.43981492828754482 0 -0.14650538949161929 0.41591584262955861 0 -0.12761284081938409 0.41418542740570108 0 -0.12644786621320531 0.40058001872868543 0 -0.14650538949161929 0.41591584262955861 0 -0.12644786621320531 0.40058001872868543 0 -0.14650538949161929 0.41591584262955861 0 -0.12761284081938409 0.41418542740570108 0 -0.14650538949161929 0.41591584262955861 0 -0.12644786621320531 0.40058001872868543 0 -0.14438589058212131 0.3948348353259919 0 -0.12644786621320531 0.40058001872868543 0 -0.12826940643264259 0.38638828685515292 0 -0.14438589058212131 0.3948348353259919 0 -0.1399268433138337 0.37661104245066729 0 -0.12826940643264259 0.38638828685515292 0 -0.1198206075896991 0.37069234566290138 0 -0.1399268433138337 0.37661104245066729 0 -0.12826940643264259 0.38638828685515292 0 -0.14438589058212131 0.3948348353259919 0 -0.16248792359233191 0.38534127627451031 0 -0.1399268433138337 0.37661104245066729 0 -0.1571746455416145 0.36408416689185819 0 -0.16248792359233191 0.38534127627451031 0 -0.1399268433138337 0.37661104245066729 0 -0.14438589058212131 0.3948348353259919 0 -0.16330635783110381 0.4038062271485704 0 -0.14650538949161929 0.41591584262955861 0 -0.14438589058212131 0.3948348353259919 0 -0.1367685514822152 0.35851885971508118 0 -0.13367478836053351 0.33932016938713638 0 -0.15331730601663701 0.3395623532820784 0 -0.1367685514822152 0.35851885971508118 0 -0.15331730601663701 0.3395623532820784 0 -0.1571746455416145 0.36408416689185819 0 -0.1399268433138337 0.37661104245066729 0 -0.1367685514822152 0.35851885971508118 0 -0.1571746455416145 0.36408416689185819 0 -0.1399268433138337 0.37661104245066729 0 -0.1367685514822152 0.35851885971508118 0 -0.1198206075896991 0.37069234566290138 0 -0.1367685514822152 0.35851885971508118 0 -0.13367478836053351 0.33932016938713638 0 -0.1173066256070304 0.35104950557859033 0 -0.13367478836053351 0.33932016938713638 0 -0.1262409447270301 0.3211703831111522 0 -0.1175879007316586 0.33497855513245622 0 -0.13367478836053351 0.33932016938713638 0 -0.1262409447270301 0.3211703831111522 0 -0.14995133854557879 0.31573290008088639 0 -0.1262409447270301 0.3211703831111522 0 -0.14995133854557879 0.31573290008088639 0 -0.13170636281121431 0.30540396541675668 0 -0.13367478836053351 0.33932016938713638 0 -0.14995133854557879 0.31573290008088639 0 -0.15331730601663701 0.3395623532820784 0 -0.15331730601663701 0.3395623532820784 0 -0.17079439025487569 0.32494122108339912 0 -0.1763971922801616 0.3532406634935612 0 -0.14995133854557879 0.31573290008088639 0 -0.17079439025487569 0.32494122108339912 0 -0.167164841548782 0.29891422322321631 0 -0.14995133854557879 0.31573290008088639 0 -0.15331730601663701 0.3395623532820784 0 -0.17079439025487569 0.32494122108339912 0 -0.17079439025487569 0.32494122108339912 0 -0.19256976679114979 0.33165381796875049 0 -0.19699128312530151 0.30504565645142051 0 -0.17079439025487569 0.32494122108339912 0 -0.1763971922801616 0.3532406634935612 0 -0.19256976679114979 0.33165381796875049 0 -0.15331730601663701 0.3395623532820784 0 -0.1763971922801616 0.3532406634935612 0 -0.1571746455416145 0.36408416689185819 0 -0.15331730601663701 0.3395623532820784 0 -0.1763971922801616 0.3532406634935612 0 -0.1763971922801616 0.3532406634935612 0 -0.1571746455416145 0.36408416689185819 0 -0.1741500565645078 0.37123080613525078 0 -0.16248792359233191 0.38534127627451031 0 -0.1571746455416145 0.36408416689185819 0 -0.1741500565645078 0.37123080613525078 0 -0.18736095772118591 0.3836472042370111 0 -0.1741500565645078 0.37123080613525078 0 -0.1994770785436861 0.36691897370504389 0 -0.1763971922801616 0.3532406634935612 0 -0.1741500565645078 0.37123080613525078 0 -0.1994770785436861 0.36691897370504389 0 -0.1763971922801616 0.3532406634935612 0 -0.1994770785436861 0.36691897370504389 0 -0.1763971922801616 0.3532406634935612 0 -0.20127160642404629 0.34878804965207372 0 -0.19256976679114979 0.33165381796875049 0 -0.1763971922801616 0.3532406634935612 0 -0.1994770785436861 0.36691897370504389 0 -0.20127160642404629 0.34878804965207372 0 -0.1994770785436861 0.36691897370504389 0 -0.20127160642404629 0.34878804965207372 0 -0.22480168799342179 0.35512276170724633 0 -0.20127160642404629 0.34878804965207372 0 -0.22480168799342179 0.35512276170724633 0 -0.2131123065118124 0.33700403138576668 0 -0.2225569648072106 0.38059728391652659 0 -0.1994770785436861 0.36691897370504389 0 -0.2225569648072106 0.38059728391652659 0 -0.1994770785436861 0.36691897370504389 0 -0.22480168799342179 0.35512276170724633 0 -0.2225569648072106 0.38059728391652659 0 -0.22480168799342179 0.35512276170724633 0 -0.23735930512057779 0.37349779701461089 0 -0.25368472498167011 0.34420349485172652 0 -0.22480168799342179 0.35512276170724633 0 -0.24822911175635759 0.36217347122335058 0 -0.22480168799342179 0.35512276170724633 0 -0.24822911175635759 0.36217347122335058 0 -0.23735930512057779 0.37349779701461089 0 -0.25453646971320443 0.37462232419521813 0 -0.24822911175635759 0.36217347122335058 0 -0.23735930512057779 0.37349779701461089 0 -0.25757488899104952 0.31786411623381933 0 -0.23478691102954721 0.33115088205162452 0 -0.2366570207200871 0.30010935915934539 0 -0.25368472498167011 0.34420349485172652 0 -0.22480168799342179 0.35512276170724633 0 -0.23478691102954721 0.33115088205162452 0 -0.25368472498167011 0.34420349485172652 0 -0.23478691102954721 0.33115088205162452 0 -0.25757488899104952 0.31786411623381933 0 -0.25368472498167011 0.34420349485172652 0 -0.23478691102954721 0.33115088205162452 0 -0.23478691102954721 0.33115088205162452 0 -0.2158890970774244 0.31809826925152251 0 -0.2131123065118124 0.33700403138576668 0 -0.22480168799342179 0.35512276170724633 0 -0.23478691102954721 0.33115088205162452 0 -0.2131123065118124 0.33700403138576668 0 -0.23478691102954721 0.33115088205162452 0 -0.2158890970774244 0.31809826925152251 0 -0.2366570207200871 0.30010935915934539 0 -0.23478691102954721 0.33115088205162452 0 -0.2158890970774244 0.31809826925152251 0 -0.2158890970774244 0.31809826925152251 0 -0.2131123065118124 0.33700403138576668 0 -0.19256976679114979 0.33165381796875049 0 -0.20127160642404629 0.34878804965207372 0 -0.2131123065118124 0.33700403138576668 0 -0.19256976679114979 0.33165381796875049 0 -0.2158890970774244 0.31809826925152251 0 -0.19256976679114979 0.33165381796875049 0 -0.19699128312530151 0.30504565645142051 0 -0.19699128312530151 0.30504565645142051 0 -0.2044220976180971 0.2747921468301005 0 -0.18537993383704029 0.28397978744787411 0 -0.19699128312530151 0.30504565645142051 0 -0.21636901433909059 0.29447561219915308 0 -0.2044220976180971 0.2747921468301005 0 -0.2158890970774244 0.31809826925152251 0 -0.19699128312530151 0.30504565645142051 0 -0.21636901433909059 0.29447561219915308 0 -0.2158890970774244 0.31809826925152251 0 -0.19699128312530151 0.30504565645142051 0 -0.2158890970774244 0.31809826925152251 0 -0.21636901433909059 0.29447561219915308 0 -0.2366570207200871 0.30010935915934539 0 -0.21636901433909059 0.29447561219915308 0 -0.2366570207200871 0.30010935915934539 0 -0.2235041758045673 0.27405874977876837 0 -0.26277913973510902 0.29023342414179659 0 -0.2366570207200871 0.30010935915934539 0 -0.2447247674615598 0.2718938593685879 0 -0.2366570207200871 0.30010935915934539 0 -0.2447247674615598 0.2718938593685879 0 -0.2235041758045673 0.27405874977876837 0 -0.25693865295534157 0.25278860643768353 0 -0.2416444700809012 0.25186566196455601 0 -0.2447247674615598 0.2718938593685879 0 -0.2416444700809012 0.25186566196455601 0 -0.2447247674615598 0.2718938593685879 0 -0.22667039518801041 0.25355429459537898 0 -0.2447247674615598 0.2718938593685879 0 -0.22667039518801041 0.25355429459537898 0 -0.2447247674615598 0.2718938593685879 0 -0.2235041758045673 0.27405874977876837 0 -0.22667039518801041 0.25355429459537898 0 -0.2235041758045673 0.27405874977876837 0 -0.22667039518801041 0.25355429459537898 0 -0.21218175950055909 0.24952722652004439 0 -0.2044220976180971 0.2747921468301005 0 -0.1929026130837673 0.25762258695206858 0 -0.21218175950055909 0.24952722652004439 0 -0.2044220976180971 0.2747921468301005 0 -0.21218175950055909 0.24952722652004439 0 -0.2235041758045673 0.27405874977876837 0 -0.2044220976180971 0.2747921468301005 0 -0.21218175950055909 0.24952722652004439 0 -0.21636901433909059 0.29447561219915308 0 -0.2235041758045673 0.27405874977876837 0 -0.2044220976180971 0.2747921468301005 0 -0.2044220976180971 0.2747921468301005 0 -0.1929026130837673 0.25762258695206858 0 -0.18537993383704029 0.28397978744787411 0 -0.1929026130837673 0.25762258695206858 0 -0.16582228118094081 0.26466105519565358 0 -0.18651378479530609 0.23505073182760211 0 -0.1929026130837673 0.25762258695206858 0 -0.16582228118094081 0.26466105519565358 0 -0.18537993383704029 0.28397978744787411 0 -0.16582228118094081 0.26466105519565358 0 -0.167164841548782 0.29891422322321631 0 -0.14136362158270599 0.28508793949713551 0 -0.16582228118094081 0.26466105519565358 0 -0.18537993383704029 0.28397978744787411 0 -0.167164841548782 0.29891422322321631 0 -0.19699128312530151 0.30504565645142051 0 -0.18537993383704029 0.28397978744787411 0 -0.167164841548782 0.29891422322321631 0 -0.17079439025487569 0.32494122108339912 0 -0.19699128312530151 0.30504565645142051 0 -0.167164841548782 0.29891422322321631 0 -0.167164841548782 0.29891422322321631 0 -0.14136362158270599 0.28508793949713551 0 -0.14995133854557879 0.31573290008088639 0 -0.167164841548782 0.29891422322321631 0 -0.14136362158270599 0.28508793949713551 0 -0.14995133854557879 0.31573290008088639 0 -0.14136362158270599 0.28508793949713551 0 -0.13170636281121431 0.30540396541675668 0 -0.1262409447270301 0.3211703831111522 0 -0.13170636281121431 0.30540396541675668 0 -0.1173504618646501 0.30916380798395637 0 -0.14136362158270599 0.28508793949713551 0 -0.13170636281121431 0.30540396541675668 0 -0.1202787732923796 0.29457691953651272 0 -0.14136362158270599 0.28508793949713551 0 -0.1196693143642453 0.28329908912575552 0 -0.1202787732923796 0.29457691953651272 0 -0.14136362158270599 0.28508793949713551 0 -0.1155624016166297 0.27126165577105521 0 -0.1196693143642453 0.28329908912575552 0 -0.14136362158270599 0.28508793949713551 0 -0.1155624016166297 0.27126165577105521 0 -0.12872708527658799 0.25991420809329241 0 -0.1416417428525672 0.26777243923482702 0 -0.1155624016166297 0.27126165577105521 0 -0.14136362158270599 0.28508793949713551 0 -0.1416417428525672 0.26777243923482702 0 -0.1155624016166297 0.27126165577105521 0 -0.12872708527658799 0.25991420809329241 0 -0.14534546737678511 0.25129379472131641 0 -0.1416417428525672 0.26777243923482702 0 -0.12872708527658799 0.25991420809329241 0 -0.14534546737678511 0.25129379472131641 0 -0.12470300375741469 0.2457033751303839 0 -0.16582228118094081 0.26466105519565358 0 -0.14534546737678511 0.25129379472131641 0 -0.1416417428525672 0.26777243923482702 0 -0.16582228118094081 0.26466105519565358 0 -0.14136362158270599 0.28508793949713551 0 -0.1416417428525672 0.26777243923482702 0 -0.1083690905562489 0.27746201143443072 0 -0.10470287070229969 0.27376422074294909 0 -0.09206590757372593 0.27740472432850488 0 -0.099741497972773749 0.27068482051400677 0 -0.1098053558875477 0.27272524579145851 0 -0.092391857727521592 0.25884509119311472 0 -0.1155624016166297 0.27126165577105521 0 -0.1098053558875477 0.27272524579145851 0 -0.092391857727521592 0.25884509119311472 0 -0.099741497972773749 0.27068482051400677 0 -0.09206590757372593 0.27740472432850488 0 -0.092391857727521592 0.25884509119311472 0 -0.10470287070229969 0.27376422074294909 0 -0.099741497972773749 0.27068482051400677 0 -0.1098053558875477 0.27272524579145851 0 -0.1083690905562489 0.27746201143443072 0 -0.1098053558875477 0.27272524579145851 0 -0.1083690905562489 0.27746201143443072 0 -0.10470287070229969 0.27376422074294909 0 -0.1098053558875477 0.27272524579145851 0 -0.10470287070229969 0.27376422074294909 0 -0.099741497972773749 0.27068482051400677 0 -0.09206590757372593 0.27740472432850488 0 -0.1155624016166297 0.27126165577105521 0 -0.092391857727521592 0.25884509119311472 0 -0.11076524853809321 0.25238606884059173 0 -0.1155624016166297 0.27126165577105521 0 -0.092391857727521592 0.25884509119311472 0 -0.11076524853809321 0.25238606884059173 0 -0.1199394347971814 0.25731632695883078 0 -0.1155624016166297 0.27126165577105521 0 -0.12872708527658799 0.25991420809329241 0 -0.1199394347971814 0.25731632695883078 0 -0.12470300375741469 0.2457033751303839 0 -0.11076524853809321 0.25238606884059173 0 -0.1199394347971814 0.25731632695883078 0 -0.12470300375741469 0.2457033751303839 0 -0.12872708527658799 0.25991420809329241 0 -0.1199394347971814 0.25731632695883078 0 -0.1155624016166297 0.27126165577105521 0 -0.12872708527658799 0.25991420809329241 0 -0.1155624016166297 0.27126165577105521 0 -0.1083690905562489 0.27746201143443072 0 -0.1155624016166297 0.27126165577105521 0 -0.1196693143642453 0.28329908912575552 0 -0.1083690905562489 0.27746201143443072 0 -0.1155624016166297 0.27126165577105521 0 -0.1098053558875477 0.27272524579145851 0 -0.1083690905562489 0.27746201143443072 0 -0.1155624016166297 0.27126165577105521 0 -0.1083690905562489 0.27746201143443072 0 -0.1202787732923796 0.29457691953651272 0 -0.1003457715998239 0.30392270831765028 0 -0.1083690905562489 0.27746201143443072 0 -0.1196693143642453 0.28329908912575552 0 -0.1202787732923796 0.29457691953651272 0 -0.1202787732923796 0.29457691953651272 0 -0.1173504618646501 0.30916380798395637 0 -0.1003457715998239 0.30392270831765028 0 -0.13170636281121431 0.30540396541675668 0 -0.1202787732923796 0.29457691953651272 0 -0.1173504618646501 0.30916380798395637 0 -0.1173504618646501 0.30916380798395637 0 -0.1003457715998239 0.30392270831765028 0 -0.1081804568928026 0.32074506353771021 0 -0.1083690905562489 0.27746201143443072 0 -0.08834593029567378 0.29472120043351602 0 -0.09206590757372593 0.27740472432850488 0 -0.1083690905562489 0.27746201143443072 0 -0.1003457715998239 0.30392270831765028 0 -0.08834593029567378 0.29472120043351602 0 -0.1083690905562489 0.27746201143443072 0 -0.1003457715998239 0.30392270831765028 0 -0.1083690905562489 0.27746201143443072 0 -0.08834593029567378 0.29472120043351602 0 -0.08834593029567378 0.29472120043351602 0 -0.079344374197139078 0.28508182268507098 0 -0.09206590757372593 0.27740472432850488 0 -0.08834593029567378 0.29472120043351602 0 -0.072463929930227558 0.29930610977545041 0 -0.077617967212061698 0.29366907382828078 0 -0.08834593029567378 0.29472120043351602 0 -0.079344374197139078 0.28508182268507098 0 -0.077617967212061698 0.29366907382828078 0 -0.08834593029567378 0.29472120043351602 0 -0.087527931766016032 0.31235393694025021 0 -0.08121949171140587 0.31012908581564408 0 -0.08834593029567378 0.29472120043351602 0 -0.068322770035098762 0.31198038943260148 0 -0.1003457715998239 0.30392270831765028 0 -0.08834593029567378 0.29472120043351602 0 -0.087527931766016032 0.31235393694025021 0 -0.08834593029567378 0.29472120043351602 0 -0.08121949171140587 0.31012908581564408 0 -0.069852456288818351 0.31207980665071 0 -0.08834593029567378 0.29472120043351602 0 -0.068322770035098762 0.31198038943260148 0 -0.069852456288818351 0.31207980665071 0 -0.08834593029567378 0.29472120043351602 0 -0.072463929930227558 0.29930610977545041 0 -0.068322770035098762 0.31198038943260148 0 -0.072463929930227558 0.29930610977545041 0 -0.064179569528432873 0.29754197169583518 0 -0.063962500348327456 0.30379626580195229 0 -0.072463929930227558 0.29930610977545041 0 -0.063962500348327456 0.30379626580195229 0 -0.068322770035098762 0.31198038943260148 0 -0.068322770035098762 0.31198038943260148 0 -0.069852456288818351 0.31207980665071 0 -0.079344374197139078 0.28508182268507098 0 -0.070510141993048517 0.29225124769799787 0 -0.067485792004003509 0.28106498521306011 0 -0.079344374197139078 0.28508182268507098 0 -0.077617967212061698 0.29366907382828078 0 -0.070510141993048517 0.29225124769799787 0 -0.072463929930227558 0.29930610977545041 0 -0.077617967212061698 0.29366907382828078 0 -0.070510141993048517 0.29225124769799787 0 -0.064179569528432873 0.29754197169583518 0 -0.070510141993048517 0.29225124769799787 0 -0.059799020663136082 0.29068729405280619 0 -0.072463929930227558 0.29930610977545041 0 -0.064179569528432873 0.29754197169583518 0 -0.070510141993048517 0.29225124769799787 0 -0.070510141993048517 0.29225124769799787 0 -0.067485792004003509 0.28106498521306011 0 -0.059799020663136082 0.29068729405280619 0 -0.079344374197139078 0.28508182268507098 0 -0.077112635008727601 0.26938653581869981 0 -0.067485792004003509 0.28106498521306011 0 -0.077112635008727601 0.26938653581869981 0 -0.067485792004003509 0.28106498521306011 0 -0.060296114269721542 0.26705395206363342 0 -0.079344374197139078 0.28508182268507098 0 -0.077112635008727601 0.26938653581869981 0 -0.09206590757372593 0.27740472432850488 0 -0.077112635008727601 0.26938653581869981 0 -0.09206590757372593 0.27740472432850488 0 -0.092391857727521592 0.25884509119311472 0 -0.092391857727521592 0.25884509119311472 0 -0.069221313838413207 0.24642852661517459 0 -0.077112635008727601 0.26938653581869981 0 -0.092391857727521592 0.25884509119311472 0 -0.069221313838413207 0.24642852661517459 0 -0.077112635008727601 0.26938653581869981 0 -0.060296114269721542 0.26705395206363342 0 -0.069221313838413207 0.24642852661517459 0 -0.048126263350958612 0.25465777805589501 0 -0.060296114269721542 0.26705395206363342 0 -0.069221313838413207 0.24642852661517459 0 -0.048126263350958612 0.25465777805589501 0 -0.060296114269721542 0.26705395206363342 0 -0.041784573477856593 0.2719242686623195 0 -0.055384127889045079 0.27986410773994991 0 -0.060296114269721542 0.26705395206363342 0 -0.041784573477856593 0.2719242686623195 0 -0.055384127889045079 0.27986410773994991 0 -0.041784573477856593 0.2719242686623195 0 -0.044370237993260717 0.29032640624232281 0 -0.067485792004003509 0.28106498521306011 0 -0.055384127889045079 0.27986410773994991 0 -0.060296114269721542 0.26705395206363342 0 -0.041784573477856593 0.2719242686623195 0 -0.028053557715267439 0.25838243531431121 0 -0.02550209953536561 0.27186686885002359 0 -0.041784573477856593 0.2719242686623195 0 -0.02550209953536561 0.27186686885002359 0 -0.031040102747703489 0.28267752730564011 0 -0.048126263350958612 0.25465777805589501 0 -0.041784573477856593 0.2719242686623195 0 -0.028053557715267439 0.25838243531431121 0 -0.048126263350958612 0.25465777805589501 0 -0.028053557715267439 0.25838243531431121 0 -0.033382390283993792 0.24359412621706661 0 -0.028053557715267439 0.25838243531431121 0 -0.01504563196256534 0.26333196488375049 0 -0.01778818590069102 0.2421293126167848 0 -0.01504563196256534 0.26333196488375049 0 -0.01778818590069102 0.2421293126167848 0 -0.028053557715267439 0.25838243531431121 0 -0.02550209953536561 0.27186686885002359 0 -0.01504563196256534 0.26333196488375049 0 -0.028053557715267439 0.25838243531431121 0 -0.01504563196256534 0.26333196488375049 0 -0.02550209953536561 0.27186686885002359 0 -0.01214761008608776 0.28573653795517551 0 -0.031040102747703489 0.28267752730564011 0 -0.02550209953536561 0.27186686885002359 0 -0.01504563196256534 0.26333196488375049 0 -0.01214761008608776 0.28573653795517551 0 -0.001267499687089951 0.2776013217203892 0 -0.01504563196256534 0.26333196488375049 0 -0.01214761008608776 0.28573653795517551 0 -0.01504563196256534 0.26333196488375049 0 -0.01214761008608776 0.28573653795517551 0 -0.00067809962666212902 0.26216505597133072 0 -0.01504563196256534 0.26333196488375049 0 0.010965700908337589 0.27322930467739909 0 -0.001267499687089951 0.2776013217203892 0 -0.01504563196256534 0.26333196488375049 0 0.010965700908337589 0.27322930467739909 0 -0.01504563196256534 0.26333196488375049 0 0.010965700908337589 0.27322930467739909 0 -0.0087132352456033638 0.25173417187717928 0 -0.01504563196256534 0.26333196488375049 0 -0.01778818590069102 0.2421293126167848 0 -0.00067809962666212902 0.26216505597133072 0 -0.0087132352456033638 0.25173417187717928 0 0.0027594708259384838 0.25829047161104352 0 -0.00067809962666212902 0.26216505597133072 0 -0.0087132352456033638 0.25173417187717928 0 -0.01504563196256534 0.26333196488375049 0 -0.009249588209606344 0.30814111102660002 0 -0.01214761008608776 0.28573653795517551 0 0.0038021096493471361 0.29689124930627131 0 -0.009249588209606344 0.30814111102660002 0 -0.01214761008608776 0.28573653795517551 0 -0.01214761008608776 0.28573653795517551 0 0.002380999114604244 0.28599596302517022 0 0.0038021096493471361 0.29689124930627131 0 -0.001267499687089951 0.2776013217203892 0 -0.01214761008608776 0.28573653795517551 0 0.002380999114604244 0.28599596302517022 0 -0.009249588209606344 0.30814111102660002 0 -0.01214761008608776 0.28573653795517551 0 -0.02711874363180217 0.2953884665518679 0 -0.01214761008608776 0.28573653795517551 0 -0.031040102747703489 0.28267752730564011 0 -0.02711874363180217 0.2953884665518679 0 -0.009249588209606344 0.30814111102660002 0 -0.02711874363180217 0.2953884665518679 0 -0.038786179122352507 0.31006075022960111 0 -0.009249588209606344 0.30814111102660002 0 -0.038786179122352507 0.31006075022960111 0 -0.02711874363180217 0.2953884665518679 0 -0.038786179122352507 0.31006075022960111 0 -0.044370237993260717 0.29032640624232281 0 -0.038786179122352507 0.31006075022960111 0 -0.044370237993260717 0.29032640624232281 0 -0.054162254707424723 0.30166894115096898 0 -0.031040102747703489 0.28267752730564011 0 -0.02711874363180217 0.2953884665518679 0 -0.044370237993260717 0.29032640624232281 0 -0.041784573477856593 0.2719242686623195 0 -0.031040102747703489 0.28267752730564011 0 -0.044370237993260717 0.29032640624232281 0 -0.055384127889045079 0.27986410773994991 0 -0.044370237993260717 0.29032640624232281 0 -0.059799020663136082 0.29068729405280619 0 -0.044370237993260717 0.29032640624232281 0 -0.059799020663136082 0.29068729405280619 0 -0.054162254707424723 0.30166894115096898 0 -0.064179569528432873 0.29754197169583518 0 -0.059799020663136082 0.29068729405280619 0 -0.054162254707424723 0.30166894115096898 0 -0.067485792004003509 0.28106498521306011 0 -0.055384127889045079 0.27986410773994991 0 -0.059799020663136082 0.29068729405280619 0 -0.068322770035098762 0.31198038943260148 0 -0.038786179122352507 0.31006075022960111 0 -0.068322770035098762 0.31198038943260148 0 -0.038786179122352507 0.31006075022960111 0 -0.054162254707424723 0.30166894115096898 0 -0.064179569528432873 0.29754197169583518 0 -0.063962500348327456 0.30379626580195229 0 -0.054162254707424723 0.30166894115096898 0 -0.063962500348327456 0.30379626580195229 0 -0.068322770035098762 0.31198038943260148 0 -0.054162254707424723 0.30166894115096898 0 -0.068322770035098762 0.31198038943260148 0 -0.038786179122352507 0.31006075022960111 0 -0.053879496619987192 0.32442993198196868 0 -0.068322770035098762 0.31198038943260148 0 -0.053879496619987192 0.32442993198196868 0 -0.059045099567240703 0.33862263320968672 0 -0.059976501396798443 0.34640013057040159 0 -0.068046633572776155 0.34513696516333192 0 -0.053879496619987192 0.32442993198196868 0 -0.059045099567240703 0.33862263320968672 0 -0.06815446288386498 0.3263880450875648 0 -0.053879496619987192 0.32442993198196868 0 -0.059045099567240703 0.33862263320968672 0 -0.049717572699208172 0.33977374392884352 0 -0.053879496619987192 0.32442993198196868 0 -0.049717572699208172 0.33977374392884352 0 -0.039436223204876379 0.33687947453133682 0 -0.059045099567240703 0.33862263320968672 0 -0.049717572699208172 0.33977374392884352 0 -0.052933118771744558 0.34753778728834739 0 -0.049717572699208172 0.33977374392884352 0 -0.039436223204876379 0.33687947453133682 0 -0.045752302425533672 0.34929255203680049 0 -0.053879496619987192 0.32442993198196868 0 -0.039436223204876379 0.33687947453133682 0 -0.039359444206513459 0.32419621080282812 0 -0.053879496619987192 0.32442993198196868 0 -0.039436223204876379 0.33687947453133682 0 -0.039436223204876379 0.33687947453133682 0 -0.039359444206513459 0.32419621080282812 0 -0.02531264429424256 0.33765677836634578 0 -0.039436223204876379 0.33687947453133682 0 -0.02531264429424256 0.33765677836634578 0 -0.034795741464765127 0.3466441775467104 0 -0.038786179122352507 0.31006075022960111 0 -0.053879496619987192 0.32442993198196868 0 -0.039359444206513459 0.32419621080282812 0 -0.038786179122352507 0.31006075022960111 0 -0.039359444206513459 0.32419621080282812 0 -0.024068293084679539 0.32272721199300619 0 -0.009249588209606344 0.30814111102660002 0 -0.038786179122352507 0.31006075022960111 0 -0.024068293084679539 0.32272721199300619 0 -0.024068293084679539 0.32272721199300619 0 -0.02531264429424256 0.33765677836634578 0 -0.005758602284471958 0.33512988219008361 0 -0.039359444206513459 0.32419621080282812 0 -0.024068293084679539 0.32272721199300619 0 -0.02531264429424256 0.33765677836634578 0 -0.005758602284471958 0.33512988219008361 0 -0.0077202170519437719 0.34710906184019069 0 0.0082446038140756572 0.34376242611402219 0 -0.02531264429424256 0.33765677836634578 0 -0.005758602284471958 0.33512988219008361 0 -0.0077202170519437719 0.34710906184019069 0 -0.009249588209606344 0.30814111102660002 0 -0.005758602284471958 0.33512988219008361 0 0.0094307060340404689 0.32376070079746733 0 -0.009249588209606344 0.30814111102660002 0 -0.005758602284471958 0.33512988219008361 0 -0.009249588209606344 0.30814111102660002 0 -0.024068293084679539 0.32272721199300619 0 -0.005758602284471958 0.33512988219008361 0 -0.0045677851665312944 0.36532665559408428 0 -0.0087141207398781558 0.37710904293520409 0 0.0077169544749549623 0.36306791211952738 0 -0.0045677851665312944 0.36532665559408428 0 -0.019623601183504629 0.35541479533684739 0 -0.0087141207398781558 0.37710904293520409 0 -0.0087141207398781558 0.37710904293520409 0 0.0077169544749549623 0.36306791211952738 0 -0.0077202170519437719 0.34710906184019069 0 -0.019623601183504629 0.35541479533684739 0 0.0038095970876644218 0.35606187191015221 0 -0.019623601183504629 0.35541479533684739 0 0.0038095970876644218 0.35606187191015221 0 -0.0045677851665312944 0.36532665559408428 0 -0.019623601183504629 0.35541479533684739 0 0.0038095970876644218 0.35606187191015221 0 -0.02531264429424256 0.33765677836634578 0 -0.019623601183504629 0.35541479533684739 0 -0.034795741464765127 0.3466441775467104 0 -0.02531264429424256 0.33765677836634578 0 -0.0077202170519437719 0.34710906184019069 0 -0.019623601183504629 0.35541479533684739 0 -0.019623601183504629 0.35541479533684739 0 -0.034100997704691827 0.37295894625721099 0 -0.0087141207398781558 0.37710904293520409 0 -0.019623601183504629 0.35541479533684739 0 -0.034100997704691827 0.37295894625721099 0 -0.043056799454673583 0.35476771876354157 0 -0.034100997704691827 0.37295894625721099 0 -0.047131069669461997 0.36807368878450081 0 -0.054593457040109393 0.3822816536988497 0 -0.034100997704691827 0.37295894625721099 0 -0.043056799454673583 0.35476771876354157 0 -0.034100997704691827 0.37295894625721099 0 -0.043056799454673583 0.35476771876354157 0 -0.047131069669461997 0.36807368878450081 0 -0.019623601183504629 0.35541479533684739 0 -0.043056799454673583 0.35476771876354157 0 -0.019623601183504629 0.35541479533684739 0 -0.034795741464765127 0.3466441775467104 0 -0.043056799454673583 0.35476771876354157 0 -0.043056799454673583 0.35476771876354157 0 -0.045752302425533672 0.34929255203680049 0 -0.039436223204876379 0.33687947453133682 0 -0.034795741464765127 0.3466441775467104 0 -0.045752302425533672 0.34929255203680049 0 -0.034795741464765127 0.3466441775467104 0 -0.043056799454673583 0.35476771876354157 0 -0.045752302425533672 0.34929255203680049 0 -0.043056799454673583 0.35476771876354157 0 -0.052933118771744558 0.34753778728834739 0 -0.059881153675432383 0.35430313662024071 0 -0.043056799454673583 0.35476771876354157 0 -0.059881153675432383 0.35430313662024071 0 -0.051828064233363932 0.36038047858465339 0 -0.043056799454673583 0.35476771876354157 0 -0.059881153675432383 0.35430313662024071 0 -0.043056799454673583 0.35476771876354157 0 -0.045752302425533672 0.34929255203680049 0 -0.052933118771744558 0.34753778728834739 0 -0.049717572699208172 0.33977374392884352 0 -0.045752302425533672 0.34929255203680049 0 -0.052933118771744558 0.34753778728834739 0 -0.059881153675432383 0.35430313662024071 0 -0.051828064233363932 0.36038047858465339 0 -0.058626870601395778 0.36023180910453118 0 -0.059045099567240703 0.33862263320968672 0 -0.052933118771744558 0.34753778728834739 0 -0.059976501396798443 0.34640013057040159 0 -0.052933118771744558 0.34753778728834739 0 -0.059881153675432383 0.35430313662024071 0 -0.059976501396798443 0.34640013057040159 0 -0.047131069669461997 0.36807368878450081 0 -0.054116187566776573 0.36544526432200969 0 -0.058148679921659119 0.37186744297544022 0 -0.047131069669461997 0.36807368878450081 0 -0.058148679921659119 0.37186744297544022 0 -0.054593457040109393 0.3822816536988497 0 -0.043056799454673583 0.35476771876354157 0 -0.047131069669461997 0.36807368878450081 0 -0.051828064233363932 0.36038047858465339 0 -0.047131069669461997 0.36807368878450081 0 -0.051828064233363932 0.36038047858465339 0 -0.054116187566776573 0.36544526432200969 0 -0.054116187566776573 0.36544526432200969 0 -0.058626870601395778 0.36023180910453118 0 -0.058148679921659119 0.37186744297544022 0 -0.051828064233363932 0.36038047858465339 0 -0.054116187566776573 0.36544526432200969 0 -0.058626870601395778 0.36023180910453118 0 -0.058626870601395778 0.36023180910453118 0 -0.058148679921659119 0.37186744297544022 0 -0.076275814730551866 0.38330479896731001 0 -0.058626870601395778 0.36023180910453118 0 -0.071157696118109362 0.36170448025062218 0 -0.076275814730551866 0.38330479896731001 0 -0.071157696118109362 0.36170448025062218 0 -0.084299133686975572 0.35684410208409001 0 -0.076275814730551866 0.38330479896731001 0 -0.058626870601395778 0.36023180910453118 0 -0.076275814730551866 0.38330479896731001 0 -0.084299133686975572 0.35684410208409001 0 -0.089436666146690338 0.3774527594588406 0 -0.076275814730551866 0.38330479896731001 0 -0.084299133686975572 0.35684410208409001 0 -0.076275814730551866 0.38330479896731001 0 -0.093494049974744503 0.36523362229143391 0 -0.084299133686975572 0.35684410208409001 0 -0.089436666146690338 0.3774527594588406 0 -0.084299133686975572 0.35684410208409001 0 -0.076705507896191183 0.35383855447693902 0 -0.080753986599573127 0.33990497651870988 0 -0.084299133686975572 0.35684410208409001 0 -0.092322452643399749 0.33038340520087017 0 -0.095141502753968779 0.35097174187852381 0 -0.093494049974744503 0.36523362229143391 0 -0.084299133686975572 0.35684410208409001 0 -0.095141502753968779 0.35097174187852381 0 -0.059881153675432383 0.35430313662024071 0 -0.071157696118109362 0.36170448025062218 0 -0.076705507896191183 0.35383855447693902 0 -0.076705507896191183 0.35383855447693902 0 -0.068046633572776155 0.34513696516333192 0 -0.080753986599573127 0.33990497651870988 0 -0.059881153675432383 0.35430313662024071 0 -0.076705507896191183 0.35383855447693902 0 -0.068046633572776155 0.34513696516333192 0 -0.059881153675432383 0.35430313662024071 0 -0.076705507896191183 0.35383855447693902 0 -0.071157696118109362 0.36170448025062218 0 -0.084299133686975572 0.35684410208409001 0 -0.076705507896191183 0.35383855447693902 0 -0.059881153675432383 0.35430313662024071 0 -0.058626870601395778 0.36023180910453118 0 -0.071157696118109362 0.36170448025062218 0 -0.059881153675432383 0.35430313662024071 0 -0.059976501396798443 0.34640013057040159 0 -0.068046633572776155 0.34513696516333192 0 -0.06815446288386498 0.3263880450875648 0 -0.079151648495115301 0.32136139923810009 0 -0.080753986599573127 0.33990497651870988 0 -0.068046633572776155 0.34513696516333192 0 -0.06815446288386498 0.3263880450875648 0 -0.080753986599573127 0.33990497651870988 0 -0.059045099567240703 0.33862263320968672 0 -0.068046633572776155 0.34513696516333192 0 -0.06815446288386498 0.3263880450875648 0 -0.068322770035098762 0.31198038943260148 0 -0.069852456288818351 0.31207980665071 0 -0.06815446288386498 0.3263880450875648 0 -0.068322770035098762 0.31198038943260148 0 -0.053879496619987192 0.32442993198196868 0 -0.06815446288386498 0.3263880450875648 0 -0.08121949171140587 0.31012908581564408 0 -0.069852456288818351 0.31207980665071 0 -0.079151648495115301 0.32136139923810009 0 -0.069852456288818351 0.31207980665071 0 -0.06815446288386498 0.3263880450875648 0 -0.079151648495115301 0.32136139923810009 0 -0.087527931766016032 0.31235393694025021 0 -0.079151648495115301 0.32136139923810009 0 -0.092322452643399749 0.33038340520087017 0 -0.1003457715998239 0.30392270831765028 0 -0.087527931766016032 0.31235393694025021 0 -0.092322452643399749 0.33038340520087017 0 -0.087527931766016032 0.31235393694025021 0 -0.08121949171140587 0.31012908581564408 0 -0.079151648495115301 0.32136139923810009 0 -0.084299133686975572 0.35684410208409001 0 -0.092322452643399749 0.33038340520087017 0 -0.079151648495115301 0.32136139923810009 0 -0.092322452643399749 0.33038340520087017 0 -0.080753986599573127 0.33990497651870988 0 -0.084299133686975572 0.35684410208409001 0 -0.092322452643399749 0.33038340520087017 0 -0.080753986599573127 0.33990497651870988 0 -0.092322452643399749 0.33038340520087017 0 -0.10472406897533799 0.34168768652513631 0 -0.095141502753968779 0.35097174187852381 0 -0.092322452643399749 0.33038340520087017 0 -0.10472406897533799 0.34168768652513631 0 -0.1081804568928026 0.32074506353771021 0 -0.1003457715998239 0.30392270831765028 0 -0.092322452643399749 0.33038340520087017 0 -0.1003457715998239 0.30392270831765028 0 -0.092322452643399749 0.33038340520087017 0 -0.1081804568928026 0.32074506353771021 0 -0.1262409447270301 0.3211703831111522 0 -0.1173504618646501 0.30916380798395637 0 -0.1081804568928026 0.32074506353771021 0 -0.1262409447270301 0.3211703831111522 0 -0.1081804568928026 0.32074506353771021 0 -0.1175879007316586 0.33497855513245622 0 -0.13367478836053351 0.33932016938713638 0 -0.1175879007316586 0.33497855513245622 0 -0.1173066256070304 0.35104950557859033 0 -0.10472406897533799 0.34168768652513631 0 -0.1081804568928026 0.32074506353771021 0 -0.1175879007316586 0.33497855513245622 0 -0.10472406897533799 0.34168768652513631 0 -0.1175879007316586 0.33497855513245622 0 -0.1173066256070304 0.35104950557859033 0 -0.1173066256070304 0.35104950557859033 0 -0.1198206075896991 0.37069234566290138 0 -0.1030551893938276 0.35978992576853291 0 -0.1367685514822152 0.35851885971508118 0 -0.1173066256070304 0.35104950557859033 0 -0.1198206075896991 0.37069234566290138 0 -0.1198206075896991 0.37069234566290138 0 -0.1030551893938276 0.35978992576853291 0 -0.10026372758235801 0.37465761506622741 0 -0.093494049974744503 0.36523362229143391 0 -0.10026372758235801 0.37465761506622741 0 -0.089436666146690338 0.3774527594588406 0 -0.093494049974744503 0.36523362229143391 0 -0.1030551893938276 0.35978992576853291 0 -0.10026372758235801 0.37465761506622741 0 -0.10472406897533799 0.34168768652513631 0 -0.1030551893938276 0.35978992576853291 0 -0.095141502753968779 0.35097174187852381 0 -0.093494049974744503 0.36523362229143391 0 -0.1030551893938276 0.35978992576853291 0 -0.095141502753968779 0.35097174187852381 0 -0.10472406897533799 0.34168768652513631 0 -0.1173066256070304 0.35104950557859033 0 -0.1030551893938276 0.35978992576853291 0 -0.101128536279416 0.3977608810528192 0 -0.11378235269799521 0.38746486633725291 0 -0.11258596611237601 0.40408595479252452 0 -0.101128536279416 0.3977608810528192 0 -0.095244926421122186 0.38729621463576269 0 -0.11378235269799521 0.38746486633725291 0 -0.101128536279416 0.3977608810528192 0 -0.11258596611237601 0.40408595479252452 0 -0.097808874238227678 0.41145560844912898 0 -0.101128536279416 0.3977608810528192 0 -0.097808874238227678 0.41145560844912898 0 -0.087042344484389883 0.39738020370821953 0 -0.101128536279416 0.3977608810528192 0 -0.095244926421122186 0.38729621463576269 0 -0.087042344484389883 0.39738020370821953 0 -0.10026372758235801 0.37465761506622741 0 -0.095244926421122186 0.38729621463576269 0 -0.11378235269799521 0.38746486633725291 0 -0.10026372758235801 0.37465761506622741 0 -0.095244926421122186 0.38729621463576269 0 -0.089436666146690338 0.3774527594588406 0 -0.1198206075896991 0.37069234566290138 0 -0.10026372758235801 0.37465761506622741 0 -0.11378235269799521 0.38746486633725291 0 -0.12826940643264259 0.38638828685515292 0 -0.1198206075896991 0.37069234566290138 0 -0.11378235269799521 0.38746486633725291 0 -0.12644786621320531 0.40058001872868543 0 -0.12826940643264259 0.38638828685515292 0 -0.11378235269799521 0.38746486633725291 0 -0.12761284081938409 0.41418542740570108 0 -0.11378235269799521 0.38746486633725291 0 -0.12761284081938409 0.41418542740570108 0 -0.12644786621320531 0.40058001872868543 0 -0.11378235269799521 0.38746486633725291 0 -0.12761284081938409 0.41418542740570108 0 -0.11378235269799521 0.38746486633725291 0 -0.11258596611237601 0.40408595479252452 0 -0.12761284081938409 0.41418542740570108 0 -0.11258596611237601 0.40408595479252452 0 -0.097808874238227678 0.41145560844912898 0 -0.12761284081938409 0.41418542740570108 0 -0.1126245701039178 0.4308246085444013 0 -0.097808874238227678 0.41145560844912898 0 -0.12761284081938409 0.41418542740570108 0 -0.097808874238227678 0.41145560844912898 0 -0.12761284081938409 0.41418542740570108 0 -0.1126245701039178 0.4308246085444013 0 -0.1242648033483075 0.43981492828754482 0 -0.1126245701039178 0.4308246085444013 0 -0.096605527178418776 0.42311346390882398 0 -0.097170403390676049 0.43571281837191522 0 -0.1126245701039178 0.4308246085444013 0 -0.097170403390676049 0.43571281837191522 0 -0.10338783084247161 0.44098956532991213 0 -0.1126245701039178 0.4308246085444013 0 -0.097808874238227678 0.41145560844912898 0 -0.1126245701039178 0.4308246085444013 0 -0.096605527178418776 0.42311346390882398 0 -0.097808874238227678 0.41145560844912898 0 -0.096605527178418776 0.42311346390882398 0 -0.097808874238227678 0.41145560844912898 0 -0.090623427087895073 0.41079747558654428 0 -0.097808874238227678 0.41145560844912898 0 -0.090623427087895073 0.41079747558654428 0 -0.096605527178418776 0.42311346390882398 0 -0.090623427087895073 0.41079747558654428 0 -0.084800361071377284 0.4267768085921303 0 -0.090623427087895073 0.41079747558654428 0 -0.084347825254610875 0.40943513047528779 0 -0.084800361071377284 0.4267768085921303 0 -0.084800361071377284 0.4267768085921303 0 -0.074925168374781331 0.40278603401425761 0 -0.084347825254610875 0.40943513047528779 0 -0.084800361071377284 0.4267768085921303 0 -0.074925168374781331 0.40278603401425761 0 -0.097808874238227678 0.41145560844912898 0 -0.090623427087895073 0.41079747558654428 0 -0.087042344484389883 0.39738020370821953 0 -0.096605527178418776 0.42311346390882398 0 -0.097170403390676049 0.43571281837191522 0 -0.084800361071377284 0.4267768085921303 0 -0.084800361071377284 0.4267768085921303 0 -0.077689053426030094 0.43734830183904833 0 -0.073740177733494089 0.43015549729097768 0 -0.084800361071377284 0.4267768085921303 0 -0.077689053426030094 0.43734830183904833 0 -0.085627028266785254 0.44117175463919189 0 -0.077689053426030094 0.43734830183904833 0 -0.073740177733494089 0.43015549729097768 0 -0.069373851585076945 0.43677151010665521 0 -0.084800361071377284 0.4267768085921303 0 -0.073740177733494089 0.43015549729097768 0 -0.074963529381557356 0.42372471124402672 0 -0.084800361071377284 0.4267768085921303 0 -0.074963529381557356 0.42372471124402672 0 -0.074207610301873977 0.415826985147286 0 -0.073740177733494089 0.43015549729097768 0 -0.07134827269677288 0.42521816639912852 0 -0.067010261651664849 0.42692585223643509 0 -0.073740177733494089 0.43015549729097768 0 -0.074963529381557356 0.42372471124402672 0 -0.07134827269677288 0.42521816639912852 0 -0.074963529381557356 0.42372471124402672 0 -0.07134827269677288 0.42521816639912852 0 -0.069903249343569923 0.42035209495099629 0 -0.06803153127557314 0.42418340705062968 0 -0.063864341410284964 0.42423751461595932 0 -0.069903249343569923 0.42035209495099629 0 -0.07134827269677288 0.42521816639912852 0 -0.06803153127557314 0.42418340705062968 0 -0.067010261651664849 0.42692585223643509 0 -0.07134827269677288 0.42521816639912852 0 -0.06803153127557314 0.42418340705062968 0 -0.069903249343569923 0.42035209495099629 0 -0.06803153127557314 0.42418340705062968 0 -0.063864341410284964 0.42423751461595932 0 -0.067010261651664849 0.42692585223643509 0 -0.063864341410284964 0.42423751461595932 0 -0.067010261651664849 0.42692585223643509 0 -0.067010261651664849 0.42692585223643509 0 -0.06657591115514655 0.43192586875325267 0 -0.062357688865182517 0.42920641545622512 0 -0.063864341410284964 0.42423751461595932 0 -0.067010261651664849 0.42692585223643509 0 -0.062357688865182517 0.42920641545622512 0 -0.063864341410284964 0.42423751461595932 0 -0.062357688865182517 0.42920641545622512 0 -0.073740177733494089 0.43015549729097768 0 -0.067010261651664849 0.42692585223643509 0 -0.06657591115514655 0.43192586875325267 0 -0.073740177733494089 0.43015549729097768 0 -0.06657591115514655 0.43192586875325267 0 -0.069373851585076945 0.43677151010665521 0 -0.06657591115514655 0.43192586875325267 0 -0.062750456602468974 0.43554137489064498 0 -0.062357688865182517 0.42920641545622512 0 -0.06657591115514655 0.43192586875325267 0 -0.062750456602468974 0.43554137489064498 0 -0.069373851585076945 0.43677151010665521 0 -0.063864341410284964 0.42423751461595932 0 -0.069903249343569923 0.42035209495099629 0 -0.070070078070418332 0.40377115679163461 0 -0.074207610301873977 0.415826985147286 0 -0.069903249343569923 0.42035209495099629 0 -0.070070078070418332 0.40377115679163461 0 -0.063864341410284964 0.42423751461595932 0 -0.070070078070418332 0.40377115679163461 0 -0.058881304157308093 0.40804381518971672 0 -0.063864341410284964 0.42423751461595932 0 -0.070070078070418332 0.40377115679163461 0 -0.084800361071377284 0.4267768085921303 0 -0.074207610301873977 0.415826985147286 0 -0.074925168374781331 0.40278603401425761 0 -0.074207610301873977 0.415826985147286 0 -0.070070078070418332 0.40377115679163461 0 -0.074925168374781331 0.40278603401425761 0 -0.074963529381557356 0.42372471124402672 0 -0.074207610301873977 0.415826985147286 0 -0.069903249343569923 0.42035209495099629 0 -0.070070078070418332 0.40377115679163461 0 -0.064506344576777661 0.39145758865641178 0 -0.076275814730551866 0.38330479896731001 0 -0.070070078070418332 0.40377115679163461 0 -0.074925168374781331 0.40278603401425761 0 -0.076275814730551866 0.38330479896731001 0 -0.070070078070418332 0.40377115679163461 0 -0.076275814730551866 0.38330479896731001 0 -0.070070078070418332 0.40377115679163461 0 -0.064506344576777661 0.39145758865641178 0 -0.057086028466031037 0.39647274516785291 0 -0.074925168374781331 0.40278603401425761 0 -0.087042344484389883 0.39738020370821953 0 -0.076275814730551866 0.38330479896731001 0 -0.084347825254610875 0.40943513047528779 0 -0.074925168374781331 0.40278603401425761 0 -0.087042344484389883 0.39738020370821953 0 -0.097808874238227678 0.41145560844912898 0 -0.087042344484389883 0.39738020370821953 0 -0.090623427087895073 0.41079747558654428 0 -0.084347825254610875 0.40943513047528779 0 -0.087042344484389883 0.39738020370821953 0 -0.087042344484389883 0.39738020370821953 0 -0.089436666146690338 0.3774527594588406 0 -0.076275814730551866 0.38330479896731001 0 -0.095244926421122186 0.38729621463576269 0 -0.087042344484389883 0.39738020370821953 0 -0.089436666146690338 0.3774527594588406 0 -0.087042344484389883 0.39738020370821953 0 -0.076275814730551866 0.38330479896731001 0 -0.064506344576777661 0.39145758865641178 0 -0.076275814730551866 0.38330479896731001 0 -0.054593457040109393 0.3822816536988497 0 -0.058148679921659119 0.37186744297544022 0 -0.076275814730551866 0.38330479896731001 0 -0.054593457040109393 0.3822816536988497 0 -0.064506344576777661 0.39145758865641178 0 -0.054593457040109393 0.3822816536988497 0 -0.057086028466031037 0.39647274516785291 0 -0.054593457040109393 0.3822816536988497 0 -0.057086028466031037 0.39647274516785291 0 -0.042391572779214973 0.39096282696345341 0 -0.057086028466031037 0.39647274516785291 0 -0.042391572779214973 0.39096282696345341 0 -0.044504768682498037 0.40769384418342008 0 -0.070070078070418332 0.40377115679163461 0 -0.057086028466031037 0.39647274516785291 0 -0.058881304157308093 0.40804381518971672 0 -0.057086028466031037 0.39647274516785291 0 -0.044504768682498037 0.40769384418342008 0 -0.058881304157308093 0.40804381518971672 0 -0.02514519595471108 0.39115017375088101 0 -0.044504768682498037 0.40769384418342008 0 -0.042391572779214973 0.39096282696345341 0 -0.02514519595471108 0.39115017375088101 0 -0.044504768682498037 0.40769384418342008 0 -0.034100997704691827 0.37295894625721099 0 -0.054593457040109393 0.3822816536988497 0 -0.042391572779214973 0.39096282696345341 0 -0.034100997704691827 0.37295894625721099 0 -0.042391572779214973 0.39096282696345341 0 -0.02514519595471108 0.39115017375088101 0 -0.034100997704691827 0.37295894625721099 0 -0.02514519595471108 0.39115017375088101 0 -0.034100997704691827 0.37295894625721099 0 -0.02514519595471108 0.39115017375088101 0 -0.0087141207398781558 0.37710904293520409 0 -0.02514519595471108 0.39115017375088101 0 -0.0087141207398781558 0.37710904293520409 0 -0.02514519595471108 0.39115017375088101 0 -0.014810785045769751 0.41214166341376801 0 -0.02514519595471108 0.39115017375088101 0 -0.014810785045769751 0.41214166341376801 0 -0.044504768682498037 0.40769384418342008 0 -0.0068648610501423502 0.39382000907293813 0 -0.014810785045769751 0.41214166341376801 0 0.0046995574085186929 0.41194005205042061 0 -0.02514519595471108 0.39115017375088101 0 -0.0068648610501423502 0.39382000907293813 0 -0.014810785045769751 0.41214166341376801 0 -0.02514519595471108 0.39115017375088101 0 -0.0068648610501423502 0.39382000907293813 0 -0.0087141207398781558 0.37710904293520409 0 -0.0068648610501423502 0.39382000907293813 0 -0.0087141207398781558 0.37710904293520409 0 0.0053185270157129726 0.37689571945341471 0 -0.0044763741368290672 0.43313315307665529 0 -0.014810785045769751 0.41214166341376801 0 -0.0044763741368290672 0.43313315307665529 0 -0.014810785045769751 0.41214166341376801 0 -0.026116443713473419 0.4246575807879529 0 -0.0044763741368290672 0.43313315307665529 0 -0.014810785045769751 0.41214166341376801 0 0.0046995574085186929 0.41194005205042061 0 -0.014810785045769751 0.41214166341376801 0 -0.026116443713473419 0.4246575807879529 0 -0.044504768682498037 0.40769384418342008 0 -0.0044763741368290672 0.43313315307665529 0 -0.026116443713473419 0.4246575807879529 0 -0.02623027688729573 0.44118750916919391 0 -0.026116443713473419 0.4246575807879529 0 -0.040560013814974517 0.42913173409672722 0 -0.02623027688729573 0.44118750916919391 0 -0.040560013814974517 0.42913173409672722 0 -0.048293098329248912 0.43867666423002288 0 -0.039090066940739521 0.44352471403713711 0 -0.026116443713473419 0.4246575807879529 0 -0.040560013814974517 0.42913173409672722 0 -0.044504768682498037 0.40769384418342008 0 -0.040560013814974517 0.42913173409672722 0 -0.044504768682498037 0.40769384418342008 0 -0.051886787429848112 0.42350176277299723 0 -0.063864341410284964 0.42423751461595932 0 -0.044504768682498037 0.40769384418342008 0 -0.058881304157308093 0.40804381518971672 0 -0.063864341410284964 0.42423751461595932 0 -0.044504768682498037 0.40769384418342008 0 -0.051886787429848112 0.42350176277299723 0 -0.063864341410284964 0.42423751461595932 0 -0.044504768682498037 0.40769384418342008 0 -0.053936434918908913 0.43159717611494758 0 -0.057641003333182179 0.44086754716312743 0 -0.048293098329248912 0.43867666423002288 0 -0.040560013814974517 0.42913173409672722 0 -0.053936434918908913 0.43159717611494758 0 -0.048293098329248912 0.43867666423002288 0 -0.040560013814974517 0.42913173409672722 0 -0.053936434918908913 0.43159717611494758 0 -0.051886787429848112 0.42350176277299723 0 -0.053936434918908913 0.43159717611494758 0 -0.051886787429848112 0.42350176277299723 0 -0.062357688865182517 0.42920641545622512 0 -0.063864341410284964 0.42423751461595932 0 -0.051886787429848112 0.42350176277299723 0 -0.062357688865182517 0.42920641545622512 0 -0.062750456602468974 0.43554137489064498 0 -0.053936434918908913 0.43159717611494758 0 -0.062357688865182517 0.42920641545622512 0 -0.062750456602468974 0.43554137489064498 0 -0.053936434918908913 0.43159717611494758 0 -0.057641003333182179 0.44086754716312743 0 -0.062750456602468974 0.43554137489064498 0 -0.057641003333182179 0.44086754716312743 0 -0.065491549478626135 0.44200233464982802 0 -0.057641003333182179 0.44086754716312743 0 -0.062398417199954148 0.4499603094023914 0 -0.065491549478626135 0.44200233464982802 0 -0.057641003333182179 0.44086754716312743 0 -0.062398417199954148 0.4499603094023914 0 -0.050237972638439453 0.44826214973817502 0 -0.057641003333182179 0.44086754716312743 0 -0.050237972638439453 0.44826214973817502 0 -0.048293098329248912 0.43867666423002288 0 -0.062398417199954148 0.4499603094023914 0 -0.050230730183752688 0.46259696058471089 0 -0.064501224992871267 0.46542691543905351 0 -0.062398417199954148 0.4499603094023914 0 -0.050237972638439453 0.44826214973817502 0 -0.050230730183752688 0.46259696058471089 0 -0.050230730183752688 0.46259696058471089 0 -0.035748626011326709 0.45858167758110602 0 -0.046040344352481867 0.47841272498986082 0 -0.050237972638439453 0.44826214973817502 0 -0.050230730183752688 0.46259696058471089 0 -0.035748626011326709 0.45858167758110602 0 -0.035748626011326709 0.45858167758110602 0 -0.039090066940739521 0.44352471403713711 0 -0.02623027688729573 0.44118750916919391 0 -0.050237972638439453 0.44826214973817502 0 -0.048293098329248912 0.43867666423002288 0 -0.039090066940739521 0.44352471403713711 0 -0.050237972638439453 0.44826214973817502 0 -0.035748626011326709 0.45858167758110602 0 -0.039090066940739521 0.44352471403713711 0 -0.040560013814974517 0.42913173409672722 0 -0.039090066940739521 0.44352471403713711 0 -0.02623027688729573 0.44118750916919391 0 -0.035748626011326709 0.45858167758110602 0 -0.02623027688729573 0.44118750916919391 0 -0.01728298942402769 0.45556140426229003 0 -0.0044763741368290672 0.43313315307665529 0 -0.02623027688729573 0.44118750916919391 0 -0.01728298942402769 0.45556140426229003 0 -0.035748626011326709 0.45858167758110602 0 -0.01728298942402769 0.45556140426229003 0 -0.022784747477638551 0.4775754860453762 0 -0.01728298942402769 0.45556140426229003 0 -0.0062093312902834459 0.46527566221073008 0 0.006403582431216831 0.45126676372832991 0 -0.01728298942402769 0.45556140426229003 0 -0.0062093312902834459 0.46527566221073008 0 -0.022784747477638551 0.4775754860453762 0 -0.0044763741368290672 0.43313315307665529 0 -0.01728298942402769 0.45556140426229003 0 0.006403582431216831 0.45126676372832991 0 -0.0062093312902834459 0.46527566221073008 0 -0.022784747477638551 0.4775754860453762 0 0.0095498935665802413 0.47810272379952351 0 -0.022784747477638551 0.4775754860453762 0 -0.021427984417146221 0.5 0 0.0095498935665802413 0.47810272379952351 0 -0.021427984417146221 0.5 0 0.0095498935665802413 0.47810272379952351 0 0.0086042794582089632 0.5 0 -0.022784747477638551 0.4775754860453762 0 -0.021427984417146221 0.5 0 -0.046040344352481867 0.47841272498986082 0 -0.021427984417146221 0.5 0 -0.046040344352481867 0.47841272498986082 0 -0.051460248292501398 0.5 0 -0.035748626011326709 0.45858167758110602 0 -0.022784747477638551 0.4775754860453762 0 -0.046040344352481867 0.47841272498986082 0 -0.046040344352481867 0.47841272498986082 0 -0.067939054777113927 0.48291587414950521 0 -0.064501224992871267 0.46542691543905351 0 -0.050230730183752688 0.46259696058471089 0 -0.046040344352481867 0.47841272498986082 0 -0.064501224992871267 0.46542691543905351 0 -0.046040344352481867 0.47841272498986082 0 -0.051460248292501398 0.5 0 -0.067939054777113927 0.48291587414950521 0 -0.051460248292501398 0.5 0 -0.081492512167856565 0.50000000000000011 0 -0.067939054777113927 0.48291587414950521 0 -0.081492512167856565 0.50000000000000011 0 -0.085878896958769185 0.47675925450649242 0 -0.067939054777113927 0.48291587414950521 0 -0.081492512167856565 0.50000000000000011 0 -0.085878896958769185 0.47675925450649242 0 -0.099362977551805121 0.48745008538217821 0 -0.081492512167856565 0.50000000000000011 0 -0.085878896958769185 0.47675925450649242 0 -0.085878896958769185 0.47675925450649242 0 -0.075452149305044958 0.46933040044586682 0 -0.067939054777113927 0.48291587414950521 0 -0.075452149305044958 0.46933040044586682 0 -0.067939054777113927 0.48291587414950521 0 -0.064501224992871267 0.46542691543905351 0 -0.064501224992871267 0.46542691543905351 0 -0.075214053997903707 0.45912990264989012 0 -0.070315415620740368 0.45334812155980347 0 -0.062398417199954148 0.4499603094023914 0 -0.064501224992871267 0.46542691543905351 0 -0.070315415620740368 0.45334812155980347 0 -0.075214053997903707 0.45912990264989012 0 -0.070315415620740368 0.45334812155980347 0 -0.081419329692844739 0.44979703694502599 0 -0.075452149305044958 0.46933040044586682 0 -0.064501224992871267 0.46542691543905351 0 -0.075214053997903707 0.45912990264989012 0 -0.075452149305044958 0.46933040044586682 0 -0.075214053997903707 0.45912990264989012 0 -0.082509194984251868 0.46007906520350089 0 -0.069373851585076945 0.43677151010665521 0 -0.065491549478626135 0.44200233464982802 0 -0.073041418115067244 0.44511613748665291 0 -0.062750456602468974 0.43554137489064498 0 -0.069373851585076945 0.43677151010665521 0 -0.065491549478626135 0.44200233464982802 0 -0.062398417199954148 0.4499603094023914 0 -0.065491549478626135 0.44200233464982802 0 -0.073041418115067244 0.44511613748665291 0 -0.062398417199954148 0.4499603094023914 0 -0.070315415620740368 0.45334812155980347 0 -0.073041418115067244 0.44511613748665291 0 -0.070315415620740368 0.45334812155980347 0 -0.073041418115067244 0.44511613748665291 0 -0.081419329692844739 0.44979703694502599 0 -0.073041418115067244 0.44511613748665291 0 -0.07941018481149445 0.44345804230003222 0 -0.081419329692844739 0.44979703694502599 0 -0.077689053426030094 0.43734830183904833 0 -0.069373851585076945 0.43677151010665521 0 -0.073041418115067244 0.44511613748665291 0 -0.077689053426030094 0.43734830183904833 0 -0.073041418115067244 0.44511613748665291 0 -0.07941018481149445 0.44345804230003222 0 -0.097170403390676049 0.43571281837191522 0 -0.084800361071377284 0.4267768085921303 0 -0.094675553767973264 0.45076758317000298 0 -0.084800361071377284 0.4267768085921303 0 -0.094675553767973264 0.45076758317000298 0 -0.084800361071377284 0.4267768085921303 0 -0.085627028266785254 0.44117175463919189 0 -0.094675553767973264 0.45076758317000298 0 -0.085627028266785254 0.44117175463919189 0 -0.07941018481149445 0.44345804230003222 0 -0.081419329692844739 0.44979703694502599 0 -0.077689053426030094 0.43734830183904833 0 -0.085627028266785254 0.44117175463919189 0 -0.07941018481149445 0.44345804230003222 0 -0.085627028266785254 0.44117175463919189 0 -0.081419329692844739 0.44979703694502599 0 -0.088082484801868088 0.44854024150695748 0 -0.081419329692844739 0.44979703694502599 0 -0.086047819819581178 0.45134535453790131 0 -0.088082484801868088 0.44854024150695748 0 -0.085627028266785254 0.44117175463919189 0 -0.088082484801868088 0.44854024150695748 0 -0.094675553767973264 0.45076758317000298 0 -0.086047819819581178 0.45134535453790131 0 -0.088082484801868088 0.44854024150695748 0 -0.090265281749681819 0.45351850901298468 0 -0.088082484801868088 0.44854024150695748 0 -0.090265281749681819 0.45351850901298468 0 -0.094675553767973264 0.45076758317000298 0 -0.085878896958769185 0.47675925450649242 0 -0.075452149305044958 0.46933040044586682 0 -0.082509194984251868 0.46007906520350089 0 -0.085878896958769185 0.47675925450649242 0 -0.090265281749681819 0.45351850901298468 0 -0.085878896958769185 0.47675925450649242 0 -0.090265281749681819 0.45351850901298468 0 -0.093944937474792503 0.46462082789344678 0 -0.085878896958769185 0.47675925450649242 0 -0.082509194984251868 0.46007906520350089 0 -0.090265281749681819 0.45351850901298468 0 -0.081419329692844739 0.44979703694502599 0 -0.086047819819581178 0.45134535453790131 0 -0.082509194984251868 0.46007906520350089 0 -0.075214053997903707 0.45912990264989012 0 -0.081419329692844739 0.44979703694502599 0 -0.082509194984251868 0.46007906520350089 0 -0.090265281749681819 0.45351850901298468 0 -0.093944937474792503 0.46462082789344678 0 -0.094675553767973264 0.45076758317000298 0 -0.086047819819581178 0.45134535453790131 0 -0.082509194984251868 0.46007906520350089 0 -0.090265281749681819 0.45351850901298468 0 -0.093944937474792503 0.46462082789344678 0 -0.094675553767973264 0.45076758317000298 0 -0.1045507464645692 0.47475835774787573 0 -0.094675553767973264 0.45076758317000298 0 -0.1045507464645692 0.47475835774787573 0 -0.1087715055698807 0.4588247561088431 0 -0.094675553767973264 0.45076758317000298 0 -0.1045507464645692 0.47475835774787573 0 -0.1126245701039178 0.4308246085444013 0 -0.1090807961073193 0.44665325123332839 0 -0.10338783084247161 0.44098956532991213 0 -0.097170403390676049 0.43571281837191522 0 -0.094675553767973264 0.45076758317000298 0 -0.10338783084247161 0.44098956532991213 0 -0.1087715055698807 0.4588247561088431 0 -0.094675553767973264 0.45076758317000298 0 -0.1090807961073193 0.44665325123332839 0 -0.094675553767973264 0.45076758317000298 0 -0.1090807961073193 0.44665325123332839 0 -0.10338783084247161 0.44098956532991213 0 -0.1126245701039178 0.4308246085444013 0 -0.1090807961073193 0.44665325123332839 0 -0.1242648033483075 0.43981492828754482 0 -0.1090807961073193 0.44665325123332839 0 -0.1242648033483075 0.43981492828754482 0 -0.1204057133641486 0.45504160574272429 0 -0.1087715055698807 0.4588247561088431 0 -0.1176294132596279 0.46872710166108278 0 -0.1045507464645692 0.47475835774787573 0 -0.1087715055698807 0.4588247561088431 0 -0.1204057133641486 0.45504160574272429 0 -0.1176294132596279 0.46872710166108278 0 -0.1087715055698807 0.4588247561088431 0 -0.1090807961073193 0.44665325123332839 0 -0.1204057133641486 0.45504160574272429 0 -0.13097929143795109 0.46459511115351071 0 -0.1204057133641486 0.45504160574272429 0 -0.1176294132596279 0.46872710166108278 0 -0.12908554574303099 0.47755934496718438 0 -0.1176294132596279 0.46872710166108278 0 -0.1160402402672886 0.48503019582547341 0 -0.1176294132596279 0.46872710166108278 0 -0.1160402402672886 0.48503019582547341 0 -0.1045507464645692 0.47475835774787573 0 -0.13803845513632401 0.5 0 -0.1097654836520903 0.5 0 -0.1160402402672886 0.48503019582547341 0 -0.1097654836520903 0.5 0 -0.1160402402672886 0.48503019582547341 0 -0.099362977551805121 0.48745008538217821 0 -0.081492512167856565 0.50000000000000011 0 -0.1097654836520903 0.5 0 -0.099362977551805121 0.48745008538217821 0 -0.085878896958769185 0.47675925450649242 0 -0.093944937474792503 0.46462082789344678 0 -0.1045507464645692 0.47475835774787573 0 -0.085878896958769185 0.47675925450649242 0 -0.099362977551805121 0.48745008538217821 0 -0.1045507464645692 0.47475835774787573 0 -0.1160402402672886 0.48503019582547341 0 -0.099362977551805121 0.48745008538217821 0 -0.1045507464645692 0.47475835774787573 0 -0.15850742705232401 0.077073165420907211 0 -0.17832815471062741 0.080370175701138483 0 -0.15596223049933161 0.089669487892629185 0 -0.17128916945913089 0.092189477241546317 0 -0.17832815471062741 0.080370175701138483 0 -0.15596223049933161 0.089669487892629185 0 -0.17832815471062741 0.080370175701138483 0 -0.15596223049933161 0.089669487892629185 0 -0.15850742705232401 0.077073165420907211 0 -0.16907692184479731 0.071953328836937142 0 -0.17832815471062741 0.080370175701138483 0 -0.15850742705232401 0.077073165420907211 0 -0.15722519427174569 0.065058312825911402 0 -0.16907692184479731 0.071953328836937142 0 -0.16907692184479731 0.071953328836937142 0 -0.1809864334298861 0.069780609401686525 0 -0.17832815471062741 0.080370175701138483 0 -0.16907692184479731 0.071953328836937142 0 -0.1809864334298861 0.069780609401686525 0 -0.18167022033174851 0.056262687610226528 0 -0.1809864334298861 0.069780609401686525 0 -0.17832815471062741 0.080370175701138483 0 -0.20069407892192309 0.071070863509647808 0 -0.1809864334298861 0.069780609401686525 0 -0.18167022033174851 0.056262687610226528 0 -0.1876556690991136 0.063313821709693935 0 -0.17128916945913089 0.092189477241546317 0 -0.18444466814129201 0.081023499242751457 0 -0.17631468167186989 0.1066384650542631 0 -0.17128916945913089 0.092189477241546317 0 -0.18444466814129201 0.081023499242751457 0 -0.17832815471062741 0.080370175701138483 0 -0.18444466814129201 0.081023499242751457 0 -0.17631468167186989 0.1066384650542631 0 -0.19937405773042491 0.1071019237599893 0 -0.17631468167186989 0.1066384650542631 0 -0.16393492635195239 0.1245978723337525 0 -0.1795193575176991 0.1294692331289829 0 -0.17631468167186989 0.1066384650542631 0 -0.19937405773042491 0.1071019237599893 0 -0.1795193575176991 0.1294692331289829 0 -0.16393492635195239 0.1245978723337525 0 -0.16139611227253359 0.1032457583169494 0 -0.15311233888185891 0.1152965378839053 0 -0.17631468167186989 0.1066384650542631 0 -0.16393492635195239 0.1245978723337525 0 -0.16139611227253359 0.1032457583169494 0 -0.17128916945913089 0.092189477241546317 0 -0.17631468167186989 0.1066384650542631 0 -0.16139611227253359 0.1032457583169494 0 -0.17128916945913089 0.092189477241546317 0 -0.16139611227253359 0.1032457583169494 0 -0.15596223049933161 0.089669487892629185 0 -0.16139611227253359 0.1032457583169494 0 -0.13359630628803579 0.098968800084119873 0 -0.15596223049933161 0.089669487892629185 0 -0.16139611227253359 0.1032457583169494 0 -0.15311233888185891 0.1152965378839053 0 -0.13359630628803579 0.098968800084119873 0 -0.13359630628803579 0.098968800084119873 0 -0.15596223049933161 0.089669487892629185 0 -0.15311233888185891 0.1152965378839053 0 -0.13930859898956699 0.1145050369687237 0 -0.153752621985453 0.14073392350839439 0 -0.15311233888185891 0.1152965378839053 0 -0.13930859898956699 0.1145050369687237 0 -0.13359630628803579 0.098968800084119873 0 -0.13930859898956699 0.1145050369687237 0 -0.12607259725238279 0.11330641960449821 0 -0.12916618827146031 0.12390190950899049 0 -0.13930859898956699 0.1145050369687237 0 -0.12607259725238279 0.11330641960449821 0 -0.13359630628803579 0.098968800084119873 0 -0.13359630628803579 0.098968800084119873 0 -0.12697672020224329 0.087309090757334687 0 -0.14089006822782121 0.082531143958766096 0 -0.12697672020224329 0.087309090757334687 0 -0.14089006822782121 0.082531143958766096 0 -0.12697985749263241 0.07630636069427757 0 -0.15850742705232401 0.077073165420907211 0 -0.14089006822782121 0.082531143958766096 0 -0.15596223049933161 0.089669487892629185 0 -0.13359630628803579 0.098968800084119873 0 -0.14089006822782121 0.082531143958766096 0 -0.15596223049933161 0.089669487892629185 0 -0.15850742705232401 0.077073165420907211 0 -0.14089006822782121 0.082531143958766096 0 -0.14764327064684279 0.071644858797684771 0 -0.15722519427174569 0.065058312825911402 0 -0.14764327064684279 0.071644858797684771 0 -0.1471722955607111 0.059591957907519158 0 -0.15850742705232401 0.077073165420907211 0 -0.15722519427174569 0.065058312825911402 0 -0.14764327064684279 0.071644858797684771 0 -0.14089006822782121 0.082531143958766096 0 -0.14764327064684279 0.071644858797684771 0 -0.13666502121529681 0.069478967649866344 0 -0.14764327064684279 0.071644858797684771 0 -0.13666502121529681 0.069478967649866344 0 -0.1471722955607111 0.059591957907519158 0 -0.14089006822782121 0.082531143958766096 0 -0.13666502121529681 0.069478967649866344 0 -0.12697985749263241 0.07630636069427757 0 -0.13666502121529681 0.069478967649866344 0 -0.12697985749263241 0.07630636069427757 0 -0.12509646681095879 0.065597408261105467 0 -0.13666502121529681 0.069478967649866344 0 -0.12509646681095879 0.065597408261105467 0 -0.13233523162579211 0.057527865090889828 0 -0.13233523162579211 0.057527865090889828 0 -0.1197320338084647 0.057760070231756527 0 -0.1244920148619628 0.050381604022983993 0 -0.12509646681095879 0.065597408261105467 0 -0.13233523162579211 0.057527865090889828 0 -0.1197320338084647 0.057760070231756527 0 -0.13666502121529681 0.069478967649866344 0 -0.13233523162579211 0.057527865090889828 0 -0.1471722955607111 0.059591957907519158 0 -0.13233523162579211 0.057527865090889828 0 -0.131277092146349 0.043237905602295942 0 -0.1435202772377579 0.047601805401877667 0 -0.13233523162579211 0.057527865090889828 0 -0.131277092146349 0.043237905602295942 0 -0.1244920148619628 0.050381604022983993 0 -0.131277092146349 0.043237905602295942 0 -0.14194951185496399 0.035172378083737049 0 -0.12424451236807239 0.027069144312366941 0 -0.131277092146349 0.043237905602295942 0 -0.12424451236807239 0.027069144312366941 0 -0.12075472355362291 0.04122338309529356 0 -0.131277092146349 0.043237905602295942 0 -0.12075472355362291 0.04122338309529356 0 -0.1244920148619628 0.050381604022983993 0 -0.131277092146349 0.043237905602295942 0 -0.14194951185496399 0.035172378083737049 0 -0.1435202772377579 0.047601805401877667 0 -0.14194951185496399 0.035172378083737049 0 -0.15126073753592009 0.02487777788828089 0 -0.1637260562540532 0.045028253166508762 0 -0.14194951185496399 0.035172378083737049 0 -0.1435202772377579 0.047601805401877667 0 -0.1637260562540532 0.045028253166508762 0 -0.15722519427174569 0.065058312825911402 0 -0.1471722955607111 0.059591957907519158 0 -0.1637260562540532 0.045028253166508762 0 -0.1471722955607111 0.059591957907519158 0 -0.1435202772377579 0.047601805401877667 0 -0.1637260562540532 0.045028253166508762 0 -0.13233523162579211 0.057527865090889828 0 -0.1471722955607111 0.059591957907519158 0 -0.1435202772377579 0.047601805401877667 0 -0.1244522405185825 -0.00038769298458709092 0 -0.1310798501921922 0.016754836893075501 0 -0.12424451236807239 0.027069144312366941 0 -0.1244522405185825 -0.00038769298458709092 0 -0.13302987177733741 0.0072862060594841918 0 -0.1310798501921922 0.016754836893075501 0 -0.13796817939809339 -7.5853332940862265e-05 0 -0.13302987177733741 0.0072862060594841918 0 -0.13861921700048169 0.01285353366238922 0 -0.1244522405185825 -0.00038769298458709092 0 -0.13796817939809339 -7.5853332940862265e-05 0 -0.13302987177733741 0.0072862060594841918 0 -0.13302987177733741 0.0072862060594841918 0 -0.13861921700048169 0.01285353366238922 0 -0.1310798501921922 0.016754836893075501 0 -0.14194951185496399 0.035172378083737049 0 -0.1395360945068517 0.023372288850015029 0 -0.12424451236807239 0.027069144312366941 0 -0.13861921700048169 0.01285353366238922 0 -0.1395360945068517 0.023372288850015029 0 -0.1310798501921922 0.016754836893075501 0 -0.1395360945068517 0.023372288850015029 0 -0.1310798501921922 0.016754836893075501 0 -0.12424451236807239 0.027069144312366941 0 -0.14194951185496399 0.035172378083737049 0 -0.1395360945068517 0.023372288850015029 0 -0.15126073753592009 0.02487777788828089 0 -0.15126073753592009 0.02487777788828089 0 -0.15188271994169991 0.01786916074884114 0 -0.14657132146084931 0.01677767438903701 0 -0.15126073753592009 0.02487777788828089 0 -0.15837519066330749 0.018103177496080571 0 -0.1567842680697151 0.017821512483746641 0 -0.15126073753592009 0.02487777788828089 0 -0.15188271994169991 0.01786916074884114 0 -0.1567842680697151 0.017821512483746641 0 -0.1543123506052223 0.01567032783345056 0 -0.15188271994169991 0.01786916074884114 0 -0.1567842680697151 0.017821512483746641 0 -0.13861921700048169 0.01285353366238922 0 -0.1395360945068517 0.023372288850015029 0 -0.14657132146084931 0.01677767438903701 0 -0.1395360945068517 0.023372288850015029 0 -0.15126073753592009 0.02487777788828089 0 -0.14657132146084931 0.01677767438903701 0 -0.15381676672243971 -0.0048344028756085976 0 -0.13796817939809339 -7.5853332940862265e-05 0 -0.14598604308907309 0.0075397954886723484 0 -0.15381676672243971 -0.0048344028756085976 0 -0.15837519066330749 0.018103177496080571 0 -0.15381676672243971 -0.0048344028756085976 0 -0.15182406541376531 0.011854288846745499 0 -0.15837519066330749 0.018103177496080571 0 -0.15381676672243971 -0.0048344028756085976 0 -0.15182406541376531 0.011854288846745499 0 -0.14598604308907309 0.0075397954886723484 0 -0.13861921700048169 0.01285353366238922 0 -0.14657132146084931 0.01677767438903701 0 -0.14598604308907309 0.0075397954886723484 0 -0.14657132146084931 0.01677767438903701 0 -0.15182406541376531 0.011854288846745499 0 -0.14598604308907309 0.0075397954886723484 0 -0.15188271994169991 0.01786916074884114 0 -0.14657132146084931 0.01677767438903701 0 -0.15182406541376531 0.011854288846745499 0 -0.1543123506052223 0.01567032783345056 0 -0.15182406541376531 0.011854288846745499 0 -0.15837519066330749 0.018103177496080571 0 -0.1543123506052223 0.01567032783345056 0 -0.15188271994169991 0.01786916074884114 0 -0.15182406541376531 0.011854288846745499 0 -0.13796817939809339 -7.5853332940862265e-05 0 -0.13861921700048169 0.01285353366238922 0 -0.14598604308907309 0.0075397954886723484 0 -0.15381676672243971 -0.0048344028756085976 0 -0.16872927738725291 0.0066655648670224509 0 -0.15837519066330749 0.018103177496080571 0 -0.16872927738725291 0.0066655648670224509 0 -0.15837519066330749 0.018103177496080571 0 -0.17312315274812851 0.016956976572924821 0 -0.15837519066330749 0.018103177496080571 0 -0.17088268452158301 0.030303691123205939 0 -0.18416549926151529 0.022669224655560441 0 -0.15837519066330749 0.018103177496080571 0 -0.17088268452158301 0.030303691123205939 0 -0.1637260562540532 0.045028253166508762 0 -0.15126073753592009 0.02487777788828089 0 -0.15837519066330749 0.018103177496080571 0 -0.1637260562540532 0.045028253166508762 0 -0.15837519066330749 0.018103177496080571 0 -0.18416549926151529 0.022669224655560441 0 -0.1543123506052223 0.01567032783345056 0 -0.15837519066330749 0.018103177496080571 0 -0.1567842680697151 0.017821512483746641 0 -0.15837519066330749 0.018103177496080571 0 -0.1567842680697151 0.017821512483746641 0 -0.15837519066330749 0.018103177496080571 0 -0.18416549926151529 0.022669224655560441 0 -0.17312315274812851 0.016956976572924821 0 -0.17088268452158301 0.030303691123205939 0 -0.18416549926151529 0.022669224655560441 0 -0.1815242396402782 0.037713578252632912 0 -0.18416549926151529 0.022669224655560441 0 -0.17919408738426101 0.017592611389363012 0 -0.18518118592807509 0.0154377595936586 0 -0.18416549926151529 0.022669224655560441 0 -0.17312315274812851 0.016956976572924821 0 -0.17919408738426101 0.017592611389363012 0 -0.1785064095432054 -0.0066611219507198768 0 -0.16872927738725291 0.0066655648670224509 0 -0.193034969706537 0.00064734206737222756 0 -0.16872927738725291 0.0066655648670224509 0 -0.193034969706537 0.00064734206737222756 0 -0.16872927738725291 0.0066655648670224509 0 -0.18518118592807509 0.0154377595936586 0 -0.193034969706537 0.00064734206737222756 0 -0.16872927738725291 0.0066655648670224509 0 -0.17919408738426101 0.017592611389363012 0 -0.18518118592807509 0.0154377595936586 0 -0.16872927738725291 0.0066655648670224509 0 -0.17312315274812851 0.016956976572924821 0 -0.17919408738426101 0.017592611389363012 0 -0.16907692184479731 0.071953328836937142 0 -0.1637260562540532 0.045028253166508762 0 -0.18167022033174851 0.056262687610226528 0 -0.15722519427174569 0.065058312825911402 0 -0.16907692184479731 0.071953328836937142 0 -0.1637260562540532 0.045028253166508762 0 -0.16907692184479731 0.071953328836937142 0 -0.1637260562540532 0.045028253166508762 0 -0.15837519066330749 0.018103177496080571 0 -0.1637260562540532 0.045028253166508762 0 -0.17088268452158301 0.030303691123205939 0 -0.1637260562540532 0.045028253166508762 0 -0.1815242396402782 0.037713578252632912 0 -0.1815242396402782 0.037713578252632912 0 -0.18167022033174851 0.056262687610226528 0 -0.1948999673891425 0.045815662425189529 0 -0.1637260562540532 0.045028253166508762 0 -0.1815242396402782 0.037713578252632912 0 -0.18167022033174851 0.056262687610226528 0 -0.18416549926151529 0.022669224655560441 0 -0.1815242396402782 0.037713578252632912 0 -0.19539241544158811 0.034915353149486399 0 -0.19598386328254799 0.058823167906541372 0 -0.20873259774339259 0.055173182954087172 0 -0.20069407892192309 0.071070863509647808 0 -0.18167022033174851 0.056262687610226528 0 -0.19598386328254799 0.058823167906541372 0 -0.1876556690991136 0.063313821709693935 0 -0.19598386328254799 0.058823167906541372 0 -0.1948999673891425 0.045815662425189529 0 -0.20873259774339259 0.055173182954087172 0 -0.18167022033174851 0.056262687610226528 0 -0.19598386328254799 0.058823167906541372 0 -0.1948999673891425 0.045815662425189529 0 -0.1815242396402782 0.037713578252632912 0 -0.1948999673891425 0.045815662425189529 0 -0.19539241544158811 0.034915353149486399 0 -0.1948999673891425 0.045815662425189529 0 -0.19539241544158811 0.034915353149486399 0 -0.20641656305728129 0.041143028599009299 0 -0.20641656305728129 0.041143028599009299 0 -0.20995580785972329 0.027235271815039791 0 -0.22080882119384479 0.043900986742667819 0 -0.19539241544158811 0.034915353149486399 0 -0.20641656305728129 0.041143028599009299 0 -0.20995580785972329 0.027235271815039791 0 -0.20641656305728129 0.041143028599009299 0 -0.20873259774339259 0.055173182954087172 0 -0.22080882119384479 0.043900986742667819 0 -0.20873259774339259 0.055173182954087172 0 -0.2267202713125637 0.058975611642501508 0 -0.2176358721649875 0.072186860311035453 0 -0.1948999673891425 0.045815662425189529 0 -0.20641656305728129 0.041143028599009299 0 -0.20873259774339259 0.055173182954087172 0 -0.20993853639106591 -0.0035380738047605968 0 -0.2009137908539024 0.01431144198083124 0 -0.193034969706537 0.00064734206737222756 0 -0.18518118592807509 0.0154377595936586 0 -0.2009137908539024 0.01431144198083124 0 -0.193034969706537 0.00064734206737222756 0 -0.18518118592807509 0.0154377595936586 0 -0.193034969706537 0.00064734206737222756 0 -0.18416549926151529 0.022669224655560441 0 -0.20995580785972329 0.027235271815039791 0 -0.18416549926151529 0.022669224655560441 0 -0.18518118592807509 0.0154377595936586 0 -0.2009137908539024 0.01431144198083124 0 -0.18416549926151529 0.022669224655560441 0 -0.2009137908539024 0.01431144198083124 0 -0.20995580785972329 0.027235271815039791 0 -0.18416549926151529 0.022669224655560441 0 -0.19539241544158811 0.034915353149486399 0 -0.20995580785972329 0.027235271815039791 0 -0.2009137908539024 0.01431144198083124 0 -0.20995580785972329 0.027235271815039791 0 -0.21568563774484731 0.0082874278720449449 0 -0.20993853639106591 -0.0035380738047605968 0 -0.2009137908539024 0.01431144198083124 0 -0.21568563774484731 0.0082874278720449449 0 -0.22684210307559549 -0.0077234896768903086 0 -0.21568563774484731 0.0082874278720449449 0 -0.23077795054394901 0.01115198904600462 0 -0.22684210307559549 -0.0077234896768903086 0 -0.23077795054394901 0.01115198904600462 0 -0.20995580785972329 0.027235271815039791 0 -0.21568563774484731 0.0082874278720449449 0 -0.23077795054394901 0.01115198904600462 0 -0.20995580785972329 0.027235271815039791 0 -0.2357461164579312 0.03180131897451912 0 -0.20995580785972329 0.027235271815039791 0 -0.23077795054394901 0.01115198904600462 0 -0.2357461164579312 0.03180131897451912 0 -0.23077795054394901 0.01115198904600462 0 -0.24854849079604721 0.020569936005881421 0 -0.2357461164579312 0.03180131897451912 0 -0.26153642505613889 0.036367366133998442 0 -0.24854849079604721 0.020569936005881421 0 -0.2357461164579312 0.03180131897451912 0 -0.23077795054394901 0.01115198904600462 0 -0.24854849079604721 0.020569936005881421 0 -0.24598119983726671 0.0037338506766126851 0 -0.22684210307559549 -0.0077234896768903086 0 -0.23077795054394901 0.01115198904600462 0 -0.24598119983726671 0.0037338506766126851 0 -0.20873259774339259 0.055173182954087172 0 -0.2267202713125637 0.058975611642501508 0 -0.22080882119384479 0.043900986742667819 0 -0.2267202713125637 0.058975611642501508 0 -0.22080882119384479 0.043900986742667819 0 -0.239388393447095 0.04766651035075449 0 -0.22080882119384479 0.043900986742667819 0 -0.2357461164579312 0.03180131897451912 0 -0.239388393447095 0.04766651035075449 0 -0.20995580785972329 0.027235271815039791 0 -0.22080882119384479 0.043900986742667819 0 -0.2357461164579312 0.03180131897451912 0 -0.26153642505613889 0.036367366133998442 0 -0.2357461164579312 0.03180131897451912 0 -0.26153642505613889 0.036367366133998442 0 -0.2357461164579312 0.03180131897451912 0 -0.239388393447095 0.04766651035075449 0 -0.25116276906762952 0.054241108780248931 0 -0.239388393447095 0.04766651035075449 0 -0.24035595759446179 0.060712669830591162 0 -0.2267202713125637 0.058975611642501508 0 -0.239388393447095 0.04766651035075449 0 -0.24035595759446179 0.060712669830591162 0 -0.25116276906762952 0.054241108780248931 0 -0.24035595759446179 0.060712669830591162 0 -0.24829977196364941 0.065213336215906109 0 -0.2267202713125637 0.058975611642501508 0 -0.24035595759446179 0.060712669830591162 0 -0.23791909572611269 0.075142721002645518 0 -0.24035595759446179 0.060712669830591162 0 -0.24829977196364941 0.065213336215906109 0 -0.23791909572611269 0.075142721002645518 0 -0.25064083865024739 0.073628726666345984 0 -0.23791909572611269 0.075142721002645518 0 -0.24857020570659841 0.081659589420377987 0 -0.25064083865024739 0.073628726666345984 0 -0.24829977196364941 0.065213336215906109 0 -0.23791909572611269 0.075142721002645518 0 -0.23791909572611269 0.075142721002645518 0 -0.2427234934652894 0.090762762990284518 0 -0.22646138453880821 0.085461994072224837 0 -0.25413031243694739 0.089521027236778197 0 -0.2427234934652894 0.090762762990284518 0 -0.24857020570659841 0.081659589420377987 0 -0.23791909572611269 0.075142721002645518 0 -0.2427234934652894 0.090762762990284518 0 -0.24857020570659841 0.081659589420377987 0 -0.2267202713125637 0.058975611642501508 0 -0.23791909572611269 0.075142721002645518 0 -0.2176358721649875 0.072186860311035453 0 -0.23791909572611269 0.075142721002645518 0 -0.22646138453880821 0.085461994072224837 0 -0.2176358721649875 0.072186860311035453 0 -0.20873259774339259 0.055173182954087172 0 -0.2176358721649875 0.072186860311035453 0 -0.20069407892192309 0.071070863509647808 0 -0.2176358721649875 0.072186860311035453 0 -0.20525373999263671 0.08640341449760941 0 -0.20069407892192309 0.071070863509647808 0 -0.22646138453880821 0.085461994072224837 0 -0.2176358721649875 0.072186860311035453 0 -0.20525373999263671 0.08640341449760941 0 -0.22646138453880821 0.085461994072224837 0 -0.20525373999263671 0.08640341449760941 0 -0.2161514522581473 0.1006972439961434 0 -0.18444466814129201 0.081023499242751457 0 -0.20525373999263671 0.08640341449760941 0 -0.20069407892192309 0.071070863509647808 0 -0.18444466814129201 0.081023499242751457 0 -0.20525373999263671 0.08640341449760941 0 -0.19937405773042491 0.1071019237599893 0 -0.17832815471062741 0.080370175701138483 0 -0.20069407892192309 0.071070863509647808 0 -0.18444466814129201 0.081023499242751457 0 -0.17832815471062741 0.080370175701138483 0 -0.20069407892192309 0.071070863509647808 0 -0.1809864334298861 0.069780609401686525 0 -0.1876556690991136 0.063313821709693935 0 -0.20069407892192309 0.071070863509647808 0 -0.19598386328254799 0.058823167906541372 0 -0.1876556690991136 0.063313821709693935 0 -0.20069407892192309 0.071070863509647808 0 -0.19937405773042491 0.1071019237599893 0 -0.2161514522581473 0.1006972439961434 0 -0.21430344731955769 0.133180348277227 0 -0.19937405773042491 0.1071019237599893 0 -0.19727411993202021 0.1275714443648302 0 -0.1795193575176991 0.1294692331289829 0 -0.18444466814129201 0.081023499242751457 0 -0.19937405773042491 0.1071019237599893 0 -0.20525373999263671 0.08640341449760941 0 -0.19937405773042491 0.1071019237599893 0 -0.2161514522581473 0.1006972439961434 0 -0.19937405773042491 0.1071019237599893 0 -0.21430344731955769 0.133180348277227 0 -0.19937405773042491 0.1071019237599893 0 -0.19727411993202021 0.1275714443648302 0 -0.21430344731955769 0.133180348277227 0 -0.2161514522581473 0.1006972439961434 0 -0.23231730930006211 0.10853516007106349 0 -0.21430344731955769 0.133180348277227 0 -0.2427234934652894 0.090762762990284518 0 -0.22646138453880821 0.085461994072224837 0 -0.23231730930006211 0.10853516007106349 0 -0.22646138453880821 0.085461994072224837 0 -0.2161514522581473 0.1006972439961434 0 -0.23231730930006211 0.10853516007106349 0 -0.25610310449345419 0.1041046972302731 0 -0.2427234934652894 0.090762762990284518 0 -0.23231730930006211 0.10853516007106349 0 -0.25610310449345419 0.1041046972302731 0 -0.23231730930006211 0.10853516007106349 0 -0.2495823492922267 0.12121763785839371 0 -0.23231730930006211 0.10853516007106349 0 -0.2495823492922267 0.12121763785839371 0 -0.23849568892714909 0.13696143350773771 0 -0.23231730930006211 0.10853516007106349 0 -0.23849568892714909 0.13696143350773771 0 -0.25477231595188199 0.13792181725732239 0 -0.2495823492922267 0.12121763785839371 0 -0.23849568892714909 0.13696143350773771 0 -0.23231730930006211 0.10853516007106349 0 -0.23849568892714909 0.13696143350773771 0 -0.21430344731955769 0.133180348277227 0 -0.23849568892714909 0.13696143350773771 0 -0.22923283690869051 0.15925877279446471 0 -0.21430344731955769 0.133180348277227 0 -0.22923283690869051 0.15925877279446471 0 -0.21430344731955769 0.133180348277227 0 -0.2543915534089356 0.15018751405662761 0 -0.23849568892714909 0.13696143350773771 0 -0.24467406855423091 0.1653877069444131 0 -0.23849568892714909 0.13696143350773771 0 -0.24467406855423091 0.1653877069444131 0 -0.22923283690869051 0.15925877279446471 0 -0.2543915534089356 0.15018751405662761 0 -0.25477231595188199 0.13792181725732239 0 -0.23849568892714909 0.13696143350773771 0 -0.23849568892714909 0.13696143350773771 0 -0.24467406855423091 0.1653877069444131 0 -0.24467406855423091 0.1653877069444131 0 -0.2350219134637796 0.18103954803765679 0 -0.22379977898383499 0.16989282922580509 0 -0.24467406855423091 0.1653877069444131 0 -0.24947341468037071 0.1874691479585941 0 -0.2350219134637796 0.18103954803765679 0 -0.24467406855423091 0.1653877069444131 0 -0.24947341468037071 0.1874691479585941 0 -0.2350219134637796 0.18103954803765679 0 -0.22004124654446131 0.18611549732905991 0 -0.22379977898383499 0.16989282922580509 0 -0.24467406855423091 0.1653877069444131 0 -0.22379977898383499 0.16989282922580509 0 -0.22923283690869051 0.15925877279446471 0 -0.22379977898383499 0.16989282922580509 0 -0.22923283690869051 0.15925877279446471 0 -0.20989634202023699 0.1560844752241346 0 -0.24467406855423091 0.1653877069444131 0 -0.22379977898383499 0.16989282922580509 0 -0.22379977898383499 0.16989282922580509 0 -0.20292548941343971 0.17439795150720031 0 -0.20989634202023699 0.1560844752241346 0 -0.20292548941343971 0.17439795150720031 0 -0.20989634202023699 0.1560844752241346 0 -0.17833905569944569 0.15756593750779829 0 -0.22379977898383499 0.16989282922580509 0 -0.20292548941343971 0.17439795150720031 0 -0.22004124654446131 0.18611549732905991 0 -0.22379977898383499 0.16989282922580509 0 -0.20292548941343971 0.17439795150720031 0 -0.22004124654446131 0.18611549732905991 0 -0.20292548941343971 0.17439795150720031 0 -0.22004124654446131 0.18611549732905991 0 -0.20292548941343971 0.17439795150720031 0 -0.20568385543668641 0.19260324117033031 0 -0.20292548941343971 0.17439795150720031 0 -0.1757122088887666 0.1802711648698879 0 -0.20292548941343971 0.17439795150720031 0 -0.1897130520823497 0.19444680225630501 0 -0.1757122088887666 0.1802711648698879 0 -0.20292548941343971 0.17439795150720031 0 -0.20568385543668641 0.19260324117033031 0 -0.1897130520823497 0.19444680225630501 0 -0.20292548941343971 0.17439795150720031 0 -0.17833905569944569 0.15756593750779829 0 -0.19589961716039911 0.1405342722931214 0 -0.20989634202023699 0.1560844752241346 0 -0.17833905569944569 0.15756593750779829 0 -0.19727411993202021 0.1275714443648302 0 -0.19589961716039911 0.1405342722931214 0 -0.1795193575176991 0.1294692331289829 0 -0.19727411993202021 0.1275714443648302 0 -0.19589961716039911 0.1405342722931214 0 -0.21430344731955769 0.133180348277227 0 -0.22923283690869051 0.15925877279446471 0 -0.21430344731955769 0.133180348277227 0 -0.20989634202023699 0.1560844752241346 0 -0.19589961716039911 0.1405342722931214 0 -0.21430344731955769 0.133180348277227 0 -0.20989634202023699 0.1560844752241346 0 -0.23288038931281729 0.23888496135878451 0 -0.21994142138302111 0.22426230620998819 0 -0.21218175950055909 0.24952722652004439 0 -0.22667039518801041 0.25355429459537898 0 -0.23288038931281729 0.23888496135878451 0 -0.21218175950055909 0.24952722652004439 0 -0.2416444700809012 0.25186566196455601 0 -0.22667039518801041 0.25355429459537898 0 -0.23288038931281729 0.23888496135878451 0 -0.2416444700809012 0.25186566196455601 0 -0.23288038931281729 0.23888496135878451 0 -0.2470081454867771 0.2422065880623451 0 -0.25693865295534157 0.25278860643768353 0 -0.2416444700809012 0.25186566196455601 0 -0.2470081454867771 0.2422065880623451 0 -0.25109603964961891 0.234366577265785 0 -0.2470081454867771 0.2422065880623451 0 -0.24424918889796191 0.23342051569475999 0 -0.23288038931281729 0.23888496135878451 0 -0.2470081454867771 0.2422065880623451 0 -0.24424918889796191 0.23342051569475999 0 -0.23288038931281729 0.23888496135878451 0 -0.24424918889796191 0.23342051569475999 0 -0.2396805993576108 0.22455316273993289 0 -0.24424918889796191 0.23342051569475999 0 -0.249817319625419 0.2274340479663062 0 -0.2396805993576108 0.22455316273993289 0 -0.25109603964961891 0.234366577265785 0 -0.24424918889796191 0.23342051569475999 0 -0.249817319625419 0.2274340479663062 0 -0.249817319625419 0.2274340479663062 0 -0.24904636230289101 0.22050689045355901 0 -0.2396805993576108 0.22455316273993289 0 -0.24904636230289101 0.22050689045355901 0 -0.2396805993576108 0.22455316273993289 0 -0.24333230173327219 0.21221501244476959 0 -0.2396805993576108 0.22455316273993289 0 -0.21994142138302111 0.22426230620998819 0 -0.23304733008138001 0.21339205942673259 0 -0.23288038931281729 0.23888496135878451 0 -0.2396805993576108 0.22455316273993289 0 -0.21994142138302111 0.22426230620998819 0 -0.21994142138302111 0.22426230620998819 0 -0.22770108326548311 0.19899738589993199 0 -0.210353022999335 0.20567537760669019 0 -0.21994142138302111 0.22426230620998819 0 -0.23304733008138001 0.21339205942673259 0 -0.22770108326548311 0.19899738589993199 0 -0.21994142138302111 0.22426230620998819 0 -0.22770108326548311 0.19899738589993199 0 -0.23304733008138001 0.21339205942673259 0 -0.2346933251094325 0.20523388649383931 0 -0.22770108326548311 0.19899738589993199 0 -0.25427276080650663 0.20955058897277601 0 -0.23715700367548431 0.1978330431509176 0 -0.2396805993576108 0.22455316273993289 0 -0.23304733008138001 0.21339205942673259 0 -0.24333230173327219 0.21221501244476959 0 -0.25427276080650663 0.20955058897277601 0 -0.24333230173327219 0.21221501244476959 0 -0.23715700367548431 0.1978330431509176 0 -0.25561524088587501 0.21572724177218369 0 -0.24904636230289101 0.22050689045355901 0 -0.24333230173327219 0.21221501244476959 0 -0.24333230173327219 0.21221501244476959 0 -0.2346933251094325 0.20523388649383931 0 -0.23715700367548431 0.1978330431509176 0 -0.23304733008138001 0.21339205942673259 0 -0.24333230173327219 0.21221501244476959 0 -0.2346933251094325 0.20523388649383931 0 -0.25427276080650663 0.20955058897277601 0 -0.24947341468037071 0.1874691479585941 0 -0.23715700367548431 0.1978330431509176 0 -0.24947341468037071 0.1874691479585941 0 -0.2350219134637796 0.18103954803765679 0 -0.23715700367548431 0.1978330431509176 0 -0.22004124654446131 0.18611549732905991 0 -0.23715700367548431 0.1978330431509176 0 -0.22004124654446131 0.18611549732905991 0 -0.23715700367548431 0.1978330431509176 0 -0.22770108326548311 0.19899738589993199 0 -0.2350219134637796 0.18103954803765679 0 -0.22004124654446131 0.18611549732905991 0 -0.23715700367548431 0.1978330431509176 0 -0.2346933251094325 0.20523388649383931 0 -0.23715700367548431 0.1978330431509176 0 -0.22770108326548311 0.19899738589993199 0 -0.22004124654446131 0.18611549732905991 0 -0.22770108326548311 0.19899738589993199 0 -0.21594480206149139 0.19584787550150309 0 -0.22770108326548311 0.19899738589993199 0 -0.21594480206149139 0.19584787550150309 0 -0.210353022999335 0.20567537760669019 0 -0.22004124654446131 0.18611549732905991 0 -0.21594480206149139 0.19584787550150309 0 -0.20568385543668641 0.19260324117033031 0 -0.21594480206149139 0.19584787550150309 0 -0.20568385543668641 0.19260324117033031 0 -0.210353022999335 0.20567537760669019 0 -0.20568385543668641 0.19260324117033031 0 -0.19800517532583911 0.2033181044808495 0 -0.210353022999335 0.20567537760669019 0 -0.20568385543668641 0.19260324117033031 0 -0.1897130520823497 0.19444680225630501 0 -0.19800517532583911 0.2033181044808495 0 -0.1897130520823497 0.19444680225630501 0 -0.19800517532583911 0.2033181044808495 0 -0.1863200837324982 0.20555600776477401 0 -0.19800517532583911 0.2033181044808495 0 -0.19795586237832599 0.21830909360614789 0 -0.210353022999335 0.20567537760669019 0 -0.19800517532583911 0.2033181044808495 0 -0.19795586237832599 0.21830909360614789 0 -0.1863200837324982 0.20555600776477401 0 -0.19795586237832599 0.21830909360614789 0 -0.18240126852579899 0.21930684119835961 0 -0.1863200837324982 0.20555600776477401 0 -0.21994142138302111 0.22426230620998819 0 -0.19795586237832599 0.21830909360614789 0 -0.210353022999335 0.20567537760669019 0 -0.21994142138302111 0.22426230620998819 0 -0.19795586237832599 0.21830909360614789 0 -0.20314208847108339 0.23556135501649109 0 -0.19795586237832599 0.21830909360614789 0 -0.18651378479530609 0.23505073182760211 0 -0.18240126852579899 0.21930684119835961 0 -0.19795586237832599 0.21830909360614789 0 -0.20314208847108339 0.23556135501649109 0 -0.18651378479530609 0.23505073182760211 0 -0.1929026130837673 0.25762258695206858 0 -0.20314208847108339 0.23556135501649109 0 -0.18651378479530609 0.23505073182760211 0 -0.1929026130837673 0.25762258695206858 0 -0.20314208847108339 0.23556135501649109 0 -0.21218175950055909 0.24952722652004439 0 -0.21994142138302111 0.22426230620998819 0 -0.21218175950055909 0.24952722652004439 0 -0.21994142138302111 0.22426230620998819 0 -0.20314208847108339 0.23556135501649109 0 -0.21218175950055909 0.24952722652004439 0 -0.16582228118094081 0.26466105519565358 0 -0.18651378479530609 0.23505073182760211 0 -0.1608218935138386 0.23306973899941771 0 -0.16582228118094081 0.26466105519565358 0 -0.14534546737678511 0.25129379472131641 0 -0.1608218935138386 0.23306973899941771 0 -0.18651378479530609 0.23505073182760211 0 -0.1608218935138386 0.23306973899941771 0 -0.18651378479530609 0.23505073182760211 0 -0.18240126852579899 0.21930684119835961 0 -0.1608218935138386 0.23306973899941771 0 -0.1608218935138386 0.23306973899941771 0 -0.16716432822862029 0.21469463307327219 0 -0.14537567171977789 0.21373021027012479 0 -0.18240126852579899 0.21930684119835961 0 -0.1608218935138386 0.23306973899941771 0 -0.16716432822862029 0.21469463307327219 0 -0.16716432822862029 0.21469463307327219 0 -0.15728284033457929 0.19872471446884221 0 -0.14537567171977789 0.21373021027012479 0 -0.16716432822862029 0.21469463307327219 0 -0.1863200837324982 0.20555600776477401 0 -0.15728284033457929 0.19872471446884221 0 -0.18240126852579899 0.21930684119835961 0 -0.16716432822862029 0.21469463307327219 0 -0.1863200837324982 0.20555600776477401 0 -0.1863200837324982 0.20555600776477401 0 -0.1747365466553682 0.1940095109997643 0 -0.15728284033457929 0.19872471446884221 0 -0.1897130520823497 0.19444680225630501 0 -0.1863200837324982 0.20555600776477401 0 -0.1747365466553682 0.1940095109997643 0 -0.1897130520823497 0.19444680225630501 0 -0.1747365466553682 0.1940095109997643 0 -0.1757122088887666 0.1802711648698879 0 -0.1747365466553682 0.1940095109997643 0 -0.16534449221108169 0.19019064904669619 0 -0.1757122088887666 0.1802711648698879 0 -0.1863200837324982 0.20555600776477401 0 -0.15728284033457929 0.19872471446884221 0 -0.1747365466553682 0.1940095109997643 0 -0.16534449221108169 0.19019064904669619 0 -0.15728284033457929 0.19872471446884221 0 -0.16534449221108169 0.19019064904669619 0 -0.15728284033457929 0.19872471446884221 0 -0.15629575781976141 0.184461654133797 0 -0.15728284033457929 0.19872471446884221 0 -0.12824559693666041 0.19189342117291039 0 -0.15629575781976141 0.184461654133797 0 -0.15728284033457929 0.19872471446884221 0 -0.12824559693666041 0.19189342117291039 0 -0.14537567171977789 0.21373021027012479 0 -0.15728284033457929 0.19872471446884221 0 -0.12824559693666041 0.19189342117291039 0 -0.12824559693666041 0.19189342117291039 0 -0.14537567171977789 0.21373021027012479 0 -0.1242544958201173 0.21504107598638081 0 -0.1608218935138386 0.23306973899941771 0 -0.14537567171977789 0.21373021027012479 0 -0.13513000223237101 0.23108874617123329 0 -0.1608218935138386 0.23306973899941771 0 -0.13513000223237101 0.23108874617123329 0 -0.14537567171977789 0.21373021027012479 0 -0.13513000223237101 0.23108874617123329 0 -0.1242544958201173 0.21504107598638081 0 -0.14534546737678511 0.25129379472131641 0 -0.13513000223237101 0.23108874617123329 0 -0.12470300375741469 0.2457033751303839 0 -0.14534546737678511 0.25129379472131641 0 -0.1608218935138386 0.23306973899941771 0 -0.13513000223237101 0.23108874617123329 0 -0.17833905569944569 0.15756593750779829 0 -0.1561619761378806 0.16047685630827471 0 -0.153752621985453 0.14073392350839439 0 -0.1795193575176991 0.1294692331289829 0 -0.17833905569944569 0.15756593750779829 0 -0.153752621985453 0.14073392350839439 0 -0.17833905569944569 0.15756593750779829 0 -0.153752621985453 0.14073392350839439 0 -0.16393492635195239 0.1245978723337525 0 -0.15311233888185891 0.1152965378839053 0 -0.153752621985453 0.14073392350839439 0 -0.16393492635195239 0.1245978723337525 0 -0.1795193575176991 0.1294692331289829 0 -0.153752621985453 0.14073392350839439 0 -0.19589961716039911 0.1405342722931214 0 -0.1795193575176991 0.1294692331289829 0 -0.17833905569944569 0.15756593750779829 0 -0.20292548941343971 0.17439795150720031 0 -0.17833905569944569 0.15756593750779829 0 -0.1757122088887666 0.1802711648698879 0 -0.1897130520823497 0.19444680225630501 0 -0.1757122088887666 0.1802711648698879 0 -0.16534449221108169 0.19019064904669619 0 -0.1757122088887666 0.1802711648698879 0 -0.15629575781976141 0.184461654133797 0 -0.1757122088887666 0.1802711648698879 0 -0.15629575781976141 0.184461654133797 0 -0.1757122088887666 0.1802711648698879 0 -0.15629575781976141 0.184461654133797 0 -0.1561619761378806 0.16047685630827471 0 -0.17833905569944569 0.15756593750779829 0 -0.1757122088887666 0.1802711648698879 0 -0.1561619761378806 0.16047685630827471 0 -0.1757122088887666 0.1802711648698879 0 -0.1561619761378806 0.16047685630827471 0 -0.1561619761378806 0.16047685630827471 0 -0.14126926821389521 0.17232478353634881 0 -0.1371080151487378 0.15864895140394189 0 -0.15629575781976141 0.184461654133797 0 -0.1561619761378806 0.16047685630827471 0 -0.14126926821389521 0.17232478353634881 0 -0.12824559693666041 0.19189342117291039 0 -0.15629575781976141 0.184461654133797 0 -0.14126926821389521 0.17232478353634881 0 -0.12824559693666041 0.19189342117291039 0 -0.14126926821389521 0.17232478353634881 0 -0.1248941403316576 0.1686438139500778 0 -0.14126926821389521 0.17232478353634881 0 -0.1371080151487378 0.15864895140394189 0 -0.1248941403316576 0.1686438139500778 0 -0.1371080151487378 0.15864895140394189 0 -0.1239269324459726 0.1539154783358255 0 -0.1248941403316576 0.1686438139500778 0 -0.1371080151487378 0.15864895140394189 0 -0.13661174338699569 0.1406825477466605 0 -0.1239269324459726 0.1539154783358255 0 -0.1561619761378806 0.16047685630827471 0 -0.13661174338699569 0.1406825477466605 0 -0.1561619761378806 0.16047685630827471 0 -0.13661174338699569 0.1406825477466605 0 -0.153752621985453 0.14073392350839439 0 -0.1561619761378806 0.16047685630827471 0 -0.1371080151487378 0.15864895140394189 0 -0.13661174338699569 0.1406825477466605 0 -0.12916618827146031 0.12390190950899049 0 -0.153752621985453 0.14073392350839439 0 -0.13930859898956699 0.1145050369687237 0 -0.12916618827146031 0.12390190950899049 0 -0.153752621985453 0.14073392350839439 0 -0.13661174338699569 0.1406825477466605 0 -0.11706151063611089 0.1208882391850464 0 -0.12916618827146031 0.12390190950899049 0 -0.13661174338699569 0.1406825477466605 0 -0.11706151063611089 0.1208882391850464 0 -0.12916618827146031 0.12390190950899049 0 -0.13661174338699569 0.1406825477466605 0 -0.153752621985453 0.14073392350839439 0 -0.13661174338699569 0.1406825477466605 0 -0.11473911200363 0.13153944404780621 0 -0.1132109842275667 0.1430328284895945 0 -0.13661174338699569 0.1406825477466605 0 -0.11473911200363 0.13153944404780621 0 -0.11706151063611089 0.1208882391850464 0 -0.11473911200363 0.13153944404780621 0 -0.1039338124667491 0.13009472872812991 0 -0.1132109842275667 0.1430328284895945 0 -0.11473911200363 0.13153944404780621 0 -0.1039338124667491 0.13009472872812991 0 -0.10601879130899509 0.12208205668825579 0 -0.1039338124667491 0.13009472872812991 0 -0.093398168270057425 0.14218175111966569 0 -0.093946486761182085 0.1175508364221631 0 -0.1039338124667491 0.13009472872812991 0 -0.1132109842275667 0.1430328284895945 0 -0.093398168270057425 0.14218175111966569 0 -0.1078097791349048 0.15856925008885259 0 -0.089544080768145809 0.16137822361845131 0 -0.093398168270057425 0.14218175111966569 0 -0.1132109842275667 0.1430328284895945 0 -0.1078097791349048 0.15856925008885259 0 -0.093398168270057425 0.14218175111966569 0 -0.13661174338699569 0.1406825477466605 0 -0.1132109842275667 0.1430328284895945 0 -0.1239269324459726 0.1539154783358255 0 -0.1132109842275667 0.1430328284895945 0 -0.1239269324459726 0.1539154783358255 0 -0.1078097791349048 0.15856925008885259 0 -0.1248941403316576 0.1686438139500778 0 -0.099208353538741523 0.18506212787697859 0 -0.1078097791349048 0.15856925008885259 0 -0.1239269324459726 0.1539154783358255 0 -0.1248941403316576 0.1686438139500778 0 -0.1078097791349048 0.15856925008885259 0 -0.12824559693666041 0.19189342117291039 0 -0.1248941403316576 0.1686438139500778 0 -0.099208353538741523 0.18506212787697859 0 -0.099208353538741523 0.18506212787697859 0 -0.1078097791349048 0.15856925008885259 0 -0.089544080768145809 0.16137822361845131 0 -0.089544080768145809 0.16137822361845131 0 -0.070171110140822543 0.1782308345810468 0 -0.074669823138777097 0.15727584041375819 0 -0.099208353538741523 0.18506212787697859 0 -0.089544080768145809 0.16137822361845131 0 -0.070171110140822543 0.1782308345810468 0 -0.099208353538741523 0.18506212787697859 0 -0.070171110140822543 0.1782308345810468 0 -0.070171110140822543 0.1782308345810468 0 -0.074669823138777097 0.15727584041375819 0 -0.057722578482997257 0.16273086802879619 0 -0.074669823138777097 0.15727584041375819 0 -0.066369438716585821 0.14892706699039879 0 -0.057722578482997257 0.16273086802879619 0 -0.074669823138777097 0.15727584041375819 0 -0.066369438716585821 0.14892706699039879 0 -0.074733199104357148 0.14603812585323231 0 -0.074669823138777097 0.15727584041375819 0 -0.074733199104357148 0.14603812585323231 0 -0.082756465015383474 0.1492386270883771 0 -0.074733199104357148 0.14603812585323231 0 -0.067315024607703278 0.13662092079142449 0 -0.081437053795579945 0.1393191944367777 0 -0.066369438716585821 0.14892706699039879 0 -0.074733199104357148 0.14603812585323231 0 -0.067315024607703278 0.13662092079142449 0 -0.066369438716585821 0.14892706699039879 0 -0.067315024607703278 0.13662092079142449 0 -0.054361576129613079 0.15178129246158931 0 -0.067315024607703278 0.13662092079142449 0 -0.088852304720190942 0.12644129241805541 0 -0.067315024607703278 0.13662092079142449 0 -0.088852304720190942 0.12644129241805541 0 -0.075786521408142987 0.12443322189858901 0 -0.067315024607703278 0.13662092079142449 0 -0.062016764747578973 0.12884034001808189 0 -0.075786521408142987 0.12443322189858901 0 -0.088852304720190942 0.12644129241805541 0 -0.093398168270057425 0.14218175111966569 0 -0.093946486761182085 0.1175508364221631 0 -0.067315024607703278 0.13662092079142449 0 -0.081437053795579945 0.1393191944367777 0 -0.088852304720190942 0.12644129241805541 0 -0.093398168270057425 0.14218175111966569 0 -0.093946486761182085 0.1175508364221631 0 -0.081437053795579945 0.1393191944367777 0 -0.088852304720190942 0.12644129241805541 0 -0.093398168270057425 0.14218175111966569 0 -0.089544080768145809 0.16137822361845131 0 -0.093398168270057425 0.14218175111966569 0 -0.082756465015383474 0.1492386270883771 0 -0.089544080768145809 0.16137822361845131 0 -0.074669823138777097 0.15727584041375819 0 -0.082756465015383474 0.1492386270883771 0 -0.074733199104357148 0.14603812585323231 0 -0.081437053795579945 0.1393191944367777 0 -0.082756465015383474 0.1492386270883771 0 -0.081437053795579945 0.1393191944367777 0 -0.093398168270057425 0.14218175111966569 0 -0.082756465015383474 0.1492386270883771 0 -0.11076524853809321 0.25238606884059173 0 -0.1094381109509034 0.22910775334304889 0 -0.091345724210048884 0.23566487628332011 0 -0.11076524853809321 0.25238606884059173 0 -0.092391857727521592 0.25884509119311472 0 -0.091345724210048884 0.23566487628332011 0 -0.13513000223237101 0.23108874617123329 0 -0.12470300375741469 0.2457033751303839 0 -0.1094381109509034 0.22910775334304889 0 -0.11076524853809321 0.25238606884059173 0 -0.12470300375741469 0.2457033751303839 0 -0.1094381109509034 0.22910775334304889 0 -0.13513000223237101 0.23108874617123329 0 -0.1094381109509034 0.22910775334304889 0 -0.13513000223237101 0.23108874617123329 0 -0.1094381109509034 0.22910775334304889 0 -0.1242544958201173 0.21504107598638081 0 -0.1094381109509034 0.22910775334304889 0 -0.10308309726087379 0.20938524897458621 0 -0.091345724210048884 0.23566487628332011 0 -0.1094381109509034 0.22910775334304889 0 -0.10308309726087379 0.20938524897458621 0 -0.1242544958201173 0.21504107598638081 0 -0.12824559693666041 0.19189342117291039 0 -0.10308309726087379 0.20938524897458621 0 -0.1242544958201173 0.21504107598638081 0 -0.12824559693666041 0.19189342117291039 0 -0.099208353538741523 0.18506212787697859 0 -0.12824559693666041 0.19189342117291039 0 -0.099208353538741523 0.18506212787697859 0 -0.10308309726087379 0.20938524897458621 0 -0.099208353538741523 0.18506212787697859 0 -0.070171110140822543 0.1782308345810468 0 -0.078220861930521898 0.21057701145176541 0 -0.070171110140822543 0.1782308345810468 0 -0.078220861930521898 0.21057701145176541 0 -0.056949983849450658 0.19269083667038239 0 -0.099208353538741523 0.18506212787697859 0 -0.10308309726087379 0.20938524897458621 0 -0.078220861930521898 0.21057701145176541 0 -0.078220861930521898 0.21057701145176541 0 -0.056178602179823331 0.21732906463454121 0 -0.056949983849450658 0.19269083667038239 0 -0.10308309726087379 0.20938524897458621 0 -0.078220861930521898 0.21057701145176541 0 -0.091345724210048884 0.23566487628332011 0 -0.078220861930521898 0.21057701145176541 0 -0.069221313838413207 0.24642852661517459 0 -0.091345724210048884 0.23566487628332011 0 -0.078220861930521898 0.21057701145176541 0 -0.069221313838413207 0.24642852661517459 0 -0.056178602179823331 0.21732906463454121 0 -0.092391857727521592 0.25884509119311472 0 -0.069221313838413207 0.24642852661517459 0 -0.091345724210048884 0.23566487628332011 0 -0.033382390283993792 0.24359412621706661 0 -0.046050769949304807 0.23401196203723451 0 -0.025866468353912139 0.2289639569827632 0 -0.048126263350958612 0.25465777805589501 0 -0.033382390283993792 0.24359412621706661 0 -0.046050769949304807 0.23401196203723451 0 -0.048126263350958612 0.25465777805589501 0 -0.069221313838413207 0.24642852661517459 0 -0.046050769949304807 0.23401196203723451 0 -0.069221313838413207 0.24642852661517459 0 -0.046050769949304807 0.23401196203723451 0 -0.069221313838413207 0.24642852661517459 0 -0.046050769949304807 0.23401196203723451 0 -0.056178602179823331 0.21732906463454121 0 -0.046050769949304807 0.23401196203723451 0 -0.03692704292774221 0.2147422921961073 0 -0.025866468353912139 0.2289639569827632 0 -0.046050769949304807 0.23401196203723451 0 -0.03692704292774221 0.2147422921961073 0 -0.056178602179823331 0.21732906463454121 0 -0.03692704292774221 0.2147422921961073 0 -0.056178602179823331 0.21732906463454121 0 -0.044221089124866657 0.20193605474889509 0 -0.03692704292774221 0.2147422921961073 0 -0.044221089124866657 0.20193605474889509 0 -0.032331133115066808 0.19858524020914661 0 -0.056178602179823331 0.21732906463454121 0 -0.056949983849450658 0.19269083667038239 0 -0.044221089124866657 0.20193605474889509 0 -0.056949983849450658 0.19269083667038239 0 -0.040360849617421202 0.18777351164107661 0 -0.044221089124866657 0.20193605474889509 0 -0.040360849617421202 0.18777351164107661 0 -0.032331133115066808 0.19858524020914661 0 -0.026751027678188599 0.18229597604057349 0 -0.040360849617421202 0.18777351164107661 0 -0.044221089124866657 0.20193605474889509 0 -0.032331133115066808 0.19858524020914661 0 -0.016914194843479571 0.2076274745640635 0 -0.026751027678188599 0.18229597604057349 0 -0.032331133115066808 0.19858524020914661 0 -0.016914194843479571 0.2076274745640635 0 -0.026751027678188599 0.18229597604057349 0 -0.01405220631290922 0.19352016069679451 0 -0.016914194843479571 0.2076274745640635 0 -0.026751027678188599 0.18229597604057349 0 -0.01405220631290922 0.19352016069679451 0 -0.0012364494800765971 0.1960628175593882 0 -0.01891215499648707 0.1765136475382359 0 -0.01405220631290922 0.19352016069679451 0 -0.0012364494800765971 0.1960628175593882 0 -0.0064787008301582438 0.20475797647738719 0 -0.0012364494800765971 0.1960628175593882 0 -0.0064787008301582438 0.20475797647738719 0 0.003893562275735573 0.2064819102401671 0 -0.01405220631290922 0.19352016069679451 0 -0.0064787008301582438 0.20475797647738719 0 -0.016914194843479571 0.2076274745640635 0 -0.0045317147067566524 0.21522543551468479 0 -0.016914194843479571 0.2076274745640635 0 -0.0070773620087705444 0.23295897308755351 0 -0.0064787008301582438 0.20475797647738719 0 -0.0045317147067566524 0.21522543551468479 0 -0.016914194843479571 0.2076274745640635 0 -0.0064787008301582438 0.20475797647738719 0 -0.0045317147067566524 0.21522543551468479 0 0.003893562275735573 0.2064819102401671 0 -0.03692704292774221 0.2147422921961073 0 -0.016914194843479571 0.2076274745640635 0 -0.025866468353912139 0.2289639569827632 0 -0.03692704292774221 0.2147422921961073 0 -0.032331133115066808 0.19858524020914661 0 -0.016914194843479571 0.2076274745640635 0 -0.016914194843479571 0.2076274745640635 0 -0.025866468353912139 0.2289639569827632 0 -0.0070773620087705444 0.23295897308755351 0 -0.016914194843479571 0.2076274745640635 0 -0.0070773620087705444 0.23295897308755351 0 -0.0045317147067566524 0.21522543551468479 0 -0.0070773620087705444 0.23295897308755351 0 0.0038866256090455522 0.2239579318999283 0 -0.0070773620087705444 0.23295897308755351 0 0.001894876929373096 0.24743045501984201 0 0.0027594708259384838 0.25829047161104352 0 -0.0070773620087705444 0.23295897308755351 0 0.0027594708259384838 0.25829047161104352 0 -0.0087132352456033638 0.25173417187717928 0 -0.0070773620087705444 0.23295897308755351 0 -0.01778818590069102 0.2421293126167848 0 -0.0087132352456033638 0.25173417187717928 0 -0.0070773620087705444 0.23295897308755351 0 0.0027594708259384838 0.25829047161104352 0 -0.025866468353912139 0.2289639569827632 0 -0.0070773620087705444 0.23295897308755351 0 -0.01778818590069102 0.2421293126167848 0 -0.028053557715267439 0.25838243531431121 0 -0.033382390283993792 0.24359412621706661 0 -0.01778818590069102 0.2421293126167848 0 -0.033382390283993792 0.24359412621706661 0 -0.025866468353912139 0.2289639569827632 0 -0.01778818590069102 0.2421293126167848 0 -0.044416936009294992 0.14744373737619401 0 -0.030319635528424791 0.14770209815471691 0 -0.021396469969749188 0.1374028974533886 0 -0.044416936009294992 0.14744373737619401 0 -0.030319635528424791 0.14770209815471691 0 -0.027639103276038759 0.15537380566908321 0 -0.044416936009294992 0.14744373737619401 0 -0.038116788675066252 0.15302723042411279 0 -0.027639103276038759 0.15537380566908321 0 -0.044416936009294992 0.14744373737619401 0 -0.041458398192443832 0.13942314763129199 0 -0.021396469969749188 0.1374028974533886 0 -0.044416936009294992 0.14744373737619401 0 -0.027639103276038759 0.15537380566908321 0 -0.044416936009294992 0.14744373737619401 0 -0.021396469969749188 0.1374028974533886 0 -0.044416936009294992 0.14744373737619401 0 -0.036587860512897558 0.15696447751708351 0 -0.044416936009294992 0.14744373737619401 0 -0.047012455662473793 0.15786975055381819 0 -0.036587860512897558 0.15696447751708351 0 -0.044416936009294992 0.14744373737619401 0 -0.038116788675066252 0.15302723042411279 0 -0.036587860512897558 0.15696447751708351 0 -0.038116788675066252 0.15302723042411279 0 -0.036587860512897558 0.15696447751708351 0 -0.027639103276038759 0.15537380566908321 0 -0.038116788675066252 0.15302723042411279 0 -0.036587860512897558 0.15696447751708351 0 -0.037500573576258918 0.13069979942664511 0 -0.041458398192443832 0.13942314763129199 0 -0.021396469969749188 0.1374028974533886 0 -0.037500573576258918 0.13069979942664511 0 -0.028643554108799551 0.12806760582925611 0 -0.034668926388748328 0.1237436995229996 0 -0.037500573576258918 0.13069979942664511 0 -0.047589673205635397 0.1324549890601831 0 -0.046884900963607742 0.11986348336078891 0 -0.037500573576258918 0.13069979942664511 0 -0.041458398192443832 0.13942314763129199 0 -0.047589673205635397 0.1324549890601831 0 -0.044416936009294992 0.14744373737619401 0 -0.041458398192443832 0.13942314763129199 0 -0.047589673205635397 0.1324549890601831 0 -0.067315024607703278 0.13662092079142449 0 -0.044416936009294992 0.14744373737619401 0 -0.062016764747578973 0.12884034001808189 0 -0.044416936009294992 0.14744373737619401 0 -0.062016764747578973 0.12884034001808189 0 -0.044416936009294992 0.14744373737619401 0 -0.047589673205635397 0.1324549890601831 0 -0.062016764747578973 0.12884034001808189 0 -0.047589673205635397 0.1324549890601831 0 -0.062016764747578973 0.12884034001808189 0 -0.046884900963607742 0.11986348336078891 0 -0.067315024607703278 0.13662092079142449 0 -0.044416936009294992 0.14744373737619401 0 -0.054361576129613079 0.15178129246158931 0 -0.067315024607703278 0.13662092079142449 0 -0.044416936009294992 0.14744373737619401 0 -0.044416936009294992 0.14744373737619401 0 -0.054361576129613079 0.15178129246158931 0 -0.044416936009294992 0.14744373737619401 0 -0.054361576129613079 0.15178129246158931 0 -0.047012455662473793 0.15786975055381819 0 -0.066369438716585821 0.14892706699039879 0 -0.054361576129613079 0.15178129246158931 0 -0.057722578482997257 0.16273086802879619 0 -0.057722578482997257 0.16273086802879619 0 -0.050411583818504503 0.1777900037548745 0 -0.045636115300606919 0.16650756778262649 0 -0.054361576129613079 0.15178129246158931 0 -0.057722578482997257 0.16273086802879619 0 -0.047012455662473793 0.15786975055381819 0 -0.057722578482997257 0.16273086802879619 0 -0.047012455662473793 0.15786975055381819 0 -0.045636115300606919 0.16650756778262649 0 -0.070171110140822543 0.1782308345810468 0 -0.056949983849450658 0.19269083667038239 0 -0.050411583818504503 0.1777900037548745 0 -0.070171110140822543 0.1782308345810468 0 -0.057722578482997257 0.16273086802879619 0 -0.050411583818504503 0.1777900037548745 0 -0.056949983849450658 0.19269083667038239 0 -0.040360849617421202 0.18777351164107661 0 -0.050411583818504503 0.1777900037548745 0 -0.040360849617421202 0.18777351164107661 0 -0.050411583818504503 0.1777900037548745 0 -0.039949487385523758 0.17426630734724691 0 -0.050411583818504503 0.1777900037548745 0 -0.039949487385523758 0.17426630734724691 0 -0.045636115300606919 0.16650756778262649 0 -0.040360849617421202 0.18777351164107661 0 -0.039949487385523758 0.17426630734724691 0 -0.026751027678188599 0.18229597604057349 0 -0.039949487385523758 0.17426630734724691 0 -0.036587860512897558 0.15696447751708351 0 -0.026751027678188599 0.18229597604057349 0 -0.036587860512897558 0.15696447751708351 0 -0.026751027678188599 0.18229597604057349 0 -0.039949487385523758 0.17426630734724691 0 -0.045636115300606919 0.16650756778262649 0 -0.036587860512897558 0.15696447751708351 0 -0.047012455662473793 0.15786975055381819 0 -0.045636115300606919 0.16650756778262649 0 -0.036587860512897558 0.15696447751708351 0 -0.01891215499648707 0.1765136475382359 0 -0.010861270542782259 0.1633038739619718 0 -0.027639103276038759 0.15537380566908321 0 -0.010861270542782259 0.1633038739619718 0 -0.027639103276038759 0.15537380566908321 0 -0.036587860512897558 0.15696447751708351 0 -0.01891215499648707 0.1765136475382359 0 -0.036587860512897558 0.15696447751708351 0 -0.01891215499648707 0.1765136475382359 0 -0.027639103276038759 0.15537380566908321 0 -0.01405220631290922 0.19352016069679451 0 -0.01891215499648707 0.1765136475382359 0 -0.026751027678188599 0.18229597604057349 0 -0.036587860512897558 0.15696447751708351 0 -0.01891215499648707 0.1765136475382359 0 -0.026751027678188599 0.18229597604057349 0 -0.01891215499648707 0.1765136475382359 0 -0.010861270542782259 0.1633038739619718 0 0.00061104658230836653 0.17769045695541219 0 -0.0012364494800765971 0.1960628175593882 0 -0.01891215499648707 0.1765136475382359 0 0.00061104658230836653 0.17769045695541219 0 -0.0012364494800765971 0.1960628175593882 0 -0.01891215499648707 0.1765136475382359 0 -0.010861270542782259 0.1633038739619718 0 0.001788155555331062 0.1557637096651584 0 0.00061104658230836653 0.17769045695541219 0 -0.01542264584752753 0.14956457798035719 0 -0.015783289274076458 0.13495459563681389 0 0.001788155555331062 0.1557637096651584 0 -0.015783289274076458 0.13495459563681389 0 0.001788155555331062 0.1557637096651584 0 0.01185912902997375 0.14130758542593569 0 -0.010861270542782259 0.1633038739619718 0 -0.01542264584752753 0.14956457798035719 0 0.001788155555331062 0.1557637096651584 0 -0.015783289274076458 0.13495459563681389 0 0.001788155555331062 0.1557637096651584 0 -0.01542264584752753 0.14956457798035719 0 -0.023159931299824549 0.14839209377580129 0 -0.027639103276038759 0.15537380566908321 0 -0.010861270542782259 0.1633038739619718 0 -0.01542264584752753 0.14956457798035719 0 -0.027639103276038759 0.15537380566908321 0 -0.01542264584752753 0.14956457798035719 0 -0.023159931299824549 0.14839209377580129 0 -0.021396469969749188 0.1374028974533886 0 -0.01542264584752753 0.14956457798035719 0 -0.021396469969749188 0.1374028974533886 0 -0.015783289274076458 0.13495459563681389 0 -0.030319635528424791 0.14770209815471691 0 -0.021396469969749188 0.1374028974533886 0 -0.023159931299824549 0.14839209377580129 0 -0.030319635528424791 0.14770209815471691 0 -0.021396469969749188 0.1374028974533886 0 -0.023159931299824549 0.14839209377580129 0 -0.030319635528424791 0.14770209815471691 0 -0.027639103276038759 0.15537380566908321 0 -0.028643554108799551 0.12806760582925611 0 -0.017506847497941139 0.13291345901070739 0 -0.032144953111298558 0.1155781737325411 0 -0.037500573576258918 0.13069979942664511 0 -0.028643554108799551 0.12806760582925611 0 -0.021396469969749188 0.1374028974533886 0 -0.021396469969749188 0.1374028974533886 0 -0.015783289274076458 0.13495459563681389 0 -0.017506847497941139 0.13291345901070739 0 -0.021396469969749188 0.1374028974533886 0 -0.015783289274076458 0.13495459563681389 0 -0.021396469969749188 0.1374028974533886 0 -0.017506847497941139 0.13291345901070739 0 -0.015783289274076458 0.13495459563681389 0 -0.017506847497941139 0.13291345901070739 0 -0.028643554108799551 0.12806760582925611 0 -0.021396469969749188 0.1374028974533886 0 -0.017506847497941139 0.13291345901070739 0 -0.015783289274076458 0.13495459563681389 0 -0.017506847497941139 0.13291345901070739 0 -0.0052228475358298988 0.1187351519746004 0 -0.015783289274076458 0.13495459563681389 0 -0.0052228475358298988 0.1187351519746004 0 0.0081407562022233586 0.1245196413435004 0 -0.017506847497941139 0.13291345901070739 0 -0.0052228475358298988 0.1187351519746004 0 -0.015783289274076458 0.13495459563681389 0 0.0081407562022233586 0.1245196413435004 0 -0.0052228475358298988 0.1187351519746004 0 -0.0040597014752050652 0.1051126182356364 0 -0.02761291541641378 0.1090435214711212 0 -0.017506847497941139 0.13291345901070739 0 -0.0052228475358298988 0.1187351519746004 0 -0.019344259015361451 0.119617058157429 0 -0.0040597014752050652 0.1051126182356364 0 -0.01533391803445322 0.09737838425916874 0 0.0051087594610210148 0.080527692295617709 0 -0.0052228475358298988 0.1187351519746004 0 -0.0040597014752050652 0.1051126182356364 0 0.0092582498306486675 0.1020209346744549 0 -0.0040597014752050652 0.1051126182356364 0 -0.01533391803445322 0.09737838425916874 0 -0.02761291541641378 0.1090435214711212 0 -0.01533391803445322 0.09737838425916874 0 -0.027797722535604891 0.095528124355643507 0 -0.02761291541641378 0.1090435214711212 0 -0.0052228475358298988 0.1187351519746004 0 -0.02761291541641378 0.1090435214711212 0 -0.019344259015361451 0.119617058157429 0 -0.017506847497941139 0.13291345901070739 0 -0.019344259015361451 0.119617058157429 0 -0.032144953111298558 0.1155781737325411 0 -0.02761291541641378 0.1090435214711212 0 -0.019344259015361451 0.119617058157429 0 -0.032144953111298558 0.1155781737325411 0 -0.0052228475358298988 0.1187351519746004 0 -0.02761291541641378 0.1090435214711212 0 -0.017506847497941139 0.13291345901070739 0 -0.032144953111298558 0.1155781737325411 0 -0.0012292332505543029 0.06378464068123596 0 -0.011084303888442551 0.081696622097620714 0 -0.018620569400409771 0.06708533464306303 0 -0.0012292332505543029 0.06378464068123596 0 -0.011084303888442551 0.081696622097620714 0 0.0051087594610210148 0.080527692295617709 0 -0.01533391803445322 0.09737838425916874 0 -0.011084303888442551 0.081696622097620714 0 0.0051087594610210148 0.080527692295617709 0 -0.01533391803445322 0.09737838425916874 0 0.0051087594610210148 0.080527692295617709 0 -0.011084303888442551 0.081696622097620714 0 0.0051087594610210148 0.080527692295617709 0 -0.027797722535604891 0.095528124355643507 0 -0.011084303888442551 0.081696622097620714 0 -0.032921925083363349 0.0833654898886593 0 -0.01533391803445322 0.09737838425916874 0 -0.027797722535604891 0.095528124355643507 0 -0.011084303888442551 0.081696622097620714 0 -0.018620569400409771 0.06708533464306303 0 -0.031868141831282552 0.069818555696904067 0 -0.028283535649973771 0.053358049395037133 0 -0.018620569400409771 0.06708533464306303 0 -0.031868141831282552 0.069818555696904067 0 -0.032921925083363349 0.0833654898886593 0 -0.011084303888442551 0.081696622097620714 0 -0.018620569400409771 0.06708533464306303 0 -0.032921925083363349 0.0833654898886593 0 -0.046276495737503101 0.06795068115397529 0 -0.032921925083363349 0.0833654898886593 0 -0.055882409073029139 0.082732437330199013 0 -0.046276495737503101 0.06795068115397529 0 -0.031868141831282552 0.069818555696904067 0 -0.028283535649973771 0.053358049395037133 0 -0.046276495737503101 0.06795068115397529 0 -0.031868141831282552 0.069818555696904067 0 -0.032921925083363349 0.0833654898886593 0 -0.027797722535604891 0.095528124355643507 0 -0.032921925083363349 0.0833654898886593 0 -0.050002983296997462 0.099351890967641507 0 -0.032921925083363349 0.0833654898886593 0 -0.055882409073029139 0.082732437330199013 0 -0.050002983296997462 0.099351890967641507 0 -0.055882409073029139 0.082732437330199013 0 -0.050002983296997462 0.099351890967641507 0 -0.072393051177581158 0.089660260464161839 0 -0.046276495737503101 0.06795068115397529 0 -0.055882409073029139 0.082732437330199013 0 -0.062589921296568873 0.06642957971461419 0 -0.032144953111298558 0.1155781737325411 0 -0.050002983296997462 0.099351890967641507 0 -0.046884900963607742 0.11986348336078891 0 -0.037500573576258918 0.13069979942664511 0 -0.034668926388748328 0.1237436995229996 0 -0.046884900963607742 0.11986348336078891 0 -0.028643554108799551 0.12806760582925611 0 -0.034668926388748328 0.1237436995229996 0 -0.032144953111298558 0.1155781737325411 0 -0.034668926388748328 0.1237436995229996 0 -0.032144953111298558 0.1155781737325411 0 -0.046884900963607742 0.11986348336078891 0 -0.027797722535604891 0.095528124355643507 0 -0.02761291541641378 0.1090435214711212 0 -0.050002983296997462 0.099351890967641507 0 -0.02761291541641378 0.1090435214711212 0 -0.050002983296997462 0.099351890967641507 0 -0.02761291541641378 0.1090435214711212 0 -0.032144953111298558 0.1155781737325411 0 -0.050002983296997462 0.099351890967641507 0 -0.050002983296997462 0.099351890967641507 0 -0.072393051177581158 0.089660260464161839 0 -0.050002983296997462 0.099351890967641507 0 -0.062115440392200259 0.1100516779477724 0 -0.072393051177581158 0.089660260464161839 0 -0.062016764747578973 0.12884034001808189 0 -0.062115440392200259 0.1100516779477724 0 -0.046884900963607742 0.11986348336078891 0 -0.050002983296997462 0.099351890967641507 0 -0.062115440392200259 0.1100516779477724 0 -0.046884900963607742 0.11986348336078891 0 -0.062016764747578973 0.12884034001808189 0 -0.062115440392200259 0.1100516779477724 0 -0.07825578499994286 0.1108801308713713 0 -0.062016764747578973 0.12884034001808189 0 -0.07825578499994286 0.1108801308713713 0 -0.062016764747578973 0.12884034001808189 0 -0.075786521408142987 0.12443322189858901 0 -0.07825578499994286 0.1108801308713713 0 -0.088852304720190942 0.12644129241805541 0 -0.075786521408142987 0.12443322189858901 0 -0.083719546898917335 0.119699814685821 0 -0.083719546898917335 0.119699814685821 0 -0.07825578499994286 0.1108801308713713 0 -0.093946486761182085 0.1175508364221631 0 -0.075786521408142987 0.12443322189858901 0 -0.083719546898917335 0.119699814685821 0 -0.07825578499994286 0.1108801308713713 0 -0.088852304720190942 0.12644129241805541 0 -0.083719546898917335 0.119699814685821 0 -0.093946486761182085 0.1175508364221631 0 -0.07825578499994286 0.1108801308713713 0 -0.072393051177581158 0.089660260464161839 0 -0.094494805252306774 0.092919921724660626 0 -0.07825578499994286 0.1108801308713713 0 -0.094494805252306774 0.092919921724660626 0 -0.093946486761182085 0.1175508364221631 0 -0.07825578499994286 0.1108801308713713 0 -0.094494805252306774 0.092919921724660626 0 -0.062115440392200259 0.1100516779477724 0 -0.07825578499994286 0.1108801308713713 0 -0.072393051177581158 0.089660260464161839 0 -0.055882409073029139 0.082732437330199013 0 -0.072393051177581158 0.089660260464161839 0 -0.062589921296568873 0.06642957971461419 0 -0.072393051177581158 0.089660260464161839 0 -0.062589921296568873 0.06642957971461419 0 -0.079461892795990779 0.070449194571112136 0 -0.062589921296568873 0.06642957971461419 0 -0.079461892795990779 0.070449194571112136 0 -0.072380178782229632 0.053292134703331731 0 -0.079461892795990779 0.070449194571112136 0 -0.094783119058163612 0.079968629960679383 0 -0.095163193665411511 0.062895368012773595 0 -0.072393051177581158 0.089660260464161839 0 -0.079461892795990779 0.070449194571112136 0 -0.094783119058163612 0.079968629960679383 0 -0.072393051177581158 0.089660260464161839 0 -0.094494805252306774 0.092919921724660626 0 -0.094783119058163612 0.079968629960679383 0 -0.072393051177581158 0.089660260464161839 0 -0.094783119058163612 0.079968629960679383 0 -0.094494805252306774 0.092919921724660626 0 -0.1072570836689255 0.074569224449017327 0 -0.1143352617609841 0.070976556735617355 0 -0.094494805252306774 0.092919921724660626 0 -0.094783119058163612 0.079968629960679383 0 -0.1072570836689255 0.074569224449017327 0 -0.094494805252306774 0.092919921724660626 0 -0.094783119058163612 0.079968629960679383 0 -0.094494805252306774 0.092919921724660626 0 -0.1143352617609841 0.070976556735617355 0 -0.11134444788944529 0.091345452974062963 0 -0.094494805252306774 0.092919921724660626 0 -0.1143352617609841 0.070976556735617355 0 -0.094783119058163612 0.079968629960679383 0 -0.095163193665411511 0.062895368012773595 0 -0.094783119058163612 0.079968629960679383 0 -0.095163193665411511 0.062895368012773595 0 -0.1072570836689255 0.074569224449017327 0 -0.095163193665411511 0.062895368012773595 0 -0.1143352617609841 0.070976556735617355 0 -0.1079186055395126 0.059947093390224047 0 -0.095163193665411511 0.062895368012773595 0 -0.1072570836689255 0.074569224449017327 0 -0.1143352617609841 0.070976556735617355 0 -0.095163193665411511 0.062895368012773595 0 -0.1143352617609841 0.070976556735617355 0 -0.094783119058163612 0.079968629960679383 0 -0.1072570836689255 0.074569224449017327 0 -0.1131683311422218 0.062814464837820119 0 -0.1163519950294771 0.068746068028026575 0 -0.1143352617609841 0.070976556735617355 0 -0.1131683311422218 0.062814464837820119 0 -0.1143352617609841 0.070976556735617355 0 -0.1079186055395126 0.059947093390224047 0 -0.1131683311422218 0.062814464837820119 0 -0.1163519950294771 0.068746068028026575 0 -0.1185872066977806 0.063729502839677182 0 -0.1163519950294771 0.068746068028026575 0 -0.1143352617609841 0.070976556735617355 0 -0.12697985749263241 0.07630636069427757 0 -0.1143352617609841 0.070976556735617355 0 -0.12697985749263241 0.07630636069427757 0 -0.1143352617609841 0.070976556735617355 0 -0.1200161930876608 0.081776906418299489 0 -0.12697985749263241 0.07630636069427757 0 -0.1163519950294771 0.068746068028026575 0 -0.1143352617609841 0.070976556735617355 0 -0.12697985749263241 0.07630636069427757 0 -0.12509646681095879 0.065597408261105467 0 -0.1163519950294771 0.068746068028026575 0 -0.12509646681095879 0.065597408261105467 0 -0.1163519950294771 0.068746068028026575 0 -0.1185872066977806 0.063729502839677182 0 -0.13359630628803579 0.098968800084119873 0 -0.12697672020224329 0.087309090757334687 0 -0.11134444788944529 0.091345452974062963 0 -0.1143352617609841 0.070976556735617355 0 -0.11134444788944529 0.091345452974062963 0 -0.1200161930876608 0.081776906418299489 0 -0.12697672020224329 0.087309090757334687 0 -0.11134444788944529 0.091345452974062963 0 -0.1200161930876608 0.081776906418299489 0 -0.12697672020224329 0.087309090757334687 0 -0.12697985749263241 0.07630636069427757 0 -0.1200161930876608 0.081776906418299489 0 -0.12607259725238279 0.11330641960449821 0 -0.13359630628803579 0.098968800084119873 0 -0.11123038207674001 0.1082681122756106 0 -0.13359630628803579 0.098968800084119873 0 -0.11134444788944529 0.091345452974062963 0 -0.11123038207674001 0.1082681122756106 0 -0.13359630628803579 0.098968800084119873 0 -0.11123038207674001 0.1082681122756106 0 -0.11134444788944529 0.091345452974062963 0 -0.11123038207674001 0.1082681122756106 0 -0.1057361510920251 0.099277959283072717 0 -0.12607259725238279 0.11330641960449821 0 -0.11123038207674001 0.1082681122756106 0 -0.11706151063611089 0.1208882391850464 0 -0.12607259725238279 0.11330641960449821 0 -0.12916618827146031 0.12390190950899049 0 -0.11706151063611089 0.1208882391850464 0 -0.11473911200363 0.13153944404780621 0 -0.11706151063611089 0.1208882391850464 0 -0.10601879130899509 0.12208205668825579 0 -0.1036345166478785 0.1154037657297244 0 -0.093946486761182085 0.1175508364221631 0 -0.097511277885226108 0.1010939306234323 0 -0.11123038207674001 0.1082681122756106 0 -0.11706151063611089 0.1208882391850464 0 -0.097511277885226108 0.1010939306234323 0 -0.11706151063611089 0.1208882391850464 0 -0.1036345166478785 0.1154037657297244 0 -0.097511277885226108 0.1010939306234323 0 -0.11706151063611089 0.1208882391850464 0 -0.097511277885226108 0.1010939306234323 0 -0.11706151063611089 0.1208882391850464 0 -0.1036345166478785 0.1154037657297244 0 -0.10601879130899509 0.12208205668825579 0 -0.1039338124667491 0.13009472872812991 0 -0.10601879130899509 0.12208205668825579 0 -0.093946486761182085 0.1175508364221631 0 -0.1036345166478785 0.1154037657297244 0 -0.10601879130899509 0.12208205668825579 0 -0.093946486761182085 0.1175508364221631 0 -0.094494805252306774 0.092919921724660626 0 -0.11134444788944529 0.091345452974062963 0 -0.1057361510920251 0.099277959283072717 0 -0.094494805252306774 0.092919921724660626 0 -0.093946486761182085 0.1175508364221631 0 -0.094494805252306774 0.092919921724660626 0 -0.093946486761182085 0.1175508364221631 0 -0.097511277885226108 0.1010939306234323 0 -0.094494805252306774 0.092919921724660626 0 -0.097511277885226108 0.1010939306234323 0 -0.1057361510920251 0.099277959283072717 0 -0.11123038207674001 0.1082681122756106 0 -0.097511277885226108 0.1010939306234323 0 -0.1057361510920251 0.099277959283072717 0 -0.1001339578063882 0.022436777626384768 0 -0.09536928659882779 0.01424719335382847 0 -0.1128440433065038 0.01636018592503535 0 -0.1001339578063882 0.022436777626384768 0 -0.1128440433065038 0.01636018592503535 0 -0.1012358460944251 0.033108064834657697 0 -0.1128440433065038 0.01636018592503535 0 -0.11393466639619521 0.035004472642448957 0 -0.1012358460944251 0.033108064834657697 0 -0.1128440433065038 0.01636018592503535 0 -0.1012358460944251 0.033108064834657697 0 -0.1001339578063882 0.022436777626384768 0 -0.1012358460944251 0.033108064834657697 0 -0.091086655225796079 0.026031666392017531 0 -0.1001339578063882 0.022436777626384768 0 -0.09536928659882779 0.01424719335382847 0 -0.091086655225796079 0.026031666392017531 0 -0.10394313851700079 0.0020556251079679459 0 -0.09536928659882779 0.01424719335382847 0 -0.085958893623968774 0.001514634656162053 0 -0.10394313851700079 0.0020556251079679459 0 -0.09536928659882779 0.01424719335382847 0 -0.1128440433065038 0.01636018592503535 0 -0.1244522405185825 -0.00038769298458709092 0 -0.12424451236807239 0.027069144312366941 0 -0.1244522405185825 -0.00038769298458709092 0 -0.1128440433065038 0.01636018592503535 0 -0.12424451236807239 0.027069144312366941 0 -0.1244522405185825 -0.00038769298458709092 0 -0.1128440433065038 0.01636018592503535 0 -0.1244522405185825 -0.00038769298458709092 0 -0.10394313851700079 0.0020556251079679459 0 -0.1128440433065038 0.01636018592503535 0 -0.1128440433065038 0.01636018592503535 0 -0.12424451236807239 0.027069144312366941 0 -0.11393466639619521 0.035004472642448957 0 -0.12424451236807239 0.027069144312366941 0 -0.12075472355362291 0.04122338309529356 0 -0.11393466639619521 0.035004472642448957 0 -0.12075472355362291 0.04122338309529356 0 -0.1244920148619628 0.050381604022983993 0 -0.1151670195775447 0.0482238646449 0 -0.11393466639619521 0.035004472642448957 0 -0.1151670195775447 0.0482238646449 0 -0.10635909785250069 0.04125385698526951 0 -0.12075472355362291 0.04122338309529356 0 -0.11393466639619521 0.035004472642448957 0 -0.1151670195775447 0.0482238646449 0 -0.12509646681095879 0.065597408261105467 0 -0.1185872066977806 0.063729502839677182 0 -0.1197320338084647 0.057760070231756527 0 -0.1197320338084647 0.057760070231756527 0 -0.1244920148619628 0.050381604022983993 0 -0.1151670195775447 0.0482238646449 0 -0.1151670195775447 0.0482238646449 0 -0.1125210466915524 0.054978807834542787 0 -0.1051700993263314 0.050476507920077678 0 -0.1197320338084647 0.057760070231756527 0 -0.1151670195775447 0.0482238646449 0 -0.1125210466915524 0.054978807834542787 0 -0.1131683311422218 0.062814464837820119 0 -0.1197320338084647 0.057760070231756527 0 -0.1125210466915524 0.054978807834542787 0 -0.1131683311422218 0.062814464837820119 0 -0.1125210466915524 0.054978807834542787 0 -0.1079186055395126 0.059947093390224047 0 -0.1131683311422218 0.062814464837820119 0 -0.1185872066977806 0.063729502839677182 0 -0.1197320338084647 0.057760070231756527 0 -0.095163193665411511 0.062895368012773595 0 -0.1051700993263314 0.050476507920077678 0 -0.095336714328198874 0.041619114628837717 0 -0.095163193665411511 0.062895368012773595 0 -0.095336714328198874 0.041619114628837717 0 -0.1125210466915524 0.054978807834542787 0 -0.1079186055395126 0.059947093390224047 0 -0.1051700993263314 0.050476507920077678 0 -0.095163193665411511 0.062895368012773595 0 -0.1079186055395126 0.059947093390224047 0 -0.1051700993263314 0.050476507920077678 0 -0.11393466639619521 0.035004472642448957 0 -0.10635909785250069 0.04125385698526951 0 -0.1012358460944251 0.033108064834657697 0 -0.1051700993263314 0.050476507920077678 0 -0.10635909785250069 0.04125385698526951 0 -0.095336714328198874 0.041619114628837717 0 -0.1151670195775447 0.0482238646449 0 -0.1051700993263314 0.050476507920077678 0 -0.10635909785250069 0.04125385698526951 0 -0.095336714328198874 0.041619114628837717 0 -0.1012358460944251 0.033108064834657697 0 -0.08853862327275358 0.036894035852943478 0 -0.10635909785250069 0.04125385698526951 0 -0.095336714328198874 0.041619114628837717 0 -0.1012358460944251 0.033108064834657697 0 -0.095336714328198874 0.041619114628837717 0 -0.1012358460944251 0.033108064834657697 0 -0.1012358460944251 0.033108064834657697 0 -0.08853862327275358 0.036894035852943478 0 -0.091086655225796079 0.026031666392017531 0 -0.08853862327275358 0.036894035852943478 0 -0.081088353484909961 0.032020518526829703 0 -0.091086655225796079 0.026031666392017531 0 -0.08853862327275358 0.036894035852943478 0 -0.079654612676290371 0.043453985766932421 0 -0.089627648882346422 0.049855943744280047 0 -0.095336714328198874 0.041619114628837717 0 -0.08853862327275358 0.036894035852943478 0 -0.089627648882346422 0.049855943744280047 0 -0.095336714328198874 0.041619114628837717 0 -0.089627648882346422 0.049855943744280047 0 -0.08853862327275358 0.036894035852943478 0 -0.079654612676290371 0.043453985766932421 0 -0.081088353484909961 0.032020518526829703 0 -0.095163193665411511 0.062895368012773595 0 -0.089627648882346422 0.049855943744280047 0 -0.072380178782229632 0.053292134703331731 0 -0.095163193665411511 0.062895368012773595 0 -0.095336714328198874 0.041619114628837717 0 -0.089627648882346422 0.049855943744280047 0 -0.095163193665411511 0.062895368012773595 0 -0.072380178782229632 0.053292134703331731 0 -0.079461892795990779 0.070449194571112136 0 -0.095163193665411511 0.062895368012773595 0 -0.072380178782229632 0.053292134703331731 0 -0.079654612676290371 0.043453985766932421 0 -0.089627648882346422 0.049855943744280047 0 -0.072380178782229632 0.053292134703331731 0 -0.079654612676290371 0.043453985766932421 0 -0.072380178782229632 0.053292134703331731 0 -0.065785112224924183 0.037111289768743512 0 -0.072380178782229632 0.053292134703331731 0 -0.065785112224924183 0.037111289768743512 0 -0.049597163899048183 0.043688901393888827 0 -0.079654612676290371 0.043453985766932421 0 -0.081088353484909961 0.032020518526829703 0 -0.065785112224924183 0.037111289768743512 0 -0.081088353484909961 0.032020518526829703 0 -0.065785112224924183 0.037111289768743512 0 -0.069646162847898541 0.026335067629459381 0 -0.069646162847898541 0.026335067629459381 0 -0.076118231742993758 0.01527396050979404 0 -0.05559295393876626 0.02093450171247024 0 -0.065785112224924183 0.037111289768743512 0 -0.069646162847898541 0.026335067629459381 0 -0.05559295393876626 0.02093450171247024 0 -0.081088353484909961 0.032020518526829703 0 -0.069646162847898541 0.026335067629459381 0 -0.076118231742993758 0.01527396050979404 0 -0.081088353484909961 0.032020518526829703 0 -0.091086655225796079 0.026031666392017531 0 -0.076118231742993758 0.01527396050979404 0 -0.09536928659882779 0.01424719335382847 0 -0.091086655225796079 0.026031666392017531 0 -0.076118231742993758 0.01527396050979404 0 -0.09536928659882779 0.01424719335382847 0 -0.085958893623968774 0.001514634656162053 0 -0.076118231742993758 0.01527396050979404 0 -0.076118231742993758 0.01527396050979404 0 -0.065648076432031049 0.00090955339710942099 0 -0.05559295393876626 0.02093450171247024 0 -0.085958893623968774 0.001514634656162053 0 -0.076118231742993758 0.01527396050979404 0 -0.065648076432031049 0.00090955339710942099 0 -0.045118160941850949 -0.00049033847668307538 0 -0.065648076432031049 0.00090955339710942099 0 -0.05559295393876626 0.02093450171247024 0 -0.05559295393876626 0.02093450171247024 0 -0.041197297059898302 0.028587588038626519 0 -0.049597163899048183 0.043688901393888827 0 -0.05559295393876626 0.02093450171247024 0 -0.032784921385912158 0.01564128096370114 0 -0.041197297059898302 0.028587588038626519 0 -0.032784921385912158 0.01564128096370114 0 -0.041197297059898302 0.028587588038626519 0 -0.02681414901586664 0.034085668084445887 0 -0.045118160941850949 -0.00049033847668307538 0 -0.05559295393876626 0.02093450171247024 0 -0.032784921385912158 0.01564128096370114 0 -0.045118160941850949 -0.00049033847668307538 0 -0.027025641752002061 -0.0079319500279313396 0 -0.032784921385912158 0.01564128096370114 0 -0.062589921296568873 0.06642957971461419 0 -0.072380178782229632 0.053292134703331731 0 -0.049597163899048183 0.043688901393888827 0 -0.046276495737503101 0.06795068115397529 0 -0.062589921296568873 0.06642957971461419 0 -0.049597163899048183 0.043688901393888827 0 -0.072380178782229632 0.053292134703331731 0 -0.049597163899048183 0.043688901393888827 0 -0.065785112224924183 0.037111289768743512 0 -0.05559295393876626 0.02093450171247024 0 -0.049597163899048183 0.043688901393888827 0 -0.049597163899048183 0.043688901393888827 0 -0.02681414901586664 0.034085668084445887 0 -0.041197297059898302 0.028587588038626519 0 -0.049597163899048183 0.043688901393888827 0 -0.02681414901586664 0.034085668084445887 0 -0.049597163899048183 0.043688901393888827 0 -0.028283535649973771 0.053358049395037133 0 -0.02681414901586664 0.034085668084445887 0 -0.046276495737503101 0.06795068115397529 0 -0.028283535649973771 0.053358049395037133 0 -0.046276495737503101 0.06795068115397529 0 -0.049597163899048183 0.043688901393888827 0 -0.028283535649973771 0.053358049395037133 0 -0.028283535649973771 0.053358049395037133 0 -0.010290575562444429 0.038765417636098962 0 -0.0097640400442320502 0.053032197103308337 0 -0.018620569400409771 0.06708533464306303 0 -0.028283535649973771 0.053358049395037133 0 -0.0097640400442320502 0.053032197103308337 0 -0.028283535649973771 0.053358049395037133 0 -0.010290575562444429 0.038765417636098962 0 -0.02681414901586664 0.034085668084445887 0 -0.010290575562444429 0.038765417636098962 0 -0.020835528804160591 0.022374223573919171 0 -0.028283535649973771 0.053358049395037133 0 -0.02681414901586664 0.034085668084445887 0 -0.010290575562444429 0.038765417636098962 0 -0.010290575562444429 0.038765417636098962 0 0.0077023845250848884 0.024172785877160811 0 -0.010290575562444429 0.038765417636098962 0 -0.0034349793211087142 0.044893397967285961 0 0.0047272217829380687 0.036246676438490527 0 -0.010290575562444429 0.038765417636098962 0 -0.0034349793211087142 0.044893397967285961 0 -0.0097640400442320502 0.053032197103308337 0 -0.0012292332505543029 0.06378464068123596 0 -0.018620569400409771 0.06708533464306303 0 -0.0097640400442320502 0.053032197103308337 0 -0.0034349793211087142 0.044893397967285961 0 -0.0097640400442320502 0.053032197103308337 0 0.0015874765393035599 0.051529300691246019 0 -0.0012292332505543029 0.06378464068123596 0 -0.0097640400442320502 0.053032197103308337 0 0.0015874765393035599 0.051529300691246019 0 -0.027025641752002061 -0.0079319500279313396 0 -0.032784921385912158 0.01564128096370114 0 -0.01566814095190756 0.010235570601176981 0 -0.032784921385912158 0.01564128096370114 0 -0.02681414901586664 0.034085668084445887 0 -0.020835528804160591 0.022374223573919171 0 -0.032784921385912158 0.01564128096370114 0 -0.01566814095190756 0.010235570601176981 0 -0.020835528804160591 0.022374223573919171 0 -0.010290575562444429 0.038765417636098962 0 -0.020835528804160591 0.022374223573919171 0 -0.0077262750329500059 0.02266504195052366 0 -0.01566814095190756 0.010235570601176981 0 -0.020835528804160591 0.022374223573919171 0 -0.0077262750329500059 0.02266504195052366 0 -0.010290575562444429 0.038765417636098962 0 -0.0077262750329500059 0.02266504195052366 0 0.0077023845250848884 0.024172785877160811 0 -0.0091716063734174208 -0.003332990253060792 0 -0.01566814095190756 0.010235570601176981 0 0.001118487675879971 0.0096665619175221752 0 -0.0091716063734174208 -0.003332990253060792 0 0.001118487675879971 0.0096665619175221752 0 0.006935528729737548 -0.0054826371559186567 0 -0.01566814095190756 0.010235570601176981 0 -0.0077262750329500059 0.02266504195052366 0 0.001118487675879971 0.0096665619175221752 0 0.001118487675879971 0.0096665619175221752 0 0.0077023845250848884 0.024172785877160811 0 0.025695344612614111 0.0095801541182225364 0 0.001118487675879971 0.0096665619175221752 0 0.025695344612614111 0.0095801541182225364 0 0.006935528729737548 -0.0054826371559186567 0 -0.0077262750329500059 0.02266504195052366 0 0.001118487675879971 0.0096665619175221752 0 0.0077023845250848884 0.024172785877160811 0 0.0077023845250848884 0.024172785877160811 0 0.024648998497944961 0.02642224341189468 0 0.015911730558903318 0.034762274935307848 0 0.024648998497944961 0.02642224341189468 0 0.025695344612614111 0.0095801541182225364 0 0.038363400138324961 0.019751697241263279 0 0.0077023845250848884 0.024172785877160811 0 0.024648998497944961 0.02642224341189468 0 0.025695344612614111 0.0095801541182225364 0 0.0077023845250848884 0.024172785877160811 0 0.025695344612614111 0.0095801541182225364 0 0.025695344612614111 0.0095801541182225364 0 0.006935528729737548 -0.0054826371559186567 0 0.01459521235494949 0.061710637509134872 0 0.0047272217829380687 0.036246676438490527 0 -0.0012292332505543029 0.06378464068123596 0 0.01459521235494949 0.061710637509134872 0 0.0015874765393035599 0.051529300691246019 0 0.01459521235494949 0.061710637509134872 0 0.0015874765393035599 0.051529300691246019 0 0.0047272217829380687 0.036246676438490527 0 0.01459521235494949 0.061710637509134872 0 0.0047272217829380687 0.036246676438490527 0 0.016570281580619739 0.045526930476817662 0 -0.010290575562444429 0.038765417636098962 0 0.0077023845250848884 0.024172785877160811 0 0.0047272217829380687 0.036246676438490527 0 -0.0034349793211087142 0.044893397967285961 0 0.0015874765393035599 0.051529300691246019 0 0.0047272217829380687 0.036246676438490527 0 0.0047272217829380687 0.036246676438490527 0 0.015911730558903318 0.034762274935307848 0 0.016570281580619739 0.045526930476817662 0 0.0077023845250848884 0.024172785877160811 0 0.0047272217829380687 0.036246676438490527 0 0.015911730558903318 0.034762274935307848 0 0.024648998497944961 0.02642224341189468 0 0.015911730558903318 0.034762274935307848 0 0.025892041879535671 0.039420421904702428 0 0.024648998497944961 0.02642224341189468 0 0.025892041879535671 0.039420421904702428 0 0.038236142792751733 0.035111405712831077 0 0.015911730558903318 0.034762274935307848 0 0.025892041879535671 0.039420421904702428 0 0.016570281580619739 0.045526930476817662 0 0.025892041879535671 0.039420421904702428 0 0.016570281580619739 0.045526930476817662 0 0.021716339062575678 0.05448348331271597 0 0.01459521235494949 0.061710637509134872 0 0.016570281580619739 0.045526930476817662 0 0.021716339062575678 0.05448348331271597 0 0.01459521235494949 0.061710637509134872 0 0.021716339062575678 0.05448348331271597 0 0.030459386295035529 0.05963142741263059 0 0.01459521235494949 0.061710637509134872 0 0.030459386295035529 0.05963142741263059 0 0.021716339062575678 0.05448348331271597 0 0.030459386295035529 0.05963142741263059 0 0.032703710623893968 0.046893395464013943 0 0.025892041879535671 0.039420421904702428 0 0.021716339062575678 0.05448348331271597 0 0.032703710623893968 0.046893395464013943 0 0.030459386295035529 0.05963142741263059 0 0.032703710623893968 0.046893395464013943 0 0.047214643089571059 0.045820238977188371 0 0.030459386295035529 0.05963142741263059 0 0.04797297407010033 0.057336039788577382 0 0.030459386295035529 0.05963142741263059 0 0.04797297407010033 0.057336039788577382 0 0.027635028654909001 0.06907575978797427 0 0.030459386295035529 0.05963142741263059 0 0.047214643089571059 0.045820238977188371 0 0.04797297407010033 0.057336039788577382 0 0.030459386295035529 0.05963142741263059 0 0.047214643089571059 0.045820238977188371 0 0.038236142792751733 0.035111405712831077 0 0.047214643089571059 0.045820238977188371 0 0.051031455664035288 0.029923240364304559 0 0.032703710623893968 0.046893395464013943 0 0.038236142792751733 0.035111405712831077 0 0.047214643089571059 0.045820238977188371 0 0.025892041879535671 0.039420421904702428 0 0.032703710623893968 0.046893395464013943 0 0.038236142792751733 0.035111405712831077 0 0.062359133547200143 0.040731400683572692 0 0.047214643089571059 0.045820238977188371 0 0.063969899884107562 0.032009050541747332 0 0.047214643089571059 0.045820238977188371 0 0.063969899884107562 0.032009050541747332 0 0.047214643089571059 0.045820238977188371 0 0.051031455664035288 0.029923240364304559 0 0.063969899884107562 0.032009050541747332 0 0.062359133547200143 0.040731400683572692 0 0.04797297407010033 0.057336039788577382 0 0.072379857481358154 0.054137194478101919 0 0.04797297407010033 0.057336039788577382 0 0.072379857481358154 0.054137194478101919 0 0.062359133547200143 0.040731400683572692 0 0.04797297407010033 0.057336039788577382 0 0.062359133547200143 0.040731400683572692 0 0.047214643089571059 0.045820238977188371 0 0.04797297407010033 0.057336039788577382 0 0.04797297407010033 0.057336039788577382 0 0.072379857481358154 0.054137194478101919 0 0.06072113176624426 0.066105246874810966 0 0.040835927619124697 0.0088703260301804514 0 0.038363400138324961 0.019751697241263279 0 0.051939500327619889 0.017318508583630769 0 0.040835927619124697 0.0088703260301804514 0 0.046640351189982193 0.001482106492276504 0 0.040314465242246092 -0.002276229875846851 0 0.025695344612614111 0.0095801541182225364 0 0.040314465242246092 -0.002276229875846851 0 0.025695344612614111 0.0095801541182225364 0 0.040835927619124697 0.0088703260301804514 0 0.040314465242246092 -0.002276229875846851 0 0.025695344612614111 0.0095801541182225364 0 0.040835927619124697 0.0088703260301804514 0 0.038363400138324961 0.019751697241263279 0 0.025695344612614111 0.0095801541182225364 0 0.038363400138324961 0.019751697241263279 0 0.024648998497944961 0.02642224341189468 0 0.038236142792751733 0.035111405712831077 0 0.038363400138324961 0.019751697241263279 0 0.038363400138324961 0.019751697241263279 0 0.051031455664035288 0.029923240364304559 0 0.038236142792751733 0.035111405712831077 0 0.038363400138324961 0.019751697241263279 0 0.051031455664035288 0.029923240364304559 0 0.038363400138324961 0.019751697241263279 0 0.051939500327619889 0.017318508583630769 0 0.051031455664035288 0.029923240364304559 0 0.051031455664035288 0.029923240364304559 0 0.062107590562420073 0.0228568457980407 0 0.063969899884107562 0.032009050541747332 0 0.051939500327619889 0.017318508583630769 0 0.062107590562420073 0.0228568457980407 0 0.064696567818308529 0.01472149906873369 0 0.051939500327619889 0.017318508583630769 0 0.051031455664035288 0.029923240364304559 0 0.062107590562420073 0.0228568457980407 0 0.055514373943813228 0.0067304088365214816 0 0.075461568133428525 0.0044331687040122013 0 0.049896637954744763 -0.0073960790217490677 0 0.051939500327619889 0.017318508583630769 0 0.055514373943813228 0.0067304088365214816 0 0.064696567818308529 0.01472149906873369 0 0.040835927619124697 0.0088703260301804514 0 0.051939500327619889 0.017318508583630769 0 0.055514373943813228 0.0067304088365214816 0 0.046640351189982193 0.001482106492276504 0 0.055514373943813228 0.0067304088365214816 0 0.049896637954744763 -0.0073960790217490677 0 0.040835927619124697 0.0088703260301804514 0 0.046640351189982193 0.001482106492276504 0 0.055514373943813228 0.0067304088365214816 0 0.075461568133428525 0.0044331687040122013 0 0.064696567818308529 0.01472149906873369 0 0.08072515667864405 0.018197862106306289 0 0.055514373943813228 0.0067304088365214816 0 0.075461568133428525 0.0044331687040122013 0 0.064696567818308529 0.01472149906873369 0 0.075461568133428525 0.0044331687040122013 0 0.1010264983121123 0.016262416429773479 0 0.075461568133428525 0.0044331687040122013 0 0.1010264983121123 0.016262416429773479 0 0.098011391193308373 -0.0056982583262641584 0 0.075461568133428525 0.0044331687040122013 0 0.08072515667864405 0.018197862106306289 0 0.1010264983121123 0.016262416429773479 0 0.088041666307225416 0.02743399724937181 0 0.08072515667864405 0.018197862106306289 0 0.1010264983121123 0.016262416429773479 0 0.088041666307225416 0.02743399724937181 0 0.08072515667864405 0.018197862106306289 0 0.076745293024301803 0.02412676157856956 0 0.088041666307225416 0.02743399724937181 0 0.076745293024301803 0.02412676157856956 0 0.082258845210710349 0.03253561428057717 0 0.08072515667864405 0.018197862106306289 0 0.076745293024301803 0.02412676157856956 0 0.063969899884107562 0.032009050541747332 0 0.062107590562420073 0.0228568457980407 0 0.064696567818308529 0.01472149906873369 0 0.08072515667864405 0.018197862106306289 0 0.08072515667864405 0.018197862106306289 0 0.063969899884107562 0.032009050541747332 0 0.062107590562420073 0.0228568457980407 0 0.08072515667864405 0.018197862106306289 0 0.063969899884107562 0.032009050541747332 0 0.062359133547200143 0.040731400683572692 0 0.076745293024301803 0.02412676157856956 0 0.062359133547200143 0.040731400683572692 0 0.076745293024301803 0.02412676157856956 0 0.076375628159171968 0.038405412939545532 0 0.062359133547200143 0.040731400683572692 0 0.076745293024301803 0.02412676157856956 0 0.063969899884107562 0.032009050541747332 0 0.062359133547200143 0.040731400683572692 0 0.076375628159171968 0.038405412939545532 0 0.072379857481358154 0.054137194478101919 0 0.072379857481358154 0.054137194478101919 0 0.087872793352142223 0.040176285354821803 0 0.096786740892615686 0.050938349167624693 0 0.072379857481358154 0.054137194478101919 0 0.096786740892615686 0.050938349167624693 0 0.072379857481358154 0.054137194478101919 0 0.096786740892615686 0.050938349167624693 0 0.089592915186254174 0.067390154600646832 0 0.076375628159171968 0.038405412939545532 0 0.072379857481358154 0.054137194478101919 0 0.087872793352142223 0.040176285354821803 0 0.076375628159171968 0.038405412939545532 0 0.082258845210710349 0.03253561428057717 0 0.087872793352142223 0.040176285354821803 0 0.076745293024301803 0.02412676157856956 0 0.076375628159171968 0.038405412939545532 0 0.082258845210710349 0.03253561428057717 0 0.088041666307225416 0.02743399724937181 0 0.087872793352142223 0.040176285354821803 0 0.098246025398924644 0.032379674771496843 0 0.088041666307225416 0.02743399724937181 0 0.082258845210710349 0.03253561428057717 0 0.087872793352142223 0.040176285354821803 0 0.098246025398924644 0.032379674771496843 0 0.09859813872304253 0.041737690340159041 0 0.1063796333462841 0.038668109643535398 0 0.087872793352142223 0.040176285354821803 0 0.098246025398924644 0.032379674771496843 0 0.09859813872304253 0.041737690340159041 0 0.087872793352142223 0.040176285354821803 0 0.09859813872304253 0.041737690340159041 0 0.096786740892615686 0.050938349167624693 0 0.09859813872304253 0.041737690340159041 0 0.1037055006252459 0.04652603276331644 0 0.096786740892615686 0.050938349167624693 0 0.1037055006252459 0.04652603276331644 0 0.1091701701315707 0.045405346223324289 0 0.1063796333462841 0.038668109643535398 0 0.09859813872304253 0.041737690340159041 0 0.1037055006252459 0.04652603276331644 0 0.1063796333462841 0.038668109643535398 0 0.098246025398924644 0.032379674771496843 0 0.1063796333462841 0.038668109643535398 0 0.1080469394596527 0.029312409717345649 0 0.1063796333462841 0.038668109643535398 0 0.11369005285381351 0.036564640387925021 0 0.1080469394596527 0.029312409717345649 0 0.10140855114010359 0.056741753968867333 0 0.1082136550722141 0.059696613986540442 0 0.089592915186254174 0.067390154600646832 0 0.10140855114010359 0.056741753968867333 0 0.096786740892615686 0.050938349167624693 0 0.089592915186254174 0.067390154600646832 0 0.10140855114010359 0.056741753968867333 0 0.096786740892615686 0.050938349167624693 0 0.1040187002827474 0.052009313231975308 0 0.1037055006252459 0.04652603276331644 0 0.096786740892615686 0.050938349167624693 0 0.1040187002827474 0.052009313231975308 0 0.1037055006252459 0.04652603276331644 0 0.10828434687670541 0.049049973369521209 0 0.1040187002827474 0.052009313231975308 0 0.1037055006252459 0.04652603276331644 0 0.1091701701315707 0.045405346223324289 0 0.10828434687670541 0.049049973369521209 0 0.10828434687670541 0.049049973369521209 0 0.1040187002827474 0.052009313231975308 0 0.1085923347430168 0.054888678040205661 0 0.10140855114010359 0.056741753968867333 0 0.1040187002827474 0.052009313231975308 0 0.1085923347430168 0.054888678040205661 0 0.10140855114010359 0.056741753968867333 0 0.1085923347430168 0.054888678040205661 0 0.1082136550722141 0.059696613986540442 0 0.1082136550722141 0.059696613986540442 0 0.12683439495817461 0.052003073372435288 0 0.1085923347430168 0.054888678040205661 0 0.1082136550722141 0.059696613986540442 0 0.12683439495817461 0.052003073372435288 0 0.1082136550722141 0.059696613986540442 0 0.1213053233293625 0.063977455960140386 0 0.12683439495817461 0.052003073372435288 0 0.1085923347430168 0.054888678040205661 0 0.11545296983014219 0.044674578582556468 0 0.12683439495817461 0.052003073372435288 0 0.1085923347430168 0.054888678040205661 0 0.11545296983014219 0.044674578582556468 0 0.10828434687670541 0.049049973369521209 0 0.1085923347430168 0.054888678040205661 0 0.11545296983014219 0.044674578582556468 0 0.11545296983014219 0.044674578582556468 0 0.12683439495817461 0.052003073372435288 0 0.11545296983014219 0.044674578582556468 0 0.12659142849079691 0.028091664155532971 0 0.13015300311198849 0.040381385354086502 0 0.11369005285381351 0.036564640387925021 0 0.11545296983014219 0.044674578582556468 0 0.12659142849079691 0.028091664155532971 0 0.11369005285381351 0.036564640387925021 0 0.1080469394596527 0.029312409717345649 0 0.12659142849079691 0.028091664155532971 0 0.11545296983014219 0.044674578582556468 0 0.12659142849079691 0.028091664155532971 0 0.1091701701315707 0.045405346223324289 0 0.1063796333462841 0.038668109643535398 0 0.11316657253878901 0.043202368340974628 0 0.11369005285381351 0.036564640387925021 0 0.11316657253878901 0.043202368340974628 0 0.11545296983014219 0.044674578582556468 0 0.1063796333462841 0.038668109643535398 0 0.11369005285381351 0.036564640387925021 0 0.11316657253878901 0.043202368340974628 0 0.1091701701315707 0.045405346223324289 0 0.10828434687670541 0.049049973369521209 0 0.11545296983014219 0.044674578582556468 0 0.1091701701315707 0.045405346223324289 0 0.11316657253878901 0.043202368340974628 0 0.11545296983014219 0.044674578582556468 0 0.11316657253878901 0.043202368340974628 0 0.11545296983014219 0.044674578582556468 0 0.11545296983014219 0.044674578582556468 0 0.13015300311198849 0.040381385354086502 0 0.12683439495817461 0.052003073372435288 0 0.11882011836095251 0.0065886106746579649 0 0.1010264983121123 0.016262416429773479 0 0.12659142849079691 0.028091664155532971 0 0.1010264983121123 0.016262416429773479 0 0.12659142849079691 0.028091664155532971 0 0.1010264983121123 0.016262416429773479 0 0.1080469394596527 0.029312409717345649 0 0.12659142849079691 0.028091664155532971 0 0.11882011836095251 0.0065886106746579649 0 0.1010264983121123 0.016262416429773479 0 0.098011391193308373 -0.0056982583262641584 0 0.088041666307225416 0.02743399724937181 0 0.098246025398924644 0.032379674771496843 0 0.1010264983121123 0.016262416429773479 0 0.098246025398924644 0.032379674771496843 0 0.1010264983121123 0.016262416429773479 0 0.1080469394596527 0.029312409717345649 0 0.102028599401492 0.1079210482782756 0 0.1185648575779607 0.095458187827811403 0 0.097454497296707604 0.093489332089851121 0 0.102028599401492 0.1079210482782756 0 0.094862282777670462 0.1196438628042634 0 0.1117522404438802 0.12667258555115829 0 0.123281054128593 0.11724462113534739 0 0.1117522404438802 0.12667258555115829 0 0.13947052033133081 0.1245003570974072 0 0.102028599401492 0.1079210482782756 0 0.123281054128593 0.11724462113534739 0 0.1117522404438802 0.12667258555115829 0 0.102028599401492 0.1079210482782756 0 0.123281054128593 0.11724462113534739 0 0.102028599401492 0.1079210482782756 0 0.123281054128593 0.11724462113534739 0 0.1185648575779607 0.095458187827811403 0 0.1185648575779607 0.095458187827811403 0 0.10766661625946521 0.081617344394697103 0 0.12679961534922851 0.075073796793526271 0 0.1127439035567581 0.069567645006608142 0 0.10766661625946521 0.081617344394697103 0 0.12679961534922851 0.075073796793526271 0 0.1213053233293625 0.063977455960140386 0 0.1127439035567581 0.069567645006608142 0 0.12679961534922851 0.075073796793526271 0 0.1082136550722141 0.059696613986540442 0 0.1213053233293625 0.063977455960140386 0 0.1127439035567581 0.069567645006608142 0 0.1082136550722141 0.059696613986540442 0 0.089592915186254174 0.067390154600646832 0 0.1014387622560044 0.070574023901201433 0 0.10766661625946521 0.081617344394697103 0 0.08998097741878798 0.081820185866337797 0 0.1082136550722141 0.059696613986540442 0 0.1014387622560044 0.070574023901201433 0 0.089592915186254174 0.067390154600646832 0 0.1082136550722141 0.059696613986540442 0 0.1127439035567581 0.069567645006608142 0 0.1014387622560044 0.070574023901201433 0 0.1127439035567581 0.069567645006608142 0 0.1014387622560044 0.070574023901201433 0 0.10766661625946521 0.081617344394697103 0 0.1185648575779607 0.095458187827811403 0 0.097454497296707604 0.093489332089851121 0 0.10766661625946521 0.081617344394697103 0 0.097454497296707604 0.093489332089851121 0 0.10766661625946521 0.081617344394697103 0 0.08998097741878798 0.081820185866337797 0 0.097454497296707604 0.093489332089851121 0 0.08998097741878798 0.081820185866337797 0 0.080776144674391009 0.098597475421203867 0 0.08998097741878798 0.081820185866337797 0 0.071888117261322881 0.075707086101057836 0 0.080776144674391009 0.098597475421203867 0 0.08998097741878798 0.081820185866337797 0 0.089592915186254174 0.067390154600646832 0 0.071888117261322881 0.075707086101057836 0 0.1014387622560044 0.070574023901201433 0 0.08998097741878798 0.081820185866337797 0 0.089592915186254174 0.067390154600646832 0 0.072379857481358154 0.054137194478101919 0 0.089592915186254174 0.067390154600646832 0 0.071888117261322881 0.075707086101057836 0 0.072379857481358154 0.054137194478101919 0 0.071888117261322881 0.075707086101057836 0 0.06072113176624426 0.066105246874810966 0 0.071888117261322881 0.075707086101057836 0 0.080776144674391009 0.098597475421203867 0 0.059523689947290133 0.089273902564132146 0 0.069834633883481517 0.1065625652268001 0 0.059315065316452309 0.1025539410383776 0 0.059523689947290133 0.089273902564132146 0 0.080776144674391009 0.098597475421203867 0 0.059523689947290133 0.089273902564132146 0 0.069834633883481517 0.1065625652268001 0 0.080776144674391009 0.098597475421203867 0 0.081634330708880196 0.1151370033827101 0 0.069834633883481517 0.1065625652268001 0 0.080776144674391009 0.098597475421203867 0 0.059523689947290133 0.089273902564132146 0 0.069834633883481517 0.1065625652268001 0 0.064307476710745728 0.1098785041095611 0 0.059315065316452309 0.1025539410383776 0 0.102028599401492 0.1079210482782756 0 0.080776144674391009 0.098597475421203867 0 0.081634330708880196 0.1151370033827101 0 0.102028599401492 0.1079210482782756 0 0.080776144674391009 0.098597475421203867 0 0.102028599401492 0.1079210482782756 0 0.097454497296707604 0.093489332089851121 0 0.080776144674391009 0.098597475421203867 0 0.102028599401492 0.1079210482782756 0 0.094862282777670462 0.1196438628042634 0 0.081634330708880196 0.1151370033827101 0 0.094862282777670462 0.1196438628042634 0 0.081634330708880196 0.1151370033827101 0 0.084033960556429532 0.12884481400490949 0 0.081634330708880196 0.1151370033827101 0 0.071861500007931359 0.1232467005620789 0 0.084033960556429532 0.12884481400490949 0 0.081634330708880196 0.1151370033827101 0 0.071861500007931359 0.1232467005620789 0 0.068543873750645412 0.1149277749384955 0 0.069834633883481517 0.1065625652268001 0 0.081634330708880196 0.1151370033827101 0 0.068543873750645412 0.1149277749384955 0 0.068543873750645412 0.1149277749384955 0 0.064307476710745728 0.1098785041095611 0 0.059536333892403683 0.1154697352345713 0 0.069834633883481517 0.1065625652268001 0 0.068543873750645412 0.1149277749384955 0 0.064307476710745728 0.1098785041095611 0 0.071861500007931359 0.1232467005620789 0 0.068543873750645412 0.1149277749384955 0 0.059536333892403683 0.1154697352345713 0 0.056458373241313059 0.1220229844831647 0 0.046980594318971967 0.103944553472415 0 0.044984286063853948 0.1144984098979744 0 0.056458373241313059 0.1220229844831647 0 0.059536333892403683 0.1154697352345713 0 0.047111977694586651 0.095143209078012936 0 0.056458373241313059 0.1220229844831647 0 0.047823074661834691 0.1229743903388081 0 0.044984286063853948 0.1144984098979744 0 0.056458373241313059 0.1220229844831647 0 0.047111977694586651 0.095143209078012936 0 0.056458373241313059 0.1220229844831647 0 0.047111977694586651 0.095143209078012936 0 0.046980594318971967 0.103944553472415 0 0.059536333892403683 0.1154697352345713 0 0.059315065316452309 0.1025539410383776 0 0.048250118395506067 0.092934788779969885 0 0.064307476710745728 0.1098785041095611 0 0.059536333892403683 0.1154697352345713 0 0.059315065316452309 0.1025539410383776 0 0.059536333892403683 0.1154697352345713 0 0.047111977694586651 0.095143209078012936 0 0.048250118395506067 0.092934788779969885 0 0.059536333892403683 0.1154697352345713 0 0.048250118395506067 0.092934788779969885 0 0.059315065316452309 0.1025539410383776 0 0.059523689947290133 0.089273902564132146 0 0.048250118395506067 0.092934788779969885 0 0.046980594318971967 0.103944553472415 0 0.031997015267580219 0.10661530464401089 0 0.044984286063853948 0.1144984098979744 0 0.046980594318971967 0.103944553472415 0 0.039592722901722707 0.099159129702000026 0 0.031997015267580219 0.10661530464401089 0 0.047111977694586651 0.095143209078012936 0 0.046980594318971967 0.103944553472415 0 0.044236279529428407 0.098362398272746204 0 0.043259823202432338 0.095202700838556822 0 0.039592722901722707 0.099159129702000026 0 0.040006298791842428 0.091064350555588536 0 0.047111977694586651 0.095143209078012936 0 0.043259823202432338 0.095202700838556822 0 0.043326765309194368 0.091114650811160686 0 0.047111977694586651 0.095143209078012936 0 0.043259823202432338 0.095202700838556822 0 0.044236279529428407 0.098362398272746204 0 0.046980594318971967 0.103944553472415 0 0.044236279529428407 0.098362398272746204 0 0.039592722901722707 0.099159129702000026 0 0.043259823202432338 0.095202700838556822 0 0.044236279529428407 0.098362398272746204 0 0.039592722901722707 0.099159129702000026 0 0.039592722901722707 0.099159129702000026 0 0.040006298791842428 0.091064350555588536 0 0.033999193661208522 0.092549709374426317 0 0.039592722901722707 0.099159129702000026 0 0.031997015267580219 0.10661530464401089 0 0.033999193661208522 0.092549709374426317 0 0.031997015267580219 0.10661530464401089 0 0.044984286063853948 0.1144984098979744 0 0.040254683338031831 0.12792389191371131 0 0.031997015267580219 0.10661530464401089 0 0.027418588341799281 0.11951208787462859 0 0.040254683338031831 0.12792389191371131 0 0.031997015267580219 0.10661530464401089 0 0.040254683338031831 0.12792389191371131 0 0.047823074661834691 0.1229743903388081 0 0.044984286063853948 0.1144984098979744 0 0.040254683338031831 0.12792389191371131 0 0.071888117261322881 0.075707086101057836 0 0.050643578252195447 0.077240667131504986 0 0.06072113176624426 0.066105246874810966 0 0.071888117261322881 0.075707086101057836 0 0.050643578252195447 0.077240667131504986 0 0.04797297407010033 0.057336039788577382 0 0.050643578252195447 0.077240667131504986 0 0.06072113176624426 0.066105246874810966 0 0.059523689947290133 0.089273902564132146 0 0.048250118395506067 0.092934788779969885 0 0.038271235220189187 0.079950329707060411 0 0.050643578252195447 0.077240667131504986 0 0.059523689947290133 0.089273902564132146 0 0.038271235220189187 0.079950329707060411 0 0.059523689947290133 0.089273902564132146 0 0.038271235220189187 0.079950329707060411 0 0.071888117261322881 0.075707086101057836 0 0.050643578252195447 0.077240667131504986 0 0.059523689947290133 0.089273902564132146 0 0.050643578252195447 0.077240667131504986 0 0.038271235220189187 0.079950329707060411 0 0.029399039243067929 0.078774248161950916 0 0.043326765309194368 0.091114650811160686 0 0.040006298791842428 0.091064350555588536 0 0.038271235220189187 0.079950329707060411 0 0.048250118395506067 0.092934788779969885 0 0.043326765309194368 0.091114650811160686 0 0.038271235220189187 0.079950329707060411 0 0.047111977694586651 0.095143209078012936 0 0.048250118395506067 0.092934788779969885 0 0.043326765309194368 0.091114650811160686 0 0.043259823202432338 0.095202700838556822 0 0.043326765309194368 0.091114650811160686 0 0.040006298791842428 0.091064350555588536 0 0.040006298791842428 0.091064350555588536 0 0.033999193661208522 0.092549709374426317 0 0.035112272261912547 0.085996705185296951 0 0.033999193661208522 0.092549709374426317 0 0.035112272261912547 0.085996705185296951 0 0.030562463090829231 0.085656845023995995 0 0.040006298791842428 0.091064350555588536 0 0.035112272261912547 0.085996705185296951 0 0.038271235220189187 0.079950329707060411 0 0.035112272261912547 0.085996705185296951 0 0.038271235220189187 0.079950329707060411 0 0.029399039243067929 0.078774248161950916 0 0.035112272261912547 0.085996705185296951 0 0.029399039243067929 0.078774248161950916 0 0.030562463090829231 0.085656845023995995 0 0.04797297407010033 0.057336039788577382 0 0.027635028654909001 0.06907575978797427 0 0.029399039243067929 0.078774248161950916 0 0.04797297407010033 0.057336039788577382 0 0.050643578252195447 0.077240667131504986 0 0.029399039243067929 0.078774248161950916 0 0.050643578252195447 0.077240667131504986 0 0.029399039243067929 0.078774248161950916 0 0.04797297407010033 0.057336039788577382 0 0.029399039243067929 0.078774248161950916 0 0.01459521235494949 0.061710637509134872 0 0.030459386295035529 0.05963142741263059 0 0.017825248683011649 0.070045619055208203 0 0.01459521235494949 0.061710637509134872 0 0.017825248683011649 0.070045619055208203 0 0.030459386295035529 0.05963142741263059 0 0.017825248683011649 0.070045619055208203 0 0.030459386295035529 0.05963142741263059 0 0.017825248683011649 0.070045619055208203 0 0.027635028654909001 0.06907575978797427 0 0.027635028654909001 0.06907575978797427 0 0.021430743364398389 0.07934945609652827 0 0.029399039243067929 0.078774248161950916 0 0.017825248683011649 0.070045619055208203 0 0.027635028654909001 0.06907575978797427 0 0.021430743364398389 0.07934945609652827 0 0.017825248683011649 0.070045619055208203 0 0.021430743364398389 0.07934945609652827 0 0.023739347197128589 0.085306717374310406 0 0.0092582498306486675 0.1020209346744549 0 0.021430743364398389 0.07934945609652827 0 0.023739347197128589 0.085306717374310406 0 0.01369104835205702 0.085774757015682671 0 0.021430743364398389 0.07934945609652827 0 0.023739347197128589 0.085306717374310406 0 0.021430743364398389 0.07934945609652827 0 0.029399039243067929 0.078774248161950916 0 0.023739347197128589 0.085306717374310406 0 0.021430743364398389 0.07934945609652827 0 0.029399039243067929 0.078774248161950916 0 0.029399039243067929 0.078774248161950916 0 0.030562463090829231 0.085656845023995995 0 0.023739347197128589 0.085306717374310406 0 0.029399039243067929 0.078774248161950916 0 0.023739347197128589 0.085306717374310406 0 0.033999193661208522 0.092549709374426317 0 0.030562463090829231 0.085656845023995995 0 0.023739347197128589 0.085306717374310406 0 0.023739347197128589 0.085306717374310406 0 0.01369104835205702 0.085774757015682671 0 0.0092582498306486675 0.1020209346744549 0 0.0051087594610210148 0.080527692295617709 0 0.01369104835205702 0.085774757015682671 0 0.0092582498306486675 0.1020209346744549 0 0.021430743364398389 0.07934945609652827 0 0.0051087594610210148 0.080527692295617709 0 0.021430743364398389 0.07934945609652827 0 0.0051087594610210148 0.080527692295617709 0 0.01369104835205702 0.085774757015682671 0 -0.0012292332505543029 0.06378464068123596 0 0.01459521235494949 0.061710637509134872 0 -0.0012292332505543029 0.06378464068123596 0 0.01459521235494949 0.061710637509134872 0 0.0080955592782806732 0.069159055867407046 0 0.017825248683011649 0.070045619055208203 0 0.021430743364398389 0.07934945609652827 0 0.0051087594610210148 0.080527692295617709 0 -0.0012292332505543029 0.06378464068123596 0 0.0051087594610210148 0.080527692295617709 0 0.0080955592782806732 0.069159055867407046 0 0.017825248683011649 0.070045619055208203 0 0.0051087594610210148 0.080527692295617709 0 0.0080955592782806732 0.069159055867407046 0 0.017825248683011649 0.070045619055208203 0 0.0051087594610210148 0.080527692295617709 0 0.01459521235494949 0.061710637509134872 0 0.017825248683011649 0.070045619055208203 0 0.0080955592782806732 0.069159055867407046 0 0.019482067178466251 0.1107491432724047 0 0.017356945103072018 0.1204998149293544 0 0.027418588341799281 0.11951208787462859 0 0.017356945103072018 0.1204998149293544 0 0.027418588341799281 0.11951208787462859 0 0.028136896369567631 0.1331750506540591 0 0.031997015267580219 0.10661530464401089 0 0.019482067178466251 0.1107491432724047 0 0.027418588341799281 0.11951208787462859 0 0.031997015267580219 0.10661530464401089 0 0.033999193661208522 0.092549709374426317 0 0.023739347197128589 0.085306717374310406 0 0.023739347197128589 0.085306717374310406 0 0.02108550348152554 0.10082233348119581 0 0.0092582498306486675 0.1020209346744549 0 0.031997015267580219 0.10661530464401089 0 0.023739347197128589 0.085306717374310406 0 0.031997015267580219 0.10661530464401089 0 0.023739347197128589 0.085306717374310406 0 0.02108550348152554 0.10082233348119581 0 0.031997015267580219 0.10661530464401089 0 0.019482067178466251 0.1107491432724047 0 0.02108550348152554 0.10082233348119581 0 0.019482067178466251 0.1107491432724047 0 0.02108550348152554 0.10082233348119581 0 0.0092582498306486675 0.1020209346744549 0 -0.0040597014752050652 0.1051126182356364 0 0.0051087594610210148 0.080527692295617709 0 0.0092582498306486675 0.1020209346744549 0 0.019482067178466251 0.1107491432724047 0 0.0092582498306486675 0.1020209346744549 0 0.0097761010461718117 0.1150243840307837 0 -0.0052228475358298988 0.1187351519746004 0 0.0092582498306486675 0.1020209346744549 0 -0.0052228475358298988 0.1187351519746004 0 0.0092582498306486675 0.1020209346744549 0 0.0097761010461718117 0.1150243840307837 0 0.019482067178466251 0.1107491432724047 0 0.017356945103072018 0.1204998149293544 0 0.0097761010461718117 0.1150243840307837 0 0.017356945103072018 0.1204998149293544 0 0.0081407562022233586 0.1245196413435004 0 0.017356945103072018 0.1204998149293544 0 0.0097761010461718117 0.1150243840307837 0 0.0081407562022233586 0.1245196413435004 0 -0.0052228475358298988 0.1187351519746004 0 0.0097761010461718117 0.1150243840307837 0 0.0081407562022233586 0.1245196413435004 0 -0.0052228475358298988 0.1187351519746004 0 0.0081407562022233586 0.1245196413435004 0 -0.015783289274076458 0.13495459563681389 0 0.0081407562022233586 0.1245196413435004 0 0.01185912902997375 0.14130758542593569 0 0.017356945103072018 0.1204998149293544 0 0.0081407562022233586 0.1245196413435004 0 0.028136896369567631 0.1331750506540591 0 0.0081407562022233586 0.1245196413435004 0 0.028136896369567631 0.1331750506540591 0 0.0081407562022233586 0.1245196413435004 0 0.028136896369567631 0.1331750506540591 0 0.01185912902997375 0.14130758542593569 0 0.028136896369567631 0.1331750506540591 0 0.0267736462585265 0.15269096182544131 0 0.035919394343652343 0.14075559589415579 0 0.028136896369567631 0.1331750506540591 0 0.0267736462585265 0.15269096182544131 0 0.01185912902997375 0.14130758542593569 0 0.0267736462585265 0.15269096182544131 0 0.001788155555331062 0.1557637096651584 0 0.01185912902997375 0.14130758542593569 0 0.001788155555331062 0.1557637096651584 0 0.00061104658230836653 0.17769045695541219 0 0.019359600384737739 0.17657282369350361 0 0.001788155555331062 0.1557637096651584 0 0.019359600384737739 0.17657282369350361 0 0.00061104658230836653 0.17769045695541219 0 0.019359600384737739 0.17657282369350361 0 0.017852612557627559 0.19656860209324539 0 0.019359600384737739 0.17657282369350361 0 0.036931045214144441 0.19738193772184889 0 0.0267736462585265 0.15269096182544131 0 0.001788155555331062 0.1557637096651584 0 0.019359600384737739 0.17657282369350361 0 0.0267736462585265 0.15269096182544131 0 0.019359600384737739 0.17657282369350361 0 0.038399134829123632 0.17159850230738899 0 0.0267736462585265 0.15269096182544131 0 0.038399134829123632 0.17159850230738899 0 0.048512351408483409 0.1492324791834117 0 0.019359600384737739 0.17657282369350361 0 0.038399134829123632 0.17159850230738899 0 0.036931045214144441 0.19738193772184889 0 0.038399134829123632 0.17159850230738899 0 0.053915020648589329 0.181809847856817 0 0.036931045214144441 0.19738193772184889 0 0.053915020648589329 0.181809847856817 0 0.056298621576963533 0.16595151756685289 0 0.075151164334765874 0.17578253529346821 0 0.038399134829123632 0.17159850230738899 0 0.053915020648589329 0.181809847856817 0 0.056298621576963533 0.16595151756685289 0 0.038399134829123632 0.17159850230738899 0 0.056298621576963533 0.16595151756685289 0 0.048512351408483409 0.1492324791834117 0 0.048512351408483409 0.1492324791834117 0 0.055211699142625699 0.13746009370018761 0 0.065804768788039439 0.14890275988831639 0 0.056298621576963533 0.16595151756685289 0 0.048512351408483409 0.1492324791834117 0 0.065804768788039439 0.14890275988831639 0 0.048512351408483409 0.1492324791834117 0 0.055211699142625699 0.13746009370018761 0 0.049904412172306151 0.13036597214331841 0 0.056458373241313059 0.1220229844831647 0 0.059536333892403683 0.1154697352345713 0 0.070822549389301243 0.1380046816891726 0 0.056458373241313059 0.1220229844831647 0 0.055211699142625699 0.13746009370018761 0 0.065804768788039439 0.14890275988831639 0 0.056458373241313059 0.1220229844831647 0 0.065804768788039439 0.14890275988831639 0 0.056458373241313059 0.1220229844831647 0 0.047823074661834691 0.1229743903388081 0 0.049904412172306151 0.13036597214331841 0 0.056458373241313059 0.1220229844831647 0 0.055211699142625699 0.13746009370018761 0 0.049904412172306151 0.13036597214331841 0 0.048512351408483409 0.1492324791834117 0 0.040254683338031831 0.12792389191371131 0 0.048512351408483409 0.1492324791834117 0 0.040254683338031831 0.12792389191371131 0 0.035919394343652343 0.14075559589415579 0 0.048512351408483409 0.1492324791834117 0 0.049904412172306151 0.13036597214331841 0 0.040254683338031831 0.12792389191371131 0 0.047823074661834691 0.1229743903388081 0 0.049904412172306151 0.13036597214331841 0 0.040254683338031831 0.12792389191371131 0 0.027418588341799281 0.11951208787462859 0 0.028136896369567631 0.1331750506540591 0 0.040254683338031831 0.12792389191371131 0 0.028136896369567631 0.1331750506540591 0 0.040254683338031831 0.12792389191371131 0 0.035919394343652343 0.14075559589415579 0 0.0267736462585265 0.15269096182544131 0 0.048512351408483409 0.1492324791834117 0 0.035919394343652343 0.14075559589415579 0 0.020197736684044801 0.2291273398277828 0 0.034114961552744377 0.23516115760169301 0 0.036501911092354018 0.25177276941539839 0 0.018629400856135309 0.24429501886194191 0 0.020197736684044801 0.2291273398277828 0 0.02692674034290404 0.25134916217479408 0 0.020197736684044801 0.2291273398277828 0 0.02692674034290404 0.25134916217479408 0 0.036501911092354018 0.25177276941539839 0 0.020197736684044801 0.2291273398277828 0 0.036501911092354018 0.25177276941539839 0 0.018629400856135309 0.24429501886194191 0 0.0082785766384091443 0.23618007315607359 0 0.020197736684044801 0.2291273398277828 0 0.018629400856135309 0.24429501886194191 0 0.012944211518790589 0.24639919126045251 0 0.0082785766384091443 0.23618007315607359 0 0.012944211518790589 0.24639919126045251 0 0.001894876929373096 0.24743045501984201 0 0.0082785766384091443 0.23618007315607359 0 -0.0070773620087705444 0.23295897308755351 0 0.001894876929373096 0.24743045501984201 0 0.0082785766384091443 0.23618007315607359 0 0.0082785766384091443 0.23618007315607359 0 0.0038866256090455522 0.2239579318999283 0 0.020197736684044801 0.2291273398277828 0 0.0038866256090455522 0.2239579318999283 0 0.020197736684044801 0.2291273398277828 0 0.003893562275735573 0.2064819102401671 0 -0.0070773620087705444 0.23295897308755351 0 0.0082785766384091443 0.23618007315607359 0 0.0038866256090455522 0.2239579318999283 0 0.01643925603633389 0.21561198758054059 0 0.035370792182188207 0.216260201755786 0 0.034114961552744377 0.23516115760169301 0 0.020197736684044801 0.2291273398277828 0 0.01643925603633389 0.21561198758054059 0 0.034114961552744377 0.23516115760169301 0 0.01643925603633389 0.21561198758054059 0 0.034114961552744377 0.23516115760169301 0 0.017852612557627559 0.19656860209324539 0 0.036931045214144441 0.19738193772184889 0 0.035370792182188207 0.216260201755786 0 0.01643925603633389 0.21561198758054059 0 0.017852612557627559 0.19656860209324539 0 0.035370792182188207 0.216260201755786 0 0.020197736684044801 0.2291273398277828 0 0.003893562275735573 0.2064819102401671 0 -0.0045317147067566524 0.21522543551468479 0 0.0038866256090455522 0.2239579318999283 0 0.003893562275735573 0.2064819102401671 0 -0.0012364494800765971 0.1960628175593882 0 0.01643925603633389 0.21561198758054059 0 -0.0012364494800765971 0.1960628175593882 0 0.01643925603633389 0.21561198758054059 0 0.003893562275735573 0.2064819102401671 0 0.020197736684044801 0.2291273398277828 0 0.01643925603633389 0.21561198758054059 0 0.003893562275735573 0.2064819102401671 0 -0.0012364494800765971 0.1960628175593882 0 0.01643925603633389 0.21561198758054059 0 0.017852612557627559 0.19656860209324539 0 -0.0012364494800765971 0.1960628175593882 0 0.00061104658230836653 0.17769045695541219 0 0.017852612557627559 0.19656860209324539 0 0.019359600384737739 0.17657282369350361 0 0.017852612557627559 0.19656860209324539 0 0.036931045214144441 0.19738193772184889 0 0.053915020648589329 0.181809847856817 0 0.036931045214144441 0.19738193772184889 0 0.062795137287949193 0.19833474639452611 0 0.036931045214144441 0.19738193772184889 0 0.054502490043551163 0.2181910517501941 0 0.062795137287949193 0.19833474639452611 0 0.036931045214144441 0.19738193772184889 0 0.054502490043551163 0.2181910517501941 0 0.036931045214144441 0.19738193772184889 0 0.054502490043551163 0.2181910517501941 0 0.035370792182188207 0.216260201755786 0 0.054502490043551163 0.2181910517501941 0 0.035370792182188207 0.216260201755786 0 0.034114961552744377 0.23516115760169301 0 0.054502490043551163 0.2181910517501941 0 0.055174909047777811 0.2396291133956362 0 0.034114961552744377 0.23516115760169301 0 0.054502490043551163 0.2181910517501941 0 0.055174909047777811 0.2396291133956362 0 0.072073934872957782 0.23900016577853919 0 0.055174909047777811 0.2396291133956362 0 0.034114961552744377 0.23516115760169301 0 0.051790667069154861 0.2547103276228454 0 0.055174909047777811 0.2396291133956362 0 0.051790667069154861 0.2547103276228454 0 0.063392491700480919 0.2510828642249095 0 0.034114961552744377 0.23516115760169301 0 0.036501911092354018 0.25177276941539839 0 0.051790667069154861 0.2547103276228454 0 0.034114961552744377 0.23516115760169301 0 0.051790667069154861 0.2547103276228454 0 0.072073934872957782 0.23900016577853919 0 0.093843955428218759 0.229542086103772 0 0.089645379702363526 0.25980927980688501 0 0.072073934872957782 0.23900016577853919 0 0.089645379702363526 0.25980927980688501 0 0.055174909047777811 0.2396291133956362 0 0.072073934872957782 0.23900016577853919 0 0.063392491700480919 0.2510828642249095 0 0.072073934872957782 0.23900016577853919 0 0.063392491700480919 0.2510828642249095 0 0.074261774750864804 0.25289133929391111 0 0.054502490043551163 0.2181910517501941 0 0.072073934872957782 0.23900016577853919 0 0.054502490043551163 0.2181910517501941 0 0.072073934872957782 0.23900016577853919 0 0.07691655231929137 0.22036312128655 0 0.072073934872957782 0.23900016577853919 0 0.07691655231929137 0.22036312128655 0 0.093843955428218759 0.229542086103772 0 0.084497559881492323 0.20266231069862009 0 0.1011551627426199 0.2154511434485995 0 0.093843955428218759 0.229542086103772 0 0.084497559881492323 0.20266231069862009 0 0.093843955428218759 0.229542086103772 0 0.07691655231929137 0.22036312128655 0 0.084497559881492323 0.20266231069862009 0 0.093843955428218759 0.229542086103772 0 0.07691655231929137 0.22036312128655 0 0.062795137287949193 0.19833474639452611 0 0.084497559881492323 0.20266231069862009 0 0.054502490043551163 0.2181910517501941 0 0.07691655231929137 0.22036312128655 0 0.062795137287949193 0.19833474639452611 0 0.062795137287949193 0.19833474639452611 0 0.084497559881492323 0.20266231069862009 0 0.075151164334765874 0.17578253529346821 0 0.084497559881492323 0.20266231069862009 0 0.075151164334765874 0.17578253529346821 0 0.084497559881492323 0.20266231069862009 0 0.10184565838461331 0.1924014028594688 0 0.093394980383096363 0.18307457459837531 0 0.084497559881492323 0.20266231069862009 0 0.10184565838461331 0.1924014028594688 0 0.10260278643249959 0.20376756124449391 0 0.10184565838461331 0.1924014028594688 0 0.1105875138732399 0.1994169567440035 0 0.10260278643249959 0.20376756124449391 0 0.10184565838461331 0.1924014028594688 0 0.1131184160342838 0.18994185980391479 0 0.1105875138732399 0.1994169567440035 0 0.10184565838461331 0.1924014028594688 0 0.1131184160342838 0.18994185980391479 0 0.1054525685194168 0.18020148819897211 0 0.1131184160342838 0.18994185980391479 0 0.1210814068145178 0.19423580856195369 0 0.1131184160342838 0.18994185980391479 0 0.1210814068145178 0.19423580856195369 0 0.1196286990311512 0.18236386641526309 0 0.1210814068145178 0.19423580856195369 0 0.11958782189190099 0.20227867846385961 0 0.13241563583181001 0.2003476577346209 0 0.1131184160342838 0.18994185980391479 0 0.1210814068145178 0.19423580856195369 0 0.11958782189190099 0.20227867846385961 0 0.1131184160342838 0.18994185980391479 0 0.11958782189190099 0.20227867846385961 0 0.1105875138732399 0.1994169567440035 0 0.11958782189190099 0.20227867846385961 0 0.1105875138732399 0.1994169567440035 0 0.11467542950451071 0.21015036581969679 0 0.11958782189190099 0.20227867846385961 0 0.11467542950451071 0.21015036581969679 0 0.12714211421566091 0.2115365522170618 0 0.11467542950451071 0.21015036581969679 0 0.1287590091161889 0.22454109023782651 0 0.12714211421566091 0.2115365522170618 0 0.11467542950451071 0.21015036581969679 0 0.1011551627426199 0.2154511434485995 0 0.1117838155087727 0.22779371718329239 0 0.084497559881492323 0.20266231069862009 0 0.10260278643249959 0.20376756124449391 0 0.1011551627426199 0.2154511434485995 0 0.1105875138732399 0.1994169567440035 0 0.11467542950451071 0.21015036581969679 0 0.10260278643249959 0.20376756124449391 0 0.11467542950451071 0.21015036581969679 0 0.10260278643249959 0.20376756124449391 0 0.1011551627426199 0.2154511434485995 0 0.1011551627426199 0.2154511434485995 0 0.093843955428218759 0.229542086103772 0 0.1117838155087727 0.22779371718329239 0 0.11467542950451071 0.21015036581969679 0 0.1117838155087727 0.22779371718329239 0 0.1287590091161889 0.22454109023782651 0 0.1117838155087727 0.22779371718329239 0 0.1287590091161889 0.22454109023782651 0 0.116065923487036 0.25155424759680489 0 0.093843955428218759 0.229542086103772 0 0.089645379702363526 0.25980927980688501 0 0.116065923487036 0.25155424759680489 0 0.093843955428218759 0.229542086103772 0 0.1117838155087727 0.22779371718329239 0 0.116065923487036 0.25155424759680489 0 0.085867858697711436 0.14453522140638461 0 0.070822549389301243 0.1380046816891726 0 0.082108764886198796 0.1605396281437739 0 0.085867858697711436 0.14453522140638461 0 0.082108764886198796 0.1605396281437739 0 0.098061838006449922 0.1524476624703702 0 0.085867858697711436 0.14453522140638461 0 0.084033960556429532 0.12884481400490949 0 0.098019367542785563 0.1407790739484335 0 0.085867858697711436 0.14453522140638461 0 0.084033960556429532 0.12884481400490949 0 0.070822549389301243 0.1380046816891726 0 0.071861500007931359 0.1232467005620789 0 0.059536333892403683 0.1154697352345713 0 0.070822549389301243 0.1380046816891726 0 0.059536333892403683 0.1154697352345713 0 0.070822549389301243 0.1380046816891726 0 0.056458373241313059 0.1220229844831647 0 0.070822549389301243 0.1380046816891726 0 0.065804768788039439 0.14890275988831639 0 0.071861500007931359 0.1232467005620789 0 0.084033960556429532 0.12884481400490949 0 0.070822549389301243 0.1380046816891726 0 0.070822549389301243 0.1380046816891726 0 0.082108764886198796 0.1605396281437739 0 0.070822549389301243 0.1380046816891726 0 0.065804768788039439 0.14890275988831639 0 0.082108764886198796 0.1605396281437739 0 0.056298621576963533 0.16595151756685289 0 0.065804768788039439 0.14890275988831639 0 0.075151164334765874 0.17578253529346821 0 0.065804768788039439 0.14890275988831639 0 0.075151164334765874 0.17578253529346821 0 0.082108764886198796 0.1605396281437739 0 0.065804768788039439 0.14890275988831639 0 0.075151164334765874 0.17578253529346821 0 0.053915020648589329 0.181809847856817 0 0.062795137287949193 0.19833474639452611 0 0.075151164334765874 0.17578253529346821 0 0.075151164334765874 0.17578253529346821 0 0.093394980383096363 0.18307457459837531 0 0.082108764886198796 0.1605396281437739 0 0.084497559881492323 0.20266231069862009 0 0.075151164334765874 0.17578253529346821 0 0.093394980383096363 0.18307457459837531 0 0.093394980383096363 0.18307457459837531 0 0.082108764886198796 0.1605396281437739 0 0.1017810834163356 0.16778327145988009 0 0.093394980383096363 0.18307457459837531 0 0.082108764886198796 0.1605396281437739 0 0.082108764886198796 0.1605396281437739 0 0.1017810834163356 0.16778327145988009 0 0.098061838006449922 0.1524476624703702 0 0.1017810834163356 0.16778327145988009 0 0.1094413004412432 0.1568441156191657 0 0.098061838006449922 0.1524476624703702 0 0.10184565838461331 0.1924014028594688 0 0.093394980383096363 0.18307457459837531 0 0.1054525685194168 0.18020148819897211 0 0.093394980383096363 0.18307457459837531 0 0.1017810834163356 0.16778327145988009 0 0.1054525685194168 0.18020148819897211 0 0.1017810834163356 0.16778327145988009 0 0.1054525685194168 0.18020148819897211 0 0.1143103312636523 0.17467474260035151 0 0.1131184160342838 0.18994185980391479 0 0.1132877880089454 0.18182979361660931 0 0.1196286990311512 0.18236386641526309 0 0.1131184160342838 0.18994185980391479 0 0.1054525685194168 0.18020148819897211 0 0.1132877880089454 0.18182979361660931 0 0.1054525685194168 0.18020148819897211 0 0.1132877880089454 0.18182979361660931 0 0.1143103312636523 0.17467474260035151 0 0.1132877880089454 0.18182979361660931 0 0.1143103312636523 0.17467474260035151 0 0.1196286990311512 0.18236386641526309 0 0.1143103312636523 0.17467474260035151 0 0.1229466648353691 0.17360959233997481 0 0.1196286990311512 0.18236386641526309 0 0.1229466648353691 0.17360959233997481 0 0.1196286990311512 0.18236386641526309 0 0.1315359285025598 0.17914174819028489 0 0.1210814068145178 0.19423580856195369 0 0.1196286990311512 0.18236386641526309 0 0.1315359285025598 0.17914174819028489 0 0.1017810834163356 0.16778327145988009 0 0.1143103312636523 0.17467474260035151 0 0.11826309888899959 0.1638296446882945 0 0.1017810834163356 0.16778327145988009 0 0.1094413004412432 0.1568441156191657 0 0.11826309888899959 0.1638296446882945 0 0.1094413004412432 0.1568441156191657 0 0.11826309888899959 0.1638296446882945 0 0.12116198843957229 0.15461983439099389 0 0.1143103312636523 0.17467474260035151 0 0.1229466648353691 0.17360959233997481 0 0.11826309888899959 0.1638296446882945 0 0.1229466648353691 0.17360959233997481 0 0.11826309888899959 0.1638296446882945 0 0.1286748755814317 0.16568949079043779 0 0.11826309888899959 0.1638296446882945 0 0.12116198843957229 0.15461983439099389 0 0.1286748755814317 0.16568949079043779 0 0.12116198843957229 0.15461983439099389 0 0.1235319134973574 0.14279740261083959 0 0.11069945258584669 0.14552439304262721 0 0.1094413004412432 0.1568441156191657 0 0.12116198843957229 0.15461983439099389 0 0.11069945258584669 0.14552439304262721 0 0.1094413004412432 0.1568441156191657 0 0.11069945258584669 0.14552439304262721 0 0.098061838006449922 0.1524476624703702 0 0.11069945258584669 0.14552439304262721 0 0.098019367542785563 0.1407790739484335 0 0.098061838006449922 0.1524476624703702 0 0.085867858697711436 0.14453522140638461 0 0.098019367542785563 0.1407790739484335 0 0.098061838006449922 0.1524476624703702 0 0.084033960556429532 0.12884481400490949 0 0.1117522404438802 0.12667258555115829 0 0.094862282777670462 0.1196438628042634 0 0.084033960556429532 0.12884481400490949 0 0.1117522404438802 0.12667258555115829 0 0.084033960556429532 0.12884481400490949 0 0.098019367542785563 0.1407790739484335 0 0.1117522404438802 0.12667258555115829 0 0.11069945258584669 0.14552439304262721 0 0.098019367542785563 0.1407790739484335 0 0.1117522404438802 0.12667258555115829 0 0.1235319134973574 0.14279740261083959 0 0.11069945258584669 0.14552439304262721 0 0.1117522404438802 0.12667258555115829 0 0.1235319134973574 0.14279740261083959 0 0.1117522404438802 0.12667258555115829 0 0.1338250830151082 0.13680555700437169 0 0.1117522404438802 0.12667258555115829 0 0.1338250830151082 0.13680555700437169 0 0.13947052033133081 0.1245003570974072 0 0.1117522404438802 0.12667258555115829 0 0.13947052033133081 0.1245003570974072 0 0.1338250830151082 0.13680555700437169 0 0.14773514824261011 0.13994704674368119 0 0.13947052033133081 0.1245003570974072 0 0.14773514824261011 0.13994704674368119 0 0.13947052033133081 0.1245003570974072 0 0.16718880021878149 0.12232812864365609 0 0.14773514824261011 0.13994704674368119 0 0.1492794596183103 0.15557552201751701 0 0.16307655427518189 0.1461583771030025 0 0.14773514824261011 0.13994704674368119 0 0.1492794596183103 0.15557552201751701 0 0.13636128964255501 0.15303395959459851 0 0.1235319134973574 0.14279740261083959 0 0.1338250830151082 0.13680555700437169 0 0.13636128964255501 0.15303395959459851 0 0.1338250830151082 0.13680555700437169 0 0.14773514824261011 0.13994704674368119 0 0.13636128964255501 0.15303395959459851 0 0.12116198843957229 0.15461983439099389 0 0.1235319134973574 0.14279740261083959 0 0.13636128964255501 0.15303395959459851 0 0.12116198843957229 0.15461983439099389 0 0.13636128964255501 0.15303395959459851 0 0.1286748755814317 0.16568949079043779 0 0.13636128964255501 0.15303395959459851 0 0.1286748755814317 0.16568949079043779 0 0.1402599975996246 0.1687496010839549 0 0.1286748755814317 0.16568949079043779 0 0.1402599975996246 0.1687496010839549 0 0.1315359285025598 0.17914174819028489 0 0.1210814068145178 0.19423580856195369 0 0.1315359285025598 0.17914174819028489 0 0.14172685770208041 0.18088834424850889 0 0.1229466648353691 0.17360959233997481 0 0.1286748755814317 0.16568949079043779 0 0.1315359285025598 0.17914174819028489 0 0.1402599975996246 0.1687496010839549 0 0.1315359285025598 0.17914174819028489 0 0.14172685770208041 0.18088834424850889 0 0.1315359285025598 0.17914174819028489 0 0.14172685770208041 0.18088834424850889 0 0.14172685770208041 0.18088834424850889 0 0.1589643083315804 0.1699886255623487 0 0.15664227980061579 0.1834446584897341 0 0.14172685770208041 0.18088834424850889 0 0.1589643083315804 0.1699886255623487 0 0.1402599975996246 0.1687496010839549 0 0.14172685770208041 0.18088834424850889 0 0.1589643083315804 0.1699886255623487 0 0.14172685770208041 0.18088834424850889 0 0.15664227980061579 0.1834446584897341 0 0.14735069213281321 0.19092796682168489 0 0.14172685770208041 0.18088834424850889 0 0.15664227980061579 0.1834446584897341 0 0.1492794596183103 0.15557552201751701 0 0.1402599975996246 0.1687496010839549 0 0.1589643083315804 0.1699886255623487 0 0.1492794596183103 0.15557552201751701 0 0.13636128964255501 0.15303395959459851 0 0.1402599975996246 0.1687496010839549 0 0.1492794596183103 0.15557552201751701 0 0.1589643083315804 0.1699886255623487 0 0.16307655427518189 0.1461583771030025 0 0.1589643083315804 0.1699886255623487 0 0.1832181015668064 0.15465227861531949 0 0.16307655427518189 0.1461583771030025 0 0.1589643083315804 0.1699886255623487 0 0.16307655427518189 0.1461583771030025 0 0.1589643083315804 0.1699886255623487 0 0.1832181015668064 0.15465227861531949 0 0.1589643083315804 0.1699886255623487 0 0.15664227980061579 0.1834446584897341 0 0.17367876449497299 0.17356388092826039 0 0.15664227980061579 0.1834446584897341 0 0.17803712215301101 0.18711146321258301 0 0.15664227980061579 0.1834446584897341 0 0.17367876449497299 0.17356388092826039 0 0.17803712215301101 0.18711146321258301 0 0.1589643083315804 0.1699886255623487 0 0.15664227980061579 0.1834446584897341 0 0.17367876449497299 0.17356388092826039 0 0.17803712215301101 0.18711146321258301 0 0.1915320106228488 0.17262237876131631 0 0.1589643083315804 0.1699886255623487 0 0.17367876449497299 0.17356388092826039 0 0.1832181015668064 0.15465227861531949 0 0.17367876449497299 0.17356388092826039 0 0.1832181015668064 0.15465227861531949 0 0.1915320106228488 0.17262237876131631 0 0.1832181015668064 0.15465227861531949 0 0.18154761934540289 0.13534417850528041 0 0.16307655427518189 0.1461583771030025 0 0.18154761934540289 0.13534417850528041 0 0.19370351113240411 0.1202502215829211 0 0.16718880021878149 0.12232812864365609 0 0.16307655427518189 0.1461583771030025 0 0.16718880021878149 0.12232812864365609 0 0.14773514824261011 0.13994704674368119 0 0.16307655427518189 0.1461583771030025 0 0.16718880021878149 0.12232812864365609 0 0.18154761934540289 0.13534417850528041 0 0.16307655427518189 0.1461583771030025 0 0.16718880021878149 0.12232812864365609 0 0.14248646727170791 0.24329921538672239 0 0.16890701105638031 0.23504418317664161 0 0.14248646727170791 0.24329921538672239 0 0.116065923487036 0.25155424759680489 0 0.14248646727170791 0.24329921538672239 0 0.1287590091161889 0.22454109023782651 0 0.116065923487036 0.25155424759680489 0 0.14248646727170791 0.24329921538672239 0 0.1287590091161889 0.22454109023782651 0 0.14216045677169509 0.2226427774354276 0 0.1287590091161889 0.22454109023782651 0 0.14216045677169509 0.2226427774354276 0 0.13903299807830019 0.21154409335764149 0 0.14248646727170791 0.24329921538672239 0 0.14216045677169509 0.2226427774354276 0 0.16890701105638031 0.23504418317664161 0 0.14216045677169509 0.2226427774354276 0 0.1513137794066001 0.21432303737238931 0 0.16890701105638031 0.23504418317664161 0 0.15183105921464751 0.210852851725322 0 0.13241563583181001 0.2003476577346209 0 0.15183105921464751 0.210852851725322 0 0.13903299807830019 0.21154409335764149 0 0.13241563583181001 0.2003476577346209 0 0.1513137794066001 0.21432303737238931 0 0.15183105921464751 0.210852851725322 0 0.14522842943996589 0.21534193400985699 0 0.1513137794066001 0.21432303737238931 0 0.15183105921464751 0.210852851725322 0 0.15183105921464751 0.210852851725322 0 0.14522842943996589 0.21534193400985699 0 0.13903299807830019 0.21154409335764149 0 0.14216045677169509 0.2226427774354276 0 0.1513137794066001 0.21432303737238931 0 0.14522842943996589 0.21534193400985699 0 0.14216045677169509 0.2226427774354276 0 0.14522842943996589 0.21534193400985699 0 0.13903299807830019 0.21154409335764149 0 0.1287590091161889 0.22454109023782651 0 0.13903299807830019 0.21154409335764149 0 0.12714211421566091 0.2115365522170618 0 0.11958782189190099 0.20227867846385961 0 0.12714211421566091 0.2115365522170618 0 0.13241563583181001 0.2003476577346209 0 0.13903299807830019 0.21154409335764149 0 0.12714211421566091 0.2115365522170618 0 0.13241563583181001 0.2003476577346209 0 0.1210814068145178 0.19423580856195369 0 0.13241563583181001 0.2003476577346209 0 0.13808072668616231 0.19149491569441959 0 0.1210814068145178 0.19423580856195369 0 0.14172685770208041 0.18088834424850889 0 0.13808072668616231 0.19149491569441959 0 0.1210814068145178 0.19423580856195369 0 0.14172685770208041 0.18088834424850889 0 0.1210814068145178 0.19423580856195369 0 0.13241563583181001 0.2003476577346209 0 0.15664227980061579 0.1834446584897341 0 0.15183105921464751 0.210852851725322 0 0.14735069213281321 0.19092796682168489 0 0.14172685770208041 0.18088834424850889 0 0.13808072668616231 0.19149491569441959 0 0.14735069213281321 0.19092796682168489 0 0.15183105921464751 0.210852851725322 0 0.13808072668616231 0.19149491569441959 0 0.14735069213281321 0.19092796682168489 0 0.15664227980061579 0.1834446584897341 0 0.15183105921464751 0.210852851725322 0 0.15183105921464751 0.210852851725322 0 0.13241563583181001 0.2003476577346209 0 0.13808072668616231 0.19149491569441959 0 0.15183105921464751 0.210852851725322 0 0.13808072668616231 0.19149491569441959 0 0.15664227980061579 0.1834446584897341 0 0.17803712215301101 0.18711146321258301 0 0.17078007948547791 0.20461318166966591 0 0.15664227980061579 0.1834446584897341 0 0.15183105921464751 0.210852851725322 0 0.17078007948547791 0.20461318166966591 0 0.17803712215301101 0.18711146321258301 0 0.18699821765939811 0.20575379358823331 0 0.17078007948547791 0.20461318166966591 0 0.18699821765939811 0.20575379358823331 0 0.18150256540618689 0.21619068467845909 0 0.17078007948547791 0.20461318166966591 0 0.18150256540618689 0.21619068467845909 0 0.17078007948547791 0.20461318166966591 0 0.1696832039875637 0.2204437538389574 0 0.15183105921464751 0.210852851725322 0 0.1696832039875637 0.2204437538389574 0 0.15183105921464751 0.210852851725322 0 0.17078007948547791 0.20461318166966591 0 0.1696832039875637 0.2204437538389574 0 0.15183105921464751 0.210852851725322 0 0.16890701105638031 0.23504418317664161 0 0.15183105921464751 0.210852851725322 0 0.1696832039875637 0.2204437538389574 0 0.16890701105638031 0.23504418317664161 0 0.1513137794066001 0.21432303737238931 0 0.15183105921464751 0.210852851725322 0 0.16890701105638031 0.23504418317664161 0 0.1696832039875637 0.2204437538389574 0 0.1730962958839812 0.23373525170759399 0 0.16890701105638031 0.23504418317664161 0 0.18150256540618689 0.21619068467845909 0 0.1696832039875637 0.2204437538389574 0 0.1874551123034256 0.23002704556275291 0 0.1696832039875637 0.2204437538389574 0 0.1874551123034256 0.23002704556275291 0 0.1730962958839812 0.23373525170759399 0 0.1696832039875637 0.2204437538389574 0 0.1874551123034256 0.23002704556275291 0 0.16890701105638031 0.23504418317664161 0 0.18564289691528729 0.25868749876629671 0 0.1821848497420967 0.24129823675235251 0 0.16890701105638031 0.23504418317664161 0 0.18564289691528729 0.25868749876629671 0 0.1730962958839812 0.23373525170759399 0 0.1821848497420967 0.24129823675235251 0 0.16890701105638031 0.23504418317664161 0 0.1874551123034256 0.23002704556275291 0 0.1730962958839812 0.23373525170759399 0 0.1821848497420967 0.24129823675235251 0 0.14248646727170791 0.24329921538672239 0 0.16890701105638031 0.23504418317664161 0 0.1631161995596529 0.25657386530356069 0 0.1730962958839812 0.23373525170759399 0 0.16890701105638031 0.23504418317664161 0 0.2052270206192876 0.23961033728654851 0 0.2245441737887168 0.23093760545441711 0 0.21458810326103989 0.25029177234766842 0 0.2052270206192876 0.23961033728654851 0 0.2050239072751949 0.2492833193895482 0 0.21458810326103989 0.25029177234766842 0 0.2052270206192876 0.23961033728654851 0 0.2050239072751949 0.2492833193895482 0 0.1956251304139873 0.24830732682566101 0 0.1874551123034256 0.23002704556275291 0 0.1821848497420967 0.24129823675235251 0 0.1956251304139873 0.24830732682566101 0 0.1874551123034256 0.23002704556275291 0 0.2052270206192876 0.23961033728654851 0 0.1821848497420967 0.24129823675235251 0 0.1956251304139873 0.24830732682566101 0 0.18564289691528729 0.25868749876629671 0 0.1874551123034256 0.23002704556275291 0 0.2052270206192876 0.23961033728654851 0 0.1956251304139873 0.24830732682566101 0 0.1874551123034256 0.23002704556275291 0 0.2052270206192876 0.23961033728654851 0 0.20110338325899621 0.22697869990708769 0 0.18150256540618689 0.21619068467845909 0 0.1874551123034256 0.23002704556275291 0 0.19422843088031849 0.2167901493339745 0 0.1874551123034256 0.23002704556275291 0 0.20110338325899621 0.22697869990708769 0 0.19422843088031849 0.2167901493339745 0 0.20110338325899621 0.22697869990708769 0 0.2086865974780466 0.21738525977654841 0 0.19422843088031849 0.2167901493339745 0 0.2052270206192876 0.23961033728654851 0 0.21155197229915221 0.22775520817690251 0 0.2245441737887168 0.23093760545441711 0 0.20110338325899621 0.22697869990708769 0 0.21155197229915221 0.22775520817690251 0 0.2086865974780466 0.21738525977654841 0 0.2052270206192876 0.23961033728654851 0 0.20110338325899621 0.22697869990708769 0 0.21155197229915221 0.22775520817690251 0 0.21155197229915221 0.22775520817690251 0 0.2086865974780466 0.21738525977654841 0 0.22156171208109349 0.2232889965660497 0 0.211417792929007 0.20448623071467029 0 0.2086865974780466 0.21738525977654841 0 0.22411523440486891 0.2128525325182862 0 0.2086865974780466 0.21738525977654841 0 0.22411523440486891 0.2128525325182862 0 0.22156171208109349 0.2232889965660497 0 0.211417792929007 0.20448623071467029 0 0.2086865974780466 0.21738525977654841 0 0.19996516513116139 0.20542151256053021 0 0.2086865974780466 0.21738525977654841 0 0.19422843088031849 0.2167901493339745 0 0.19996516513116139 0.20542151256053021 0 0.18699821765939811 0.20575379358823331 0 0.18150256540618689 0.21619068467845909 0 0.19422843088031849 0.2167901493339745 0 0.18699821765939811 0.20575379358823331 0 0.19422843088031849 0.2167901493339745 0 0.19996516513116139 0.20542151256053021 0 0.18699821765939811 0.20575379358823331 0 0.19996516513116139 0.20542151256053021 0 0.19943196450540629 0.19077826793543179 0 0.17803712215301101 0.18711146321258301 0 0.19943196450540629 0.19077826793543179 0 0.17803712215301101 0.18711146321258301 0 0.18699821765939811 0.20575379358823331 0 0.19943196450540629 0.19077826793543179 0 0.211417792929007 0.20448623071467029 0 0.19943196450540629 0.19077826793543179 0 0.22082680685780151 0.19444507265828059 0 0.19943196450540629 0.19077826793543179 0 0.22082680685780151 0.19444507265828059 0 0.211417792929007 0.20448623071467029 0 0.19996516513116139 0.20542151256053021 0 0.19943196450540629 0.19077826793543179 0 0.22082680685780151 0.19444507265828059 0 0.2418323282778008 0.1922485172988235 0 0.23200417938957321 0.20455559625434991 0 0.22082680685780151 0.19444507265828059 0 0.2418323282778008 0.1922485172988235 0 0.2298041727050075 0.1787595393801808 0 0.2418323282778008 0.1922485172988235 0 0.24124234801782149 0.21867626254200909 0 0.2418323282778008 0.1922485172988235 0 0.24124234801782149 0.21867626254200909 0 0.25471258750952741 0.20148162901819469 0 0.2418323282778008 0.1922485172988235 0 0.24124234801782149 0.21867626254200909 0 0.23200417938957321 0.20455559625434991 0 0.24124234801782149 0.21867626254200909 0 0.25357276657721323 0.21641202867955539 0 0.25471258750952741 0.20148162901819469 0 0.24124234801782149 0.21867626254200909 0 0.22411523440486891 0.2128525325182862 0 0.2303270751280653 0.22194856436908961 0 0.211417792929007 0.20448623071467029 0 0.22082680685780151 0.19444507265828059 0 0.22411523440486891 0.2128525325182862 0 0.22082680685780151 0.19444507265828059 0 0.23200417938957321 0.20455559625434991 0 0.22411523440486891 0.2128525325182862 0 0.24124234801782149 0.21867626254200909 0 0.23200417938957321 0.20455559625434991 0 0.22411523440486891 0.2128525325182862 0 0.22411523440486891 0.2128525325182862 0 0.22156171208109349 0.2232889965660497 0 0.2303270751280653 0.22194856436908961 0 0.22156171208109349 0.2232889965660497 0 0.2245441737887168 0.23093760545441711 0 0.2301452193877111 0.22885480910105491 0 0.21155197229915221 0.22775520817690251 0 0.22156171208109349 0.2232889965660497 0 0.2245441737887168 0.23093760545441711 0 0.2301452193877111 0.22885480910105491 0 0.23408043491912681 0.23335190051361199 0 0.23787356880598759 0.22384871304106421 0 0.2301452193877111 0.22885480910105491 0 0.23408043491912681 0.23335190051361199 0 0.2258394828391487 0.23585902185418811 0 0.2245441737887168 0.23093760545441711 0 0.2301452193877111 0.22885480910105491 0 0.2258394828391487 0.23585902185418811 0 0.2301452193877111 0.22885480910105491 0 0.2303270751280653 0.22194856436908961 0 0.23787356880598759 0.22384871304106421 0 0.22156171208109349 0.2232889965660497 0 0.2301452193877111 0.22885480910105491 0 0.2303270751280653 0.22194856436908961 0 0.24124234801782149 0.21867626254200909 0 0.2303270751280653 0.22194856436908961 0 0.23787356880598759 0.22384871304106421 0 0.24124234801782149 0.21867626254200909 0 0.23787356880598759 0.22384871304106421 0 0.25357276657721323 0.21641202867955539 0 0.23408043491912681 0.23335190051361199 0 0.24868260911088891 0.2303107595792985 0 0.25357276657721323 0.21641202867955539 0 0.23408043491912681 0.23335190051361199 0 0.23787356880598759 0.22384871304106421 0 0.25357276657721323 0.21641202867955539 0 0.23408043491912681 0.23335190051361199 0 0.25357276657721323 0.21641202867955539 0 0.24868260911088891 0.2303107595792985 0 0.2392512687495113 0.23539683186585869 0 0.2471090749199483 0.2357199094212839 0 0.23408043491912681 0.23335190051361199 0 0.24868260911088891 0.2303107595792985 0 0.2392512687495113 0.23539683186585869 0 0.23408043491912681 0.23335190051361199 0 0.2356673672060029 0.23553231024254659 0 0.23369101455560959 0.23545012385447089 0 0.2356673672060029 0.23553231024254659 0 0.23652425047500741 0.24096462129343871 0 0.23369101455560959 0.23545012385447089 0 0.23652425047500741 0.24096462129343871 0 0.2392512687495113 0.23539683186585869 0 0.24523436150048811 0.24199469982198529 0 0.2356673672060029 0.23553231024254659 0 0.23652425047500741 0.24096462129343871 0 0.2392512687495113 0.23539683186585869 0 0.23408043491912681 0.23335190051361199 0 0.2356673672060029 0.23553231024254659 0 0.2392512687495113 0.23539683186585869 0 0.24523436150048811 0.24199469982198529 0 0.2471090749199483 0.2357199094212839 0 0.25452501640087027 0.2374112721999547 0 0.2392512687495113 0.23539683186585869 0 0.24523436150048811 0.24199469982198529 0 0.2471090749199483 0.2357199094212839 0 0.24523436150048811 0.24199469982198529 0 0.23995652529561701 0.25039133628829258 0 0.25404003316197471 0.25208422786308371 0 0.23652425047500741 0.24096462129343871 0 0.24523436150048811 0.24199469982198529 0 0.23995652529561701 0.25039133628829258 0 0.23652425047500741 0.24096462129343871 0 0.23169913173193779 0.25404958449575432 0 0.23995652529561701 0.25039133628829258 0 0.23369101455560959 0.23545012385447089 0 0.2170338530129477 0.25958452376210089 0 0.21458810326103989 0.25029177234766842 0 0.23408043491912681 0.23335190051361199 0 0.23369101455560959 0.23545012385447089 0 0.21458810326103989 0.25029177234766842 0 0.23408043491912681 0.23335190051361199 0 0.21458810326103989 0.25029177234766842 0 0.2245441737887168 0.23093760545441711 0 0.21458810326103989 0.25029177234766842 0 0.23408043491912681 0.23335190051361199 0 0.2258394828391487 0.23585902185418811 0 0.21458810326103989 0.25029177234766842 0 0.23369101455560959 0.23545012385447089 0 0.2170338530129477 0.25958452376210089 0 0.23169913173193779 0.25404958449575432 0 0.23652425047500741 0.24096462129343871 0 0.23369101455560959 0.23545012385447089 0 0.23169913173193779 0.25404958449575432 0 0.23369101455560959 0.23545012385447089 0 0.2170338530129477 0.25958452376210089 0 0.2245441737887168 0.23093760545441711 0 0.2258394828391487 0.23585902185418811 0 0.21458810326103989 0.25029177234766842 0 0.2074718948020329 0.13931593166829101 0 0.2035930282546865 0.1573108976369578 0 0.22801201431925219 0.15227861461809999 0 0.2074718948020329 0.13931593166829101 0 0.22815060196587239 0.13250420183309389 0 0.2202182220460269 0.1181723145221887 0 0.2074718948020329 0.13931593166829101 0 0.2202182220460269 0.1181723145221887 0 0.19370351113240411 0.1202502215829211 0 0.18154761934540289 0.13534417850528041 0 0.2074718948020329 0.13931593166829101 0 0.19370351113240411 0.1202502215829211 0 0.1832181015668064 0.15465227861531949 0 0.2074718948020329 0.13931593166829101 0 0.1832181015668064 0.15465227861531949 0 0.18154761934540289 0.13534417850528041 0 0.2074718948020329 0.13931593166829101 0 0.1832181015668064 0.15465227861531949 0 0.2074718948020329 0.13931593166829101 0 0.2035930282546865 0.1573108976369578 0 0.1832181015668064 0.15465227861531949 0 0.1915320106228488 0.17262237876131631 0 0.2035930282546865 0.1573108976369578 0 0.1915320106228488 0.17262237876131631 0 0.21309098299550949 0.1707274381193544 0 0.2035930282546865 0.1573108976369578 0 0.19943196450540629 0.19077826793543179 0 0.1915320106228488 0.17262237876131631 0 0.21309098299550949 0.1707274381193544 0 0.17803712215301101 0.18711146321258301 0 0.19943196450540629 0.19077826793543179 0 0.1915320106228488 0.17262237876131631 0 0.19943196450540629 0.19077826793543179 0 0.22082680685780151 0.19444507265828059 0 0.21309098299550949 0.1707274381193544 0 0.21309098299550949 0.1707274381193544 0 0.2035930282546865 0.1573108976369578 0 0.22801201431925219 0.15227861461809999 0 0.2298041727050075 0.1787595393801808 0 0.2424223085377801 0.16582077205563811 0 0.22801201431925219 0.15227861461809999 0 0.21309098299550949 0.1707274381193544 0 0.2298041727050075 0.1787595393801808 0 0.22801201431925219 0.15227861461809999 0 0.22082680685780151 0.19444507265828059 0 0.21309098299550949 0.1707274381193544 0 0.2298041727050075 0.1787595393801808 0 0.2418323282778008 0.1922485172988235 0 0.2424223085377801 0.16582077205563811 0 0.2418323282778008 0.1922485172988235 0 0.2424223085377801 0.16582077205563811 0 0.26032431562704572 0.18342712708893841 0 0.2418323282778008 0.1922485172988235 0 0.2298041727050075 0.1787595393801808 0 0.2424223085377801 0.16582077205563811 0 0.2424223085377801 0.16582077205563811 0 0.24301228879775941 0.13939302681245261 0 0.2424223085377801 0.16582077205563811 0 0.24301228879775941 0.13939302681245261 0 0.25486404381895789 0.1523024957907583 0 0.22801201431925219 0.15227861461809999 0 0.23648687609860089 0.13476882232929049 0 0.24301228879775941 0.13939302681245261 0 0.2424223085377801 0.16582077205563811 0 0.22801201431925219 0.15227861461809999 0 0.24301228879775941 0.13939302681245261 0 0.2074718948020329 0.13931593166829101 0 0.22801201431925219 0.15227861461809999 0 0.22815060196587239 0.13250420183309389 0 0.22815060196587239 0.13250420183309389 0 0.24420216851797599 0.1292372680552665 0 0.2202182220460269 0.1181723145221887 0 0.22801201431925219 0.15227861461809999 0 0.22815060196587239 0.13250420183309389 0 0.23648687609860089 0.13476882232929049 0 0.22815060196587239 0.13250420183309389 0 0.23648687609860089 0.13476882232929049 0 0.24420216851797599 0.1292372680552665 0 0.23648687609860089 0.13476882232929049 0 0.24301228879775941 0.13939302681245261 0 0.24420216851797599 0.1292372680552665 0 0.24646482385440791 0.1109165710353929 0 0.23770217468454991 0.11680213067385049 0 0.255186127323073 0.11543194682551421 0 0.24420216851797599 0.1292372680552665 0 0.23770217468454991 0.11680213067385049 0 0.255186127323073 0.11543194682551421 0 0.23770217468454991 0.11680213067385049 0 0.255186127323073 0.11543194682551421 0 0.23770217468454991 0.11680213067385049 0 0.24055722746134861 0.1095612663226197 0 0.23538797832625211 0.10692464088038291 0 0.24646482385440791 0.1109165710353929 0 0.23770217468454991 0.11680213067385049 0 0.24055722746134861 0.1095612663226197 0 0.24174744587836799 0.1033548466348798 0 0.22816008327650389 0.097918375238235045 0 0.24736227196270541 0.090270970101712061 0 0.22816008327650389 0.097918375238235045 0 0.24736227196270541 0.090270970101712061 0 0.24174744587836799 0.1033548466348798 0 0.24736227196270541 0.090270970101712061 0 0.25459763100830068 0.096141582858552177 0 0.24174744587836799 0.1033548466348798 0 0.25459763100830068 0.096141582858552177 0 0.24646482385440791 0.1109165710353929 0 0.24174744587836799 0.1033548466348798 0 0.25655208948606423 0.10927836717886751 0 0.24174744587836799 0.1033548466348798 0 0.25655208948606423 0.10927836717886751 0 0.24646482385440791 0.1109165710353929 0 0.24055722746134861 0.1095612663226197 0 0.24174744587836799 0.1033548466348798 0 0.23538797832625211 0.10692464088038291 0 0.24174744587836799 0.1033548466348798 0 0.22816008327650389 0.097918375238235045 0 0.24055722746134861 0.1095612663226197 0 0.23538797832625211 0.10692464088038291 0 0.24174744587836799 0.1033548466348798 0 0.23538797832625211 0.10692464088038291 0 0.24174744587836799 0.1033548466348798 0 0.24174744587836799 0.1033548466348798 0 0.22816008327650389 0.097918375238235045 0 0.23538797832625211 0.10692464088038291 0 0.22816008327650389 0.097918375238235045 0 0.22436085098549791 0.1097634104313145 0 0.23770217468454991 0.11680213067385049 0 0.2202182220460269 0.1181723145221887 0 0.23770217468454991 0.11680213067385049 0 0.2202182220460269 0.1181723145221887 0 0.22436085098549791 0.1097634104313145 0 0.24420216851797599 0.1292372680552665 0 0.23770217468454991 0.11680213067385049 0 0.2202182220460269 0.1181723145221887 0 0.24420216851797599 0.1292372680552665 0 0.2202182220460269 0.1181723145221887 0 0.23770217468454991 0.11680213067385049 0 0.23538797832625211 0.10692464088038291 0 0.22436085098549791 0.1097634104313145 0 0.2202182220460269 0.1181723145221887 0 0.20033579659415629 0.10899959084191641 0 0.19370351113240411 0.1202502215829211 0 0.2202182220460269 0.1181723145221887 0 0.20033579659415629 0.10899959084191641 0 0.2202182220460269 0.1181723145221887 0 0.19370351113240411 0.1202502215829211 0 0.2202182220460269 0.1181723145221887 0 0.22436085098549791 0.1097634104313145 0 0.20033579659415629 0.10899959084191641 0 0.22816008327650389 0.097918375238235045 0 0.22436085098549791 0.1097634104313145 0 0.20033579659415629 0.10899959084191641 0 0.22816008327650389 0.097918375238235045 0 0.20033579659415629 0.10899959084191641 0 0.2016134769563831 0.087296750559026068 0 0.22816008327650389 0.097918375238235045 0 0.20033579659415629 0.10899959084191641 0 0.20033579659415629 0.10899959084191641 0 0.18422746814952201 0.1154148446289336 0 0.1860496622757298 0.1024087067025775 0 0.20033579659415629 0.10899959084191641 0 0.2016134769563831 0.087296750559026068 0 0.1860496622757298 0.1024087067025775 0 0.20033579659415629 0.10899959084191641 0 0.1860496622757298 0.1024087067025775 0 0.20033579659415629 0.10899959084191641 0 0.19370351113240411 0.1202502215829211 0 0.18422746814952201 0.1154148446289336 0 0.20033579659415629 0.10899959084191641 0 0.18422746814952201 0.1154148446289336 0 0.19220101611619109 0.069455466931817506 0 0.2016134769563831 0.087296750559026068 0 0.22553753830923129 0.072562856517635971 0 0.19220101611619109 0.069455466931817506 0 0.22553753830923129 0.072562856517635971 0 0.20371280465575431 0.054854742933563613 0 0.19220101611619109 0.069455466931817506 0 0.2016134769563831 0.087296750559026068 0 0.17506687063626211 0.076675125879817507 0 0.2016134769563831 0.087296750559026068 0 0.17506687063626211 0.076675125879817507 0 0.2016134769563831 0.087296750559026068 0 0.1860496622757298 0.1024087067025775 0 0.17954517331912459 0.085943521096986275 0 0.22816008327650389 0.097918375238235045 0 0.2016134769563831 0.087296750559026068 0 0.22553753830923129 0.072562856517635971 0 0.22816008327650389 0.097918375238235045 0 0.2016134769563831 0.087296750559026068 0 0.22553753830923129 0.072562856517635971 0 0.20371280465575431 0.054854742933563613 0 0.22816008327650389 0.097918375238235045 0 0.22553753830923129 0.072562856517635971 0 0.24736227196270541 0.090270970101712061 0 0.22553753830923129 0.072562856517635971 0 0.24736227196270541 0.090270970101712061 0 0.22553753830923129 0.072562856517635971 0 0.24736227196270541 0.090270970101712061 0 0.24874122334595 0.07170785510379532 0 0.22553753830923129 0.072562856517635971 0 0.24874122334595 0.07170785510379532 0 0.24629062771517271 0.052820950830226497 0 0.24629062771517271 0.052820950830226497 0 0.22540450977275331 0.044226989078737088 0 0.24629062771517271 0.052820950830226497 0 0.2492733855269578 0.041579555173777823 0 0.22540450977275331 0.044226989078737088 0 0.2492733855269578 0.041579555173777823 0 0.23050941707716249 0.025621187905106171 0 0.2492733855269578 0.041579555173777823 0 0.22540450977275331 0.044226989078737088 0 0.23050941707716249 0.025621187905106171 0 0.22540450977275331 0.044226989078737088 0 0.23050941707716249 0.025621187905106171 0 0.21805144048265651 0.031797176764528597 0 0.22553753830923129 0.072562856517635971 0 0.24629062771517271 0.052820950830226497 0 0.22540450977275331 0.044226989078737088 0 0.23790413247208811 0.0091049515404343275 0 0.25322369798355371 0.0032948183560677501 0 0.2464198669495459 -0.012097030270161889 0 0.23790413247208811 0.0091049515404343275 0 0.25442723867738032 0.016379625870619269 0 0.25322369798355371 0.0032948183560677501 0 0.2492733855269578 0.041579555173777823 0 0.24818833723327199 0.02644705719899533 0 0.23050941707716249 0.025621187905106171 0 0.23790413247208811 0.0091049515404343275 0 0.24818833723327199 0.02644705719899533 0 0.25442723867738032 0.016379625870619269 0 0.23790413247208811 0.0091049515404343275 0 0.24818833723327199 0.02644705719899533 0 0.23050941707716249 0.025621187905106171 0 0.23050941707716249 0.025621187905106171 0 0.2117734432503762 0.02170750274702346 0 0.21805144048265651 0.031797176764528597 0 0.23050941707716249 0.025621187905106171 0 0.21174544862736719 0.0096628206364345465 0 0.23050941707716249 0.025621187905106171 0 0.22518260227175371 0.0072623370788317187 0 0.21174544862736719 0.0096628206364345465 0 0.23790413247208811 0.0091049515404343275 0 0.22518260227175371 0.0072623370788317187 0 0.2300866381754704 -0.0072438550720441714 0 0.23790413247208811 0.0091049515404343275 0 0.23050941707716249 0.025621187905106171 0 0.22518260227175371 0.0072623370788317187 0 0.21174544862736719 0.0096628206364345465 0 0.2117734432503762 0.02170750274702346 0 0.20589386385567829 -0.0063134785331596111 0 0.2117734432503762 0.02170750274702346 0 0.19985428483697371 0.01027601627170664 0 0.20589386385567829 -0.0063134785331596111 0 0.2117734432503762 0.02170750274702346 0 0.20589386385567829 -0.0063134785331596111 0 0.22518260227175371 0.0072623370788317187 0 0.21174544862736719 0.0096628206364345465 0 0.2185782736923042 -0.0038367730406402641 0 0.23050941707716249 0.025621187905106171 0 0.21174544862736719 0.0096628206364345465 0 0.2117734432503762 0.02170750274702346 0 0.2117734432503762 0.02170750274702346 0 0.19994459845139961 0.023663902980434019 0 0.19985428483697371 0.01027601627170664 0 0.2117734432503762 0.02170750274702346 0 0.21805144048265651 0.031797176764528597 0 0.20451839183033399 0.035633027327247678 0 0.2117734432503762 0.02170750274702346 0 0.19994459845139961 0.023663902980434019 0 0.20451839183033399 0.035633027327247678 0 0.19994459845139961 0.023663902980434019 0 0.20451839183033399 0.035633027327247678 0 0.1836322738879155 0.027039065575756291 0 0.19994459845139961 0.023663902980434019 0 0.19985428483697371 0.01027601627170664 0 0.1836322738879155 0.027039065575756291 0 0.19985428483697371 0.01027601627170664 0 0.20589386385567829 -0.0063134785331596111 0 0.18863989258252481 -0.001979820774580698 0 0.19985428483697371 0.01027601627170664 0 0.1836322738879155 0.027039065575756291 0 0.18863989258252481 -0.001979820774580698 0 0.22553753830923129 0.072562856517635971 0 0.22540450977275331 0.044226989078737088 0 0.20371280465575431 0.054854742933563613 0 0.22540450977275331 0.044226989078737088 0 0.20451839183033399 0.035633027327247678 0 0.22540450977275331 0.044226989078737088 0 0.21805144048265651 0.031797176764528597 0 0.20451839183033399 0.035633027327247678 0 0.22540450977275331 0.044226989078737088 0 0.20371280465575431 0.054854742933563613 0 0.20451839183033399 0.035633027327247678 0 0.20451839183033399 0.035633027327247678 0 0.1818880710022803 0.03714662934948755 0 0.1836322738879155 0.027039065575756291 0 0.20371280465575431 0.054854742933563613 0 0.20451839183033399 0.035633027327247678 0 0.1818880710022803 0.03714662934948755 0 0.20371280465575431 0.054854742933563613 0 0.1818880710022803 0.03714662934948755 0 0.20451839183033399 0.035633027327247678 0 0.1836322738879155 0.027039065575756291 0 0.20371280465575431 0.054854742933563613 0 0.17847747081927551 0.05691087761465332 0 0.1818880710022803 0.03714662934948755 0 0.19220101611619109 0.069455466931817506 0 0.20371280465575431 0.054854742933563613 0 0.17847747081927551 0.05691087761465332 0 0.17847747081927551 0.05691087761465332 0 0.1818880710022803 0.03714662934948755 0 0.17847747081927551 0.05691087761465332 0 0.1818880710022803 0.03714662934948755 0 0.1636569447874848 0.036789081642687432 0 0.1818880710022803 0.03714662934948755 0 0.1836322738879155 0.027039065575756291 0 0.1818880710022803 0.03714662934948755 0 0.1636569447874848 0.036789081642687432 0 0.1620242678869008 0.02102957209859084 0 0.17847747081927551 0.05691087761465332 0 0.1636569447874848 0.036789081642687432 0 0.15962551614652079 0.053115759904931073 0 0.17847747081927551 0.05691087761465332 0 0.15962551614652079 0.053115759904931073 0 0.16641746421004469 0.065589342706300277 0 0.15962551614652079 0.053115759904931073 0 0.15045482833334159 0.067212260357143019 0 0.16641746421004469 0.065589342706300277 0 0.1716695151525548 0.011722155214289249 0 0.17506184651935949 -0.0021247232161890161 0 0.18863989258252481 -0.001979820774580698 0 0.1836322738879155 0.027039065575756291 0 0.18863989258252481 -0.001979820774580698 0 0.1836322738879155 0.027039065575756291 0 0.1716695151525548 0.011722155214289249 0 0.18863989258252481 -0.001979820774580698 0 0.1818880710022803 0.03714662934948755 0 0.1730573255808272 0.02268781650565178 0 0.1620242678869008 0.02102957209859084 0 0.1818880710022803 0.03714662934948755 0 0.1620242678869008 0.02102957209859084 0 0.1730573255808272 0.02268781650565178 0 0.1836322738879155 0.027039065575756291 0 0.1716695151525548 0.011722155214289249 0 0.1730573255808272 0.02268781650565178 0 0.1836322738879155 0.027039065575756291 0 0.1818880710022803 0.03714662934948755 0 0.1730573255808272 0.02268781650565178 0 0.1836322738879155 0.027039065575756291 0 0.1636569447874848 0.036789081642687432 0 0.1620242678869008 0.02102957209859084 0 0.15032019737810451 0.03113296745297477 0 0.1730573255808272 0.02268781650565178 0 0.1620242678869008 0.02102957209859084 0 0.1716695151525548 0.011722155214289249 0 0.1620242678869008 0.02102957209859084 0 0.1716695151525548 0.011722155214289249 0 0.15871689523486121 0.010399441389301141 0 0.1716695151525548 0.011722155214289249 0 0.15871689523486121 0.010399441389301141 0 0.1628037813635097 0.0015330777282007481 0 0.15871689523486121 0.010399441389301141 0 0.1628037813635097 0.0015330777282007481 0 0.15453230216132671 0.0032055715019124438 0 0.1716695151525548 0.011722155214289249 0 0.1628037813635097 0.0015330777282007481 0 0.17506184651935949 -0.0021247232161890161 0 0.1620242678869008 0.02102957209859084 0 0.14216046477152491 0.0049125148476896544 0 0.15871689523486121 0.010399441389301141 0 0.14216046477152491 0.0049125148476896544 0 0.15453230216132671 0.0032055715019124438 0 0.14216046477152491 0.0049125148476896544 0 0.15453230216132671 0.0032055715019124438 0 0.15849764294065671 -0.0060544572746906826 0 0.1620242678869008 0.02102957209859084 0 0.15871689523486121 0.010399441389301141 0 0.14216046477152491 0.0049125148476896544 0 0.1620242678869008 0.02102957209859084 0 0.14216046477152491 0.0049125148476896544 0 0.1432298655490542 0.02239521632663263 0 0.1620242678869008 0.02102957209859084 0 0.1432298655490542 0.02239521632663263 0 0.15032019737810451 0.03113296745297477 0 0.1432298655490542 0.02239521632663263 0 0.15032019737810451 0.03113296745297477 0 0.1366405524080008 0.032741533152345258 0 0.1432298655490542 0.02239521632663263 0 0.12659142849079691 0.028091664155532971 0 0.1366405524080008 0.032741533152345258 0 0.14216046477152491 0.0049125148476896544 0 0.1432298655490542 0.02239521632663263 0 0.12659142849079691 0.028091664155532971 0 0.14216046477152491 0.0049125148476896544 0 0.12659142849079691 0.028091664155532971 0 0.1323442420055404 0.014884056975098 0 0.14216046477152491 0.0049125148476896544 0 0.12659142849079691 0.028091664155532971 0 0.11882011836095251 0.0065886106746579649 0 0.12659142849079691 0.028091664155532971 0 0.1323442420055404 0.014884056975098 0 0.12659142849079691 0.028091664155532971 0 0.1366405524080008 0.032741533152345258 0 0.11882011836095251 0.0065886106746579649 0 0.1323442420055404 0.014884056975098 0 0.13735218555535891 0.001011181807127467 0 0.1323442420055404 0.014884056975098 0 0.13735218555535891 0.001011181807127467 0 0.14216046477152491 0.0049125148476896544 0 0.1323442420055404 0.014884056975098 0 0.13735218555535891 0.001011181807127467 0 0.14216046477152491 0.0049125148476896544 0 0.13735218555535891 0.001011181807127467 0 0.15962551614652079 0.053115759904931073 0 0.1452456698728295 0.044396077507560729 0 0.15045482833334159 0.067212260357143019 0 0.1452456698728295 0.044396077507560729 0 0.12683439495817461 0.052003073372435288 0 0.15045482833334159 0.067212260357143019 0 0.1636569447874848 0.036789081642687432 0 0.15032019737810451 0.03113296745297477 0 0.1452456698728295 0.044396077507560729 0 0.1636569447874848 0.036789081642687432 0 0.15962551614652079 0.053115759904931073 0 0.1452456698728295 0.044396077507560729 0 0.1636569447874848 0.036789081642687432 0 0.1452456698728295 0.044396077507560729 0 0.15032019737810451 0.03113296745297477 0 0.1452456698728295 0.044396077507560729 0 0.1366405524080008 0.032741533152345258 0 0.1452456698728295 0.044396077507560729 0 0.13015300311198849 0.040381385354086502 0 0.12683439495817461 0.052003073372435288 0 0.1452456698728295 0.044396077507560729 0 0.1366405524080008 0.032741533152345258 0 0.13015300311198849 0.040381385354086502 0 0.12659142849079691 0.028091664155532971 0 0.1366405524080008 0.032741533152345258 0 0.13015300311198849 0.040381385354086502 0 0.12683439495817461 0.052003073372435288 0 0.13134854049252651 0.064566646620811727 0 0.15045482833334159 0.067212260357143019 0 0.1452456698728295 0.044396077507560729 0 0.12683439495817461 0.052003073372435288 0 0.12683439495817461 0.052003073372435288 0 0.15045482833334159 0.067212260357143019 0 0.1213053233293625 0.063977455960140386 0 0.12683439495817461 0.052003073372435288 0 0.13134854049252651 0.064566646620811727 0 0.13134854049252651 0.064566646620811727 0 0.12679961534922851 0.075073796793526271 0 0.15045482833334159 0.067212260357143019 0 0.1213053233293625 0.063977455960140386 0 0.13134854049252651 0.064566646620811727 0 0.12679961534922851 0.075073796793526271 0 0.12679961534922851 0.075073796793526271 0 0.15045482833334159 0.067212260357143019 0 0.1492815716532653 0.085445809678383625 0 0.1185648575779607 0.095458187827811403 0 0.12679961534922851 0.075073796793526271 0 0.13332649773741079 0.089989738391902788 0 0.1492815716532653 0.085445809678383625 0 0.13332649773741079 0.089989738391902788 0 0.13865994636918871 0.10398115926788989 0 0.12679961534922851 0.075073796793526271 0 0.1492815716532653 0.085445809678383625 0 0.12679961534922851 0.075073796793526271 0 0.1492815716532653 0.085445809678383625 0 0.13332649773741079 0.089989738391902788 0 0.123281054128593 0.11724462113534739 0 0.1185648575779607 0.095458187827811403 0 0.13865994636918871 0.10398115926788989 0 0.1185648575779607 0.095458187827811403 0 0.13332649773741079 0.089989738391902788 0 0.13865994636918871 0.10398115926788989 0 0.123281054128593 0.11724462113534739 0 0.13865994636918871 0.10398115926788989 0 0.13947052033133081 0.1245003570974072 0 0.13947052033133081 0.1245003570974072 0 0.15026369300765779 0.1129544164764977 0 0.16718880021878149 0.12232812864365609 0 0.13947052033133081 0.1245003570974072 0 0.16718880021878149 0.12232812864365609 0 0.13865994636918871 0.10398115926788989 0 0.13947052033133081 0.1245003570974072 0 0.15026369300765779 0.1129544164764977 0 0.1492815716532653 0.085445809678383625 0 0.13865994636918871 0.10398115926788989 0 0.15573550511132991 0.1010080208970377 0 0.13865994636918871 0.10398115926788989 0 0.15026369300765779 0.1129544164764977 0 0.15573550511132991 0.1010080208970377 0 0.15573550511132991 0.1010080208970377 0 0.17176352795730221 0.095817822563241214 0 0.16718880021878149 0.12232812864365609 0 0.17176352795730221 0.095817822563241214 0 0.16718880021878149 0.12232812864365609 0 0.1492815716532653 0.085445809678383625 0 0.15573550511132991 0.1010080208970377 0 0.17176352795730221 0.095817822563241214 0 0.15026369300765779 0.1129544164764977 0 0.15573550511132991 0.1010080208970377 0 0.16718880021878149 0.12232812864365609 0 0.16718880021878149 0.12232812864365609 0 0.18422746814952201 0.1154148446289336 0 0.17176352795730221 0.095817822563241214 0 0.16718880021878149 0.12232812864365609 0 0.18422746814952201 0.1154148446289336 0 0.19370351113240411 0.1202502215829211 0 0.16718880021878149 0.12232812864365609 0 0.19370351113240411 0.1202502215829211 0 0.16718880021878149 0.12232812864365609 0 0.18422746814952201 0.1154148446289336 0 0.17176352795730221 0.095817822563241214 0 0.18422746814952201 0.1154148446289336 0 0.1860496622757298 0.1024087067025775 0 0.17176352795730221 0.095817822563241214 0 0.1860496622757298 0.1024087067025775 0 0.17954517331912459 0.085943521096986275 0 0.17176352795730221 0.095817822563241214 0 0.1860496622757298 0.1024087067025775 0 0.2016134769563831 0.087296750559026068 0 0.17954517331912459 0.085943521096986275 0 0.17506687063626211 0.076675125879817507 0 0.17176352795730221 0.095817822563241214 0 0.17407526170850959 0.082421447341849294 0 0.17176352795730221 0.095817822563241214 0 0.17954517331912459 0.085943521096986275 0 0.17407526170850959 0.082421447341849294 0 0.17954517331912459 0.085943521096986275 0 0.17407526170850959 0.082421447341849294 0 0.17506687063626211 0.076675125879817507 0 0.17407526170850959 0.082421447341849294 0 0.17506687063626211 0.076675125879817507 0 0.17954517331912459 0.085943521096986275 0 0.17407526170850959 0.082421447341849294 0 0.17847747081927551 0.05691087761465332 0 0.17506687063626211 0.076675125879817507 0 0.19220101611619109 0.069455466931817506 0 0.17847747081927551 0.05691087761465332 0 0.17506687063626211 0.076675125879817507 0 0.17847747081927551 0.05691087761465332 0 0.17506687063626211 0.076675125879817507 0 0.16641746421004469 0.065589342706300277 0 0.17407526170850959 0.082421447341849294 0 0.17506687063626211 0.076675125879817507 0 0.16846263511482451 0.074032689774956653 0 0.15045482833334159 0.067212260357143019 0 0.16846263511482451 0.074032689774956653 0 0.16641746421004469 0.065589342706300277 0 0.17506687063626211 0.076675125879817507 0 0.16846263511482451 0.074032689774956653 0 0.16641746421004469 0.065589342706300277 0 0.15045482833334159 0.067212260357143019 0 0.17407526170850959 0.082421447341849294 0 0.16846263511482451 0.074032689774956653 0 0.17506687063626211 0.076675125879817507 0 0.16846263511482451 0.074032689774956653 0 0.15045482833334159 0.067212260357143019 0 0.17407526170850959 0.082421447341849294 0 0.1492815716532653 0.085445809678383625 0 0.17176352795730221 0.095817822563241214 0 0.1492815716532653 0.085445809678383625 0 0.17176352795730221 0.095817822563241214 0 0.17407526170850959 0.082421447341849294 0 0.15045482833334159 0.067212260357143019 0 0.1492815716532653 0.085445809678383625 0 0.17407526170850959 0.082421447341849294 0 0.094789198081262169 0.47221984895451657 0 0.09870107108427445 0.5 0 0.1248616532684987 0.47476888169724352 0 0.09870107108427445 0.5 0 0.1248616532684987 0.47476888169724352 0 0.1287333349596296 0.50000000000000233 0 0.1248616532684987 0.47476888169724352 0 0.1154926134483955 0.45328817880533262 0 0.094789198081262169 0.47221984895451657 0 0.1248616532684987 0.47476888169724352 0 0.1154926134483955 0.45328817880533262 0 0.1248616532684987 0.47476888169724352 0 0.1205619018159948 0.44674810255646558 0 0.1248616532684987 0.47476888169724352 0 0.1154926134483955 0.45328817880533262 0 0.1205619018159948 0.44674810255646558 0 0.1154926134483955 0.45328817880533262 0 0.106123573628292 0.43180747591342172 0 0.1154926134483955 0.45328817880533262 0 0.1205619018159948 0.44674810255646558 0 0.106123573628292 0.43180747591342172 0 0.1154926134483955 0.45328817880533262 0 0.096722182691352548 0.44869154901932268 0 0.106123573628292 0.43180747591342172 0 0.094789198081262169 0.47221984895451657 0 0.1154926134483955 0.45328817880533262 0 0.096722182691352548 0.44869154901932268 0 0.094789198081262169 0.47221984895451657 0 0.077453222292990773 0.45016302493177879 0 0.067202034968243438 0.47028323083424428 0 0.094789198081262169 0.47221984895451657 0 0.096722182691352548 0.44869154901932268 0 0.077453222292990773 0.45016302493177879 0 0.096722182691352548 0.44869154901932268 0 0.077453222292990773 0.45016302493177879 0 0.085233479690329184 0.42595657570789891 0 0.077453222292990773 0.45016302493177879 0 0.085233479690329184 0.42595657570789891 0 0.077453222292990773 0.45016302493177879 0 0.055846149836862702 0.43889490050586683 0 0.065639666334966471 0.42409002317344818 0 0.077453222292990773 0.45016302493177879 0 0.067202034968243438 0.47028323083424428 0 0.051776939420019832 0.45519588853091181 0 0.094789198081262169 0.47221984895451657 0 0.067202034968243438 0.47028323083424428 0 0.068668807208919325 0.5 0 0.094789198081262169 0.47221984895451657 0 0.09870107108427445 0.5 0 0.068668807208919325 0.5 0 0.068668807208919325 0.5 0 0.043814234576468783 0.4752156274217324 0 0.038636543333564137 0.5 0 0.067202034968243438 0.47028323083424428 0 0.068668807208919325 0.5 0 0.043814234576468783 0.4752156274217324 0 0.038636543333564137 0.5 0 0.0095498935665802413 0.47810272379952351 0 0.0086042794582089632 0.5 0 0.043814234576468783 0.4752156274217324 0 0.038636543333564137 0.5 0 0.0095498935665802413 0.47810272379952351 0 0.043814234576468783 0.4752156274217324 0 0.0095498935665802413 0.47810272379952351 0 0.02936257191825143 0.45548825099001988 0 -0.0044763741368290672 0.43313315307665529 0 0.006403582431216831 0.45126676372832991 0 0.01131617767293759 0.43066417693356068 0 0.006403582431216831 0.45126676372832991 0 0.024585063983693121 0.43937755350337049 0 0.01131617767293759 0.43066417693356068 0 -0.0062093312902834459 0.46527566221073008 0 0.0095498935665802413 0.47810272379952351 0 0.006403582431216831 0.45126676372832991 0 0.0095498935665802413 0.47810272379952351 0 0.006403582431216831 0.45126676372832991 0 0.02936257191825143 0.45548825099001988 0 0.02936257191825143 0.45548825099001988 0 0.024585063983693121 0.43937755350337049 0 0.039439570502417587 0.44016889882154447 0 0.006403582431216831 0.45126676372832991 0 0.02936257191825143 0.45548825099001988 0 0.024585063983693121 0.43937755350337049 0 0.02936257191825143 0.45548825099001988 0 0.039439570502417587 0.44016889882154447 0 0.051776939420019832 0.45519588853091181 0 0.043814234576468783 0.4752156274217324 0 0.02936257191825143 0.45548825099001988 0 0.051776939420019832 0.45519588853091181 0 0.067202034968243438 0.47028323083424428 0 0.043814234576468783 0.4752156274217324 0 0.051776939420019832 0.45519588853091181 0 0.039439570502417587 0.44016889882154447 0 0.051776939420019832 0.45519588853091181 0 0.055846149836862702 0.43889490050586683 0 0.077453222292990773 0.45016302493177879 0 0.051776939420019832 0.45519588853091181 0 0.055846149836862702 0.43889490050586683 0 0.055846149836862702 0.43889490050586683 0 0.044352211855280779 0.42435697566478181 0 0.065639666334966471 0.42409002317344818 0 0.054179592762823331 0.4124556941646933 0 0.065774511826563423 0.40583773171119408 0 0.065639666334966471 0.42409002317344818 0 0.054179592762823331 0.4124556941646933 0 0.044352211855280779 0.42435697566478181 0 0.042551786202842029 0.40583695196884878 0 0.054179592762823331 0.4124556941646933 0 0.044352211855280779 0.42435697566478181 0 0.065639666334966471 0.42409002317344818 0 0.054179592762823331 0.4124556941646933 0 0.052579787594463898 0.40215678830519391 0 0.065774511826563423 0.40583773171119408 0 0.054179592762823331 0.4124556941646933 0 0.042551786202842029 0.40583695196884878 0 0.052579787594463898 0.40215678830519391 0 0.031615607723292562 0.41237007764590089 0 0.044352211855280779 0.42435697566478181 0 0.042551786202842029 0.40583695196884878 0 0.031615607723292562 0.41237007764590089 0 0.044352211855280779 0.42435697566478181 0 0.029348552931666359 0.42650056435783129 0 0.039439570502417587 0.44016889882154447 0 0.055846149836862702 0.43889490050586683 0 0.044352211855280779 0.42435697566478181 0 0.039439570502417587 0.44016889882154447 0 0.044352211855280779 0.42435697566478181 0 0.029348552931666359 0.42650056435783129 0 0.024585063983693121 0.43937755350337049 0 0.039439570502417587 0.44016889882154447 0 0.029348552931666359 0.42650056435783129 0 0.024585063983693121 0.43937755350337049 0 0.029348552931666359 0.42650056435783129 0 0.01131617767293759 0.43066417693356068 0 0.029348552931666359 0.42650056435783129 0 0.019479081626689841 0.41692126840220728 0 0.01131617767293759 0.43066417693356068 0 0.031615607723292562 0.41237007764590089 0 0.029348552931666359 0.42650056435783129 0 0.019479081626689841 0.41692126840220728 0 0.031615607723292562 0.41237007764590089 0 0.019479081626689841 0.41692126840220728 0 0.02210553341445062 0.40298972327242938 0 0.019479081626689841 0.41692126840220728 0 0.0046995574085186929 0.41194005205042061 0 0.02210553341445062 0.40298972327242938 0 0.019479081626689841 0.41692126840220728 0 0.0046995574085186929 0.41194005205042061 0 0.01131617767293759 0.43066417693356068 0 -0.0044763741368290672 0.43313315307665529 0 0.0046995574085186929 0.41194005205042061 0 0.01131617767293759 0.43066417693356068 0 -0.0068648610501423502 0.39382000907293813 0 0.0053185270157129726 0.37689571945341471 0 0.0079727676898529512 0.39395805239723503 0 0.0053185270157129726 0.37689571945341471 0 0.0079727676898529512 0.39395805239723503 0 0.017055050774382831 0.3783760363496293 0 0.0053185270157129726 0.37689571945341471 0 0.017055050774382831 0.3783760363496293 0 0.014905446519761849 0.37011919055753012 0 -0.0068648610501423502 0.39382000907293813 0 0.0046995574085186929 0.41194005205042061 0 0.0079727676898529512 0.39395805239723503 0 0.0046995574085186929 0.41194005205042061 0 0.0079727676898529512 0.39395805239723503 0 0.02210553341445062 0.40298972327242938 0 0.0079727676898529512 0.39395805239723503 0 0.02210553341445062 0.40298972327242938 0 0.02735486101880703 0.39232044610694311 0 0.031615607723292562 0.41237007764590089 0 0.02210553341445062 0.40298972327242938 0 0.03492587150599015 0.39714318271575322 0 0.02210553341445062 0.40298972327242938 0 0.02735486101880703 0.39232044610694311 0 0.03492587150599015 0.39714318271575322 0 0.0079727676898529512 0.39395805239723503 0 0.02735486101880703 0.39232044610694311 0 0.033420514628485373 0.38302977191180709 0 0.017055050774382831 0.3783760363496293 0 0.033420514628485373 0.38302977191180709 0 0.023779055828078009 0.37097747554075361 0 0.0079727676898529512 0.39395805239723503 0 0.017055050774382831 0.3783760363496293 0 0.033420514628485373 0.38302977191180709 0 0.0079727676898529512 0.39395805239723503 0 0.033420514628485373 0.38302977191180709 0 0.02735486101880703 0.39232044610694311 0 0.032859848824407727 0.38560668074253002 0 0.033420514628485373 0.38302977191180709 0 0.02735486101880703 0.39232044610694311 0 0.032859848824407727 0.38560668074253002 0 0.032844630049655758 0.3911952656019041 0 0.033420514628485373 0.38302977191180709 0 0.040531910439000007 0.38820627445006711 0 0.055078026168592691 0.37372917012189599 0 0.033420514628485373 0.38302977191180709 0 0.055078026168592691 0.37372917012189599 0 0.032859848824407727 0.38560668074253002 0 0.033420514628485373 0.38302977191180709 0 0.032859848824407727 0.38560668074253002 0 0.040531910439000007 0.38820627445006711 0 0.032844630049655758 0.3911952656019041 0 0.032859848824407727 0.38560668074253002 0 0.033420514628485373 0.38302977191180709 0 0.040531910439000007 0.38820627445006711 0 0.031615607723292562 0.41237007764590089 0 0.03492587150599015 0.39714318271575322 0 0.042551786202842029 0.40583695196884878 0 0.040531910439000007 0.38820627445006711 0 0.03492587150599015 0.39714318271575322 0 0.032844630049655758 0.3911952656019041 0 0.02735486101880703 0.39232044610694311 0 0.03492587150599015 0.39714318271575322 0 0.032844630049655758 0.3911952656019041 0 0.040531910439000007 0.38820627445006711 0 0.03492587150599015 0.39714318271575322 0 0.044409534997012647 0.39663533348309749 0 0.040531910439000007 0.38820627445006711 0 0.044409534997012647 0.39663533348309749 0 0.05145831924276717 0.38983346997562462 0 0.044409534997012647 0.39663533348309749 0 0.042551786202842029 0.40583695196884878 0 0.052579787594463898 0.40215678830519391 0 0.03492587150599015 0.39714318271575322 0 0.044409534997012647 0.39663533348309749 0 0.042551786202842029 0.40583695196884878 0 0.052579787594463898 0.40215678830519391 0 0.065929237187869999 0.38841376689227869 0 0.065774511826563423 0.40583773171119408 0 0.044409534997012647 0.39663533348309749 0 0.052579787594463898 0.40215678830519391 0 0.05145831924276717 0.38983346997562462 0 0.052579787594463898 0.40215678830519391 0 0.05145831924276717 0.38983346997562462 0 0.065929237187869999 0.38841376689227869 0 0.05145831924276717 0.38983346997562462 0 0.065929237187869999 0.38841376689227869 0 0.055078026168592691 0.37372917012189599 0 0.040531910439000007 0.38820627445006711 0 0.05145831924276717 0.38983346997562462 0 0.055078026168592691 0.37372917012189599 0 0.065929237187869999 0.38841376689227869 0 0.07065435961583541 0.37741521318853999 0 0.055078026168592691 0.37372917012189599 0 0.065929237187869999 0.38841376689227869 0 0.07065435961583541 0.37741521318853999 0 0.084874637398179506 0.3830893474080016 0 0.065929237187869999 0.38841376689227869 0 0.084874637398179506 0.3830893474080016 0 0.078183007061163587 0.39730645121706609 0 0.084874637398179506 0.3830893474080016 0 0.09301373708766289 0.40175012648401748 0 0.1017514530376761 0.37456476915266362 0 0.084874637398179506 0.3830893474080016 0 0.1017514530376761 0.37456476915266362 0 0.089894590955766338 0.37016501712229671 0 0.084874637398179506 0.3830893474080016 0 0.09301373708766289 0.40175012648401748 0 0.084874637398179506 0.3830893474080016 0 0.09301373708766289 0.40175012648401748 0 0.078183007061163587 0.39730645121706609 0 0.09301373708766289 0.40175012648401748 0 0.078183007061163587 0.39730645121706609 0 0.0779125114683729 0.4107996813321716 0 0.065929237187869999 0.38841376689227869 0 0.078183007061163587 0.39730645121706609 0 0.065774511826563423 0.40583773171119408 0 0.078183007061163587 0.39730645121706609 0 0.065774511826563423 0.40583773171119408 0 0.0779125114683729 0.4107996813321716 0 0.065774511826563423 0.40583773171119408 0 0.0779125114683729 0.4107996813321716 0 0.065639666334966471 0.42409002317344818 0 0.0779125114683729 0.4107996813321716 0 0.065639666334966471 0.42409002317344818 0 0.085233479690329184 0.42595657570789891 0 0.077453222292990773 0.45016302493177879 0 0.065639666334966471 0.42409002317344818 0 0.085233479690329184 0.42595657570789891 0 0.09301373708766289 0.40175012648401748 0 0.085233479690329184 0.42595657570789891 0 0.09301373708766289 0.40175012648401748 0 0.0779125114683729 0.4107996813321716 0 0.085233479690329184 0.42595657570789891 0 0.09301373708766289 0.40175012648401748 0 0.085233479690329184 0.42595657570789891 0 0.096641093798834857 0.4103746730739769 0 0.096641093798834857 0.4103746730739769 0 0.106123573628292 0.43180747591342172 0 0.096641093798834857 0.4103746730739769 0 0.1162621503634904 0.41872732341568758 0 0.11303311796937431 0.39768424579749467 0 0.096641093798834857 0.4103746730739769 0 0.106123573628292 0.43180747591342172 0 0.1162621503634904 0.41872732341568758 0 0.096641093798834857 0.4103746730739769 0 0.1162621503634904 0.41872732341568758 0 0.085233479690329184 0.42595657570789891 0 0.096641093798834857 0.4103746730739769 0 0.106123573628292 0.43180747591342172 0 0.096722182691352548 0.44869154901932268 0 0.085233479690329184 0.42595657570789891 0 0.106123573628292 0.43180747591342172 0 0.1205619018159948 0.44674810255646558 0 0.1162621503634904 0.41872732341568758 0 0.1205619018159948 0.44674810255646558 0 0.106123573628292 0.43180747591342172 0 0.1162621503634904 0.41872732341568758 0 0.1162621503634904 0.41872732341568758 0 0.11303311796937431 0.39768424579749467 0 0.11303311796937431 0.39768424579749467 0 0.1231373165426977 0.3806134049577457 0 0.1271742827044339 0.39597619803598749 0 0.1162621503634904 0.41872732341568758 0 0.11303311796937431 0.39768424579749467 0 0.1271742827044339 0.39597619803598749 0 0.11303311796937431 0.39768424579749467 0 0.1098040855752573 0.37664116817930182 0 0.11303311796937431 0.39768424579749467 0 0.1098040855752573 0.37664116817930182 0 0.1231373165426977 0.3806134049577457 0 0.09301373708766289 0.40175012648401748 0 0.10162794664532369 0.38287681265592 0 0.1017514530376761 0.37456476915266362 0 0.11303311796937431 0.39768424579749467 0 0.1098040855752573 0.37664116817930182 0 0.10162794664532369 0.38287681265592 0 0.09301373708766289 0.40175012648401748 0 0.1017514530376761 0.37456476915266362 0 0.09301373708766289 0.40175012648401748 0 0.096641093798834857 0.4103746730739769 0 0.10162794664532369 0.38287681265592 0 0.096641093798834857 0.4103746730739769 0 0.10162794664532369 0.38287681265592 0 0.096641093798834857 0.4103746730739769 0 0.11303311796937431 0.39768424579749467 0 0.10162794664532369 0.38287681265592 0 0.09301373708766289 0.40175012648401748 0 0.096641093798834857 0.4103746730739769 0 0.10657505318114149 0.3555980905611088 0 0.1040837309638282 0.33936254988137232 0 0.10657505318114149 0.3555980905611088 0 0.096269577202366938 0.34885221845001108 0 0.090674694454237537 0.35844253683721511 0 0.10657505318114149 0.3555980905611088 0 0.1081370103155585 0.34698533999968961 0 0.1040837309638282 0.33936254988137232 0 0.10657505318114149 0.3555980905611088 0 0.096269577202366938 0.34885221845001108 0 0.1040837309638282 0.33936254988137232 0 0.10657505318114149 0.3555980905611088 0 0.1081370103155585 0.34698533999968961 0 0.1081370103155585 0.34698533999968961 0 0.1105857944332822 0.35159063999376577 0 0.10657505318114149 0.3555980905611088 0 0.1081370103155585 0.34698533999968961 0 0.1105857944332822 0.35159063999376577 0 0.10657505318114149 0.3555980905611088 0 0.097223947907205094 0.36469260341832099 0 0.090674694454237537 0.35844253683721511 0 0.1098040855752573 0.37664116817930182 0 0.10657505318114149 0.3555980905611088 0 0.1098040855752573 0.37664116817930182 0 0.10162794664532369 0.38287681265592 0 0.10657505318114149 0.3555980905611088 0 0.10657505318114149 0.3555980905611088 0 0.097223947907205094 0.36469260341832099 0 0.1017514530376761 0.37456476915266362 0 0.10162794664532369 0.38287681265592 0 0.10657505318114149 0.3555980905611088 0 0.10162794664532369 0.38287681265592 0 0.10657505318114149 0.3555980905611088 0 0.1017514530376761 0.37456476915266362 0 0.097223947907205094 0.36469260341832099 0 0.1017514530376761 0.37456476915266362 0 0.089894590955766338 0.37016501712229671 0 0.1231373165426977 0.3806134049577457 0 0.1176766025370503 0.36283148293627721 0 0.13271547193899449 0.36524458735671972 0 0.1098040855752573 0.37664116817930182 0 0.10657505318114149 0.3555980905611088 0 0.1176766025370503 0.36283148293627721 0 0.1098040855752573 0.37664116817930182 0 0.1231373165426977 0.3806134049577457 0 0.1176766025370503 0.36283148293627721 0 0.1176766025370503 0.36283148293627721 0 0.1232256624926347 0.35239419723674059 0 0.13271547193899449 0.36524458735671972 0 0.10657505318114149 0.3555980905611088 0 0.1176766025370503 0.36283148293627721 0 0.1105857944332822 0.35159063999376577 0 0.1176766025370503 0.36283148293627721 0 0.1232256624926347 0.35239419723674059 0 0.1105857944332822 0.35159063999376577 0 0.1081370103155585 0.34698533999968961 0 0.1105857944332822 0.35159063999376577 0 0.1168368962248217 0.34531303274388031 0 0.1232256624926347 0.35239419723674059 0 0.1105857944332822 0.35159063999376577 0 0.1168368962248217 0.34531303274388031 0 0.1232256624926347 0.35239419723674059 0 0.1168368962248217 0.34531303274388031 0 0.1260676383484185 0.3399282146226113 0 0.1081370103155585 0.34698533999968961 0 0.1173014636805894 0.33730338313169689 0 0.1117137236550247 0.32726307032677399 0 0.1081370103155585 0.34698533999968961 0 0.1117137236550247 0.32726307032677399 0 0.1168368962248217 0.34531303274388031 0 0.1173014636805894 0.33730338313169689 0 0.1260676383484185 0.3399282146226113 0 0.1173014636805894 0.33730338313169689 0 0.12375204985912221 0.32702725796552912 0 0.1260676383484185 0.3399282146226113 0 0.1173014636805894 0.33730338313169689 0 0.12375204985912221 0.32702725796552912 0 0.1117137236550247 0.32726307032677399 0 0.1081370103155585 0.34698533999968961 0 0.1168368962248217 0.34531303274388031 0 0.1173014636805894 0.33730338313169689 0 0.1117137236550247 0.32726307032677399 0 0.11529043699448981 0.30754080065385803 0 0.1117137236550247 0.32726307032677399 0 0.1095765413243488 0.31862098055757049 0 0.11529043699448981 0.30754080065385803 0 0.1214195525311879 0.31440901896845502 0 0.1117137236550247 0.32726307032677399 0 0.11529043699448981 0.30754080065385803 0 0.1214195525311879 0.31440901896845502 0 0.12375204985912221 0.32702725796552912 0 0.12817088130983889 0.317450689473041 0 0.1214195525311879 0.31440901896845502 0 0.12375204985912221 0.32702725796552912 0 0.1117137236550247 0.32726307032677399 0 0.1040837309638282 0.33936254988137232 0 0.090103400857782137 0.31307047550514489 0 0.1040837309638282 0.33936254988137232 0 0.1025673515982234 0.32948055280164651 0 0.090103400857782137 0.31307047550514489 0 0.10278173829001019 0.3206216626476312 0 0.1025673515982234 0.32948055280164651 0 0.090103400857782137 0.31307047550514489 0 0.1095765413243488 0.31862098055757049 0 0.10278173829001019 0.3206216626476312 0 0.099947674014671917 0.31467323404701991 0 0.1095765413243488 0.31862098055757049 0 0.099947674014671917 0.31467323404701991 0 0.09732687347400408 0.30507295899279041 0 0.1117137236550247 0.32726307032677399 0 0.1095765413243488 0.31862098055757049 0 0.10278173829001019 0.3206216626476312 0 0.1117137236550247 0.32726307032677399 0 0.10278173829001019 0.3206216626476312 0 0.1025673515982234 0.32948055280164651 0 0.10278173829001019 0.3206216626476312 0 0.099947674014671917 0.31467323404701991 0 0.090103400857782137 0.31307047550514489 0 0.096269577202366938 0.34885221845001108 0 0.1040837309638282 0.33936254988137232 0 0.085896102217652828 0.34083244099607402 0 0.1081370103155585 0.34698533999968961 0 0.1117137236550247 0.32726307032677399 0 0.1040837309638282 0.33936254988137232 0 0.1081370103155585 0.34698533999968961 0 0.1040837309638282 0.33936254988137232 0 0.1117137236550247 0.32726307032677399 0 0.1040837309638282 0.33936254988137232 0 0.1025673515982234 0.32948055280164651 0 0.1040837309638282 0.33936254988137232 0 0.1025673515982234 0.32948055280164651 0 0.1040837309638282 0.33936254988137232 0 0.085896102217652828 0.34083244099607402 0 0.090103400857782137 0.31307047550514489 0 0.085896102217652828 0.34083244099607402 0 0.090103400857782137 0.31307047550514489 0 0.073944851781294785 0.32640562720437011 0 0.073944851781294785 0.32640562720437011 0 0.05926959110604698 0.32438382341666039 0 0.066452600317618793 0.30933520022964911 0 0.090103400857782137 0.31307047550514489 0 0.073944851781294785 0.32640562720437011 0 0.066452600317618793 0.30933520022964911 0 0.068002564407373206 0.3444061958743222 0 0.05926959110604698 0.32438382341666039 0 0.085896102217652828 0.34083244099607402 0 0.073944851781294785 0.32640562720437011 0 0.068002564407373206 0.3444061958743222 0 0.073944851781294785 0.32640562720437011 0 0.068002564407373206 0.3444061958743222 0 0.05926959110604698 0.32438382341666039 0 0.068002564407373206 0.3444061958743222 0 0.081709153938225559 0.35166937446406898 0 0.076735537708699481 0.364428568331984 0 0.068002564407373206 0.3444061958743222 0 0.076735537708699481 0.364428568331984 0 0.068002564407373206 0.3444061958743222 0 0.076735537708699481 0.364428568331984 0 0.058880509289504487 0.35752542115937253 0 0.085896102217652828 0.34083244099607402 0 0.068002564407373206 0.3444061958743222 0 0.081709153938225559 0.35166937446406898 0 0.081709153938225559 0.35166937446406898 0 0.090674694454237537 0.35844253683721511 0 0.076735537708699481 0.364428568331984 0 0.096269577202366938 0.34885221845001108 0 0.081709153938225559 0.35166937446406898 0 0.090674694454237537 0.35844253683721511 0 0.096269577202366938 0.34885221845001108 0 0.085896102217652828 0.34083244099607402 0 0.081709153938225559 0.35166937446406898 0 0.084874637398179506 0.3830893474080016 0 0.089894590955766338 0.37016501712229671 0 0.076735537708699481 0.364428568331984 0 0.084874637398179506 0.3830893474080016 0 0.076735537708699481 0.364428568331984 0 0.097223947907205094 0.36469260341832099 0 0.090674694454237537 0.35844253683721511 0 0.089894590955766338 0.37016501712229671 0 0.090674694454237537 0.35844253683721511 0 0.089894590955766338 0.37016501712229671 0 0.076735537708699481 0.364428568331984 0 0.090674694454237537 0.35844253683721511 0 0.076735537708699481 0.364428568331984 0 0.076735537708699481 0.364428568331984 0 0.055078026168592691 0.37372917012189599 0 0.058880509289504487 0.35752542115937253 0 0.07065435961583541 0.37741521318853999 0 0.084874637398179506 0.3830893474080016 0 0.076735537708699481 0.364428568331984 0 0.07065435961583541 0.37741521318853999 0 0.076735537708699481 0.364428568331984 0 0.055078026168592691 0.37372917012189599 0 0.076735537708699481 0.364428568331984 0 0.055078026168592691 0.37372917012189599 0 0.055078026168592691 0.37372917012189599 0 0.058880509289504487 0.35752542115937253 0 0.039125882353897343 0.35680699826087081 0 0.068002564407373206 0.3444061958743222 0 0.058880509289504487 0.35752542115937253 0 0.05148455776782021 0.34576385860545072 0 0.058880509289504487 0.35752542115937253 0 0.05148455776782021 0.34576385860545072 0 0.039125882353897343 0.35680699826087081 0 0.039125882353897343 0.35680699826087081 0 0.031548662582759998 0.36398682567210089 0 0.025752053585936779 0.33511492304397028 0 0.05148455776782021 0.34576385860545072 0 0.039125882353897343 0.35680699826087081 0 0.044831250079309708 0.3305842246099347 0 0.033420514628485373 0.38302977191180709 0 0.039125882353897343 0.35680699826087081 0 0.031548662582759998 0.36398682567210089 0 0.033420514628485373 0.38302977191180709 0 0.055078026168592691 0.37372917012189599 0 0.039125882353897343 0.35680699826087081 0 0.033420514628485373 0.38302977191180709 0 0.039125882353897343 0.35680699826087081 0 0.033420514628485373 0.38302977191180709 0 0.031548662582759998 0.36398682567210089 0 0.023779055828078009 0.37097747554075361 0 0.017055050774382831 0.3783760363496293 0 0.023779055828078009 0.37097747554075361 0 0.014905446519761849 0.37011919055753012 0 0.023779055828078009 0.37097747554075361 0 0.019349684376360511 0.36318206543595072 0 0.014905446519761849 0.37011919055753012 0 0.031548662582759998 0.36398682567210089 0 0.019349684376360511 0.36318206543595072 0 0.019690074755218789 0.35178644121934483 0 0.031548662582759998 0.36398682567210089 0 0.023779055828078009 0.37097747554075361 0 0.019349684376360511 0.36318206543595072 0 0.031548662582759998 0.36398682567210089 0 0.025752053585936779 0.33511492304397028 0 0.031548662582759998 0.36398682567210089 0 0.019690074755218789 0.35178644121934483 0 0.025752053585936779 0.33511492304397028 0 0.019349684376360511 0.36318206543595072 0 0.019690074755218789 0.35178644121934483 0 0.0119730942360182 0.35563939605115702 0 0.0119730942360182 0.35563939605115702 0 0.0038095970876644218 0.35606187191015221 0 0.0077169544749549623 0.36306791211952738 0 -0.0077202170519437719 0.34710906184019069 0 0.0082446038140756572 0.34376242611402219 0 0.0038095970876644218 0.35606187191015221 0 0.0119730942360182 0.35563939605115702 0 0.0082446038140756572 0.34376242611402219 0 0.0038095970876644218 0.35606187191015221 0 0.019690074755218789 0.35178644121934483 0 0.0119730942360182 0.35563939605115702 0 0.0082446038140756572 0.34376242611402219 0 -0.0045677851665312944 0.36532665559408428 0 0.0038095970876644218 0.35606187191015221 0 0.0077169544749549623 0.36306791211952738 0 -0.0087141207398781558 0.37710904293520409 0 0.0053185270157129726 0.37689571945341471 0 0.0077169544749549623 0.36306791211952738 0 0.0053185270157129726 0.37689571945341471 0 0.0077169544749549623 0.36306791211952738 0 0.014905446519761849 0.37011919055753012 0 0.019349684376360511 0.36318206543595072 0 0.0077169544749549623 0.36306791211952738 0 0.014905446519761849 0.37011919055753012 0 0.019349684376360511 0.36318206543595072 0 0.0119730942360182 0.35563939605115702 0 0.0077169544749549623 0.36306791211952738 0 -0.009249588209606344 0.30814111102660002 0 0.0094307060340404689 0.32376070079746733 0 0.01995544458911469 0.30624302041583928 0 -0.005758602284471958 0.33512988219008361 0 0.0082446038140756572 0.34376242611402219 0 0.0094307060340404689 0.32376070079746733 0 0.0082446038140756572 0.34376242611402219 0 0.0094307060340404689 0.32376070079746733 0 0.025752053585936779 0.33511492304397028 0 0.019690074755218789 0.35178644121934483 0 0.0082446038140756572 0.34376242611402219 0 0.025752053585936779 0.33511492304397028 0 0.025752053585936779 0.33511492304397028 0 0.01995544458911469 0.30624302041583928 0 0.025752053585936779 0.33511492304397028 0 0.034898059553693392 0.31581284699138767 0 0.01995544458911469 0.30624302041583928 0 0.0094307060340404689 0.32376070079746733 0 0.025752053585936779 0.33511492304397028 0 0.01995544458911469 0.30624302041583928 0 0.034898059553693392 0.31581284699138767 0 0.044831250079309708 0.3305842246099347 0 0.05053661780472133 0.30436145095899841 0 0.025752053585936779 0.33511492304397028 0 0.034898059553693392 0.31581284699138767 0 0.044831250079309708 0.3305842246099347 0 0.039125882353897343 0.35680699826087081 0 0.025752053585936779 0.33511492304397028 0 0.044831250079309708 0.3305842246099347 0 0.039125882353897343 0.35680699826087081 0 0.044831250079309708 0.3305842246099347 0 0.068002564407373206 0.3444061958743222 0 0.05148455776782021 0.34576385860545072 0 0.05926959110604698 0.32438382341666039 0 0.05148455776782021 0.34576385860545072 0 0.044831250079309708 0.3305842246099347 0 0.05926959110604698 0.32438382341666039 0 0.044831250079309708 0.3305842246099347 0 0.05053661780472133 0.30436145095899841 0 0.044831250079309708 0.3305842246099347 0 0.05926959110604698 0.32438382341666039 0 0.05053661780472133 0.30436145095899841 0 0.05926959110604698 0.32438382341666039 0 0.05053661780472133 0.30436145095899841 0 0.05926959110604698 0.32438382341666039 0 0.05053661780472133 0.30436145095899841 0 0.066452600317618793 0.30933520022964911 0 0.059204269303370749 0.30137448027593422 0 0.05053661780472133 0.30436145095899841 0 0.066452600317618793 0.30933520022964911 0 0.04765756321016474 0.29776054867416191 0 0.05053661780472133 0.30436145095899841 0 0.052561166870736087 0.29505630281458828 0 0.059204269303370749 0.30137448027593422 0 0.05053661780472133 0.30436145095899841 0 0.052561166870736087 0.29505630281458828 0 0.05053661780472133 0.30436145095899841 0 0.052561166870736087 0.29505630281458828 0 0.04765756321016474 0.29776054867416191 0 0.05053661780472133 0.30436145095899841 0 0.052561166870736087 0.29505630281458828 0 0.036977033779240318 0.28312664447104818 0 0.062988366650143207 0.29302398426469728 0 0.036977033779240318 0.28312664447104818 0 0.048149862160842181 0.27985089866820428 0 0.062988366650143207 0.29302398426469728 0 0.036977033779240318 0.28312664447104818 0 0.062988366650143207 0.29302398426469728 0 0.048149862160842181 0.27985089866820428 0 0.054778979573680928 0.27715841955607551 0 0.062988366650143207 0.29302398426469728 0 0.059204269303370749 0.30137448027593422 0 0.052561166870736087 0.29505630281458828 0 0.062988366650143207 0.29302398426469728 0 0.04765756321016474 0.29776054867416191 0 0.036186098738389023 0.29603891009636157 0 0.036977033779240318 0.28312664447104818 0 0.04765756321016474 0.29776054867416191 0 0.052561166870736087 0.29505630281458828 0 0.036977033779240318 0.28312664447104818 0 0.036186098738389023 0.29603891009636157 0 0.036977033779240318 0.28312664447104818 0 0.027757552790527541 0.29644954410470781 0 0.034898059553693392 0.31581284699138767 0 0.05053661780472133 0.30436145095899841 0 0.039754971674175903 0.30430037111620312 0 0.04765756321016474 0.29776054867416191 0 0.05053661780472133 0.30436145095899841 0 0.039754971674175903 0.30430037111620312 0 0.04765756321016474 0.29776054867416191 0 0.036186098738389023 0.29603891009636157 0 0.039754971674175903 0.30430037111620312 0 0.036186098738389023 0.29603891009636157 0 0.039754971674175903 0.30430037111620312 0 0.028740536311392211 0.30567206060121932 0 0.034898059553693392 0.31581284699138767 0 0.039754971674175903 0.30430037111620312 0 0.028740536311392211 0.30567206060121932 0 0.034898059553693392 0.31581284699138767 0 0.028740536311392211 0.30567206060121932 0 0.01995544458911469 0.30624302041583928 0 0.028740536311392211 0.30567206060121932 0 0.01995544458911469 0.30624302041583928 0 0.01995544458911469 0.30624302041583928 0 0.027757552790527541 0.29644954410470781 0 0.016928650534501429 0.29116708493907051 0 0.01995544458911469 0.30624302041583928 0 0.016928650534501429 0.29116708493907051 0 0.036186098738389023 0.29603891009636157 0 0.028740536311392211 0.30567206060121932 0 0.027757552790527541 0.29644954410470781 0 0.028740536311392211 0.30567206060121932 0 0.01995544458911469 0.30624302041583928 0 0.027757552790527541 0.29644954410470781 0 0.036977033779240318 0.28312664447104818 0 0.016928650534501429 0.29116708493907051 0 0.013901856479889301 0.2760911494623014 0 0.036977033779240318 0.28312664447104818 0 0.027757552790527541 0.29644954410470781 0 0.016928650534501429 0.29116708493907051 0 0.016928650534501429 0.29116708493907051 0 0.0075090435902615098 0.27971283806045072 0 0.013901856479889301 0.2760911494623014 0 0.016928650534501429 0.29116708493907051 0 0.013901856479889301 0.2760911494623014 0 0.016928650534501429 0.29116708493907051 0 0.002380999114604244 0.28599596302517022 0 0.0075090435902615098 0.27971283806045072 0 0.016928650534501429 0.29116708493907051 0 0.002380999114604244 0.28599596302517022 0 0.0038021096493471361 0.29689124930627131 0 0.01995544458911469 0.30624302041583928 0 0.016928650534501429 0.29116708493907051 0 0.0038021096493471361 0.29689124930627131 0 -0.009249588209606344 0.30814111102660002 0 0.01995544458911469 0.30624302041583928 0 -0.009249588209606344 0.30814111102660002 0 0.01995544458911469 0.30624302041583928 0 0.0038021096493471361 0.29689124930627131 0 0.012944211518790589 0.24639919126045251 0 0.001894876929373096 0.24743045501984201 0 0.027350481215018482 0.26092432701142793 0 0.001894876929373096 0.24743045501984201 0 0.01235577794179212 0.26160751525750708 0 0.027350481215018482 0.26092432701142793 0 0.001894876929373096 0.24743045501984201 0 0.027350481215018482 0.26092432701142793 0 0.01235577794179212 0.26160751525750708 0 0.0066431973405819862 0.26423936680728111 0 0.01332705073189009 0.26743114199411 0 0.001894876929373096 0.24743045501984201 0 0.01235577794179212 0.26160751525750708 0 0.0027594708259384838 0.25829047161104352 0 0.01235577794179212 0.26160751525750708 0 0.0027594708259384838 0.25829047161104352 0 0.0066431973405819862 0.26423936680728111 0 -0.00067809962666212902 0.26216505597133072 0 0.0027594708259384838 0.25829047161104352 0 0.0066431973405819862 0.26423936680728111 0 -0.00067809962666212902 0.26216505597133072 0 0.0066431973405819862 0.26423936680728111 0 0.010965700908337589 0.27322930467739909 0 -0.001267499687089951 0.2776013217203892 0 0.0075090435902615098 0.27971283806045072 0 0.010965700908337589 0.27322930467739909 0 -0.001267499687089951 0.2776013217203892 0 0.002380999114604244 0.28599596302517022 0 0.0075090435902615098 0.27971283806045072 0 0.0075090435902615098 0.27971283806045072 0 0.013901856479889301 0.2760911494623014 0 0.010965700908337589 0.27322930467739909 0 0.010965700908337589 0.27322930467739909 0 0.01332705073189009 0.26743114199411 0 0.022419763759722669 0.26962443384228668 0 0.0066431973405819862 0.26423936680728111 0 0.010965700908337589 0.27322930467739909 0 0.01332705073189009 0.26743114199411 0 0.036977033779240318 0.28312664447104818 0 0.010965700908337589 0.27322930467739909 0 0.022419763759722669 0.26962443384228668 0 0.01235577794179212 0.26160751525750708 0 0.01332705073189009 0.26743114199411 0 0.022419763759722669 0.26962443384228668 0 0.036977033779240318 0.28312664447104818 0 0.013901856479889301 0.2760911494623014 0 0.010965700908337589 0.27322930467739909 0 0.036977033779240318 0.28312664447104818 0 0.010965700908337589 0.27322930467739909 0 0.036977033779240318 0.28312664447104818 0 0.022419763759722669 0.26962443384228668 0 0.032397819765571212 0.27218151163944088 0 0.022419763759722669 0.26962443384228668 0 0.027350481215018482 0.26092432701142793 0 0.032397819765571212 0.27218151163944088 0 0.018629400856135309 0.24429501886194191 0 0.012944211518790589 0.24639919126045251 0 0.027350481215018482 0.26092432701142793 0 0.018629400856135309 0.24429501886194191 0 0.027350481215018482 0.26092432701142793 0 0.02692674034290404 0.25134916217479408 0 0.01235577794179212 0.26160751525750708 0 0.022419763759722669 0.26962443384228668 0 0.027350481215018482 0.26092432701142793 0 0.027350481215018482 0.26092432701142793 0 0.02692674034290404 0.25134916217479408 0 0.036501911092354018 0.25177276941539839 0 0.027350481215018482 0.26092432701142793 0 0.036501911092354018 0.25177276941539839 0 0.052806085500663583 0.27441819900301412 0 0.036501911092354018 0.25177276941539839 0 0.052806085500663583 0.27441819900301412 0 0.027350481215018482 0.26092432701142793 0 0.039536256484267153 0.27410031615862712 0 0.052806085500663583 0.27441819900301412 0 0.027350481215018482 0.26092432701142793 0 0.052806085500663583 0.27441819900301412 0 0.036977033779240318 0.28312664447104818 0 0.032397819765571212 0.27218151163944088 0 0.039536256484267153 0.27410031615862712 0 0.027350481215018482 0.26092432701142793 0 0.032397819765571212 0.27218151163944088 0 0.039536256484267153 0.27410031615862712 0 0.039536256484267153 0.27410031615862712 0 0.048149862160842181 0.27985089866820428 0 0.052806085500663583 0.27441819900301412 0 0.036977033779240318 0.28312664447104818 0 0.039536256484267153 0.27410031615862712 0 0.048149862160842181 0.27985089866820428 0 0.052806085500663583 0.27441819900301412 0 0.051790667069154861 0.2547103276228454 0 0.069466372585565969 0.27425949764399721 0 0.052806085500663583 0.27441819900301412 0 0.054778979573680928 0.27715841955607551 0 0.076123070751733898 0.28677840112891878 0 0.048149862160842181 0.27985089866820428 0 0.052806085500663583 0.27441819900301412 0 0.054778979573680928 0.27715841955607551 0 0.052806085500663583 0.27441819900301412 0 0.054778979573680928 0.27715841955607551 0 0.051790667069154861 0.2547103276228454 0 0.069466372585565969 0.27425949764399721 0 0.036501911092354018 0.25177276941539839 0 0.052806085500663583 0.27441819900301412 0 0.051790667069154861 0.2547103276228454 0 0.051790667069154861 0.2547103276228454 0 0.062472563593505302 0.26110660749064829 0 0.069466372585565969 0.27425949764399721 0 0.051790667069154861 0.2547103276228454 0 0.062472563593505302 0.26110660749064829 0 0.063392491700480919 0.2510828642249095 0 0.07090317009537217 0.25886987532900169 0 0.089645379702363526 0.25980927980688501 0 0.066829182329119829 0.26693814307945207 0 0.063392491700480919 0.2510828642249095 0 0.07090317009537217 0.25886987532900169 0 0.074261774750864804 0.25289133929391111 0 0.062472563593505302 0.26110660749064829 0 0.063392491700480919 0.2510828642249095 0 0.07090317009537217 0.25886987532900169 0 0.062472563593505302 0.26110660749064829 0 0.07090317009537217 0.25886987532900169 0 0.066829182329119829 0.26693814307945207 0 0.07090317009537217 0.25886987532900169 0 0.074261774750864804 0.25289133929391111 0 0.089645379702363526 0.25980927980688501 0 0.072073934872957782 0.23900016577853919 0 0.074261774750864804 0.25289133929391111 0 0.089645379702363526 0.25980927980688501 0 0.089645379702363526 0.25980927980688501 0 0.066829182329119829 0.26693814307945207 0 0.089645379702363526 0.25980927980688501 0 0.084738505220855201 0.27427167124983992 0 0.066829182329119829 0.26693814307945207 0 0.084738505220855201 0.27427167124983992 0 0.069466372585565969 0.27425949764399721 0 0.085077205623658711 0.29152493742801078 0 0.084738505220855201 0.27427167124983992 0 0.095910340366493346 0.28464594086445177 0 0.099818528257267281 0.27185690653089678 0 0.089645379702363526 0.25980927980688501 0 0.084738505220855201 0.27427167124983992 0 0.099818528257267281 0.27185690653089678 0 0.084738505220855201 0.27427167124983992 0 0.066829182329119829 0.26693814307945207 0 0.069466372585565969 0.27425949764399721 0 0.052806085500663583 0.27441819900301412 0 0.069466372585565969 0.27425949764399721 0 0.076123070751733898 0.28677840112891878 0 0.052806085500663583 0.27441819900301412 0 0.076123070751733898 0.28677840112891878 0 0.069466372585565969 0.27425949764399721 0 0.076123070751733898 0.28677840112891878 0 0.062472563593505302 0.26110660749064829 0 0.069466372585565969 0.27425949764399721 0 0.062472563593505302 0.26110660749064829 0 0.066829182329119829 0.26693814307945207 0 0.069466372585565969 0.27425949764399721 0 0.069466372585565969 0.27425949764399721 0 0.085077205623658711 0.29152493742801078 0 0.069466372585565969 0.27425949764399721 0 0.076123070751733898 0.28677840112891878 0 0.085077205623658711 0.29152493742801078 0 0.062988366650143207 0.29302398426469728 0 0.076123070751733898 0.28677840112891878 0 0.066452600317618793 0.30933520022964911 0 0.054778979573680928 0.27715841955607551 0 0.062988366650143207 0.29302398426469728 0 0.076123070751733898 0.28677840112891878 0 0.090103400857782137 0.31307047550514489 0 0.076123070751733898 0.28677840112891878 0 0.066452600317618793 0.30933520022964911 0 0.059204269303370749 0.30137448027593422 0 0.062988366650143207 0.29302398426469728 0 0.066452600317618793 0.30933520022964911 0 0.090103400857782137 0.31307047550514489 0 0.076123070751733898 0.28677840112891878 0 0.085077205623658711 0.29152493742801078 0 0.090103400857782137 0.31307047550514489 0 0.076123070751733898 0.28677840112891878 0 0.090103400857782137 0.31307047550514489 0 0.085077205623658711 0.29152493742801078 0 0.09732687347400408 0.30507295899279041 0 0.085077205623658711 0.29152493742801078 0 0.09732687347400408 0.30507295899279041 0 0.084738505220855201 0.27427167124983992 0 0.085077205623658711 0.29152493742801078 0 0.095910340366493346 0.28464594086445177 0 0.076123070751733898 0.28677840112891878 0 0.085077205623658711 0.29152493742801078 0 0.085077205623658711 0.29152493742801078 0 0.095910340366493346 0.28464594086445177 0 0.10018382130907411 0.29953286904093468 0 0.085077205623658711 0.29152493742801078 0 0.10018382130907411 0.29953286904093468 0 0.095910340366493346 0.28464594086445177 0 0.10809736708577181 0.28553666446189058 0 0.10018382130907411 0.29953286904093468 0 0.10809736708577181 0.28553666446189058 0 0.10018382130907411 0.29953286904093468 0 0.10959494141679089 0.29761357018739809 0 0.099947674014671917 0.31467323404701991 0 0.090103400857782137 0.31307047550514489 0 0.09732687347400408 0.30507295899279041 0 0.085077205623658711 0.29152493742801078 0 0.09732687347400408 0.30507295899279041 0 0.10018382130907411 0.29953286904093468 0 0.09732687347400408 0.30507295899279041 0 0.10018382130907411 0.29953286904093468 0 0.1055944182754792 0.3076919023112884 0 0.10018382130907411 0.29953286904093468 0 0.11529043699448981 0.30754080065385803 0 0.10959494141679089 0.29761357018739809 0 0.10018382130907411 0.29953286904093468 0 0.11529043699448981 0.30754080065385803 0 0.1095765413243488 0.31862098055757049 0 0.09732687347400408 0.30507295899279041 0 0.1055944182754792 0.3076919023112884 0 0.10018382130907411 0.29953286904093468 0 0.1055944182754792 0.3076919023112884 0 0.11529043699448981 0.30754080065385803 0 0.1095765413243488 0.31862098055757049 0 0.09732687347400408 0.30507295899279041 0 0.1095765413243488 0.31862098055757049 0 0.1055944182754792 0.3076919023112884 0 0.11529043699448981 0.30754080065385803 0 0.11529043699448981 0.30754080065385803 0 0.11637637905870279 0.30155283343175482 0 0.11810871752106521 0.30621928700195911 0 0.11529043699448981 0.30754080065385803 0 0.10959494141679089 0.29761357018739809 0 0.11637637905870279 0.30155283343175482 0 0.10959494141679089 0.29761357018739809 0 0.11637637905870279 0.30155283343175482 0 0.1164892219926046 0.29243334627748818 0 0.11529043699448981 0.30754080065385803 0 0.11637637905870279 0.30155283343175482 0 0.11637637905870279 0.30155283343175482 0 0.1222906650571363 0.2985709440566281 0 0.1164892219926046 0.29243334627748818 0 0.1222906650571363 0.2985709440566281 0 0.1206025954822835 0.30378795350269022 0 0.1243783730770044 0.30485679470236721 0 0.11637637905870279 0.30155283343175482 0 0.1222906650571363 0.2985709440566281 0 0.1206025954822835 0.30378795350269022 0 0.11637637905870279 0.30155283343175482 0 0.1206025954822835 0.30378795350269022 0 0.11810871752106521 0.30621928700195911 0 0.1206025954822835 0.30378795350269022 0 0.11810871752106521 0.30621928700195911 0 0.1213521300308707 0.30775440284793348 0 0.11529043699448981 0.30754080065385803 0 0.11810871752106521 0.30621928700195911 0 0.11930841490252821 0.30912172642276631 0 0.11810871752106521 0.30621928700195911 0 0.1213521300308707 0.30775440284793348 0 0.11930841490252821 0.30912172642276631 0 0.1243783730770044 0.30485679470236721 0 0.1213521300308707 0.30775440284793348 0 0.1244342991148414 0.30898461385241399 0 0.1206025954822835 0.30378795350269022 0 0.1243783730770044 0.30485679470236721 0 0.1213521300308707 0.30775440284793348 0 0.1214195525311879 0.31440901896845502 0 0.1244342991148414 0.30898461385241399 0 0.12900107104525951 0.30968741412501871 0 0.1214195525311879 0.31440901896845502 0 0.1213521300308707 0.30775440284793348 0 0.1244342991148414 0.30898461385241399 0 0.1214195525311879 0.31440901896845502 0 0.11529043699448981 0.30754080065385803 0 0.11930841490252821 0.30912172642276631 0 0.1214195525311879 0.31440901896845502 0 0.1213521300308707 0.30775440284793348 0 0.11930841490252821 0.30912172642276631 0 0.10809736708577181 0.28553666446189058 0 0.1164892219926046 0.29243334627748818 0 0.1210835213650209 0.28058702695229848 0 0.10809736708577181 0.28553666446189058 0 0.10959494141679089 0.29761357018739809 0 0.1164892219926046 0.29243334627748818 0 0.1222906650571363 0.2985709440566281 0 0.1164892219926046 0.29243334627748818 0 0.12596292383497329 0.28976449579057961 0 0.1164892219926046 0.29243334627748818 0 0.1210835213650209 0.28058702695229848 0 0.12596292383497329 0.28976449579057961 0 0.10809736708577181 0.28553666446189058 0 0.1210835213650209 0.28058702695229848 0 0.1147979612748997 0.2707881575742877 0 0.1210835213650209 0.28058702695229848 0 0.1147979612748997 0.2707881575742877 0 0.12791172371537049 0.26609555254785411 0 0.1147979612748997 0.2707881575742877 0 0.116065923487036 0.25155424759680489 0 0.099818528257267281 0.27185690653089678 0 0.1147979612748997 0.2707881575742877 0 0.116065923487036 0.25155424759680489 0 0.12791172371537049 0.26609555254785411 0 0.089645379702363526 0.25980927980688501 0 0.116065923487036 0.25155424759680489 0 0.089645379702363526 0.25980927980688501 0 0.116065923487036 0.25155424759680489 0 0.099818528257267281 0.27185690653089678 0 0.089645379702363526 0.25980927980688501 0 0.099818528257267281 0.27185690653089678 0 0.095910340366493346 0.28464594086445177 0 0.10809736708577181 0.28553666446189058 0 0.099818528257267281 0.27185690653089678 0 0.10809736708577181 0.28553666446189058 0 0.1147979612748997 0.2707881575742877 0 0.099818528257267281 0.27185690653089678 0 0.14627836463393121 0.26809473379089088 0 0.14256315404166739 0.2804585798755338 0 0.1332419302865058 0.27890394506169119 0 0.14627836463393121 0.26809473379089088 0 0.14256315404166739 0.2804585798755338 0 0.15383705453569649 0.27951082009548711 0 0.14627836463393121 0.26809473379089088 0 0.15383705453569649 0.27951082009548711 0 0.1609818760820641 0.2708255403471686 0 0.14248646727170791 0.24329921538672239 0 0.14627836463393121 0.26809473379089088 0 0.1631161995596529 0.25657386530356069 0 0.14248646727170791 0.24329921538672239 0 0.116065923487036 0.25155424759680489 0 0.12791172371537049 0.26609555254785411 0 0.14248646727170791 0.24329921538672239 0 0.14627836463393121 0.26809473379089088 0 0.12791172371537049 0.26609555254785411 0 0.14627836463393121 0.26809473379089088 0 0.12791172371537049 0.26609555254785411 0 0.1332419302865058 0.27890394506169119 0 0.1210835213650209 0.28058702695229848 0 0.12791172371537049 0.26609555254785411 0 0.1332419302865058 0.27890394506169119 0 0.1332419302865058 0.27890394506169119 0 0.12596292383497329 0.28976449579057961 0 0.13463915166403909 0.29011289163129678 0 0.1210835213650209 0.28058702695229848 0 0.1332419302865058 0.27890394506169119 0 0.12596292383497329 0.28976449579057961 0 0.1222906650571363 0.2985709440566281 0 0.12596292383497329 0.28976449579057961 0 0.12923992476061211 0.29615108028493942 0 0.12596292383497329 0.28976449579057961 0 0.12923992476061211 0.29615108028493942 0 0.13463915166403909 0.29011289163129678 0 0.13463915166403909 0.29011289163129678 0 0.13544399911061031 0.29845687749894129 0 0.1416447250157222 0.29544082675589128 0 0.12923992476061211 0.29615108028493942 0 0.13463915166403909 0.29011289163129678 0 0.13544399911061031 0.29845687749894129 0 0.14256315404166739 0.2804585798755338 0 0.1332419302865058 0.27890394506169119 0 0.13463915166403909 0.29011289163129678 0 0.1243783730770044 0.30485679470236721 0 0.1244342991148414 0.30898461385241399 0 0.12900107104525951 0.30968741412501871 0 0.1243783730770044 0.30485679470236721 0 0.12900107104525951 0.30968741412501871 0 0.1290658347258283 0.30205966601357243 0 0.12900107104525951 0.30968741412501871 0 0.1290658347258283 0.30205966601357243 0 0.1340409753043473 0.30463488541353972 0 0.1222906650571363 0.2985709440566281 0 0.1243783730770044 0.30485679470236721 0 0.1290658347258283 0.30205966601357243 0 0.1222906650571363 0.2985709440566281 0 0.12923992476061211 0.29615108028493942 0 0.1290658347258283 0.30205966601357243 0 0.12923992476061211 0.29615108028493942 0 0.1290658347258283 0.30205966601357243 0 0.13544399911061031 0.29845687749894129 0 0.13544399911061031 0.29845687749894129 0 0.14170706289926879 0.30357921339911909 0 0.1416447250157222 0.29544082675589128 0 0.13544399911061031 0.29845687749894129 0 0.1340409753043473 0.30463488541353972 0 0.14170706289926879 0.30357921339911909 0 0.1290658347258283 0.30205966601357243 0 0.13544399911061031 0.29845687749894129 0 0.1340409753043473 0.30463488541353972 0 0.13598458437900529 0.30983158877234418 0 0.14130712994747449 0.31140798331507108 0 0.14170706289926879 0.30357921339911909 0 0.12900107104525951 0.30968741412501871 0 0.1340409753043473 0.30463488541353972 0 0.13598458437900529 0.30983158877234418 0 0.1340409753043473 0.30463488541353972 0 0.13598458437900529 0.30983158877234418 0 0.14170706289926879 0.30357921339911909 0 0.13598458437900529 0.30983158877234418 0 0.14130712994747449 0.31140798331507108 0 0.13528824775885559 0.3155805734405937 0 0.12900107104525951 0.30968741412501871 0 0.13598458437900529 0.30983158877234418 0 0.13528824775885559 0.3155805734405937 0 0.1483486037307668 0.31106151759990119 0 0.14130712994747449 0.31140798331507108 0 0.14170706289926879 0.30357921339911909 0 0.1483486037307668 0.31106151759990119 0 0.14170706289926879 0.30357921339911909 0 0.1513591925520972 0.30423422291399321 0 0.14170706289926879 0.30357921339911909 0 0.14924189349128261 0.29698436464102829 0 0.1513591925520972 0.30423422291399321 0 0.14170706289926879 0.30357921339911909 0 0.14924189349128261 0.29698436464102829 0 0.1416447250157222 0.29544082675589128 0 0.1513591925520972 0.30423422291399321 0 0.15847128754916129 0.30901971199088751 0 0.1567398971697517 0.30020769771567818 0 0.14924189349128261 0.29698436464102829 0 0.1513591925520972 0.30423422291399321 0 0.1567398971697517 0.30020769771567818 0 0.1483486037307668 0.31106151759990119 0 0.1513591925520972 0.30423422291399321 0 0.15847128754916129 0.30901971199088751 0 0.1483486037307668 0.31106151759990119 0 0.15847128754916129 0.30901971199088751 0 0.1531779528472626 0.31690967251270458 0 0.14256315404166739 0.2804585798755338 0 0.15383705453569649 0.27951082009548711 0 0.14728728951424691 0.28871625735014939 0 0.14256315404166739 0.2804585798755338 0 0.13463915166403909 0.29011289163129678 0 0.14728728951424691 0.28871625735014939 0 0.14924189349128261 0.29698436464102829 0 0.14728728951424691 0.28871625735014939 0 0.1416447250157222 0.29544082675589128 0 0.13463915166403909 0.29011289163129678 0 0.14728728951424691 0.28871625735014939 0 0.1416447250157222 0.29544082675589128 0 0.14924189349128261 0.29698436464102829 0 0.1576814993112734 0.29111844862325259 0 0.1567398971697517 0.30020769771567818 0 0.14924189349128261 0.29698436464102829 0 0.14728728951424691 0.28871625735014939 0 0.1576814993112734 0.29111844862325259 0 0.15383705453569649 0.27951082009548711 0 0.14728728951424691 0.28871625735014939 0 0.1576814993112734 0.29111844862325259 0 0.15383705453569649 0.27951082009548711 0 0.1576814993112734 0.29111844862325259 0 0.16532030222413041 0.28061774918364429 0 0.1576814993112734 0.29111844862325259 0 0.1689979645595176 0.28949488405725932 0 0.16532030222413041 0.28061774918364429 0 0.1576814993112734 0.29111844862325259 0 0.1689979645595176 0.28949488405725932 0 0.16694561294494401 0.29968174040922901 0 0.1689979645595176 0.28949488405725932 0 0.16694561294494401 0.29968174040922901 0 0.17866142019044989 0.29199773726540068 0 0.1689979645595176 0.28949488405725932 0 0.17498255083596301 0.28300150235233201 0 0.16532030222413041 0.28061774918364429 0 0.1576814993112734 0.29111844862325259 0 0.1567398971697517 0.30020769771567818 0 0.16694561294494401 0.29968174040922901 0 0.15847128754916129 0.30901971199088751 0 0.1567398971697517 0.30020769771567818 0 0.16694561294494401 0.29968174040922901 0 0.16694561294494401 0.29968174040922901 0 0.17666858027807311 0.3015349886251833 0 0.1707678241303611 0.31259989648156872 0 0.15847128754916129 0.30901971199088751 0 0.16694561294494401 0.29968174040922901 0 0.1707678241303611 0.31259989648156872 0 0.17666858027807311 0.3015349886251833 0 0.18371952992762389 0.30785332357736089 0 0.1707678241303611 0.31259989648156872 0 0.16694561294494401 0.29968174040922901 0 0.17666858027807311 0.3015349886251833 0 0.17866142019044989 0.29199773726540068 0 0.17666858027807311 0.3015349886251833 0 0.18371952992762389 0.30785332357736089 0 0.1898902111984884 0.29891268329407239 0 0.18371952992762389 0.30785332357736089 0 0.1898902111984884 0.29891268329407239 0 0.17666858027807311 0.3015349886251833 0 0.17866142019044989 0.29199773726540068 0 0.1898902111984884 0.29891268329407239 0 0.17498255083596301 0.28300150235233201 0 0.17866142019044989 0.29199773726540068 0 0.1849298445554361 0.28099903695767547 0 0.1689979645595176 0.28949488405725932 0 0.17498255083596301 0.28300150235233201 0 0.17866142019044989 0.29199773726540068 0 0.17866142019044989 0.29199773726540068 0 0.18677859260729601 0.28760164196875848 0 0.1898902111984884 0.29891268329407239 0 0.17866142019044989 0.29199773726540068 0 0.18677859260729601 0.28760164196875848 0 0.1849298445554361 0.28099903695767547 0 0.1849298445554361 0.28099903695767547 0 0.17528279401001801 0.2714166079934146 0 0.19094745617081291 0.27038549871767581 0 0.17528279401001801 0.2714166079934146 0 0.18564289691528729 0.25868749876629671 0 0.19094745617081291 0.27038549871767581 0 0.17498255083596301 0.28300150235233201 0 0.1849298445554361 0.28099903695767547 0 0.17528279401001801 0.2714166079934146 0 0.17528279401001801 0.2714166079934146 0 0.16532030222413041 0.28061774918364429 0 0.1609818760820641 0.2708255403471686 0 0.17498255083596301 0.28300150235233201 0 0.17528279401001801 0.2714166079934146 0 0.16532030222413041 0.28061774918364429 0 0.17528279401001801 0.2714166079934146 0 0.1609818760820641 0.2708255403471686 0 0.1631161995596529 0.25657386530356069 0 0.15383705453569649 0.27951082009548711 0 0.16532030222413041 0.28061774918364429 0 0.1609818760820641 0.2708255403471686 0 0.14627836463393121 0.26809473379089088 0 0.1609818760820641 0.2708255403471686 0 0.1631161995596529 0.25657386530356069 0 0.16890701105638031 0.23504418317664161 0 0.1631161995596529 0.25657386530356069 0 0.18564289691528729 0.25868749876629671 0 0.17528279401001801 0.2714166079934146 0 0.1631161995596529 0.25657386530356069 0 0.18564289691528729 0.25868749876629671 0 0.1956251304139873 0.24830732682566101 0 0.18564289691528729 0.25868749876629671 0 0.20465537480646501 0.25892384109831479 0 0.18564289691528729 0.25868749876629671 0 0.19094745617081291 0.27038549871767581 0 0.20465537480646501 0.25892384109831479 0 0.2050239072751949 0.2492833193895482 0 0.1956251304139873 0.24830732682566101 0 0.20465537480646501 0.25892384109831479 0 0.19094745617081291 0.27038549871767581 0 0.20212350544635149 0.27452240688285762 0 0.1917381003592612 0.28136787577326228 0 0.1849298445554361 0.28099903695767547 0 0.19094745617081291 0.27038549871767581 0 0.1917381003592612 0.28136787577326228 0 0.19094745617081291 0.27038549871767581 0 0.20212350544635149 0.27452240688285762 0 0.20465537480646501 0.25892384109831479 0 0.21559138507808229 0.27635001083075639 0 0.2170338530129477 0.25958452376210089 0 0.2223889939606305 0.26849190584137572 0 0.20212350544635149 0.27452240688285762 0 0.2170338530129477 0.25958452376210089 0 0.20037669147028589 0.28371892366973078 0 0.2170338530129477 0.25958452376210089 0 0.20037669147028589 0.28371892366973078 0 0.21559138507808229 0.27635001083075639 0 0.2170338530129477 0.25958452376210089 0 0.20037669147028589 0.28371892366973078 0 0.20212350544635149 0.27452240688285762 0 0.20465537480646501 0.25892384109831479 0 0.21458810326103989 0.25029177234766842 0 0.20212350544635149 0.27452240688285762 0 0.2170338530129477 0.25958452376210089 0 0.21458810326103989 0.25029177234766842 0 0.20212350544635149 0.27452240688285762 0 0.21458810326103989 0.25029177234766842 0 0.2050239072751949 0.2492833193895482 0 0.20465537480646501 0.25892384109831479 0 0.21458810326103989 0.25029177234766842 0 0.20465537480646501 0.25892384109831479 0 0.21458810326103989 0.25029177234766842 0 0.23169913173193779 0.25404958449575432 0 0.22942687348362151 0.26728355318502178 0 0.24090080429007341 0.26281353644332878 0 0.23169913173193779 0.25404958449575432 0 0.2249153238939712 0.26221153605608138 0 0.22942687348362151 0.26728355318502178 0 0.2170338530129477 0.25958452376210089 0 0.2249153238939712 0.26221153605608138 0 0.2223889939606305 0.26849190584137572 0 0.2170338530129477 0.25958452376210089 0 0.23169913173193779 0.25404958449575432 0 0.2249153238939712 0.26221153605608138 0 0.2223889939606305 0.26849190584137572 0 0.2255322572178127 0.27738204478537232 0 0.22942687348362151 0.26728355318502178 0 0.2249153238939712 0.26221153605608138 0 0.2223889939606305 0.26849190584137572 0 0.22942687348362151 0.26728355318502178 0 0.21559138507808229 0.27635001083075639 0 0.2255322572178127 0.27738204478537232 0 0.21985426169801439 0.28935406669317137 0 0.21559138507808229 0.27635001083075639 0 0.2223889939606305 0.26849190584137572 0 0.2255322572178127 0.27738204478537232 0 0.2255322572178127 0.27738204478537232 0 0.23621117140834261 0.27732665952701641 0 0.23095623596381579 0.2876536505458 0 0.2255322572178127 0.27738204478537232 0 0.22942687348362151 0.26728355318502178 0 0.23621117140834261 0.27732665952701641 0 0.23621117140834261 0.27732665952701641 0 0.24818821145747599 0.27522177653690871 0 0.24090080429007341 0.26281353644332878 0 0.22942687348362151 0.26728355318502178 0 0.23621117140834261 0.27732665952701641 0 0.24090080429007341 0.26281353644332878 0 0.24818821145747599 0.27522177653690871 0 0.24090080429007341 0.26281353644332878 0 0.25530776412370298 0.26639583896058622 0 0.23995652529561701 0.25039133628829258 0 0.24090080429007341 0.26281353644332878 0 0.25404003316197471 0.25208422786308371 0 0.23169913173193779 0.25404958449575432 0 0.23995652529561701 0.25039133628829258 0 0.24090080429007341 0.26281353644332878 0 0.23765651747073049 0.31117848176507701 0 0.2454028482605469 0.29267792886045368 0 0.25114017462525878 0.31153615041935723 0 0.23765651747073049 0.31117848176507701 0 0.2454028482605469 0.29267792886045368 0 0.2283396740985745 0.30195705682751389 0 0.2454028482605469 0.29267792886045368 0 0.23095623596381579 0.2876536505458 0 0.2283396740985745 0.30195705682751389 0 0.23621117140834261 0.27732665952701641 0 0.24818821145747599 0.27522177653690871 0 0.2454028482605469 0.29267792886045368 0 0.23621117140834261 0.27732665952701641 0 0.2454028482605469 0.29267792886045368 0 0.23095623596381579 0.2876536505458 0 0.2255322572178127 0.27738204478537232 0 0.23095623596381579 0.2876536505458 0 0.21985426169801439 0.28935406669317137 0 0.23095623596381579 0.2876536505458 0 0.21985426169801439 0.28935406669317137 0 0.2283396740985745 0.30195705682751389 0 0.2283396740985745 0.30195705682751389 0 0.2184758680590754 0.31184724711422762 0 0.22801070301179061 0.32060690690137728 0 0.21985426169801439 0.28935406669317137 0 0.2283396740985745 0.30195705682751389 0 0.21670572119465931 0.30172893354768798 0 0.23765651747073049 0.31117848176507701 0 0.2283396740985745 0.30195705682751389 0 0.22801070301179061 0.32060690690137728 0 0.2283396740985745 0.30195705682751389 0 0.2184758680590754 0.31184724711422762 0 0.21670572119465931 0.30172893354768798 0 0.2184758680590754 0.31184724711422762 0 0.21670572119465931 0.30172893354768798 0 0.20632342479934371 0.30585855598863948 0 0.21670572119465931 0.30172893354768798 0 0.20632342479934371 0.30585855598863948 0 0.21141614329998781 0.29390938293380992 0 0.20632342479934371 0.30585855598863948 0 0.21141614329998781 0.29390938293380992 0 0.2042452804315445 0.29308429151921322 0 0.21559138507808229 0.27635001083075639 0 0.21985426169801439 0.28935406669317137 0 0.2104384150331686 0.28649738738125968 0 0.21985426169801439 0.28935406669317137 0 0.21141614329998781 0.29390938293380992 0 0.2104384150331686 0.28649738738125968 0 0.21985426169801439 0.28935406669317137 0 0.21670572119465931 0.30172893354768798 0 0.21141614329998781 0.29390938293380992 0 0.21141614329998781 0.29390938293380992 0 0.2042452804315445 0.29308429151921322 0 0.2104384150331686 0.28649738738125968 0 0.2042452804315445 0.29308429151921322 0 0.2104384150331686 0.28649738738125968 0 0.20037669147028589 0.28371892366973078 0 0.21559138507808229 0.27635001083075639 0 0.2104384150331686 0.28649738738125968 0 0.20037669147028589 0.28371892366973078 0 0.20212350544635149 0.27452240688285762 0 0.20037669147028589 0.28371892366973078 0 0.1898902111984884 0.29891268329407239 0 0.18677859260729601 0.28760164196875848 0 0.1917381003592612 0.28136787577326228 0 0.1898902111984884 0.29891268329407239 0 0.20037669147028589 0.28371892366973078 0 0.1976595376627992 0.29976589533378561 0 0.1898902111984884 0.29891268329407239 0 0.2042452804315445 0.29308429151921322 0 0.20037669147028589 0.28371892366973078 0 0.1976595376627992 0.29976589533378561 0 0.20212350544635149 0.27452240688285762 0 0.1898902111984884 0.29891268329407239 0 0.20212350544635149 0.27452240688285762 0 0.1917381003592612 0.28136787577326228 0 0.1898902111984884 0.29891268329407239 0 0.20037669147028589 0.28371892366973078 0 0.1898902111984884 0.29891268329407239 0 0.18677859260729601 0.28760164196875848 0 0.1849298445554361 0.28099903695767547 0 0.1917381003592612 0.28136787577326228 0 0.20632342479934371 0.30585855598863948 0 0.19412409721151189 0.30848045781950378 0 0.19635424873152091 0.31866253726922511 0 0.20632342479934371 0.30585855598863948 0 0.1976595376627992 0.29976589533378561 0 0.19412409721151189 0.30848045781950378 0 0.20632342479934371 0.30585855598863948 0 0.2042452804315445 0.29308429151921322 0 0.1976595376627992 0.29976589533378561 0 0.18371952992762389 0.30785332357736089 0 0.1976595376627992 0.29976589533378561 0 0.1898902111984884 0.29891268329407239 0 0.18371952992762389 0.30785332357736089 0 0.19412409721151189 0.30848045781950378 0 0.19635424873152091 0.31866253726922511 0 0.18371952992762389 0.30785332357736089 0 0.1976595376627992 0.29976589533378561 0 0.19412409721151189 0.30848045781950378 0 0.19635424873152091 0.31866253726922511 0 0.19329834396814641 0.33328399686629978 0 0.21150607161232149 0.3245036863190196 0 0.19635424873152091 0.31866253726922511 0 0.19329834396814641 0.33328399686629978 0 0.1818581672390053 0.32281790922797782 0 0.19329834396814641 0.33328399686629978 0 0.20841238186686439 0.34472105417207632 0 0.1876990638134575 0.35190483133425488 0 0.19329834396814641 0.33328399686629978 0 0.21150607161232149 0.3245036863190196 0 0.20841238186686439 0.34472105417207632 0 0.21150607161232149 0.3245036863190196 0 0.22736457019319431 0.33776348264759248 0 0.20841238186686439 0.34472105417207632 0 0.20632342479934371 0.30585855598863948 0 0.19635424873152091 0.31866253726922511 0 0.21150607161232149 0.3245036863190196 0 0.2184758680590754 0.31184724711422762 0 0.20632342479934371 0.30585855598863948 0 0.21150607161232149 0.3245036863190196 0 0.21150607161232149 0.3245036863190196 0 0.22801070301179061 0.32060690690137728 0 0.22736457019319431 0.33776348264759248 0 0.2184758680590754 0.31184724711422762 0 0.21150607161232149 0.3245036863190196 0 0.22801070301179061 0.32060690690137728 0 0.22801070301179061 0.32060690690137728 0 0.22736457019319431 0.33776348264759248 0 0.24490867605631639 0.32967072069511189 0 0.22736457019319431 0.33776348264759248 0 0.24490867605631639 0.32967072069511189 0 0.24521693247762111 0.35027114815259558 0 0.23765651747073049 0.31117848176507701 0 0.22801070301179061 0.32060690690137728 0 0.24490867605631639 0.32967072069511189 0 0.23765651747073049 0.31117848176507701 0 0.24490867605631639 0.32967072069511189 0 0.25114017462525878 0.31153615041935723 0 0.24305895760768401 0.36641304215893011 0 0.24521693247762111 0.35027114815259558 0 0.22613265613425179 0.35680737964537468 0 0.22736457019319431 0.33776348264759248 0 0.24521693247762111 0.35027114815259558 0 0.22613265613425179 0.35680737964537468 0 0.22736457019319431 0.33776348264759248 0 0.22613265613425179 0.35680737964537468 0 0.20841238186686439 0.34472105417207632 0 0.22613265613425179 0.35680737964537468 0 0.20200890290724041 0.36500873302905812 0 0.22860253219506471 0.37841014948266538 0 0.24305895760768401 0.36641304215893011 0 0.22613265613425179 0.35680737964537468 0 0.22860253219506471 0.37841014948266538 0 0.20200890290724041 0.36500873302905812 0 0.22860253219506471 0.37841014948266538 0 0.22613265613425179 0.35680737964537468 0 0.20841238186686439 0.34472105417207632 0 0.20200890290724041 0.36500873302905812 0 0.20841238186686439 0.34472105417207632 0 0.1876990638134575 0.35190483133425488 0 0.20200890290724041 0.36500873302905812 0 0.1876990638134575 0.35190483133425488 0 0.20200890290724041 0.36500873302905812 0 0.17637045729064621 0.37495278481954358 0 0.1876990638134575 0.35190483133425488 0 0.17637045729064621 0.37495278481954358 0 0.16909864488713719 0.35514267549568418 0 0.15975417249048229 0.36968310563447321 0 0.16909864488713719 0.35514267549568418 0 0.14990537096685039 0.36070173528474042 0 0.17637045729064621 0.37495278481954358 0 0.15975417249048229 0.36968310563447321 0 0.16909864488713719 0.35514267549568418 0 0.16909864488713719 0.35514267549568418 0 0.1770056519607103 0.33831974362286749 0 0.1619384281755652 0.34052596047808847 0 0.16909864488713719 0.35514267549568418 0 0.14990537096685039 0.36070173528474042 0 0.15416632756111201 0.34898696826244741 0 0.16909864488713719 0.35514267549568418 0 0.1619384281755652 0.34052596047808847 0 0.15416632756111201 0.34898696826244741 0 0.1876990638134575 0.35190483133425488 0 0.16909864488713719 0.35514267549568418 0 0.1770056519607103 0.33831974362286749 0 0.19329834396814641 0.33328399686629978 0 0.1770056519607103 0.33831974362286749 0 0.1818581672390053 0.32281790922797782 0 0.19329834396814641 0.33328399686629978 0 0.1876990638134575 0.35190483133425488 0 0.1770056519607103 0.33831974362286749 0 0.1770056519607103 0.33831974362286749 0 0.1818581672390053 0.32281790922797782 0 0.1657389141743941 0.32607447656151611 0 0.1818581672390053 0.32281790922797782 0 0.1707678241303611 0.31259989648156872 0 0.1657389141743941 0.32607447656151611 0 0.18371952992762389 0.30785332357736089 0 0.19635424873152091 0.31866253726922511 0 0.1818581672390053 0.32281790922797782 0 0.18371952992762389 0.30785332357736089 0 0.1818581672390053 0.32281790922797782 0 0.1707678241303611 0.31259989648156872 0 0.1707678241303611 0.31259989648156872 0 0.1657389141743941 0.32607447656151611 0 0.16084478468494731 0.31759224325908281 0 0.1657389141743941 0.32607447656151611 0 0.15632698434060879 0.32309477146443721 0 0.16084478468494731 0.31759224325908281 0 0.1657389141743941 0.32607447656151611 0 0.15632698434060879 0.32309477146443721 0 0.1534459738215358 0.33116830427909388 0 0.15847128754916129 0.30901971199088751 0 0.1707678241303611 0.31259989648156872 0 0.16084478468494731 0.31759224325908281 0 0.15847128754916129 0.30901971199088751 0 0.16084478468494731 0.31759224325908281 0 0.1531779528472626 0.31690967251270458 0 0.15632698434060879 0.32309477146443721 0 0.16084478468494731 0.31759224325908281 0 0.1531779528472626 0.31690967251270458 0 0.1770056519607103 0.33831974362286749 0 0.1657389141743941 0.32607447656151611 0 0.1619384281755652 0.34052596047808847 0 0.1657389141743941 0.32607447656151611 0 0.1619384281755652 0.34052596047808847 0 0.1534459738215358 0.33116830427909388 0 0.1619384281755652 0.34052596047808847 0 0.14537830609435001 0.34101383565047871 0 0.15416632756111201 0.34898696826244741 0 0.1619384281755652 0.34052596047808847 0 0.1534459738215358 0.33116830427909388 0 0.14537830609435001 0.34101383565047871 0 0.1534459738215358 0.33116830427909388 0 0.1427633336259623 0.33140140495610498 0 0.14842729617490411 0.32372916070978858 0 0.1534459738215358 0.33116830427909388 0 0.1427633336259623 0.33140140495610498 0 0.14537830609435001 0.34101383565047871 0 0.1427633336259623 0.33140140495610498 0 0.14537830609435001 0.34101383565047871 0 0.13654253772275141 0.33890423694427602 0 0.1483486037307668 0.31106151759990119 0 0.1531779528472626 0.31690967251270458 0 0.14487070829517959 0.31682928085866202 0 0.1531779528472626 0.31690967251270458 0 0.14842729617490411 0.32372916070978858 0 0.14487070829517959 0.31682928085866202 0 0.15632698434060879 0.32309477146443721 0 0.1534459738215358 0.33116830427909388 0 0.14842729617490411 0.32372916070978858 0 0.15632698434060879 0.32309477146443721 0 0.1531779528472626 0.31690967251270458 0 0.14842729617490411 0.32372916070978858 0 0.1427633336259623 0.33140140495610498 0 0.14842729617490411 0.32372916070978858 0 0.1402378637359267 0.32270884290342983 0 0.14842729617490411 0.32372916070978858 0 0.14487070829517959 0.31682928085866202 0 0.1402378637359267 0.32270884290342983 0 0.1483486037307668 0.31106151759990119 0 0.14130712994747449 0.31140798331507108 0 0.14487070829517959 0.31682928085866202 0 0.14130712994747449 0.31140798331507108 0 0.14487070829517959 0.31682928085866202 0 0.13528824775885559 0.3155805734405937 0 0.14487070829517959 0.31682928085866202 0 0.13528824775885559 0.3155805734405937 0 0.1402378637359267 0.32270884290342983 0 0.13528824775885559 0.3155805734405937 0 0.1330765722643745 0.32249408610517011 0 0.1402378637359267 0.32270884290342983 0 0.1330765722643745 0.32249408610517011 0 0.1402378637359267 0.32270884290342983 0 0.13309473665224339 0.33072661256584468 0 0.12375204985912221 0.32702725796552912 0 0.1330765722643745 0.32249408610517011 0 0.13309473665224339 0.33072661256584468 0 0.12375204985912221 0.32702725796552912 0 0.1330765722643745 0.32249408610517011 0 0.12817088130983889 0.317450689473041 0 0.13528824775885559 0.3155805734405937 0 0.1330765722643745 0.32249408610517011 0 0.12817088130983889 0.317450689473041 0 0.1214195525311879 0.31440901896845502 0 0.12900107104525951 0.30968741412501871 0 0.12817088130983889 0.317450689473041 0 0.12900107104525951 0.30968741412501871 0 0.13528824775885559 0.3155805734405937 0 0.12817088130983889 0.317450689473041 0 0.14537830609435001 0.34101383565047871 0 0.13654253772275141 0.33890423694427602 0 0.13685475473781181 0.34959577292381833 0 0.13654253772275141 0.33890423694427602 0 0.1260676383484185 0.3399282146226113 0 0.13685475473781181 0.34959577292381833 0 0.1427633336259623 0.33140140495610498 0 0.13654253772275141 0.33890423694427602 0 0.13309473665224339 0.33072661256584468 0 0.1427633336259623 0.33140140495610498 0 0.1402378637359267 0.32270884290342983 0 0.13309473665224339 0.33072661256584468 0 0.12375204985912221 0.32702725796552912 0 0.13309473665224339 0.33072661256584468 0 0.1260676383484185 0.3399282146226113 0 0.13654253772275141 0.33890423694427602 0 0.13309473665224339 0.33072661256584468 0 0.1260676383484185 0.3399282146226113 0 0.1232256624926347 0.35239419723674059 0 0.13685475473781181 0.34959577292381833 0 0.13271547193899449 0.36524458735671972 0 0.1232256624926347 0.35239419723674059 0 0.1260676383484185 0.3399282146226113 0 0.13685475473781181 0.34959577292381833 0 0.13685475473781181 0.34959577292381833 0 0.13271547193899449 0.36524458735671972 0 0.14990537096685039 0.36070173528474042 0 0.13271547193899449 0.36524458735671972 0 0.14727668153694909 0.37350977329143831 0 0.1384203385310763 0.3853027474406937 0 0.13271547193899449 0.36524458735671972 0 0.14727668153694909 0.37350977329143831 0 0.14990537096685039 0.36070173528474042 0 0.15975417249048229 0.36968310563447321 0 0.14727668153694909 0.37350977329143831 0 0.14990537096685039 0.36070173528474042 0 0.14537830609435001 0.34101383565047871 0 0.13685475473781181 0.34959577292381833 0 0.15416632756111201 0.34898696826244741 0 0.13685475473781181 0.34959577292381833 0 0.14990537096685039 0.36070173528474042 0 0.15416632756111201 0.34898696826244741 0 0.15196678808574959 0.39634912392256672 0 0.1402717845598023 0.40641241395674649 0 0.16129649351817349 0.40676751558544272 0 0.15196678808574959 0.39634912392256672 0 0.1384203385310763 0.3853027474406937 0 0.1402717845598023 0.40641241395674649 0 0.15196678808574959 0.39634912392256672 0 0.15611970777082879 0.38410855928095938 0 0.1384203385310763 0.3853027474406937 0 0.14727668153694909 0.37350977329143831 0 0.15611970777082879 0.38410855928095938 0 0.1384203385310763 0.3853027474406937 0 0.15975417249048229 0.36968310563447321 0 0.14727668153694909 0.37350977329143831 0 0.15611970777082879 0.38410855928095938 0 0.1231373165426977 0.3806134049577457 0 0.13271547193899449 0.36524458735671972 0 0.1384203385310763 0.3853027474406937 0 0.1231373165426977 0.3806134049577457 0 0.1384203385310763 0.3853027474406937 0 0.1271742827044339 0.39597619803598749 0 0.1384203385310763 0.3853027474406937 0 0.1271742827044339 0.39597619803598749 0 0.1402717845598023 0.40641241395674649 0 0.1162621503634904 0.41872732341568758 0 0.1271742827044339 0.39597619803598749 0 0.1402717845598023 0.40641241395674649 0 0.1162621503634904 0.41872732341568758 0 0.1402717845598023 0.40641241395674649 0 0.14380353536204241 0.43078456768362461 0 0.1162621503634904 0.41872732341568758 0 0.14380353536204241 0.43078456768362461 0 0.1205619018159948 0.44674810255646558 0 0.1162621503634904 0.41872732341568758 0 0.13914808732176639 0.43525501877606959 0 0.1162621503634904 0.41872732341568758 0 0.13914808732176639 0.43525501877606959 0 0.14380353536204241 0.43078456768362461 0 0.1402717845598023 0.40641241395674649 0 0.16129649351817349 0.40676751558544272 0 0.1583102357697074 0.42239552662274649 0 0.1402717845598023 0.40641241395674649 0 0.14380353536204241 0.43078456768362461 0 0.1583102357697074 0.42239552662274649 0 0.16129649351817349 0.40676751558544272 0 0.17483444504792359 0.42517132393635743 0 0.1767108048052333 0.40648620419478521 0 0.16129649351817349 0.40676751558544272 0 0.1583102357697074 0.42239552662274649 0 0.17483444504792359 0.42517132393635743 0 0.1583102357697074 0.42239552662274649 0 0.17483444504792359 0.42517132393635743 0 0.1713449203605947 0.44284181195156158 0 0.14380353536204241 0.43078456768362461 0 0.1713449203605947 0.44284181195156158 0 0.14380353536204241 0.43078456768362461 0 0.1583102357697074 0.42239552662274649 0 0.1713449203605947 0.44284181195156158 0 0.17483444504792359 0.42517132393635743 0 0.18216746451451801 0.43740730714955978 0 0.1713449203605947 0.44284181195156158 0 0.17483444504792359 0.42517132393635743 0 0.1713449203605947 0.44284181195156158 0 0.17483444504792359 0.42517132393635743 0 0.1894098998784805 0.41329321868770491 0 0.19020123220431809 0.42989189963497759 0 0.17483444504792359 0.42517132393635743 0 0.18216746451451801 0.43740730714955978 0 0.19020123220431809 0.42989189963497759 0 0.17483444504792359 0.42517132393635743 0 0.1767108048052333 0.40648620419478521 0 0.1894098998784805 0.41329321868770491 0 0.1767108048052333 0.40648620419478521 0 0.16971698500113649 0.39319336099264368 0 0.18829620058045249 0.39400560177177729 0 0.1767108048052333 0.40648620419478521 0 0.18829620058045249 0.39400560177177729 0 0.1894098998784805 0.41329321868770491 0 0.15196678808574959 0.39634912392256672 0 0.15611970777082879 0.38410855928095938 0 0.16971698500113649 0.39319336099264368 0 0.15196678808574959 0.39634912392256672 0 0.16129649351817349 0.40676751558544272 0 0.16971698500113649 0.39319336099264368 0 0.16129649351817349 0.40676751558544272 0 0.1767108048052333 0.40648620419478521 0 0.16971698500113649 0.39319336099264368 0 0.17637045729064621 0.37495278481954358 0 0.15975417249048229 0.36968310563447321 0 0.15611970777082879 0.38410855928095938 0 0.17637045729064621 0.37495278481954358 0 0.15611970777082879 0.38410855928095938 0 0.16971698500113649 0.39319336099264368 0 0.17637045729064621 0.37495278481954358 0 0.16971698500113649 0.39319336099264368 0 0.18829620058045249 0.39400560177177729 0 0.20200890290724041 0.36500873302905812 0 0.18829620058045249 0.39400560177177729 0 0.21022739730807871 0.38998636848418261 0 0.20200890290724041 0.36500873302905812 0 0.17637045729064621 0.37495278481954358 0 0.18829620058045249 0.39400560177177729 0 0.18829620058045249 0.39400560177177729 0 0.21022739730807871 0.38998636848418261 0 0.20498907662426999 0.40636669370009521 0 0.18829620058045249 0.39400560177177729 0 0.20498907662426999 0.40636669370009521 0 0.1894098998784805 0.41329321868770491 0 0.21022739730807871 0.38998636848418261 0 0.225418264115859 0.4045632601918206 0 0.20498907662426999 0.40636669370009521 0 0.20200890290724041 0.36500873302905812 0 0.21022739730807871 0.38998636848418261 0 0.22860253219506471 0.37841014948266538 0 0.21022739730807871 0.38998636848418261 0 0.22860253219506471 0.37841014948266538 0 0.225418264115859 0.4045632601918206 0 0.225418264115859 0.4045632601918206 0 0.2490748840761759 0.41447913741323361 0 0.25519616148288887 0.39181156593627298 0 0.22860253219506471 0.37841014948266538 0 0.225418264115859 0.4045632601918206 0 0.25519616148288887 0.39181156593627298 0 0.22860253219506471 0.37841014948266538 0 0.25519616148288887 0.39181156593627298 0 0.24305895760768401 0.36641304215893011 0 0.22860253219506471 0.37841014948266538 0 0.25519616148288887 0.39181156593627298 0 0.2490748840761759 0.41447913741323361 0 0.23040520055063371 0.42472223384156732 0 0.24517769652138269 0.43868647355565088 0 0.225418264115859 0.4045632601918206 0 0.2490748840761759 0.41447913741323361 0 0.23040520055063371 0.42472223384156732 0 0.225418264115859 0.4045632601918206 0 0.23040520055063371 0.42472223384156732 0 0.20794960100346549 0.42683021087399747 0 0.23040520055063371 0.42472223384156732 0 0.20794960100346549 0.42683021087399747 0 0.2229924843016429 0.43948176305630821 0 0.23040520055063371 0.42472223384156732 0 0.2229924843016429 0.43948176305630821 0 0.24517769652138269 0.43868647355565088 0 0.225418264115859 0.4045632601918206 0 0.20794960100346549 0.42683021087399747 0 0.20498907662426999 0.40636669370009521 0 0.20794960100346549 0.42683021087399747 0 0.20498907662426999 0.40636669370009521 0 0.1894098998784805 0.41329321868770491 0 0.20794960100346549 0.42683021087399747 0 0.19020123220431809 0.42989189963497759 0 0.19426067079655579 0.44330707928475449 0 0.20794960100346549 0.42683021087399747 0 0.1894098998784805 0.41329321868770491 0 0.19020123220431809 0.42989189963497759 0 0.18216746451451801 0.43740730714955978 0 0.19020123220431809 0.42989189963497759 0 0.19426067079655579 0.44330707928475449 0 0.19426067079655579 0.44330707928475449 0 0.1940681668251448 0.45640187690020761 0 0.18254949088188149 0.4477470207382499 0 0.19426067079655579 0.44330707928475449 0 0.1940681668251448 0.45640187690020761 0 0.20814429074563079 0.44944136850783811 0 0.1940681668251448 0.45640187690020761 0 0.20814429074563079 0.44944136850783811 0 0.2039949308663013 0.472197178379127 0 0.1940681668251448 0.45640187690020761 0 0.2039949308663013 0.472197178379127 0 0.18608081776579821 0.46867989557539208 0 0.1940681668251448 0.45640187690020761 0 0.18608081776579821 0.46867989557539208 0 0.18254949088188149 0.4477470207382499 0 0.20814429074563079 0.44944136850783811 0 0.22852149564367849 0.45772005811557609 0 0.2039949308663013 0.472197178379127 0 0.20794960100346549 0.42683021087399747 0 0.19426067079655579 0.44330707928475449 0 0.20814429074563079 0.44944136850783811 0 0.20794960100346549 0.42683021087399747 0 0.20814429074563079 0.44944136850783811 0 0.2229924843016429 0.43948176305630821 0 0.2229924843016429 0.43948176305630821 0 0.22852149564367849 0.45772005811557609 0 0.24517769652138269 0.43868647355565088 0 0.20814429074563079 0.44944136850783811 0 0.2229924843016429 0.43948176305630821 0 0.22852149564367849 0.45772005811557609 0 0.22852149564367849 0.45772005811557609 0 0.2480713074063006 0.45455858161591112 0 0.2508124586903176 0.47172026355836871 0 0.22852149564367849 0.45772005811557609 0 0.2480713074063006 0.45455858161591112 0 0.24517769652138269 0.43868647355565088 0 0.24658834009167641 0.5 0 0.2268462464291012 0.47913099520174052 0 0.2508124586903176 0.47172026355836871 0 0.22852149564367849 0.45772005811557609 0 0.2268462464291012 0.47913099520174052 0 0.2508124586903176 0.47172026355836871 0 0.22852149564367849 0.45772005811557609 0 0.2268462464291012 0.47913099520174052 0 0.2039949308663013 0.472197178379127 0 0.24658834009167641 0.5 0 0.2268462464291012 0.47913099520174052 0 0.21774471386125249 0.5 0 0.2039949308663013 0.472197178379127 0 0.18890108763082861 0.5 0 0.18608081776579821 0.46867989557539208 0 0.21774471386125249 0.5 0 0.2039949308663013 0.472197178379127 0 0.18890108763082861 0.5 0 0.2268462464291012 0.47913099520174052 0 0.21774471386125249 0.5 0 0.2039949308663013 0.472197178379127 0 0.18890108763082861 0.5 0 0.16570119088049859 0.47142090597577962 0 0.18608081776579821 0.46867989557539208 0 0.18890108763082861 0.5 0 0.1600574614004048 0.499999999999998 0 0.16570119088049859 0.47142090597577962 0 0.1600574614004048 0.499999999999998 0 0.16570119088049859 0.47142090597577962 0 0.1600574614004048 0.499999999999998 0 0.16570119088049859 0.47142090597577962 0 0.1473140710794911 0.47841155746419622 0 0.16570119088049859 0.47142090597577962 0 0.18608081776579821 0.46867989557539208 0 0.18254949088188149 0.4477470207382499 0 0.16570119088049859 0.47142090597577962 0 0.18254949088188149 0.4477470207382499 0 0.1713449203605947 0.44284181195156158 0 0.18216746451451801 0.43740730714955978 0 0.19426067079655579 0.44330707928475449 0 0.18254949088188149 0.4477470207382499 0 0.18254949088188149 0.4477470207382499 0 0.1713449203605947 0.44284181195156158 0 0.18216746451451801 0.43740730714955978 0 0.18254949088188149 0.4477470207382499 0 0.1713449203605947 0.44284181195156158 0 0.16570119088049859 0.47142090597577962 0 0.1713449203605947 0.44284181195156158 0 0.16570119088049859 0.47142090597577962 0 0.1713449203605947 0.44284181195156158 0 0.15076126992746861 0.45128164001408699 0 0.16570119088049859 0.47142090597577962 0 0.14979107830043681 0.4659705410046826 0 0.15076126992746861 0.45128164001408699 0 0.14979107830043681 0.4659705410046826 0 0.15076126992746861 0.45128164001408699 0 0.13538778131428869 0.46276806056466779 0 0.13914808732176639 0.43525501877606959 0 0.14380353536204241 0.43078456768362461 0 0.15076126992746861 0.45128164001408699 0 0.14380353536204241 0.43078456768362461 0 0.1713449203605947 0.44284181195156158 0 0.15076126992746861 0.45128164001408699 0 0.13914808732176639 0.43525501877606959 0 0.15076126992746861 0.45128164001408699 0 0.13538778131428869 0.46276806056466779 0 0.13914808732176639 0.43525501877606959 0 0.13538778131428869 0.46276806056466779 0 0.1205619018159948 0.44674810255646558 0 0.13914808732176639 0.43525501877606959 0 0.13538778131428869 0.46276806056466779 0 0.1248616532684987 0.47476888169724352 0 0.1205619018159948 0.44674810255646558 0 0.13538778131428869 0.46276806056466779 0 0.13538778131428869 0.46276806056466779 0 0.13162747530681079 0.49028110235326611 0 0.1248616532684987 0.47476888169724352 0 0.13538778131428869 0.46276806056466779 0 0.13162747530681079 0.49028110235326611 0 0.13538778131428869 0.46276806056466779 0 0.13162747530681079 0.49028110235326611 0 0.1473140710794911 0.47841155746419622 0 0.1248616532684987 0.47476888169724352 0 0.13162747530681079 0.49028110235326611 0 0.1248616532684987 0.47476888169724352 0 0.1287333349596296 0.50000000000000233 0 0.1248616532684987 0.47476888169724352 0 0.13162747530681079 0.49028110235326611 0 0.1287333349596296 0.50000000000000233 0 0.13162747530681079 0.49028110235326611 0 0.1302991587401483 0.50000000000000044 0 0.13162747530681079 0.49028110235326611 0 0.1302991587401483 0.50000000000000044 0 0.13586647714571501 0.50000000000000044 0 0.13162747530681079 0.49028110235326611 0 0.1287333349596296 0.50000000000000233 0 0.1302991587401483 0.50000000000000044 0 0.13162747530681079 0.49028110235326611 0 0.13586647714571501 0.50000000000000044 0 0.14406777576738011 0.49099847585001533 0 0.13162747530681079 0.49028110235326611 0 0.13586647714571501 0.50000000000000044 0 0.1600574614004048 0.499999999999998 0 0.13586647714571501 0.50000000000000044 0 0.14406777576738011 0.49099847585001533 0 0.1600574614004048 0.499999999999998 0 0.14406777576738011 0.49099847585001533 0 0.1473140710794911 0.47841155746419622 0 0.13162747530681079 0.49028110235326611 0 0.14406777576738011 0.49099847585001533 0 0.1473140710794911 0.47841155746419622 0 0.16570119088049859 0.47142090597577962 0 0.14979107830043681 0.4659705410046826 0 0.1473140710794911 0.47841155746419622 0 0.14979107830043681 0.4659705410046826 0 0.13538778131428869 0.46276806056466779 0 0.1473140710794911 0.47841155746419622 0 0.3484716028812469 0.46927922019571022 0 0.3639431844790027 0.47792576209206161 0 0.36215729707138089 0.45952194433731441 0 0.3484716028812469 0.46927922019571022 0 0.34825454286986979 0.4866410253547736 0 0.3639431844790027 0.47792576209206161 0 0.34825454286986979 0.4866410253547736 0 0.36196284501337178 0.5 0 0.3639431844790027 0.47792576209206161 0 0.34825454286986979 0.4866410253547736 0 0.36196284501337178 0.5 0 0.33311921878294798 0.5 0 0.36196284501337178 0.5 0 0.3639431844790027 0.47792576209206161 0 0.38120033573297152 0.48442634992442057 0 0.3639431844790027 0.47792576209206161 0 0.37844435483634198 0.4675903904274426 0 0.38120033573297152 0.48442634992442057 0 0.3639431844790027 0.47792576209206161 0 0.36215729707138089 0.45952194433731441 0 0.37844435483634198 0.4675903904274426 0 0.36215729707138089 0.45952194433731441 0 0.37809165231809289 0.44568724501072521 0 0.37844435483634198 0.4675903904274426 0 0.36215729707138089 0.45952194433731441 0 0.35494335133579169 0.44207750056399991 0 0.37809165231809289 0.44568724501072521 0 0.35494335133579169 0.44207750056399991 0 0.365542703577178 0.42914551292816783 0 0.37809165231809289 0.44568724501072521 0 0.35494335133579169 0.44207750056399991 0 0.33746945485668051 0.4332718215327816 0 0.35494335133579169 0.44207750056399991 0 0.33933393763431879 0.44574212964051668 0 0.33746945485668051 0.4332718215327816 0 0.36215729707138089 0.45952194433731441 0 0.35494335133579169 0.44207750056399991 0 0.34904963657780902 0.45457154773394731 0 0.35494335133579169 0.44207750056399991 0 0.34904963657780902 0.45457154773394731 0 0.33933393763431879 0.44574212964051668 0 0.3484716028812469 0.46927922019571022 0 0.36215729707138089 0.45952194433731441 0 0.34904963657780902 0.45457154773394731 0 0.3484716028812469 0.46927922019571022 0 0.34904963657780902 0.45457154773394731 0 0.33768006752307722 0.45817683321967928 0 0.33768006752307722 0.45817683321967928 0 0.32516604183334019 0.44948070643492349 0 0.3263791186886712 0.4718105620932988 0 0.3484716028812469 0.46927922019571022 0 0.33768006752307722 0.45817683321967928 0 0.3263791186886712 0.4718105620932988 0 0.33933393763431879 0.44574212964051668 0 0.32516604183334019 0.44948070643492349 0 0.33457771181584611 0.43369686048393857 0 0.32516604183334019 0.44948070643492349 0 0.33457771181584611 0.43369686048393857 0 0.33933393763431879 0.44574212964051668 0 0.33457771181584611 0.43369686048393857 0 0.33746945485668051 0.4332718215327816 0 0.34904963657780902 0.45457154773394731 0 0.33768006752307722 0.45817683321967928 0 0.33933393763431879 0.44574212964051668 0 0.33768006752307722 0.45817683321967928 0 0.33933393763431879 0.44574212964051668 0 0.32516604183334019 0.44948070643492349 0 0.32516604183334019 0.44948070643492349 0 0.30610823095482448 0.43788140873538328 0 0.33457771181584611 0.43369686048393857 0 0.32516604183334019 0.44948070643492349 0 0.30909376894118562 0.45443190325323968 0 0.30610823095482448 0.43788140873538328 0 0.32516604183334019 0.44948070643492349 0 0.3263791186886712 0.4718105620932988 0 0.30909376894118562 0.45443190325323968 0 0.3263791186886712 0.4718105620932988 0 0.30059931196992168 0.47005809262963882 0 0.31153103284441203 0.48323920778459489 0 0.3484716028812469 0.46927922019571022 0 0.34825454286986979 0.4866410253547736 0 0.3263791186886712 0.4718105620932988 0 0.34825454286986979 0.4866410253547736 0 0.3263791186886712 0.4718105620932988 0 0.33311921878294798 0.5 0 0.3263791186886712 0.4718105620932988 0 0.33311921878294798 0.5 0 0.31153103284441203 0.48323920778459489 0 0.33311921878294798 0.5 0 0.30427559255252412 0.5 0 0.31153103284441203 0.48323920778459489 0 0.30427559255252412 0.5 0 0.31153103284441203 0.48323920778459489 0 0.29110307967174748 0.48580921065493432 0 0.30059931196992168 0.47005809262963882 0 0.31153103284441203 0.48323920778459489 0 0.29110307967174748 0.48580921065493432 0 0.30059931196992168 0.47005809262963882 0 0.29110307967174748 0.48580921065493432 0 0.27585954767988607 0.47408041721782612 0 0.30427559255252412 0.5 0 0.29110307967174748 0.48580921065493432 0 0.27543196632210021 0.5 0 0.27543196632210021 0.5 0 0.27585954767988607 0.47408041721782612 0 0.26198527678341299 0.48673919500437729 0 0.29110307967174748 0.48580921065493432 0 0.27543196632210021 0.5 0 0.27585954767988607 0.47408041721782612 0 0.27585954767988607 0.47408041721782612 0 0.2508124586903176 0.47172026355836871 0 0.26198527678341299 0.48673919500437729 0 0.24658834009167641 0.5 0 0.2508124586903176 0.47172026355836871 0 0.26198527678341299 0.48673919500437729 0 0.24658834009167641 0.5 0 0.27543196632210021 0.5 0 0.26198527678341299 0.48673919500437729 0 0.2480713074063006 0.45455858161591112 0 0.24517769652138269 0.43868647355565088 0 0.26777357876982372 0.45010753123404867 0 0.24517769652138269 0.43868647355565088 0 0.26777357876982372 0.45010753123404867 0 0.26600993858745892 0.42808938636359573 0 0.2480713074063006 0.45455858161591112 0 0.2508124586903176 0.47172026355836871 0 0.26777357876982372 0.45010753123404867 0 0.27585954767988607 0.47408041721782612 0 0.2508124586903176 0.47172026355836871 0 0.26777357876982372 0.45010753123404867 0 0.27585954767988607 0.47408041721782612 0 0.26777357876982372 0.45010753123404867 0 0.28975077836376328 0.45156795454144122 0 0.26777357876982372 0.45010753123404867 0 0.28975077836376328 0.45156795454144122 0 0.28607917402868899 0.43188291486824332 0 0.28975077836376328 0.45156795454144122 0 0.30610823095482448 0.43788140873538328 0 0.28607917402868899 0.43188291486824332 0 0.30059931196992168 0.47005809262963882 0 0.27585954767988607 0.47408041721782612 0 0.28975077836376328 0.45156795454144122 0 0.3263791186886712 0.4718105620932988 0 0.30059931196992168 0.47005809262963882 0 0.30909376894118562 0.45443190325323968 0 0.30059931196992168 0.47005809262963882 0 0.28975077836376328 0.45156795454144122 0 0.30909376894118562 0.45443190325323968 0 0.28975077836376328 0.45156795454144122 0 0.30909376894118562 0.45443190325323968 0 0.30610823095482448 0.43788140873538328 0 0.30610823095482448 0.43788140873538328 0 0.30869255759955722 0.41877018355733042 0 0.28607917402868899 0.43188291486824332 0 0.3075810200549029 0.4073564129674252 0 0.30869255759955722 0.41877018355733042 0 0.30232024370737348 0.40459188745546998 0 0.31142364564813352 0.41093370315849659 0 0.3075810200549029 0.4073564129674252 0 0.31015955469665918 0.40201373970895371 0 0.31142364564813352 0.41093370315849659 0 0.3075810200549029 0.4073564129674252 0 0.30869255759955722 0.41877018355733042 0 0.30869255759955722 0.41877018355733042 0 0.29605666041485018 0.40551048050067168 0 0.30232024370737348 0.40459188745546998 0 0.30869255759955722 0.41877018355733042 0 0.2819443595412231 0.40529087474680159 0 0.30869255759955722 0.41877018355733042 0 0.2819443595412231 0.40529087474680159 0 0.29605666041485018 0.40551048050067168 0 0.30869255759955722 0.41877018355733042 0 0.28607917402868899 0.43188291486824332 0 0.2819443595412231 0.40529087474680159 0 0.2490748840761759 0.41447913741323361 0 0.26600993858745892 0.42808938636359573 0 0.2819443595412231 0.40529087474680159 0 0.26777357876982372 0.45010753123404867 0 0.28607917402868899 0.43188291486824332 0 0.26600993858745892 0.42808938636359573 0 0.28607917402868899 0.43188291486824332 0 0.26600993858745892 0.42808938636359573 0 0.2819443595412231 0.40529087474680159 0 0.2490748840761759 0.41447913741323361 0 0.24517769652138269 0.43868647355565088 0 0.26600993858745892 0.42808938636359573 0 0.2490748840761759 0.41447913741323361 0 0.25519616148288887 0.39181156593627298 0 0.2819443595412231 0.40529087474680159 0 0.25519616148288887 0.39181156593627298 0 0.2618259464583832 0.36726095095448358 0 0.25519616148288887 0.39181156593627298 0 0.27405714121884811 0.38409687161834088 0 0.2618259464583832 0.36726095095448358 0 0.24305895760768401 0.36641304215893011 0 0.25519616148288887 0.39181156593627298 0 0.2618259464583832 0.36726095095448358 0 0.2490748840761759 0.41447913741323361 0 0.25519616148288887 0.39181156593627298 0 0.27405714121884811 0.38409687161834088 0 0.2819443595412231 0.40529087474680159 0 0.28762179706039948 0.39125587461843808 0 0.25519616148288887 0.39181156593627298 0 0.2819443595412231 0.40529087474680159 0 0.25519616148288887 0.39181156593627298 0 0.27405714121884811 0.38409687161834088 0 0.2819443595412231 0.40529087474680159 0 0.27405714121884811 0.38409687161834088 0 0.28403056220722062 0.37531448917755911 0 0.2737626695690904 0.37327007608818358 0 0.27405714121884811 0.38409687161834088 0 0.28403056220722062 0.37531448917755911 0 0.28762179706039948 0.39125587461843808 0 0.29405085274881382 0.37834813740539031 0 0.28762179706039948 0.39125587461843808 0 0.30049862001061489 0.39881078008944609 0 0.28403056220722062 0.37531448917755911 0 0.29405085274881382 0.37834813740539031 0 0.28762179706039948 0.39125587461843808 0 0.2819443595412231 0.40529087474680159 0 0.28762179706039948 0.39125587461843808 0 0.29316512877403511 0.40022580951085568 0 0.28762179706039948 0.39125587461843808 0 0.29316512877403511 0.40022580951085568 0 0.30049862001061489 0.39881078008944609 0 0.2819443595412231 0.40529087474680159 0 0.29316512877403511 0.40022580951085568 0 0.29605666041485018 0.40551048050067168 0 0.29316512877403511 0.40022580951085568 0 0.29605666041485018 0.40551048050067168 0 0.30042223720462058 0.4004666581126537 0 0.29605666041485018 0.40551048050067168 0 0.30232024370737348 0.40459188745546998 0 0.30042223720462058 0.4004666581126537 0 0.29316512877403511 0.40022580951085568 0 0.30042223720462058 0.4004666581126537 0 0.30049862001061489 0.39881078008944609 0 0.30042223720462058 0.4004666581126537 0 0.30049862001061489 0.39881078008944609 0 0.30232024370737348 0.40459188745546998 0 0.30049862001061489 0.39881078008944609 0 0.30232024370737348 0.40459188745546998 0 0.30049862001061489 0.39881078008944609 0 0.30430913302558388 0.40020258685778032 0 0.30232024370737348 0.40459188745546998 0 0.30042223720462058 0.4004666581126537 0 0.30049862001061489 0.39881078008944609 0 0.30049862001061489 0.39881078008944609 0 0.30098622665836988 0.38824011406760628 0 0.30049862001061489 0.39881078008944609 0 0.30430913302558388 0.40020258685778032 0 0.30098622665836988 0.38824011406760628 0 0.30098622665836988 0.38824011406760628 0 0.30110064445947421 0.38575968774854158 0 0.31262554991773928 0.39787599139405988 0 0.31015955469665918 0.40201373970895371 0 0.30098622665836988 0.38824011406760628 0 0.30110064445947421 0.38575968774854158 0 0.31262554991773928 0.39787599139405988 0 0.30430913302558388 0.40020258685778032 0 0.31015955469665918 0.40201373970895371 0 0.30098622665836988 0.38824011406760628 0 0.31015955469665918 0.40201373970895371 0 0.30098622665836988 0.38824011406760628 0 0.31262554991773928 0.39787599139405988 0 0.3075810200549029 0.4073564129674252 0 0.30232024370737348 0.40459188745546998 0 0.30430913302558388 0.40020258685778032 0 0.3075810200549029 0.4073564129674252 0 0.30430913302558388 0.40020258685778032 0 0.31015955469665918 0.40201373970895371 0 0.29405085274881382 0.37834813740539031 0 0.30049862001061489 0.39881078008944609 0 0.29405085274881382 0.37834813740539031 0 0.30049862001061489 0.39881078008944609 0 0.30098622665836988 0.38824011406760628 0 0.30110064445947421 0.38575968774854158 0 0.30177514978199971 0.3711373061071076 0 0.30110064445947421 0.38575968774854158 0 0.3104817065657739 0.3858680532317833 0 0.30177514978199971 0.3711373061071076 0 0.29405085274881382 0.37834813740539031 0 0.30110064445947421 0.38575968774854158 0 0.30177514978199971 0.3711373061071076 0 0.29405085274881382 0.37834813740539031 0 0.30110064445947421 0.38575968774854158 0 0.29405085274881382 0.37834813740539031 0 0.30098622665836988 0.38824011406760628 0 0.30110064445947421 0.38575968774854158 0 0.29405085274881382 0.37834813740539031 0 0.30098622665836988 0.38824011406760628 0 0.30098622665836988 0.38824011406760628 0 0.30110064445947421 0.38575968774854158 0 0.30110064445947421 0.38575968774854158 0 0.3104817065657739 0.3858680532317833 0 0.31262554991773928 0.39787599139405988 0 0.3104817065657739 0.3858680532317833 0 0.30177514978199971 0.3711373061071076 0 0.3104817065657739 0.3858680532317833 0 0.31717345926189522 0.3709258031848055 0 0.30177514978199971 0.3711373061071076 0 0.3104817065657739 0.3858680532317833 0 0.3376156911696272 0.37620073599141618 0 0.3104817065657739 0.3858680532317833 0 0.3376156911696272 0.37620073599141618 0 0.31717345926189522 0.3709258031848055 0 0.3104817065657739 0.3858680532317833 0 0.3376156911696272 0.37620073599141618 0 0.3351802944883514 0.39738750443412002 0 0.3376156911696272 0.37620073599141618 0 0.3351802944883514 0.39738750443412002 0 0.34879159400795012 0.38769315231290841 0 0.3351802944883514 0.39738750443412002 0 0.33658962428999861 0.41133204962483783 0 0.34988972217452752 0.40801784569160632 0 0.3351802944883514 0.39738750443412002 0 0.32415045537600512 0.40999229503957763 0 0.33658962428999861 0.41133204962483783 0 0.3351802944883514 0.39738750443412002 0 0.31909953512109351 0.40044867980609039 0 0.32415045537600512 0.40999229503957763 0 0.3104817065657739 0.3858680532317833 0 0.3351802944883514 0.39738750443412002 0 0.31909953512109351 0.40044867980609039 0 0.3104817065657739 0.3858680532317833 0 0.31909953512109351 0.40044867980609039 0 0.3104817065657739 0.3858680532317833 0 0.31262554991773928 0.39787599139405988 0 0.31909953512109351 0.40044867980609039 0 0.31262554991773928 0.39787599139405988 0 0.32415045537600512 0.40999229503957763 0 0.31015955469665918 0.40201373970895371 0 0.31262554991773928 0.39787599139405988 0 0.32415045537600512 0.40999229503957763 0 0.31262554991773928 0.39787599139405988 0 0.31909953512109351 0.40044867980609039 0 0.32415045537600512 0.40999229503957763 0 0.31015955469665918 0.40201373970895371 0 0.31933288273494848 0.41578736535030097 0 0.32415045537600512 0.40999229503957763 0 0.31142364564813352 0.41093370315849659 0 0.31015955469665918 0.40201373970895371 0 0.31933288273494848 0.41578736535030097 0 0.30869255759955722 0.41877018355733042 0 0.31933288273494848 0.41578736535030097 0 0.32906281765607392 0.42006619542527468 0 0.31015955469665918 0.40201373970895371 0 0.31933288273494848 0.41578736535030097 0 0.31142364564813352 0.41093370315849659 0 0.30869255759955722 0.41877018355733042 0 0.31933288273494848 0.41578736535030097 0 0.31933288273494848 0.41578736535030097 0 0.32415045537600512 0.40999229503957763 0 0.32906281765607392 0.42006619542527468 0 0.30869255759955722 0.41877018355733042 0 0.33457771181584611 0.43369686048393857 0 0.33544075565789128 0.43224949236785898 0 0.30869255759955722 0.41877018355733042 0 0.33544075565789128 0.43224949236785898 0 0.30610823095482448 0.43788140873538328 0 0.30869255759955722 0.41877018355733042 0 0.33457771181584611 0.43369686048393857 0 0.30869255759955722 0.41877018355733042 0 0.33544075565789128 0.43224949236785898 0 0.32906281765607392 0.42006619542527468 0 0.30610823095482448 0.43788140873538328 0 0.33457771181584611 0.43369686048393857 0 0.33457771181584611 0.43369686048393857 0 0.33544075565789128 0.43224949236785898 0 0.33746945485668051 0.4332718215327816 0 0.33457771181584611 0.43369686048393857 0 0.33544075565789128 0.43224949236785898 0 0.33544075565789128 0.43224949236785898 0 0.33746945485668051 0.4332718215327816 0 0.35001853239939229 0.42365555934674631 0 0.33544075565789128 0.43224949236785898 0 0.33746945485668051 0.4332718215327816 0 0.33457771181584611 0.43369686048393857 0 0.33746945485668051 0.4332718215327816 0 0.33544075565789128 0.43224949236785898 0 0.33658962428999861 0.41133204962483783 0 0.34988972217452752 0.40801784569160632 0 0.33544075565789128 0.43224949236785898 0 0.32906281765607392 0.42006619542527468 0 0.33658962428999861 0.41133204962483783 0 0.33544075565789128 0.43224949236785898 0 0.34988972217452752 0.40801784569160632 0 0.32415045537600512 0.40999229503957763 0 0.32906281765607392 0.42006619542527468 0 0.33658962428999861 0.41133204962483783 0 0.33544075565789128 0.43224949236785898 0 0.34988972217452752 0.40801784569160632 0 0.35001853239939229 0.42365555934674631 0 0.34988972217452752 0.40801784569160632 0 0.36165970526353591 0.41519797525725338 0 0.36412400085156282 0.39702719229323191 0 0.34988972217452752 0.40801784569160632 0 0.35001853239939229 0.42365555934674631 0 0.36165970526353591 0.41519797525725338 0 0.35494335133579169 0.44207750056399991 0 0.33746945485668051 0.4332718215327816 0 0.365542703577178 0.42914551292816783 0 0.33746945485668051 0.4332718215327816 0 0.35001853239939229 0.42365555934674631 0 0.365542703577178 0.42914551292816783 0 0.33746945485668051 0.4332718215327816 0 0.365542703577178 0.42914551292816783 0 0.35001853239939229 0.42365555934674631 0 0.365542703577178 0.42914551292816783 0 0.36165970526353591 0.41519797525725338 0 0.365542703577178 0.42914551292816783 0 0.36165970526353591 0.41519797525725338 0 0.37744029411777058 0.41252948965876268 0 0.36165970526353591 0.41519797525725338 0 0.36412400085156282 0.39702719229323191 0 0.37744029411777058 0.41252948965876268 0 0.36412400085156282 0.39702719229323191 0 0.38026367080056678 0.39066664182047522 0 0.37744029411777058 0.41252948965876268 0 0.34988972217452752 0.40801784569160632 0 0.36412400085156282 0.39702719229323191 0 0.36433868869116592 0.38378619901535488 0 0.36433868869116592 0.38378619901535488 0 0.3773824667175657 0.37546563606013739 0 0.38026367080056678 0.39066664182047522 0 0.36433868869116592 0.38378619901535488 0 0.36474967577348072 0.36653341875104961 0 0.3773824667175657 0.37546563606013739 0 0.36412400085156282 0.39702719229323191 0 0.36433868869116592 0.38378619901535488 0 0.38026367080056678 0.39066664182047522 0 0.36433868869116592 0.38378619901535488 0 0.36474967577348072 0.36653341875104961 0 0.36412400085156282 0.39702719229323191 0 0.36433868869116592 0.38378619901535488 0 0.3376156911696272 0.37620073599141618 0 0.34879159400795012 0.38769315231290841 0 0.36474967577348072 0.36653341875104961 0 0.36433868869116592 0.38378619901535488 0 0.34879159400795012 0.38769315231290841 0 0.36474967577348072 0.36653341875104961 0 0.3351802944883514 0.39738750443412002 0 0.34988972217452752 0.40801784569160632 0 0.34879159400795012 0.38769315231290841 0 0.34988972217452752 0.40801784569160632 0 0.36433868869116592 0.38378619901535488 0 0.34988972217452752 0.40801784569160632 0 0.36433868869116592 0.38378619901535488 0 0.34879159400795012 0.38769315231290841 0 0.34699100967064078 0.35539672769273539 0 0.36474967577348072 0.36653341875104961 0 0.36518945593320651 0.34509967395937191 0 0.34699100967064078 0.35539672769273539 0 0.36518945593320651 0.34509967395937191 0 0.348137396692076 0.34077307725183559 0 0.3376156911696272 0.37620073599141618 0 0.34699100967064078 0.35539672769273539 0 0.36474967577348072 0.36653341875104961 0 0.3376156911696272 0.37620073599141618 0 0.36474967577348072 0.36653341875104961 0 0.36474967577348072 0.36653341875104961 0 0.36518945593320651 0.34509967395937191 0 0.36474967577348072 0.36653341875104961 0 0.36518945593320651 0.34509967395937191 0 0.3855881021147175 0.35910908792858098 0 0.36518945593320651 0.34509967395937191 0 0.36562923609293069 0.32366592916769399 0 0.36518945593320651 0.34509967395937191 0 0.36562923609293069 0.32366592916769399 0 0.348137396692076 0.34077307725183559 0 0.36518945593320651 0.34509967395937191 0 0.36562923609293069 0.32366592916769399 0 0.38128435600444488 0.32837669887387311 0 0.36562923609293069 0.32366592916769399 0 0.36606901625265492 0.30223218437601618 0 0.38242981621443428 0.31397380775534678 0 0.36562923609293069 0.32366592916769399 0 0.36606901625265492 0.30223218437601618 0 0.36562923609293069 0.32366592916769399 0 0.34238706329751362 0.32476320095938682 0 0.35183379698966949 0.31056891257481539 0 0.36562923609293069 0.32366592916769399 0 0.348137396692076 0.34077307725183559 0 0.34238706329751362 0.32476320095938682 0 0.348137396692076 0.34077307725183559 0 0.33072504187423118 0.34237289876026822 0 0.34238706329751362 0.32476320095938682 0 0.33072504187423118 0.34237289876026822 0 0.34238706329751362 0.32476320095938682 0 0.32122702449841589 0.32177081607522939 0 0.34238706329751362 0.32476320095938682 0 0.33644502425256478 0.30910566618648461 0 0.35183379698966949 0.31056891257481539 0 0.34238706329751362 0.32476320095938682 0 0.32122702449841589 0.32177081607522939 0 0.33644502425256478 0.30910566618648461 0 0.32122702449841589 0.32177081607522939 0 0.31445651652981632 0.33878768779705848 0 0.30372390616191358 0.32889084998335888 0 0.33072504187423118 0.34237289876026822 0 0.32122702449841589 0.32177081607522939 0 0.31445651652981632 0.33878768779705848 0 0.33072504187423118 0.34237289876026822 0 0.31445651652981632 0.33878768779705848 0 0.31594857135045817 0.35062531106266931 0 0.33072504187423118 0.34237289876026822 0 0.31594857135045817 0.35062531106266931 0 0.32442852787466708 0.36030442639367111 0 0.31594857135045817 0.35062531106266931 0 0.32442852787466708 0.36030442639367111 0 0.31156622091740832 0.36111849420004938 0 0.34699100967064078 0.35539672769273539 0 0.348137396692076 0.34077307725183559 0 0.33072504187423118 0.34237289876026822 0 0.34699100967064078 0.35539672769273539 0 0.33072504187423118 0.34237289876026822 0 0.32442852787466708 0.36030442639367111 0 0.3376156911696272 0.37620073599141618 0 0.34699100967064078 0.35539672769273539 0 0.32442852787466708 0.36030442639367111 0 0.3376156911696272 0.37620073599141618 0 0.32442852787466708 0.36030442639367111 0 0.31717345926189522 0.3709258031848055 0 0.32442852787466708 0.36030442639367111 0 0.31717345926189522 0.3709258031848055 0 0.31156622091740832 0.36111849420004938 0 0.30177514978199971 0.3711373061071076 0 0.30274952797195698 0.35001407804523332 0 0.31717345926189522 0.3709258031848055 0 0.31156622091740832 0.36111849420004938 0 0.30177514978199971 0.3711373061071076 0 0.31156622091740832 0.36111849420004938 0 0.30177514978199971 0.3711373061071076 0 0.30274952797195698 0.35001407804523332 0 0.30177514978199971 0.3711373061071076 0 0.30274952797195698 0.35001407804523332 0 0.29106955940472562 0.3530243656434488 0 0.31445651652981632 0.33878768779705848 0 0.31594857135045817 0.35062531106266931 0 0.30274952797195698 0.35001407804523332 0 0.31594857135045817 0.35062531106266931 0 0.31156622091740832 0.36111849420004938 0 0.30274952797195698 0.35001407804523332 0 0.29106955940472562 0.3530243656434488 0 0.28705150305193838 0.35613499197806497 0 0.28036396902745148 0.33491142517978989 0 0.28705150305193838 0.35613499197806497 0 0.28036396902745148 0.33491142517978989 0 0.28705150305193838 0.35613499197806497 0 0.27644360280618341 0.34191623842927221 0 0.28036396902745148 0.33491142517978989 0 0.29106955940472562 0.3530243656434488 0 0.28036396902745148 0.33491142517978989 0 0.30274952797195698 0.35001407804523332 0 0.29106955940472562 0.3530243656434488 0 0.29374099595638509 0.3392252011883215 0 0.28705150305193838 0.35613499197806497 0 0.28458867991473008 0.36361942358965982 0 0.27543832275303448 0.34988028840297991 0 0.29405085274881382 0.37834813740539031 0 0.28705150305193838 0.35613499197806497 0 0.28458867991473008 0.36361942358965982 0 0.29405085274881382 0.37834813740539031 0 0.28705150305193838 0.35613499197806497 0 0.30177514978199971 0.3711373061071076 0 0.29106955940472562 0.3530243656434488 0 0.29405085274881382 0.37834813740539031 0 0.30177514978199971 0.3711373061071076 0 0.28705150305193838 0.35613499197806497 0 0.30177514978199971 0.3711373061071076 0 0.29106955940472562 0.3530243656434488 0 0.28705150305193838 0.35613499197806497 0 0.29405085274881382 0.37834813740539031 0 0.28458867991473008 0.36361942358965982 0 0.28403056220722062 0.37531448917755911 0 0.2815017213106239 0.3651550498314205 0 0.27898286169525299 0.37041503512408969 0 0.29405085274881382 0.37834813740539031 0 0.2815017213106239 0.3651550498314205 0 0.28403056220722062 0.37531448917755911 0 0.29405085274881382 0.37834813740539031 0 0.2815017213106239 0.3651550498314205 0 0.29405085274881382 0.37834813740539031 0 0.28458867991473008 0.36361942358965982 0 0.2815017213106239 0.3651550498314205 0 0.28403056220722062 0.37531448917755911 0 0.27898286169525299 0.37041503512408969 0 0.2737626695690904 0.37327007608818358 0 0.27663649369407689 0.36792052539919551 0 0.2737626695690904 0.37327007608818358 0 0.27125000512352843 0.36234153133647429 0 0.27405714121884811 0.38409687161834088 0 0.2737626695690904 0.37327007608818358 0 0.2618259464583832 0.36726095095448358 0 0.2815017213106239 0.3651550498314205 0 0.27898286169525299 0.37041503512408969 0 0.27663649369407689 0.36792052539919551 0 0.27898286169525299 0.37041503512408969 0 0.27663649369407689 0.36792052539919551 0 0.2737626695690904 0.37327007608818358 0 0.2737626695690904 0.37327007608818358 0 0.27125000512352843 0.36234153133647429 0 0.2618259464583832 0.36726095095448358 0 0.27125000512352843 0.36234153133647429 0 0.26895258987243392 0.3519619622574508 0 0.2618259464583832 0.36726095095448358 0 0.2815017213106239 0.3651550498314205 0 0.27125000512352843 0.36234153133647429 0 0.26895258987243392 0.3519619622574508 0 0.2815017213106239 0.3651550498314205 0 0.27663649369407689 0.36792052539919551 0 0.27125000512352843 0.36234153133647429 0 0.28458867991473008 0.36361942358965982 0 0.2815017213106239 0.3651550498314205 0 0.27543832275303448 0.34988028840297991 0 0.2815017213106239 0.3651550498314205 0 0.26895258987243392 0.3519619622574508 0 0.28458867991473008 0.36361942358965982 0 0.27543832275303448 0.34988028840297991 0 0.26895258987243392 0.3519619622574508 0 0.2618259464583832 0.36726095095448358 0 0.2684557314338783 0.34271033597269462 0 0.2815017213106239 0.3651550498314205 0 0.27543832275303448 0.34988028840297991 0 0.26895258987243392 0.3519619622574508 0 0.28705150305193838 0.35613499197806497 0 0.27543832275303448 0.34988028840297991 0 0.27644360280618341 0.34191623842927221 0 0.27543832275303448 0.34988028840297991 0 0.2684557314338783 0.34271033597269462 0 0.27644360280618341 0.34191623842927221 0 0.27543832275303448 0.34988028840297991 0 0.26895258987243392 0.3519619622574508 0 0.2684557314338783 0.34271033597269462 0 0.2618259464583832 0.36726095095448358 0 0.2684557314338783 0.34271033597269462 0 0.24521693247762111 0.35027114815259558 0 0.2618259464583832 0.36726095095448358 0 0.2684557314338783 0.34271033597269462 0 0.24305895760768401 0.36641304215893011 0 0.24521693247762111 0.35027114815259558 0 0.2618259464583832 0.36726095095448358 0 0.24490867605631639 0.32967072069511189 0 0.26050839607327853 0.32387463406168998 0 0.25114017462525878 0.31153615041935723 0 0.26050839607327853 0.32387463406168998 0 0.25114017462525878 0.31153615041935723 0 0.26342424027676908 0.31148804944983333 0 0.24490867605631639 0.32967072069511189 0 0.26050839607327853 0.32387463406168998 0 0.2684557314338783 0.34271033597269462 0 0.24490867605631639 0.32967072069511189 0 0.24521693247762111 0.35027114815259558 0 0.2684557314338783 0.34271033597269462 0 0.26050839607327853 0.32387463406168998 0 0.2684557314338783 0.34271033597269462 0 0.27508551640937329 0.31815972099090539 0 0.2684557314338783 0.34271033597269462 0 0.27508551640937329 0.31815972099090539 0 0.2684557314338783 0.34271033597269462 0 0.27787730485363338 0.33070420273373929 0 0.27508551640937329 0.31815972099090539 0 0.2684557314338783 0.34271033597269462 0 0.27644360280618341 0.34191623842927221 0 0.27787730485363338 0.33070420273373929 0 0.27644360280618341 0.34191623842927221 0 0.28036396902745148 0.33491142517978989 0 0.27787730485363338 0.33070420273373929 0 0.28036396902745148 0.33491142517978989 0 0.27787730485363338 0.33070420273373929 0 0.28036396902745148 0.33491142517978989 0 0.27787730485363338 0.33070420273373929 0 0.27508551640937329 0.31815972099090539 0 0.28036396902745148 0.33491142517978989 0 0.27508551640937329 0.31815972099090539 0 0.26050839607327853 0.32387463406168998 0 0.27508551640937329 0.31815972099090539 0 0.26342424027676908 0.31148804944983333 0 0.27584787744150779 0.31533663815394608 0 0.27508551640937329 0.31815972099090539 0 0.2839587577339367 0.31315639516335231 0 0.27584787744150779 0.31533663815394608 0 0.27508551640937329 0.31815972099090539 0 0.28036396902745148 0.33491142517978989 0 0.27508551640937329 0.31815972099090539 0 0.28884331716543121 0.32432796479040632 0 0.27508551640937329 0.31815972099090539 0 0.2839587577339367 0.31315639516335231 0 0.28884331716543121 0.32432796479040632 0 0.2839587577339367 0.31315639516335231 0 0.28884331716543121 0.32432796479040632 0 0.29436859405188742 0.31561290386725788 0 0.28884331716543121 0.32432796479040632 0 0.29436859405188742 0.31561290386725788 0 0.30372390616191358 0.32889084998335888 0 0.29106955940472562 0.3530243656434488 0 0.28036396902745148 0.33491142517978989 0 0.29374099595638509 0.3392252011883215 0 0.28036396902745148 0.33491142517978989 0 0.28884331716543121 0.32432796479040632 0 0.29374099595638509 0.3392252011883215 0 0.28884331716543121 0.32432796479040632 0 0.29374099595638509 0.3392252011883215 0 0.30372390616191358 0.32889084998335888 0 0.30274952797195698 0.35001407804523332 0 0.29374099595638509 0.3392252011883215 0 0.30372390616191358 0.32889084998335888 0 0.31445651652981632 0.33878768779705848 0 0.30274952797195698 0.35001407804523332 0 0.30372390616191358 0.32889084998335888 0 0.30274952797195698 0.35001407804523332 0 0.30372390616191358 0.32889084998335888 0 0.29436859405188742 0.31561290386725788 0 0.30372390616191358 0.32889084998335888 0 0.30469828435187041 0.30776762192148471 0 0.32122702449841589 0.32177081607522939 0 0.30372390616191358 0.32889084998335888 0 0.30469828435187041 0.30776762192148471 0 0.30372390616191358 0.32889084998335888 0 0.30469828435187041 0.30776762192148471 0 0.30469828435187041 0.30776762192148471 0 0.29887142377560671 0.29447355700322281 0 0.31975384086217118 0.29390073052843008 0 0.30469828435187041 0.30776762192148471 0 0.29887142377560671 0.29447355700322281 0 0.29061870484628499 0.30392168747768772 0 0.29887142377560671 0.29447355700322281 0 0.29803417524575498 0.27809430922643119 0 0.31975384086217118 0.29390073052843008 0 0.29887142377560671 0.29447355700322281 0 0.28125211357195179 0.28868343586208051 0 0.29803417524575498 0.27809430922643119 0 0.29887142377560671 0.29447355700322281 0 0.28125211357195179 0.28868343586208051 0 0.29061870484628499 0.30392168747768772 0 0.29436859405188742 0.31561290386725788 0 0.30469828435187041 0.30776762192148471 0 0.29061870484628499 0.30392168747768772 0 0.2839587577339367 0.31315639516335231 0 0.29436859405188742 0.31561290386725788 0 0.29061870484628499 0.30392168747768772 0 0.28125211357195179 0.28868343586208051 0 0.29061870484628499 0.30392168747768772 0 0.27979091010679558 0.3031930520058399 0 0.2839587577339367 0.31315639516335231 0 0.29061870484628499 0.30392168747768772 0 0.27979091010679558 0.3031930520058399 0 0.27584787744150779 0.31533663815394608 0 0.2839587577339367 0.31315639516335231 0 0.27979091010679558 0.3031930520058399 0 0.27584787744150779 0.31533663815394608 0 0.27979091010679558 0.3031930520058399 0 0.26696287399916629 0.2923816923273807 0 0.27508551640937329 0.31815972099090539 0 0.26696287399916629 0.2923816923273807 0 0.27508551640937329 0.31815972099090539 0 0.26696287399916629 0.2923816923273807 0 0.26342424027676908 0.31148804944983333 0 0.27584787744150779 0.31533663815394608 0 0.27508551640937329 0.31815972099090539 0 0.26696287399916629 0.2923816923273807 0 0.28125211357195179 0.28868343586208051 0 0.26696287399916629 0.2923816923273807 0 0.26185531842249993 0.2787869231154117 0 0.28125211357195179 0.28868343586208051 0 0.27979091010679558 0.3031930520058399 0 0.26696287399916629 0.2923816923273807 0 0.2454028482605469 0.29267792886045368 0 0.26696287399916629 0.2923816923273807 0 0.26185531842249993 0.2787869231154117 0 0.24818821145747599 0.27522177653690871 0 0.2454028482605469 0.29267792886045368 0 0.26185531842249993 0.2787869231154117 0 0.26696287399916629 0.2923816923273807 0 0.25114017462525878 0.31153615041935723 0 0.26342424027676908 0.31148804944983333 0 0.2454028482605469 0.29267792886045368 0 0.26696287399916629 0.2923816923273807 0 0.25114017462525878 0.31153615041935723 0 0.25404003316197471 0.25208422786308371 0 0.25530776412370298 0.26639583896058622 0 0.27103688063193948 0.26427270241964718 0 0.24090080429007341 0.26281353644332878 0 0.25404003316197471 0.25208422786308371 0 0.25530776412370298 0.26639583896058622 0 0.25530776412370298 0.26639583896058622 0 0.26185531842249993 0.2787869231154117 0 0.27103688063193948 0.26427270241964718 0 0.24818821145747599 0.27522177653690871 0 0.25530776412370298 0.26639583896058622 0 0.26185531842249993 0.2787869231154117 0 0.28125211357195179 0.28868343586208051 0 0.26185531842249993 0.2787869231154117 0 0.27103688063193948 0.26427270241964718 0 0.25404003316197471 0.25208422786308371 0 0.27103688063193948 0.26427270241964718 0 0.27355486584907379 0.24364475180805101 0 0.27103688063193948 0.26427270241964718 0 0.29692855903906679 0.25537037528416417 0 0.27355486584907379 0.24364475180805101 0 0.27103688063193948 0.26427270241964718 0 0.29803417524575498 0.27809430922643119 0 0.29692855903906679 0.25537037528416417 0 0.28125211357195179 0.28868343586208051 0 0.27103688063193948 0.26427270241964718 0 0.29803417524575498 0.27809430922643119 0 0.29803417524575498 0.27809430922643119 0 0.29692855903906679 0.25537037528416417 0 0.32239972953691409 0.26902358330948362 0 0.29692855903906679 0.25537037528416417 0 0.32239972953691409 0.26902358330948362 0 0.32448256229391081 0.244023600812113 0 0.34859232732963041 0.2656914204712259 0 0.32448256229391081 0.244023600812113 0 0.35052125483258301 0.2434514759103418 0 0.32239972953691409 0.26902358330948362 0 0.34859232732963041 0.2656914204712259 0 0.32448256229391081 0.244023600812113 0 0.32239972953691409 0.26902358330948362 0 0.34580587121379802 0.29027056413174801 0 0.34859232732963041 0.2656914204712259 0 0.32239972953691409 0.26902358330948362 0 0.34859232732963041 0.2656914204712259 0 0.29803417524575498 0.27809430922643119 0 0.32239972953691409 0.26902358330948362 0 0.31975384086217118 0.29390073052843008 0 0.32122702449841589 0.32177081607522939 0 0.30469828435187041 0.30776762192148471 0 0.31975384086217118 0.29390073052843008 0 0.32122702449841589 0.32177081607522939 0 0.31975384086217118 0.29390073052843008 0 0.33644502425256478 0.30910566618648461 0 0.31975384086217118 0.29390073052843008 0 0.33644502425256478 0.30910566618648461 0 0.34580587121379802 0.29027056413174801 0 0.32239972953691409 0.26902358330948362 0 0.31975384086217118 0.29390073052843008 0 0.34580587121379802 0.29027056413174801 0 0.34580587121379802 0.29027056413174801 0 0.35183379698966949 0.31056891257481539 0 0.36606901625265492 0.30223218437601618 0 0.33644502425256478 0.30910566618648461 0 0.34580587121379802 0.29027056413174801 0 0.35183379698966949 0.31056891257481539 0 0.36562923609293069 0.32366592916769399 0 0.35183379698966949 0.31056891257481539 0 0.36606901625265492 0.30223218437601618 0 0.36606901625265492 0.30223218437601618 0 0.37288852905391068 0.28307277276217568 0 0.38313639778678782 0.29894980138166888 0 0.34580587121379802 0.29027056413174801 0 0.36606901625265492 0.30223218437601618 0 0.37288852905391068 0.28307277276217568 0 0.37288852905391068 0.28307277276217568 0 0.37478492512234668 0.26235925763296819 0 0.34859232732963041 0.2656914204712259 0 0.37478492512234668 0.26235925763296819 0 0.34859232732963041 0.2656914204712259 0 0.37478492512234668 0.26235925763296819 0 0.34859232732963041 0.2656914204712259 0 0.35052125483258301 0.2434514759103418 0 0.34580587121379802 0.29027056413174801 0 0.37288852905391068 0.28307277276217568 0 0.34859232732963041 0.2656914204712259 0 0.40237095019481112 0.27711100542787093 0 0.40097752291506289 0.25902709479471048 0 0.38795285511664351 0.27501277358291848 0 0.40237095019481112 0.27711100542787093 0 0.38795285511664351 0.27501277358291848 0 0.39245341439736259 0.28869000139839213 0 0.37478492512234668 0.26235925763296819 0 0.40097752291506289 0.25902709479471048 0 0.37478492512234668 0.26235925763296819 0 0.40097752291506289 0.25902709479471048 0 0.38795285511664351 0.27501277358291848 0 0.37478492512234668 0.26235925763296819 0 0.40097752291506289 0.25902709479471048 0 0.39333580902427501 0.24081282939082621 0 0.37288852905391068 0.28307277276217568 0 0.37478492512234668 0.26235925763296819 0 0.38795285511664351 0.27501277358291848 0 0.37288852905391068 0.28307277276217568 0 0.38795285511664351 0.27501277358291848 0 0.39245341439736259 0.28869000139839213 0 0.37288852905391068 0.28307277276217568 0 0.38313639778678782 0.29894980138166888 0 0.39245341439736259 0.28869000139839213 0 0.38313639778678782 0.29894980138166888 0 0.40184121301557668 0.30678024061641418 0 0.38242981621443428 0.31397380775534678 0 0.36606901625265492 0.30223218437601618 0 0.38313639778678782 0.29894980138166888 0 0.38242981621443428 0.31397380775534678 0 0.38313639778678782 0.29894980138166888 0 0.40184121301557668 0.30678024061641418 0 0.39245341439736259 0.28869000139839213 0 0.40184121301557668 0.30678024061641418 0 0.39245341439736259 0.28869000139839213 0 0.4080647950624654 0.29173952990842672 0 0.40237095019481112 0.27711100542787093 0 0.39245341439736259 0.28869000139839213 0 0.4080647950624654 0.29173952990842672 0 0.4080647950624654 0.29173952990842672 0 0.42111158276914429 0.29961990628964941 0 0.41801819212357011 0.2740782959756311 0 0.42111158276914429 0.29961990628964941 0 0.41801819212357011 0.2740782959756311 0 0.42111158276914429 0.29961990628964941 0 0.41431845905081632 0.31211616404088999 0 0.42420497341471841 0.32516151660366771 0 0.40184121301557668 0.30678024061641418 0 0.41169384258873692 0.3030193229363472 0 0.41431845905081632 0.31211616404088999 0 0.4080647950624654 0.29173952990842672 0 0.41169384258873692 0.3030193229363472 0 0.42111158276914429 0.29961990628964941 0 0.40184121301557668 0.30678024061641418 0 0.4080647950624654 0.29173952990842672 0 0.41169384258873692 0.3030193229363472 0 0.41169384258873692 0.3030193229363472 0 0.42111158276914429 0.29961990628964941 0 0.41431845905081632 0.31211616404088999 0 0.42111158276914429 0.29961990628964941 0 0.42420497341471841 0.32516151660366771 0 0.42111158276914429 0.29961990628964941 0 0.42968026012840121 0.30115694743242971 0 0.43130474666914309 0.31304161877190062 0 0.42968026012840121 0.30115694743242971 0 0.44258646999382029 0.30990113159980692 0 0.42968026012840121 0.30115694743242971 0 0.44258646999382029 0.30990113159980692 0 0.43130474666914309 0.31304161877190062 0 0.42111158276914429 0.29961990628964941 0 0.42800801910193731 0.28582653817902792 0 0.41801819212357011 0.2740782959756311 0 0.42968026012840121 0.30115694743242971 0 0.42800801910193731 0.28582653817902792 0 0.44797459424715858 0.28113195035900113 0 0.42111158276914429 0.29961990628964941 0 0.42968026012840121 0.30115694743242971 0 0.42800801910193731 0.28582653817902792 0 0.4349067289361882 0.26981889711766149 0 0.41801819212357011 0.2740782959756311 0 0.42717012070777932 0.25569493195645271 0 0.42800801910193731 0.28582653817902792 0 0.4349067289361882 0.26981889711766149 0 0.44797459424715858 0.28113195035900113 0 0.42800801910193731 0.28582653817902792 0 0.4349067289361882 0.26981889711766149 0 0.41801819212357011 0.2740782959756311 0 0.40237095019481112 0.27711100542787093 0 0.4080647950624654 0.29173952990842672 0 0.41801819212357011 0.2740782959756311 0 0.40237095019481112 0.27711100542787093 0 0.40097752291506289 0.25902709479471048 0 0.41801819212357011 0.2740782959756311 0 0.40097752291506289 0.25902709479471048 0 0.42717012070777932 0.25569493195645271 0 0.40097752291506289 0.25902709479471048 0 0.41801819212357011 0.2740782959756311 0 0.42717012070777932 0.25569493195645271 0 0.40097752291506289 0.25902709479471048 0 0.42717012070777932 0.25569493195645271 0 0.41286841049430861 0.24788583003777651 0 0.42717012070777932 0.25569493195645271 0 0.45336271850049548 0.25236276911819511 0 0.42717012070777932 0.25569493195645271 0 0.45336271850049548 0.25236276911819511 0 0.44134696414428898 0.24814556957704689 0 0.4349067289361882 0.26981889711766149 0 0.42717012070777932 0.25569493195645271 0 0.45336271850049548 0.25236276911819511 0 0.44797459424715858 0.28113195035900113 0 0.45336271850049548 0.25236276911819511 0 0.4349067289361882 0.26981889711766149 0 0.44797459424715858 0.28113195035900113 0 0.45336271850049548 0.25236276911819511 0 0.44797459424715858 0.28113195035900113 0 0.46860043072286323 0.26090172283992602 0 0.47518926652314969 0.27560515809727743 0 0.44797459424715858 0.28113195035900113 0 0.45336271850049548 0.25236276911819511 0 0.46860043072286323 0.26090172283992602 0 0.45336271850049548 0.25236276911819511 0 0.46860043072286323 0.26090172283992602 0 0.48180965237011408 0.2487438147612096 0 0.45336271850049548 0.25236276911819511 0 0.48180965237011408 0.2487438147612096 0 0.46860043072286323 0.26090172283992602 0 0.48241006781490819 0.26268970127635521 0 0.48180965237011408 0.2487438147612096 0 0.46860043072286323 0.26090172283992602 0 0.48241006781490819 0.26268970127635521 0 0.47518926652314969 0.27560515809727743 0 0.48241006781490819 0.26268970127635521 0 0.47518926652314969 0.27560515809727743 0 0.48864569132575902 0.27555399191102209 0 0.48864569132575902 0.27555399191102209 0 0.5 0.25788891558126559 0 0.5 0.28784398070901179 0 0.48241006781490819 0.26268970127635521 0 0.5 0.25788891558126559 0 0.48180965237011408 0.2487438147612096 0 0.48241006781490819 0.26268970127635521 0 0.48864569132575902 0.27555399191102209 0 0.5 0.25788891558126559 0 0.49687855588093471 0.30562269631142192 0 0.5 0.28784398070901179 0 0.5 0.31779904583675789 0 0.48491490847636098 0.30901068293115042 0 0.49687855588093471 0.30562269631142192 0 0.48562912229073679 0.29374220389120048 0 0.48491490847636098 0.30901068293115042 0 0.49687855588093471 0.30562269631142192 0 0.48893996521802741 0.32077530068026477 0 0.48864569132575902 0.27555399191102209 0 0.5 0.28784398070901179 0 0.48562912229073679 0.29374220389120048 0 0.49687855588093471 0.30562269631142192 0 0.5 0.28784398070901179 0 0.48562912229073679 0.29374220389120048 0 0.47518926652314969 0.27560515809727743 0 0.48864569132575902 0.27555399191102209 0 0.48562912229073679 0.29374220389120048 0 0.47518926652314969 0.27560515809727743 0 0.48562912229073679 0.29374220389120048 0 0.46816558308298489 0.29083511245767268 0 0.48562912229073679 0.29374220389120048 0 0.47222103054853309 0.30536857664361422 0 0.46816558308298489 0.29083511245767268 0 0.48491490847636098 0.30901068293115042 0 0.48562912229073679 0.29374220389120048 0 0.47222103054853309 0.30536857664361422 0 0.48491490847636098 0.30901068293115042 0 0.47222103054853309 0.30536857664361422 0 0.47648252662976798 0.31886183994020412 0 0.47222103054853309 0.30536857664361422 0 0.45866337291811637 0.30169365927876157 0 0.46179392227446953 0.32291451832445861 0 0.45866337291811637 0.30169365927876157 0 0.44258646999382029 0.30990113159980692 0 0.46179392227446953 0.32291451832445861 0 0.47222103054853309 0.30536857664361422 0 0.45866337291811637 0.30169365927876157 0 0.46816558308298489 0.29083511245767268 0 0.44797459424715858 0.28113195035900113 0 0.45866337291811637 0.30169365927876157 0 0.46816558308298489 0.29083511245767268 0 0.44797459424715858 0.28113195035900113 0 0.47518926652314969 0.27560515809727743 0 0.46816558308298489 0.29083511245767268 0 0.44797459424715858 0.28113195035900113 0 0.44258646999382029 0.30990113159980692 0 0.42968026012840121 0.30115694743242971 0 0.44797459424715858 0.28113195035900113 0 0.44258646999382029 0.30990113159980692 0 0.44797459424715858 0.28113195035900113 0 0.45866337291811637 0.30169365927876157 0 0.44258646999382029 0.30990113159980692 0 0.44258646999382029 0.30990113159980692 0 0.46179392227446953 0.32291451832445861 0 0.44258646999382029 0.30990113159980692 0 0.43894044703962998 0.32936859193394902 0 0.46179392227446953 0.32291451832445861 0 0.44258646999382029 0.30990113159980692 0 0.43894044703962998 0.32936859193394902 0 0.44258646999382029 0.30990113159980692 0 0.43894044703962998 0.32936859193394902 0 0.43130474666914309 0.31304161877190062 0 0.43894044703962998 0.32936859193394902 0 0.45181909328986353 0.33594590439129729 0 0.43529442408543872 0.34883605226809089 0 0.43894044703962998 0.32936859193394902 0 0.45181909328986353 0.33594590439129729 0 0.46179392227446953 0.32291451832445861 0 0.45181909328986353 0.33594590439129729 0 0.46495921083649527 0.33796731498031379 0 0.45493863887308472 0.34850758154427958 0 0.45181909328986353 0.33594590439129729 0 0.46495921083649527 0.33796731498031379 0 0.46179392227446953 0.32291451832445861 0 0.47648252662976798 0.31886183994020412 0 0.48100137455512032 0.33592790504910791 0 0.48893996521802741 0.32077530068026477 0 0.46179392227446953 0.32291451832445861 0 0.47648252662976798 0.31886183994020412 0 0.48100137455512032 0.33592790504910791 0 0.47222103054853309 0.30536857664361422 0 0.46179392227446953 0.32291451832445861 0 0.47648252662976798 0.31886183994020412 0 0.48491490847636098 0.30901068293115042 0 0.47648252662976798 0.31886183994020412 0 0.48893996521802741 0.32077530068026477 0 0.46179392227446953 0.32291451832445861 0 0.48100137455512032 0.33592790504910791 0 0.46495921083649527 0.33796731498031379 0 0.48100137455512032 0.33592790504910791 0 0.47458285366073072 0.34817911082046721 0 0.46495921083649527 0.33796731498031379 0 0.46179392227446953 0.32291451832445861 0 0.48100137455512032 0.33592790504910791 0 0.48100137455512032 0.33592790504910791 0 0.47458285366073072 0.34817911082046721 0 0.48100137455512032 0.33592790504910791 0 0.48893996521802741 0.32077530068026477 0 0.48100137455512032 0.33592790504910791 0 0.4984937498586452 0.34777929695842291 0 0.5 0.31779904583675789 0 0.48893996521802741 0.32077530068026477 0 0.4984937498586452 0.34777929695842291 0 0.5 0.31779904583675789 0 0.4984937498586452 0.34777929695842291 0 0.50000000000000433 0.34775411096450393 0 0.48100137455512032 0.33592790504910791 0 0.48893996521802741 0.32077530068026477 0 0.4984937498586452 0.34777929695842291 0 0.49687855588093471 0.30562269631142192 0 0.48893996521802741 0.32077530068026477 0 0.49687855588093471 0.30562269631142192 0 0.5 0.31779904583675789 0 0.48893996521802741 0.32077530068026477 0 0.5 0.37175840028027313 0 0.48688174284785979 0.35971936811564431 0 0.50000000000000433 0.34775411096450393 0 0.5 0.37175840028027313 0 0.48688174284785979 0.35971936811564431 0 0.48177296974371542 0.3780796821533936 0 0.48100137455512032 0.33592790504910791 0 0.4984937498586452 0.34777929695842291 0 0.47458285366073072 0.34817911082046721 0 0.48688174284785979 0.35971936811564431 0 0.4984937498586452 0.34777929695842291 0 0.47458285366073072 0.34817911082046721 0 0.48688174284785979 0.35971936811564431 0 0.4984937498586452 0.34777929695842291 0 0.50000000000000433 0.34775411096450393 0 0.4984937498586452 0.34777929695842291 0 0.47458285366073072 0.34817911082046721 0 0.4984937498586452 0.34777929695842291 0 0.50000000000000433 0.34775411096450393 0 0.48688174284785979 0.35971936811564431 0 0.47458285366073072 0.34817911082046721 0 0.46644088382406917 0.36371991056145853 0 0.47458285366073072 0.34817911082046721 0 0.46644088382406917 0.36371991056145853 0 0.46644088382406917 0.36371991056145853 0 0.45829891398740957 0.37926071030245079 0 0.48177296974371542 0.3780796821533936 0 0.48688174284785979 0.35971936811564431 0 0.46644088382406917 0.36371991056145853 0 0.48177296974371542 0.3780796821533936 0 0.46644088382406917 0.36371991056145853 0 0.45829891398740957 0.37926071030245079 0 0.46644088382406917 0.36371991056145853 0 0.45450488254489102 0.36219879314378839 0 0.45829891398740957 0.37926071030245079 0 0.46495921083649527 0.33796731498031379 0 0.47458285366073072 0.34817911082046721 0 0.45493863887308472 0.34850758154427958 0 0.47458285366073072 0.34817911082046721 0 0.45493863887308472 0.34850758154427958 0 0.47458285366073072 0.34817911082046721 0 0.46644088382406917 0.36371991056145853 0 0.45493863887308472 0.34850758154427958 0 0.46644088382406917 0.36371991056145853 0 0.45450488254489102 0.36219879314378839 0 0.45493863887308472 0.34850758154427958 0 0.45181909328986353 0.33594590439129729 0 0.45493863887308472 0.34850758154427958 0 0.43529442408543872 0.34883605226809089 0 0.45493863887308472 0.34850758154427958 0 0.44448268479035308 0.35511800724889642 0 0.43529442408543872 0.34883605226809089 0 0.45493863887308472 0.34850758154427958 0 0.43529442408543872 0.34883605226809089 0 0.45450488254489102 0.36219879314378839 0 0.45493863887308472 0.34850758154427958 0 0.44448268479035308 0.35511800724889642 0 0.44448268479035308 0.35511800724889642 0 0.44279863902385319 0.36498191861006751 0 0.43487683942449812 0.35106569067825599 0 0.44448268479035308 0.35511800724889642 0 0.43529442408543872 0.34883605226809089 0 0.43487683942449812 0.35106569067825599 0 0.45450488254489102 0.36219879314378839 0 0.44279863902385319 0.36498191861006751 0 0.45829891398740957 0.37926071030245079 0 0.44279863902385319 0.36498191861006751 0 0.45829891398740957 0.37926071030245079 0 0.45450488254489102 0.36219879314378839 0 0.44448268479035308 0.35511800724889642 0 0.44279863902385319 0.36498191861006751 0 0.42892444364691579 0.3641293946929936 0 0.42225433889660879 0.37545697575276449 0 0.43605286711449009 0.38080977408974359 0 0.44279863902385319 0.36498191861006751 0 0.42892444364691579 0.3641293946929936 0 0.43605286711449009 0.38080977408974359 0 0.44279863902385319 0.36498191861006751 0 0.42892444364691579 0.3641293946929936 0 0.42729836406029548 0.35070312691768563 0 0.42892444364691579 0.3641293946929936 0 0.41660844069210962 0.35988002802349189 0 0.42225433889660879 0.37545697575276449 0 0.41660844069210962 0.35988002802349189 0 0.40918213701441342 0.3736144609854074 0 0.42225433889660879 0.37545697575276449 0 0.41660844069210962 0.35988002802349189 0 0.40918213701441342 0.3736144609854074 0 0.40205795884979889 0.36380219258680641 0 0.40642652845595439 0.35168475710611302 0 0.41593005466970517 0.35003896004439389 0 0.41338688547046137 0.33788792813028518 0 0.41660844069210962 0.35988002802349189 0 0.40642652845595439 0.35168475710611302 0 0.40205795884979889 0.36380219258680641 0 0.41660844069210962 0.35988002802349189 0 0.40642652845595439 0.35168475710611302 0 0.41593005466970517 0.35003896004439389 0 0.41660844069210962 0.35988002802349189 0 0.41593005466970517 0.35003896004439389 0 0.42729836406029548 0.35070312691768563 0 0.42729836406029548 0.35070312691768563 0 0.41338688547046137 0.33788792813028518 0 0.41593005466970517 0.35003896004439389 0 0.42729836406029548 0.35070312691768563 0 0.41338688547046137 0.33788792813028518 0 0.42892444364691579 0.3641293946929936 0 0.41660844069210962 0.35988002802349189 0 0.42729836406029548 0.35070312691768563 0 0.42892444364691579 0.3641293946929936 0 0.42729836406029548 0.35070312691768563 0 0.44279863902385319 0.36498191861006751 0 0.42729836406029548 0.35070312691768563 0 0.43487683942449812 0.35106569067825599 0 0.44279863902385319 0.36498191861006751 0 0.42729836406029548 0.35070312691768563 0 0.43109136567724748 0.3489063315667284 0 0.43529442408543872 0.34883605226809089 0 0.42729836406029548 0.35070312691768563 0 0.43109136567724748 0.3489063315667284 0 0.43487683942449812 0.35106569067825599 0 0.43109136567724748 0.3489063315667284 0 0.43529442408543872 0.34883605226809089 0 0.43487683942449812 0.35106569067825599 0 0.43529442408543872 0.34883605226809089 0 0.43487683942449812 0.35106569067825599 0 0.42729836406029548 0.35070312691768563 0 0.42420497341471841 0.32516151660366771 0 0.43894044703962998 0.32936859193394902 0 0.43529442408543872 0.34883605226809089 0 0.43894044703962998 0.32936859193394902 0 0.43109136567724748 0.3489063315667284 0 0.43529442408543872 0.34883605226809089 0 0.42729836406029548 0.35070312691768563 0 0.43109136567724748 0.3489063315667284 0 0.42420497341471841 0.32516151660366771 0 0.43894044703962998 0.32936859193394902 0 0.43109136567724748 0.3489063315667284 0 0.42420497341471841 0.32516151660366771 0 0.43894044703962998 0.32936859193394902 0 0.43130474666914309 0.31304161877190062 0 0.42420497341471841 0.32516151660366771 0 0.42111158276914429 0.29961990628964941 0 0.43130474666914309 0.31304161877190062 0 0.42420497341471841 0.32516151660366771 0 0.40184121301557668 0.30678024061641418 0 0.41431845905081632 0.31211616404088999 0 0.41140534993910638 0.32360132811636988 0 0.41431845905081632 0.31211616404088999 0 0.42420497341471841 0.32516151660366771 0 0.41140534993910638 0.32360132811636988 0 0.42729836406029548 0.35070312691768563 0 0.42420497341471841 0.32516151660366771 0 0.41338688547046137 0.33788792813028518 0 0.42420497341471841 0.32516151660366771 0 0.41140534993910638 0.32360132811636988 0 0.41338688547046137 0.33788792813028518 0 0.41140534993910638 0.32360132811636988 0 0.41338688547046137 0.33788792813028518 0 0.39947540688062583 0.32507272934288628 0 0.41338688547046137 0.33788792813028518 0 0.39947540688062583 0.32507272934288628 0 0.40642652845595439 0.35168475710611302 0 0.41338688547046137 0.33788792813028518 0 0.39105145014164849 0.3414869239971704 0 0.41338688547046137 0.33788792813028518 0 0.39105145014164849 0.3414869239971704 0 0.39947540688062583 0.32507272934288628 0 0.40184121301557668 0.30678024061641418 0 0.41140534993910638 0.32360132811636988 0 0.39947540688062583 0.32507272934288628 0 0.40184121301557668 0.30678024061641418 0 0.39947540688062583 0.32507272934288628 0 0.38242981621443428 0.31397380775534678 0 0.36562923609293069 0.32366592916769399 0 0.38242981621443428 0.31397380775534678 0 0.38128435600444488 0.32837669887387311 0 0.39947540688062583 0.32507272934288628 0 0.38242981621443428 0.31397380775534678 0 0.38128435600444488 0.32837669887387311 0 0.39105145014164849 0.3414869239971704 0 0.39947540688062583 0.32507272934288628 0 0.38128435600444488 0.32837669887387311 0 0.36518945593320651 0.34509967395937191 0 0.39105145014164849 0.3414869239971704 0 0.38128435600444488 0.32837669887387311 0 0.36518945593320651 0.34509967395937191 0 0.39105145014164849 0.3414869239971704 0 0.3855881021147175 0.35910908792858098 0 0.36474967577348072 0.36653341875104961 0 0.3855881021147175 0.35910908792858098 0 0.3855881021147175 0.35910908792858098 0 0.39248458597179969 0.37472262889043839 0 0.3773824667175657 0.37546563606013739 0 0.36474967577348072 0.36653341875104961 0 0.3855881021147175 0.35910908792858098 0 0.3773824667175657 0.37546563606013739 0 0.40918213701441342 0.3736144609854074 0 0.39248458597179969 0.37472262889043839 0 0.40205795884979889 0.36380219258680641 0 0.3855881021147175 0.35910908792858098 0 0.39248458597179969 0.37472262889043839 0 0.40205795884979889 0.36380219258680641 0 0.40642652845595439 0.35168475710611302 0 0.39105145014164849 0.3414869239971704 0 0.3855881021147175 0.35910908792858098 0 0.40642652845595439 0.35168475710611302 0 0.3855881021147175 0.35910908792858098 0 0.40642652845595439 0.35168475710611302 0 0.3855881021147175 0.35910908792858098 0 0.40205795884979889 0.36380219258680641 0 0.39221066862400811 0.40518894945558848 0 0.39940032860097008 0.38986983405391068 0 0.41033309730305728 0.40785957742124029 0 0.40918213701441342 0.3736144609854074 0 0.39248458597179969 0.37472262889043839 0 0.39940032860097008 0.38986983405391068 0 0.39248458597179969 0.37472262889043839 0 0.39940032860097008 0.38986983405391068 0 0.38026367080056678 0.39066664182047522 0 0.39248458597179969 0.37472262889043839 0 0.3773824667175657 0.37546563606013739 0 0.38026367080056678 0.39066664182047522 0 0.39221066862400811 0.40518894945558848 0 0.39940032860097008 0.38986983405391068 0 0.38026367080056678 0.39066664182047522 0 0.39221066862400811 0.40518894945558848 0 0.38026367080056678 0.39066664182047522 0 0.37744029411777058 0.41252948965876268 0 0.39221066862400811 0.40518894945558848 0 0.37744029411777058 0.41252948965876268 0 0.39361595229767549 0.42501920432355378 0 0.365542703577178 0.42914551292816783 0 0.39361595229767549 0.42501920432355378 0 0.37809165231809289 0.44568724501072521 0 0.365542703577178 0.42914551292816783 0 0.37744029411777058 0.41252948965876268 0 0.39361595229767549 0.42501920432355378 0 0.365542703577178 0.42914551292816783 0 0.39361595229767549 0.42501920432355378 0 0.39361595229767549 0.42501920432355378 0 0.41035062152962531 0.4256058815429955 0 0.40092741287151468 0.44093224530230651 0 0.39361595229767549 0.42501920432355378 0 0.40092741287151468 0.44093224530230651 0 0.37809165231809289 0.44568724501072521 0 0.39361595229767549 0.42501920432355378 0 0.41033309730305728 0.40785957742124029 0 0.41035062152962531 0.4256058815429955 0 0.39221066862400811 0.40518894945558848 0 0.39361595229767549 0.42501920432355378 0 0.41033309730305728 0.40785957742124029 0 0.41033309730305728 0.40785957742124029 0 0.41035062152962531 0.4256058815429955 0 0.42646345733135449 0.42088686527347441 0 0.41035062152962531 0.4256058815429955 0 0.4216403136361262 0.43569606407888728 0 0.42646345733135449 0.42088686527347441 0 0.41035062152962531 0.4256058815429955 0 0.4216403136361262 0.43569606407888728 0 0.40092741287151468 0.44093224530230651 0 0.43504649219903713 0.43385430946487219 0 0.42646345733135449 0.42088686527347441 0 0.44292677264660579 0.42392515796168401 0 0.4216403136361262 0.43569606407888728 0 0.43504649219903713 0.43385430946487219 0 0.42646345733135449 0.42088686527347441 0 0.4216403136361262 0.43569606407888728 0 0.43504649219903713 0.43385430946487219 0 0.4309855774719657 0.44262377444488737 0 0.41033309730305728 0.40785957742124029 0 0.42646345733135449 0.42088686527347441 0 0.43473852811684172 0.40482082561786309 0 0.42646345733135449 0.42088686527347441 0 0.43473852811684172 0.40482082561786309 0 0.44292677264660579 0.42392515796168401 0 0.43473852811684172 0.40482082561786309 0 0.42003555557297712 0.38799376876492359 0 0.43605286711449009 0.38080977408974359 0 0.41033309730305728 0.40785957742124029 0 0.43473852811684172 0.40482082561786309 0 0.42003555557297712 0.38799376876492359 0 0.39940032860097008 0.38986983405391068 0 0.41033309730305728 0.40785957742124029 0 0.42003555557297712 0.38799376876492359 0 0.40918213701441342 0.3736144609854074 0 0.39940032860097008 0.38986983405391068 0 0.42003555557297712 0.38799376876492359 0 0.40918213701441342 0.3736144609854074 0 0.42003555557297712 0.38799376876492359 0 0.42225433889660879 0.37545697575276449 0 0.42003555557297712 0.38799376876492359 0 0.42225433889660879 0.37545697575276449 0 0.43605286711449009 0.38080977408974359 0 0.44279863902385319 0.36498191861006751 0 0.43605286711449009 0.38080977408974359 0 0.45829891398740957 0.37926071030245079 0 0.43605286711449009 0.38080977408974359 0 0.44916269767969552 0.39669925538146661 0 0.45829891398740957 0.37926071030245079 0 0.43473852811684172 0.40482082561786309 0 0.43605286711449009 0.38080977408974359 0 0.44916269767969552 0.39669925538146661 0 0.43473852811684172 0.40482082561786309 0 0.44916269767969552 0.39669925538146661 0 0.45819524916971172 0.41557138043250991 0 0.44916269767969552 0.39669925538146661 0 0.47914945699370431 0.3984681476517854 0 0.45819524916971172 0.41557138043250991 0 0.44916269767969552 0.39669925538146661 0 0.45829891398740957 0.37926071030245079 0 0.47914945699370431 0.3984681476517854 0 0.45829891398740957 0.37926071030245079 0 0.47914945699370431 0.3984681476517854 0 0.44916269767969552 0.39669925538146661 0 0.45829891398740957 0.37926071030245079 0 0.45829891398740957 0.37926071030245079 0 0.48177296974371542 0.3780796821533936 0 0.47914945699370431 0.3984681476517854 0 0.47914945699370431 0.3984681476517854 0 0.5 0.39471699264069632 0 0.49999999999999928 0.41767558500111929 0 0.48177296974371542 0.3780796821533936 0 0.47914945699370431 0.3984681476517854 0 0.5 0.39471699264069632 0 0.5 0.37175840028027313 0 0.48177296974371542 0.3780796821533936 0 0.5 0.39471699264069632 0 0.48950419912568011 0.43203648207583117 0 0.49999999999999928 0.41767558500111929 0 0.47941257652712138 0.42859526255965119 0 0.48950419912568011 0.43203648207583117 0 0.49999999999999928 0.41767558500111929 0 0.50000000000000022 0.44212157098762489 0 0.49999999999999928 0.41767558500111929 0 0.47638758820359789 0.4177788365799131 0 0.47941257652712138 0.42859526255965119 0 0.47914945699370431 0.3984681476517854 0 0.49999999999999928 0.41767558500111929 0 0.47638758820359789 0.4177788365799131 0 0.47914945699370431 0.3984681476517854 0 0.49999999999999928 0.41767558500111929 0 0.47914945699370431 0.3984681476517854 0 0.47638758820359789 0.4177788365799131 0 0.45819524916971172 0.41557138043250991 0 0.47638758820359789 0.4177788365799131 0 0.46959145424244531 0.42892785421681912 0 0.47941257652712138 0.42859526255965119 0 0.48950419912568011 0.43203648207583117 0 0.47941257652712138 0.42859526255965119 0 0.47860421997559988 0.43975350975492877 0 0.46959145424244531 0.42892785421681912 0 0.47941257652712138 0.42859526255965119 0 0.47860421997559988 0.43975350975492877 0 0.46959145424244531 0.42892785421681912 0 0.45720843995119947 0.43738544852223271 0 0.45819524916971172 0.41557138043250991 0 0.46959145424244531 0.42892785421681912 0 0.45720843995119947 0.43738544852223271 0 0.47860421997559988 0.43975350975492877 0 0.47638758820359789 0.4177788365799131 0 0.46959145424244531 0.42892785421681912 0 0.45819524916971172 0.41557138043250991 0 0.43473852811684172 0.40482082561786309 0 0.45819524916971172 0.41557138043250991 0 0.44292677264660579 0.42392515796168401 0 0.45720843995119947 0.43738544852223271 0 0.45819524916971172 0.41557138043250991 0 0.44292677264660579 0.42392515796168401 0 0.45720843995119947 0.43738544852223271 0 0.44292677264660579 0.42392515796168401 0 0.44501475256406542 0.43710487641451851 0 0.43504649219903713 0.43385430946487219 0 0.44292677264660579 0.42392515796168401 0 0.44501475256406542 0.43710487641451851 0 0.44501475256406542 0.43710487641451851 0 0.44086930591740259 0.443703986550611 0 0.44426520485267701 0.44828521544284999 0 0.43504649219903713 0.43385430946487219 0 0.44501475256406542 0.43710487641451851 0 0.44086930591740259 0.443703986550611 0 0.44576605402647751 0.45131382091928901 0 0.43097115028835131 0.45382894378787952 0 0.4371491165808723 0.44919465112914592 0 0.44086930591740259 0.443703986550611 0 0.44106718496795649 0.44783878756079798 0 0.4371491165808723 0.44919465112914592 0 0.44106718496795649 0.44783878756079798 0 0.44576605402647751 0.45131382091928901 0 0.4371491165808723 0.44919465112914592 0 0.44086930591740259 0.443703986550611 0 0.44426520485267701 0.44828521544284999 0 0.44106718496795649 0.44783878756079798 0 0.44426520485267701 0.44828521544284999 0 0.44576605402647751 0.45131382091928901 0 0.44086930591740259 0.443703986550611 0 0.44106718496795649 0.44783878756079798 0 0.44426520485267701 0.44828521544284999 0 0.45720843995119947 0.43738544852223271 0 0.44501475256406542 0.43710487641451851 0 0.44426520485267701 0.44828521544284999 0 0.44576605402647751 0.45131382091928901 0 0.44334270512280699 0.46695283516179431 0 0.45751300038554987 0.46615712058798953 0 0.44426520485267701 0.44828521544284999 0 0.45751300038554987 0.46615712058798953 0 0.44576605402647751 0.45131382091928901 0 0.44334270512280699 0.46695283516179431 0 0.42744619309891668 0.4675425472795256 0 0.44426520485267701 0.44828521544284999 0 0.44576605402647751 0.45131382091928901 0 0.45751300038554987 0.46615712058798953 0 0.44426520485267701 0.44828521544284999 0 0.45751300038554987 0.46615712058798953 0 0.47213260242633898 0.44992772785007767 0 0.44426520485267701 0.44828521544284999 0 0.47213260242633898 0.44992772785007767 0 0.45720843995119947 0.43738544852223271 0 0.47860421997559988 0.43975350975492877 0 0.45720843995119947 0.43738544852223271 0 0.44426520485267701 0.44828521544284999 0 0.47213260242633898 0.44992772785007767 0 0.47213260242633898 0.44992772785007767 0 0.47860421997559988 0.43975350975492877 0 0.50000000000000067 0.45157024025730719 0 0.45720843995119947 0.43738544852223271 0 0.47213260242633898 0.44992772785007767 0 0.47860421997559988 0.43975350975492877 0 0.47213260242633898 0.44992772785007767 0 0.48064266697128027 0.4673483066551633 0 0.50000000000000067 0.45157024025730719 0 0.45751300038554987 0.46615712058798953 0 0.47213260242633898 0.44992772785007767 0 0.48064266697128027 0.4673483066551633 0 0.48064266697128027 0.4673483066551633 0 0.5 0.46843982966384828 0 0.50000000000000067 0.45157024025730719 0 0.47860421997559988 0.43975350975492877 0 0.50000000000000022 0.44212157098762489 0 0.47860421997559988 0.43975350975492877 0 0.50000000000000067 0.45157024025730719 0 0.50000000000000022 0.44212157098762489 0 0.47213260242633898 0.44992772785007767 0 0.50000000000000067 0.45157024025730719 0 0.48950419912568011 0.43203648207583117 0 0.47860421997559988 0.43975350975492877 0 0.50000000000000022 0.44212157098762489 0 0.48834007405180069 0.49233461120087918 0 0.50000000000000222 0.48530941907038949 0 0.47076079591842229 0.48402902573312923 0 0.48834007405180069 0.49233461120087918 0 0.5 0.5 0 0.48259950028877657 0.49999999999999922 0 0.50000000000000222 0.48530941907038949 0 0.47076079591842229 0.48402902573312923 0 0.48834007405180069 0.49233461120087918 0 0.5 0.5 0 0.50000000000000222 0.48530941907038949 0 0.50000000000000222 0.48530941907038949 0 0.48785086572242647 0.47628164528063233 0 0.47076079591842229 0.48402902573312923 0 0.48064266697128027 0.4673483066551633 0 0.5 0.46843982966384828 0 0.48785086572242647 0.47628164528063233 0 0.5 0.46843982966384828 0 0.50000000000000222 0.48530941907038949 0 0.48785086572242647 0.47628164528063233 0 0.45751300038554987 0.46615712058798953 0 0.48064266697128027 0.4673483066551633 0 0.47076079591842229 0.48402902573312923 0 0.48064266697128027 0.4673483066551633 0 0.48785086572242647 0.47628164528063233 0 0.47076079591842229 0.48402902573312923 0 0.47076079591842229 0.48402902573312923 0 0.48259950028877657 0.49999999999999922 0 0.45965124302753141 0.5 0 0.48834007405180069 0.49233461120087918 0 0.47076079591842229 0.48402902573312923 0 0.48259950028877657 0.49999999999999922 0 0.47076079591842229 0.48402902573312923 0 0.48259950028877657 0.49999999999999922 0 0.47076079591842229 0.48402902573312923 0 0.45965124302753141 0.5 0 0.44264557298028417 0.48279785186037327 0 0.45751300038554987 0.46615712058798953 0 0.47076079591842229 0.48402902573312923 0 0.47076079591842229 0.48402902573312923 0 0.44264557298028417 0.48279785186037327 0 0.45751300038554987 0.46615712058798953 0 0.47076079591842229 0.48402902573312923 0 0.44264557298028417 0.48279785186037327 0 0.44334270512280699 0.46695283516179431 0 0.44264557298028417 0.48279785186037327 0 0.42744619309891668 0.4675425472795256 0 0.44334270512280699 0.46695283516179431 0 0.45751300038554987 0.46615712058798953 0 0.44264557298028417 0.48279785186037327 0 0.45965124302753141 0.5 0 0.44264557298028417 0.48279785186037327 0 0.43670298576628619 0.5 0 0.44264557298028417 0.48279785186037327 0 0.42814010978677508 0.48883471415535268 0 0.41453035004214622 0.48156667798761449 0 0.43670298576628619 0.5 0 0.42814010978677508 0.48883471415535268 0 0.41868153035838401 0.49097432677342312 0 0.44264557298028417 0.48279785186037327 0 0.43670298576628619 0.5 0 0.42814010978677508 0.48883471415535268 0 0.43670298576628619 0.5 0 0.41375472850504103 0.5 0 0.41868153035838401 0.49097432677342312 0 0.41375472850504103 0.5 0 0.41868153035838401 0.49097432677342312 0 0.40912633217135602 0.48377127363976219 0 0.42814010978677508 0.48883471415535268 0 0.41868153035838401 0.49097432677342312 0 0.41453035004214622 0.48156667798761449 0 0.41868153035838401 0.49097432677342312 0 0.40912633217135602 0.48377127363976219 0 0.41453035004214622 0.48156667798761449 0 0.40882198151684829 0.470458307354371 0 0.40912633217135602 0.48377127363976219 0 0.42744619309891668 0.4675425472795256 0 0.40912633217135602 0.48377127363976219 0 0.42744619309891668 0.4675425472795256 0 0.40912633217135602 0.48377127363976219 0 0.41453035004214622 0.48156667798761449 0 0.42744619309891668 0.4675425472795256 0 0.40882198151684829 0.470458307354371 0 0.40912633217135602 0.48377127363976219 0 0.40257181831080802 0.47789339995616598 0 0.44264557298028417 0.48279785186037327 0 0.41453035004214622 0.48156667798761449 0 0.44264557298028417 0.48279785186037327 0 0.41453035004214622 0.48156667798761449 0 0.42744619309891668 0.4675425472795256 0 0.44576605402647751 0.45131382091928901 0 0.42744619309891668 0.4675425472795256 0 0.44576605402647751 0.45131382091928901 0 0.43097115028835131 0.45382894378787952 0 0.42744619309891668 0.4675425472795256 0 0.43097115028835131 0.45382894378787952 0 0.42744619309891668 0.4675425472795256 0 0.41709851720120961 0.46055572465752248 0 0.44086930591740259 0.443703986550611 0 0.4309855774719657 0.44262377444488737 0 0.4371491165808723 0.44919465112914592 0 0.43504649219903713 0.43385430946487219 0 0.44086930591740259 0.443703986550611 0 0.4309855774719657 0.44262377444488737 0 0.43097115028835131 0.45382894378787952 0 0.4309855774719657 0.44262377444488737 0 0.4371491165808723 0.44919465112914592 0 0.43097115028835131 0.45382894378787952 0 0.4309855774719657 0.44262377444488737 0 0.41665312800777271 0.44940921386284588 0 0.4216403136361262 0.43569606407888728 0 0.4309855774719657 0.44262377444488737 0 0.41665312800777271 0.44940921386284588 0 0.41665312800777271 0.44940921386284588 0 0.4029362549212489 0.45832899449672349 0 0.40092741287151468 0.44093224530230651 0 0.4216403136361262 0.43569606407888728 0 0.41665312800777271 0.44940921386284588 0 0.40092741287151468 0.44093224530230651 0 0.40882198151684829 0.470458307354371 0 0.42744619309891668 0.4675425472795256 0 0.41709851720120961 0.46055572465752248 0 0.43097115028835131 0.45382894378787952 0 0.41665312800777271 0.44940921386284588 0 0.41709851720120961 0.46055572465752248 0 0.41665312800777271 0.44940921386284588 0 0.41709851720120961 0.46055572465752248 0 0.4029362549212489 0.45832899449672349 0 0.40882198151684829 0.470458307354371 0 0.41709851720120961 0.46055572465752248 0 0.4029362549212489 0.45832899449672349 0 0.40882198151684829 0.470458307354371 0 0.4029362549212489 0.45832899449672349 0 0.3944208343110962 0.47305259584339332 0 0.4029362549212489 0.45832899449672349 0 0.38943508825963058 0.45629052964312111 0 0.3944208343110962 0.47305259584339332 0 0.4029362549212489 0.45832899449672349 0 0.40092741287151468 0.44093224530230651 0 0.38943508825963058 0.45629052964312111 0 0.40092741287151468 0.44093224530230651 0 0.37809165231809289 0.44568724501072521 0 0.38943508825963058 0.45629052964312111 0 0.37809165231809289 0.44568724501072521 0 0.38943508825963058 0.45629052964312111 0 0.37844435483634198 0.4675903904274426 0 0.38943508825963058 0.45629052964312111 0 0.37844435483634198 0.4675903904274426 0 0.3944208343110962 0.47305259584339332 0 0.37844435483634198 0.4675903904274426 0 0.38120033573297152 0.48442634992442057 0 0.3944208343110962 0.47305259584339332 0 0.38120033573297152 0.48442634992442057 0 0.3944208343110962 0.47305259584339332 0 0.39562515835400552 0.48382872387274839 0 0.36196284501337178 0.5 0 0.38120033573297152 0.48442634992442057 0 0.39080647124379558 0.49999999999999922 0 0.38120033573297152 0.48442634992442057 0 0.39080647124379558 0.49999999999999922 0 0.39562515835400552 0.48382872387274839 0 0.40912633217135602 0.48377127363976219 0 0.39080647124379558 0.49999999999999922 0 0.40912633217135602 0.48377127363976219 0 0.39080647124379558 0.49999999999999922 0 0.39562515835400552 0.48382872387274839 0 0.41375472850504103 0.5 0 0.40912633217135602 0.48377127363976219 0 0.39080647124379558 0.49999999999999922 0 0.40912633217135602 0.48377127363976219 0 0.40257181831080802 0.47789339995616598 0 0.39562515835400552 0.48382872387274839 0 0.40882198151684829 0.470458307354371 0 0.40257181831080802 0.47789339995616598 0 0.3944208343110962 0.47305259584339332 0 0.40257181831080802 0.47789339995616598 0 0.3944208343110962 0.47305259584339332 0 0.39562515835400552 0.48382872387274839 0 0.34137977846588119 0.091947059702449957 0 0.3184977734976509 0.082531855017860187 0 0.34137977846588119 0.091947059702449957 0 0.33853514524224232 0.092154422351098803 0 0.3184977734976509 0.082531855017860187 0 0.33853514524224232 0.092154422351098803 0 0.3184977734976509 0.082531855017860187 0 0.3305269393921435 0.093893314460775035 0 0.34137977846588119 0.091947059702449957 0 0.33488127772135701 0.070909675734900868 0 0.3184977734976509 0.082531855017860187 0 0.33488127772135701 0.070909675734900868 0 0.35624300874513559 0.071190975121652081 0 0.33828509493208109 0.051113002016081502 0 0.3184977734976509 0.082531855017860187 0 0.31750720709783492 0.060828210965220328 0 0.30506359630307739 0.067813250175554993 0 0.33488127772135701 0.070909675734900868 0 0.32846421329825382 0.059059627678852658 0 0.31750720709783492 0.060828210965220328 0 0.33488127772135701 0.070909675734900868 0 0.3184977734976509 0.082531855017860187 0 0.31750720709783492 0.060828210965220328 0 0.3184977734976509 0.082531855017860187 0 0.3254096333834442 0.096971455496547829 0 0.3305269393921435 0.093893314460775035 0 0.3184977734976509 0.082531855017860187 0 0.3254096333834442 0.096971455496547829 0 0.31111548734401751 0.094174984339189319 0 0.3254096333834442 0.096971455496547829 0 0.33219394353324039 0.1121017755840282 0 0.31111548734401751 0.094174984339189319 0 0.33219394353324039 0.1121017755840282 0 0.31111548734401751 0.094174984339189319 0 0.33219394353324039 0.1121017755840282 0 0.31151194808720201 0.1150643222194616 0 0.31111548734401751 0.094174984339189319 0 0.33219394353324039 0.1121017755840282 0 0.31151194808720201 0.1150643222194616 0 0.32387679174541939 0.1297141718462434 0 0.33219394353324039 0.1121017755840282 0 0.32387679174541939 0.1297141718462434 0 0.35327239972246333 0.1300285668288671 0 0.33219394353324039 0.1121017755840282 0 0.35327239972246333 0.1300285668288671 0 0.33219394353324039 0.1121017755840282 0 0.34279585490336462 0.1026082003979065 0 0.35159211237321392 0.11222190062690381 0 0.33853514524224232 0.092154422351098803 0 0.3305269393921435 0.093893314460775035 0 0.33650548478629722 0.09727411407467923 0 0.3254096333834442 0.096971455496547829 0 0.33351858274250701 0.1005678965871936 0 0.3305269393921435 0.093893314460775035 0 0.33351858274250701 0.1005678965871936 0 0.3305269393921435 0.093893314460775035 0 0.33650548478629722 0.09727411407467923 0 0.3254096333834442 0.096971455496547829 0 0.33219394353324039 0.1121017755840282 0 0.33351858274250701 0.1005678965871936 0 0.33219394353324039 0.1121017755840282 0 0.33351858274250701 0.1005678965871936 0 0.34279585490336462 0.1026082003979065 0 0.33351858274250701 0.1005678965871936 0 0.34279585490336462 0.1026082003979065 0 0.33650548478629722 0.09727411407467923 0 0.33853514524224232 0.092154422351098803 0 0.34279585490336462 0.1026082003979065 0 0.33650548478629722 0.09727411407467923 0 0.34279585490336462 0.1026082003979065 0 0.35159211237321392 0.11222190062690381 0 0.36426178343411147 0.1013622643870397 0 0.33853514524224232 0.092154422351098803 0 0.34279585490336462 0.1026082003979065 0 0.36426178343411147 0.1013622643870397 0 0.34137977846588119 0.091947059702449957 0 0.33853514524224232 0.092154422351098803 0 0.36426178343411147 0.1013622643870397 0 0.33853514524224232 0.092154422351098803 0 0.36426178343411147 0.1013622643870397 0 0.34137977846588119 0.091947059702449957 0 0.36426178343411147 0.1013622643870397 0 0.33219394353324039 0.1121017755840282 0 0.35159211237321392 0.11222190062690381 0 0.35327239972246333 0.1300285668288671 0 0.35159211237321392 0.11222190062690381 0 0.36649271172908648 0.1176987398754743 0 0.35327239972246333 0.1300285668288671 0 0.35159211237321392 0.11222190062690381 0 0.36649271172908648 0.1176987398754743 0 0.36426178343411147 0.1013622643870397 0 0.36649271172908648 0.1176987398754743 0 0.36938385952287339 0.13266757129752671 0 0.38138511069115272 0.12353481432135879 0 0.36649271172908648 0.1176987398754743 0 0.36426178343411147 0.1013622643870397 0 0.3795225325030368 0.1068242515199407 0 0.36426178343411147 0.1013622643870397 0 0.3795225325030368 0.1068242515199407 0 0.36426178343411147 0.1013622643870397 0 0.3742009225581896 0.091268948227223284 0 0.3795225325030368 0.1068242515199407 0 0.3742009225581896 0.091268948227223284 0 0.35754778501084228 0.087847667021068221 0 0.35624300874513559 0.071190975121652081 0 0.36426178343411147 0.1013622643870397 0 0.3742009225581896 0.091268948227223284 0 0.35754778501084228 0.087847667021068221 0 0.3742009225581896 0.091268948227223284 0 0.35624300874513559 0.071190975121652081 0 0.34137977846588119 0.091947059702449957 0 0.35754778501084228 0.087847667021068221 0 0.35624300874513559 0.071190975121652081 0 0.34137977846588119 0.091947059702449957 0 0.36426178343411147 0.1013622643870397 0 0.35754778501084228 0.087847667021068221 0 0.34137977846588119 0.091947059702449957 0 0.33488127772135701 0.070909675734900868 0 0.35624300874513559 0.071190975121652081 0 0.3742009225581896 0.091268948227223284 0 0.35624300874513559 0.071190975121652081 0 0.37575225644292037 0.071709270247263784 0 0.35624300874513559 0.071190975121652081 0 0.36737709041569239 0.056764699852256018 0 0.37575225644292037 0.071709270247263784 0 0.36737709041569239 0.056764699852256018 0 0.36443667806580698 0.054513224756226962 0 0.39058826119953283 0.057913447496371839 0 0.36443667806580698 0.054513224756226962 0 0.36984281421283938 0.03924660656396721 0 0.37608467898805159 0.048096788967416412 0 0.36984281421283938 0.03924660656396721 0 0.35576481933353549 0.041718099984820838 0 0.3798040161112804 0.028996110171619349 0 0.35576481933353549 0.041718099984820838 0 0.36136411866671431 0.026161729739540451 0 0.37786156531075732 0.02725125369877367 0 0.35576481933353549 0.041718099984820838 0 0.3798040161112804 0.028996110171619349 0 0.37786156531075732 0.02725125369877367 0 0.35576481933353549 0.041718099984820838 0 0.3798040161112804 0.028996110171619349 0 0.36984281421283938 0.03924660656396721 0 0.37726993283737248 0.041439113600633092 0 0.37608467898805159 0.048096788967416412 0 0.36984281421283938 0.03924660656396721 0 0.37675727284589372 0.036323400775862158 0 0.37726993283737248 0.041439113600633092 0 0.36443667806580698 0.054513224756226962 0 0.36984281421283938 0.03924660656396721 0 0.35576481933353549 0.041718099984820838 0 0.35576481933353549 0.041718099984820838 0 0.36136411866671431 0.026161729739540451 0 0.34099279295720591 0.031691385536231111 0 0.35576481933353549 0.041718099984820838 0 0.34539840685914608 0.044617690611648012 0 0.34099279295720591 0.031691385536231111 0 0.35624300874513559 0.071190975121652081 0 0.34416591963185211 0.055615952208139578 0 0.33828509493208109 0.051113002016081502 0 0.36443667806580698 0.054513224756226962 0 0.34416591963185211 0.055615952208139578 0 0.33828509493208109 0.051113002016081502 0 0.36737709041569239 0.056764699852256018 0 0.34416591963185211 0.055615952208139578 0 0.35624300874513559 0.071190975121652081 0 0.33828509493208109 0.051113002016081502 0 0.35624300874513559 0.071190975121652081 0 0.36737709041569239 0.056764699852256018 0 0.34416591963185211 0.055615952208139578 0 0.36443667806580698 0.054513224756226962 0 0.33828509493208109 0.051113002016081502 0 0.36443667806580698 0.054513224756226962 0 0.34539840685914608 0.044617690611648012 0 0.33828509493208109 0.051113002016081502 0 0.36443667806580698 0.054513224756226962 0 0.35576481933353549 0.041718099984820838 0 0.34539840685914608 0.044617690611648012 0 0.36737709041569239 0.056764699852256018 0 0.36443667806580698 0.054513224756226962 0 0.34416591963185211 0.055615952208139578 0 0.35686418876597309 0.010252504770385159 0 0.37537418671591988 0.012891754799621079 0 0.3700201466167648 -0.002195575246397889 0 0.35686418876597309 0.010252504770385159 0 0.37786156531075732 0.02725125369877367 0 0.36136411866671431 0.026161729739540451 0 0.35686418876597309 0.010252504770385159 0 0.37786156531075732 0.02725125369877367 0 0.35686418876597309 0.010252504770385159 0 0.37537418671591988 0.012891754799621079 0 0.37786156531075732 0.02725125369877367 0 0.36136411866671431 0.026161729739540451 0 0.35686418876597309 0.010252504770385159 0 0.34167945108238768 0.015605415956853899 0 0.36136411866671431 0.026161729739540451 0 0.34167945108238768 0.015605415956853899 0 0.34099279295720591 0.031691385536231111 0 0.35686418876597309 0.010252504770385159 0 0.34167945108238768 0.015605415956853899 0 0.33586681222118892 -0.0067462441580033658 0 0.35686418876597309 0.010252504770385159 0 0.33586681222118892 -0.0067462441580033658 0 0.34167945108238768 0.015605415956853899 0 0.32490055802469708 0.021190940670656921 0 0.33586681222118892 -0.0067462441580033658 0 0.34167945108238768 0.015605415956853899 0 0.32490055802469708 0.021190940670656921 0 0.34099279295720591 0.031691385536231111 0 0.32490055802469708 0.021190940670656921 0 0.34099279295720591 0.031691385536231111 0 0.32801258046435111 0.036170166979635328 0 0.32490055802469708 0.021190940670656921 0 0.31497710433926901 0.036033128519756527 0 0.30595588987094691 0.026092456194660541 0 0.32490055802469708 0.021190940670656921 0 0.31046320235639918 0.0067575729804437252 0 0.30595588987094691 0.026092456194660541 0 0.32490055802469708 0.021190940670656921 0 0.32801258046435111 0.036170166979635328 0 0.31497710433926901 0.036033128519756527 0 0.32490055802469708 0.021190940670656921 0 0.31046320235639918 0.0067575729804437252 0 0.33586681222118892 -0.0067462441580033658 0 0.33488127772135701 0.070909675734900868 0 0.32846421329825382 0.059059627678852658 0 0.33828509493208109 0.051113002016081502 0 0.33828509493208109 0.051113002016081502 0 0.33632782521092219 0.048924662700562782 0 0.31456469921871788 0.048028881697348168 0 0.34539840685914608 0.044617690611648012 0 0.33828509493208109 0.051113002016081502 0 0.33632782521092219 0.048924662700562782 0 0.33828509493208109 0.051113002016081502 0 0.33632782521092219 0.048924662700562782 0 0.34539840685914608 0.044617690611648012 0 0.33609782728063148 0.04111054955314445 0 0.34099279295720591 0.031691385536231111 0 0.34539840685914608 0.044617690611648012 0 0.33632782521092219 0.048924662700562782 0 0.33609782728063148 0.04111054955314445 0 0.33609782728063148 0.04111054955314445 0 0.34099279295720591 0.031691385536231111 0 0.32801258046435111 0.036170166979635328 0 0.33632782521092219 0.048924662700562782 0 0.33609782728063148 0.04111054955314445 0 0.33051084790212298 0.042529329228536181 0 0.33632782521092219 0.048924662700562782 0 0.33051084790212298 0.042529329228536181 0 0.32327528761916352 0.043108517346294839 0 0.33609782728063148 0.04111054955314445 0 0.33051084790212298 0.042529329228536181 0 0.32801258046435111 0.036170166979635328 0 0.33632782521092219 0.048924662700562782 0 0.32327528761916352 0.043108517346294839 0 0.31456469921871788 0.048028881697348168 0 0.33051084790212298 0.042529329228536181 0 0.32327528761916352 0.043108517346294839 0 0.32801258046435111 0.036170166979635328 0 0.32327528761916352 0.043108517346294839 0 0.32801258046435111 0.036170166979635328 0 0.31497710433926901 0.036033128519756527 0 0.32327528761916352 0.043108517346294839 0 0.31497710433926901 0.036033128519756527 0 0.31456469921871788 0.048028881697348168 0 0.33828509493208109 0.051113002016081502 0 0.31456469921871788 0.048028881697348168 0 0.32846421329825382 0.059059627678852658 0 0.33828509493208109 0.051113002016081502 0 0.31456469921871788 0.048028881697348168 0 0.32846421329825382 0.059059627678852658 0 0.31456469921871788 0.048028881697348168 0 0.31750720709783492 0.060828210965220328 0 0.31456469921871788 0.048028881697348168 0 0.31750720709783492 0.060828210965220328 0 0.30386903740065402 0.05697431224277244 0 0.31750720709783492 0.060828210965220328 0 0.30386903740065402 0.05697431224277244 0 0.30506359630307739 0.067813250175554993 0 0.31456469921871788 0.048028881697348168 0 0.30386903740065402 0.05697431224277244 0 0.29084430350535467 0.044944761378613682 0 0.30386903740065402 0.05697431224277244 0 0.29325963230024937 0.057606978803657879 0 0.29690158384745241 0.06457818982176422 0 0.31456469921871788 0.048028881697348168 0 0.30257644158749403 0.037675663858353942 0 0.29084430350535467 0.044944761378613682 0 0.31456469921871788 0.048028881697348168 0 0.29084430350535467 0.044944761378613682 0 0.30257644158749403 0.037675663858353942 0 0.28728110375769011 0.032980092644635972 0 0.30595588987094691 0.026092456194660541 0 0.31497710433926901 0.036033128519756527 0 0.31456469921871788 0.048028881697348168 0 0.30257644158749403 0.037675663858353942 0 0.31497710433926901 0.036033128519756527 0 0.30257644158749403 0.037675663858353942 0 0.30595588987094691 0.026092456194660541 0 0.28728110375769011 0.032980092644635972 0 0.28354425329012439 0.021068516806879451 0 0.27754771987688809 0.040797440569893019 0 0.30257644158749403 0.037675663858353942 0 0.29084430350535467 0.044944761378613682 0 0.28728110375769011 0.032980092644635972 0 0.28728110375769011 0.032980092644635972 0 0.2844924432277231 0.043204628682168907 0 0.27754771987688809 0.040797440569893019 0 0.29084430350535467 0.044944761378613682 0 0.28728110375769011 0.032980092644635972 0 0.2844924432277231 0.043204628682168907 0 0.2844924432277231 0.043204628682168907 0 0.28229664577095948 0.054096220135532967 0 0.27754771987688809 0.040797440569893019 0 0.29084430350535467 0.044944761378613682 0 0.2844924432277231 0.043204628682168907 0 0.28229664577095948 0.054096220135532967 0 0.29084430350535467 0.044944761378613682 0 0.28229664577095948 0.054096220135532967 0 0.29325963230024937 0.057606978803657879 0 0.28229664577095948 0.054096220135532967 0 0.28695696052130792 0.062426000594819037 0 0.29325963230024937 0.057606978803657879 0 0.28229664577095948 0.054096220135532967 0 0.28695696052130792 0.062426000594819037 0 0.27961998430175328 0.060695812266760227 0 0.28695696052130792 0.062426000594819037 0 0.29325963230024937 0.057606978803657879 0 0.29690158384745241 0.06457818982176422 0 0.30386903740065402 0.05697431224277244 0 0.29084430350535467 0.044944761378613682 0 0.29325963230024937 0.057606978803657879 0 0.31046320235639918 0.0067575729804437252 0 0.29633736445586178 0.016145334388179639 0 0.2895407867033607 0.0013395930438658619 0 0.31046320235639918 0.0067575729804437252 0 0.30595588987094691 0.026092456194660541 0 0.29633736445586178 0.016145334388179639 0 0.28728110375769011 0.032980092644635972 0 0.29633736445586178 0.016145334388179639 0 0.28354425329012439 0.021068516806879451 0 0.28728110375769011 0.032980092644635972 0 0.30595588987094691 0.026092456194660541 0 0.29633736445586178 0.016145334388179639 0 0.29633736445586178 0.016145334388179639 0 0.28354425329012439 0.021068516806879451 0 0.2895407867033607 0.0013395930438658619 0 0.28354425329012439 0.021068516806879451 0 0.2895407867033607 0.0013395930438658619 0 0.27605408581287011 0.0090157940159830471 0 0.28354425329012439 0.021068516806879451 0 0.2895407867033607 0.0013395930438658619 0 0.2895407867033607 0.0013395930438658619 0 0.27605408581287011 0.0090157940159830471 0 0.26778398551549509 -0.0036893303100333872 0 0.27605408581287011 0.0090157940159830471 0 0.26417056773795178 0.0090152440179189393 0 0.26778398551549509 -0.0036893303100333872 0 0.27605408581287011 0.0090157940159830471 0 0.26936383070045983 0.02007531215695801 0 0.26417056773795178 0.0090152440179189393 0 0.28354425329012439 0.021068516806879451 0 0.27754771987688809 0.040797440569893019 0 0.28354425329012439 0.021068516806879451 0 0.27605408581287011 0.0090157940159830471 0 0.26936383070045983 0.02007531215695801 0 0.28354425329012439 0.021068516806879451 0 0.26936383070045983 0.02007531215695801 0 0.27332262009486957 0.033728107725222278 0 0.26936383070045983 0.02007531215695801 0 0.26667678125960848 0.028969541142501901 0 0.27332262009486957 0.033728107725222278 0 0.26936383070045983 0.02007531215695801 0 0.26667678125960848 0.028969541142501901 0 0.25978705670837199 0.02772172808684556 0 0.26667678125960848 0.028969541142501901 0 0.25978705670837199 0.02772172808684556 0 0.26423361753473251 0.034353016600981737 0 0.24818833723327199 0.02644705719899533 0 0.25978705670837199 0.02772172808684556 0 0.25442723867738032 0.016379625870619269 0 0.24818833723327199 0.02644705719899533 0 0.25978705670837199 0.02772172808684556 0 0.25704478259505842 0.035809011079610743 0 0.26936383070045983 0.02007531215695801 0 0.25978705670837199 0.02772172808684556 0 0.25442723867738032 0.016379625870619269 0 0.26936383070045983 0.02007531215695801 0 0.25442723867738032 0.016379625870619269 0 0.26417056773795178 0.0090152440179189393 0 0.25442723867738032 0.016379625870619269 0 0.26417056773795178 0.0090152440179189393 0 0.25322369798355371 0.0032948183560677501 0 0.26417056773795178 0.0090152440179189393 0 0.25322369798355371 0.0032948183560677501 0 0.26778398551549509 -0.0036893303100333872 0 0.28229664577095948 0.054096220135532967 0 0.27155118646365262 0.060526364332906778 0 0.27754771987688809 0.040797440569893019 0 0.26803735397675288 0.057537922442449492 0 0.27155118646365262 0.060526364332906778 0 0.27754771987688809 0.040797440569893019 0 0.27155118646365262 0.060526364332906778 0 0.27754771987688809 0.040797440569893019 0 0.26803735397675288 0.057537922442449492 0 0.26717674565759131 0.061414912581717808 0 0.27155118646365262 0.060526364332906778 0 0.26803735397675288 0.057537922442449492 0 0.26717674565759131 0.061414912581717808 0 0.26717674565759131 0.061414912581717808 0 0.27082486665434358 0.062915996334918609 0 0.26717674565759131 0.061414912581717808 0 0.27155118646365262 0.060526364332906778 0 0.27082486665434358 0.062915996334918609 0 0.27155118646365262 0.060526364332906778 0 0.27082486665434358 0.062915996334918609 0 0.26803735397675288 0.057537922442449492 0 0.27155118646365262 0.060526364332906778 0 0.27155118646365262 0.060526364332906778 0 0.27961998430175328 0.060695812266760227 0 0.27767514445109232 0.065734664003783444 0 0.28229664577095948 0.054096220135532967 0 0.27155118646365262 0.060526364332906778 0 0.27961998430175328 0.060695812266760227 0 0.28354425329012439 0.021068516806879451 0 0.27754771987688809 0.040797440569893019 0 0.27332262009486957 0.033728107725222278 0 0.26803735397675288 0.057537922442449492 0 0.27754771987688809 0.040797440569893019 0 0.27332262009486957 0.033728107725222278 0 0.26803735397675288 0.057537922442449492 0 0.27332262009486957 0.033728107725222278 0 0.26337349528673171 0.044011131262296957 0 0.26803735397675288 0.057537922442449492 0 0.27332262009486957 0.033728107725222278 0 0.26667678125960848 0.028969541142501901 0 0.27332262009486957 0.033728107725222278 0 0.26423361753473251 0.034353016600981737 0 0.27332262009486957 0.033728107725222278 0 0.26337349528673171 0.044011131262296957 0 0.26423361753473251 0.034353016600981737 0 0.25978705670837199 0.02772172808684556 0 0.26423361753473251 0.034353016600981737 0 0.25704478259505842 0.035809011079610743 0 0.26337349528673171 0.044011131262296957 0 0.26423361753473251 0.034353016600981737 0 0.25704478259505842 0.035809011079610743 0 0.2492733855269578 0.041579555173777823 0 0.24818833723327199 0.02644705719899533 0 0.25704478259505842 0.035809011079610743 0 0.2492733855269578 0.041579555173777823 0 0.26337349528673171 0.044011131262296957 0 0.25704478259505842 0.035809011079610743 0 0.2492733855269578 0.041579555173777823 0 0.26803735397675288 0.057537922442449492 0 0.26337349528673171 0.044011131262296957 0 0.2492733855269578 0.041579555173777823 0 0.26803735397675288 0.057537922442449492 0 0.24629062771517271 0.052820950830226497 0 0.2492733855269578 0.041579555173777823 0 0.26803735397675288 0.057537922442449492 0 0.24874122334595 0.07170785510379532 0 0.24629062771517271 0.052820950830226497 0 0.26717674565759131 0.061414912581717808 0 0.24629062771517271 0.052820950830226497 0 0.26717674565759131 0.061414912581717808 0 0.24629062771517271 0.052820950830226497 0 0.26803735397675288 0.057537922442449492 0 0.26717674565759131 0.061414912581717808 0 0.24874122334595 0.07170785510379532 0 0.26717674565759131 0.061414912581717808 0 0.26207170159221099 0.084412837492877896 0 0.26717674565759131 0.061414912581717808 0 0.26207170159221099 0.084412837492877896 0 0.26717674565759131 0.061414912581717808 0 0.26459661937193729 0.083407271434054076 0 0.26207170159221099 0.084412837492877896 0 0.24736227196270541 0.090270970101712061 0 0.24874122334595 0.07170785510379532 0 0.26207170159221099 0.084412837492877896 0 0.24736227196270541 0.090270970101712061 0 0.26207170159221099 0.084412837492877896 0 0.24736227196270541 0.090270970101712061 0 0.26016144869860108 0.09301841504440217 0 0.25459763100830068 0.096141582858552177 0 0.24736227196270541 0.090270970101712061 0 0.26207170159221099 0.084412837492877896 0 0.26016144869860108 0.09301841504440217 0 0.24736227196270541 0.090270970101712061 0 0.25459763100830068 0.096141582858552177 0 0.26459661937193729 0.083407271434054076 0 0.26207170159221099 0.084412837492877896 0 0.26207170159221099 0.084412837492877896 0 0.26016144869860108 0.09301841504440217 0 0.26459661937193729 0.083407271434054076 0 0.2619867778419176 0.09199379318438361 0 0.26207170159221099 0.084412837492877896 0 0.2619867778419176 0.09199379318438361 0 0.26016144869860108 0.09301841504440217 0 0.26459661937193729 0.083407271434054076 0 0.26207170159221099 0.084412837492877896 0 0.2619867778419176 0.09199379318438361 0 0.2619867778419176 0.09199379318438361 0 0.26016144869860108 0.09301841504440217 0 0.26459661937193729 0.083407271434054076 0 0.28765643041333783 0.074223541376674432 0 0.26459661937193729 0.083407271434054076 0 0.27601190449835611 0.084120993139366301 0 0.28765643041333783 0.074223541376674432 0 0.2619867778419176 0.09199379318438361 0 0.27601190449835611 0.084120993139366301 0 0.27597760534302263 0.093816081557894046 0 0.2619867778419176 0.09199379318438361 0 0.27601190449835611 0.084120993139366301 0 0.26459661937193729 0.083407271434054076 0 0.2619867778419176 0.09199379318438361 0 0.27601190449835611 0.084120993139366301 0 0.27601190449835611 0.084120993139366301 0 0.28527214605629803 0.093542631019163408 0 0.27597760534302263 0.093816081557894046 0 0.26459661937193729 0.083407271434054076 0 0.27082486665434358 0.062915996334918609 0 0.26717674565759131 0.061414912581717808 0 0.26459661937193729 0.083407271434054076 0 0.27082486665434358 0.062915996334918609 0 0.26459661937193729 0.083407271434054076 0 0.27082486665434358 0.062915996334918609 0 0.27767514445109232 0.065734664003783444 0 0.26459661937193729 0.083407271434054076 0 0.27767514445109232 0.065734664003783444 0 0.28765643041333783 0.074223541376674432 0 0.27155118646365262 0.060526364332906778 0 0.27082486665434358 0.062915996334918609 0 0.27767514445109232 0.065734664003783444 0 0.27082486665434358 0.062915996334918609 0 0.27767514445109232 0.065734664003783444 0 0.27155118646365262 0.060526364332906778 0 0.27767514445109232 0.065734664003783444 0 0.27767514445109232 0.065734664003783444 0 0.28765643041333783 0.074223541376674432 0 0.27767514445109232 0.065734664003783444 0 0.29306802488508721 0.072068336257275281 0 0.28695696052130792 0.062426000594819037 0 0.27961998430175328 0.060695812266760227 0 0.27767514445109232 0.065734664003783444 0 0.28695696052130792 0.062426000594819037 0 0.27767514445109232 0.065734664003783444 0 0.29306802488508721 0.072068336257275281 0 0.28695696052130792 0.062426000594819037 0 0.29306802488508721 0.072068336257275281 0 0.29690158384745241 0.06457818982176422 0 0.29561576852942001 0.073116650333272012 0 0.29306802488508721 0.072068336257275281 0 0.29561576852942001 0.073116650333272012 0 0.29306802488508721 0.072068336257275281 0 0.29003703115479512 0.076248193094349867 0 0.29306802488508721 0.072068336257275281 0 0.28765643041333783 0.074223541376674432 0 0.29306802488508721 0.072068336257275281 0 0.29003703115479512 0.076248193094349867 0 0.28765643041333783 0.074223541376674432 0 0.29561576852942001 0.073116650333272012 0 0.29003703115479512 0.076248193094349867 0 0.27767514445109232 0.065734664003783444 0 0.29306802488508721 0.072068336257275281 0 0.28765643041333783 0.074223541376674432 0 0.29003703115479512 0.076248193094349867 0 0.28765643041333783 0.074223541376674432 0 0.27601190449835611 0.084120993139366301 0 0.29003703115479512 0.076248193094349867 0 0.27601190449835611 0.084120993139366301 0 0.29003703115479512 0.076248193094349867 0 0.28765643041333783 0.074223541376674432 0 0.27601190449835611 0.084120993139366301 0 0.29003703115479512 0.076248193094349867 0 0.28870857493654689 0.086239244916881869 0 0.27601190449835611 0.084120993139366301 0 0.28870857493654689 0.086239244916881869 0 0.28527214605629803 0.093542631019163408 0 0.28870857493654689 0.086239244916881869 0 0.28527214605629803 0.093542631019163408 0 0.29246213629446111 0.095768124011444758 0 0.28870857493654689 0.086239244916881869 0 0.29698271976236568 0.089899813846382556 0 0.29246213629446111 0.095768124011444758 0 0.29003703115479512 0.076248193094349867 0 0.28870857493654689 0.086239244916881869 0 0.29698271976236568 0.089899813846382556 0 0.29561576852942001 0.073116650333272012 0 0.29003703115479512 0.076248193094349867 0 0.31111548734401751 0.094174984339189319 0 0.29003703115479512 0.076248193094349867 0 0.31111548734401751 0.094174984339189319 0 0.29003703115479512 0.076248193094349867 0 0.29698271976236568 0.089899813846382556 0 0.31111548734401751 0.094174984339189319 0 0.3184977734976509 0.082531855017860187 0 0.29561576852942001 0.073116650333272012 0 0.31111548734401751 0.094174984339189319 0 0.3184977734976509 0.082531855017860187 0 0.29561576852942001 0.073116650333272012 0 0.3184977734976509 0.082531855017860187 0 0.29561576852942001 0.073116650333272012 0 0.30506359630307739 0.067813250175554993 0 0.31750720709783492 0.060828210965220328 0 0.30506359630307739 0.067813250175554993 0 0.29306802488508721 0.072068336257275281 0 0.30506359630307739 0.067813250175554993 0 0.29690158384745241 0.06457818982176422 0 0.30386903740065402 0.05697431224277244 0 0.30506359630307739 0.067813250175554993 0 0.29690158384745241 0.06457818982176422 0 0.29306802488508721 0.072068336257275281 0 0.30506359630307739 0.067813250175554993 0 0.29561576852942001 0.073116650333272012 0 0.30506359630307739 0.067813250175554993 0 0.29561576852942001 0.073116650333272012 0 0.29306802488508721 0.072068336257275281 0 0.30506359630307739 0.067813250175554993 0 0.31151194808720201 0.1150643222194616 0 0.30247500772594699 0.1071381656543656 0 0.29129275041579278 0.1172303442398579 0 0.31151194808720201 0.1150643222194616 0 0.29622008012258699 0.12991313160987961 0 0.32387679174541939 0.1297141718462434 0 0.31151194808720201 0.1150643222194616 0 0.29129275041579278 0.1172303442398579 0 0.29622008012258699 0.12991313160987961 0 0.31151194808720201 0.1150643222194616 0 0.31111548734401751 0.094174984339189319 0 0.30247500772594699 0.1071381656543656 0 0.31111548734401751 0.094174984339189319 0 0.30128354362195031 0.098124169066782854 0 0.30247500772594699 0.1071381656543656 0 0.29698271976236568 0.089899813846382556 0 0.30128354362195031 0.098124169066782854 0 0.29246213629446111 0.095768124011444758 0 0.29698271976236568 0.089899813846382556 0 0.31111548734401751 0.094174984339189319 0 0.30128354362195031 0.098124169066782854 0 0.30128354362195031 0.098124169066782854 0 0.30247500772594699 0.1071381656543656 0 0.29260899031297011 0.10538418601464609 0 0.29260899031297011 0.10538418601464609 0 0.29246213629446111 0.095768124011444758 0 0.28702757351663483 0.1001100210532227 0 0.30128354362195031 0.098124169066782854 0 0.29260899031297011 0.10538418601464609 0 0.29246213629446111 0.095768124011444758 0 0.28527214605629803 0.093542631019163408 0 0.29246213629446111 0.095768124011444758 0 0.28702757351663483 0.1001100210532227 0 0.28527214605629803 0.093542631019163408 0 0.28702757351663483 0.1001100210532227 0 0.28108272677848523 0.099874609951530163 0 0.29260899031297011 0.10538418601464609 0 0.28356239405763972 0.106033323917978 0 0.28664880997705461 0.11131452551203889 0 0.29260899031297011 0.10538418601464609 0 0.28702757351663483 0.1001100210532227 0 0.28356239405763972 0.106033323917978 0 0.28702757351663483 0.1001100210532227 0 0.28356239405763972 0.106033323917978 0 0.28108272677848523 0.099874609951530163 0 0.28356239405763972 0.106033323917978 0 0.2814598539497668 0.10990299155730229 0 0.28664880997705461 0.11131452551203889 0 0.27786688771157569 0.1150217509861922 0 0.29622008012258699 0.12991313160987961 0 0.28664880997705461 0.11131452551203889 0 0.29129275041579278 0.1172303442398579 0 0.27786688771157569 0.1150217509861922 0 0.27786688771157569 0.1150217509861922 0 0.27913813953766042 0.12972245958528131 0 0.29622008012258699 0.12991313160987961 0 0.29129275041579278 0.1172303442398579 0 0.27786688771157569 0.1150217509861922 0 0.29622008012258699 0.12991313160987961 0 0.2814598539497668 0.10990299155730229 0 0.28664880997705461 0.11131452551203889 0 0.27786688771157569 0.1150217509861922 0 0.30247500772594699 0.1071381656543656 0 0.29260899031297011 0.10538418601464609 0 0.29129275041579278 0.1172303442398579 0 0.29260899031297011 0.10538418601464609 0 0.28664880997705461 0.11131452551203889 0 0.29129275041579278 0.1172303442398579 0 0.27418517611644572 0.1163335826691398 0 0.26638390190257438 0.1102685147937751 0 0.25655208948606423 0.10927836717886751 0 0.27786688771157569 0.1150217509861922 0 0.27418517611644572 0.1163335826691398 0 0.27913813953766042 0.12972245958528131 0 0.27418517611644572 0.1163335826691398 0 0.27248198541775659 0.12784311929978001 0 0.27913813953766042 0.12972245958528131 0 0.2814598539497668 0.10990299155730229 0 0.27786688771157569 0.1150217509861922 0 0.27702128122739278 0.10689832557857171 0 0.27786688771157569 0.1150217509861922 0 0.27418517611644572 0.1163335826691398 0 0.26638390190257438 0.1102685147937751 0 0.27418517611644572 0.1163335826691398 0 0.26888095198589312 0.11979825388229511 0 0.26487973471170051 0.1148861259760711 0 0.27418517611644572 0.1163335826691398 0 0.26888095198589312 0.11979825388229511 0 0.27248198541775659 0.12784311929978001 0 0.26888095198589312 0.11979825388229511 0 0.26519442307348812 0.1188177922564181 0 0.26487973471170051 0.1148861259760711 0 0.26888095198589312 0.11979825388229511 0 0.26562400985315288 0.1251654340079911 0 0.27248198541775659 0.12784311929978001 0 0.26888095198589312 0.11979825388229511 0 0.26519442307348812 0.1188177922564181 0 0.26562400985315288 0.1251654340079911 0 0.27786688771157569 0.1150217509861922 0 0.26638390190257438 0.1102685147937751 0 0.25872482925013801 0.09949030162923457 0 0.27786688771157569 0.1150217509861922 0 0.25872482925013801 0.09949030162923457 0 0.27786688771157569 0.1150217509861922 0 0.27150352658480642 0.1040925172930806 0 0.25872482925013801 0.09949030162923457 0 0.28527214605629803 0.093542631019163408 0 0.27597760534302263 0.093816081557894046 0 0.28108272677848523 0.099874609951530163 0 0.27597760534302263 0.093816081557894046 0 0.28108272677848523 0.099874609951530163 0 0.27461357126647679 0.10027579108255071 0 0.27786688771157569 0.1150217509861922 0 0.27702128122739278 0.10689832557857171 0 0.27150352658480642 0.1040925172930806 0 0.27461357126647679 0.10027579108255071 0 0.27702128122739278 0.10689832557857171 0 0.27150352658480642 0.1040925172930806 0 0.28356239405763972 0.106033323917978 0 0.28108272677848523 0.099874609951530163 0 0.27702128122739278 0.10689832557857171 0 0.28108272677848523 0.099874609951530163 0 0.27461357126647679 0.10027579108255071 0 0.27702128122739278 0.10689832557857171 0 0.28356239405763972 0.106033323917978 0 0.2814598539497668 0.10990299155730229 0 0.27702128122739278 0.10689832557857171 0 0.2619867778419176 0.09199379318438361 0 0.27597760534302263 0.093816081557894046 0 0.26850219741802223 0.0981363484555835 0 0.27150352658480642 0.1040925172930806 0 0.26850219741802223 0.0981363484555835 0 0.25872482925013801 0.09949030162923457 0 0.27461357126647679 0.10027579108255071 0 0.27150352658480642 0.1040925172930806 0 0.26850219741802223 0.0981363484555835 0 0.27597760534302263 0.093816081557894046 0 0.27461357126647679 0.10027579108255071 0 0.26850219741802223 0.0981363484555835 0 0.2619867778419176 0.09199379318438361 0 0.26850219741802223 0.0981363484555835 0 0.25872482925013801 0.09949030162923457 0 0.2619867778419176 0.09199379318438361 0 0.26016144869860108 0.09301841504440217 0 0.25872482925013801 0.09949030162923457 0 0.2619867778419176 0.09199379318438361 0 0.25872482925013801 0.09949030162923457 0 0.26016144869860108 0.09301841504440217 0 0.25872482925013801 0.09949030162923457 0 0.26016144869860108 0.09301841504440217 0 0.25872482925013801 0.09949030162923457 0 0.25459763100830068 0.096141582858552177 0 0.26638390190257438 0.1102685147937751 0 0.25872482925013801 0.09949030162923457 0 0.26054083413963042 0.1068609537315081 0 0.26638390190257438 0.1102685147937751 0 0.26054083413963042 0.1068609537315081 0 0.25655208948606423 0.10927836717886751 0 0.25872482925013801 0.09949030162923457 0 0.258042440935632 0.10497087790269199 0 0.26054083413963042 0.1068609537315081 0 0.25872482925013801 0.09949030162923457 0 0.258042440935632 0.10497087790269199 0 0.258042440935632 0.10497087790269199 0 0.26054083413963042 0.1068609537315081 0 0.25655208948606423 0.10927836717886751 0 0.25872482925013801 0.09949030162923457 0 0.25655208948606423 0.10927836717886751 0 0.25872482925013801 0.09949030162923457 0 0.25655208948606423 0.10927836717886751 0 0.25459763100830068 0.096141582858552177 0 0.24174744587836799 0.1033548466348798 0 0.25655208948606423 0.10927836717886751 0 0.25459763100830068 0.096141582858552177 0 0.25872482925013801 0.09949030162923457 0 0.258042440935632 0.10497087790269199 0 0.25655208948606423 0.10927836717886751 0 0.25872482925013801 0.09949030162923457 0 0.25459763100830068 0.096141582858552177 0 0.26016144869860108 0.09301841504440217 0 0.25459763100830068 0.096141582858552177 0 0.27418517611644572 0.1163335826691398 0 0.25655208948606423 0.10927836717886751 0 0.26487973471170051 0.1148861259760711 0 0.27418517611644572 0.1163335826691398 0 0.25655208948606423 0.10927836717886751 0 0.2613903323121034 0.11972876860365821 0 0.25824300399834771 0.11754386918627879 0 0.25813574029091341 0.12532111527980791 0 0.2613903323121034 0.11972876860365821 0 0.25824300399834771 0.11754386918627879 0 0.26064106818342869 0.11649387083006101 0 0.2613903323121034 0.11972876860365821 0 0.26303182906276251 0.1167652494283456 0 0.26064106818342869 0.11649387083006101 0 0.2613903323121034 0.11972876860365821 0 0.25813574029091341 0.12532111527980791 0 0.26562400985315288 0.1251654340079911 0 0.2613903323121034 0.11972876860365821 0 0.26519442307348812 0.1188177922564181 0 0.26562400985315288 0.1251654340079911 0 0.2613903323121034 0.11972876860365821 0 0.26519442307348812 0.1188177922564181 0 0.26303182906276251 0.1167652494283456 0 0.26487973471170051 0.1148861259760711 0 0.2618287337373767 0.1148464313763837 0 0.2589676606418963 0.1122376160430168 0 0.25655208948606423 0.10927836717886751 0 0.26487973471170051 0.1148861259760711 0 0.2589676606418963 0.1122376160430168 0 0.26519442307348812 0.1188177922564181 0 0.26487973471170051 0.1148861259760711 0 0.26303182906276251 0.1167652494283456 0 0.26487973471170051 0.1148861259760711 0 0.2618287337373767 0.1148464313763837 0 0.26303182906276251 0.1167652494283456 0 0.2618287337373767 0.1148464313763837 0 0.26303182906276251 0.1167652494283456 0 0.26064106818342869 0.11649387083006101 0 0.2618287337373767 0.1148464313763837 0 0.26064106818342869 0.11649387083006101 0 0.26015078570541528 0.1146524558252945 0 0.2618287337373767 0.1148464313763837 0 0.2589676606418963 0.1122376160430168 0 0.26015078570541528 0.1146524558252945 0 0.2589676606418963 0.1122376160430168 0 0.26015078570541528 0.1146524558252945 0 0.25777400528710798 0.1147846643059361 0 0.25824300399834771 0.11754386918627879 0 0.26015078570541528 0.1146524558252945 0 0.25777400528710798 0.1147846643059361 0 0.25824300399834771 0.11754386918627879 0 0.26064106818342869 0.11649387083006101 0 0.26015078570541528 0.1146524558252945 0 0.24646482385440791 0.1109165710353929 0 0.25655208948606423 0.10927836717886751 0 0.255186127323073 0.11543194682551421 0 0.25824300399834771 0.11754386918627879 0 0.25777400528710798 0.1147846643059361 0 0.255186127323073 0.11543194682551421 0 0.2589676606418963 0.1122376160430168 0 0.25777400528710798 0.1147846643059361 0 0.255186127323073 0.11543194682551421 0 0.25655208948606423 0.10927836717886751 0 0.255186127323073 0.11543194682551421 0 0.25655208948606423 0.10927836717886751 0 0.2589676606418963 0.1122376160430168 0 0.255186127323073 0.11543194682551421 0 0.255186127323073 0.11543194682551421 0 0.25238596385504641 0.12804651946228041 0 0.24420216851797599 0.1292372680552665 0 0.255186127323073 0.11543194682551421 0 0.25238596385504641 0.12804651946228041 0 0.255186127323073 0.11543194682551421 0 0.25238596385504641 0.12804651946228041 0 0.25813574029091341 0.12532111527980791 0 0.25824300399834771 0.11754386918627879 0 0.255186127323073 0.11543194682551421 0 0.25813574029091341 0.12532111527980791 0 0.25238596385504641 0.12804651946228041 0 0.25813574029091341 0.12532111527980791 0 0.26818611498992623 0.1403022215883418 0 0.24420216851797599 0.1292372680552665 0 0.26818611498992623 0.1403022215883418 0 0.24301228879775941 0.13939302681245261 0 0.24420216851797599 0.1292372680552665 0 0.26818611498992623 0.1403022215883418 0 0.24420216851797599 0.1292372680552665 0 0.25238596385504641 0.12804651946228041 0 0.26818611498992623 0.1403022215883418 0 0.25813574029091341 0.12532111527980791 0 0.26562400985315288 0.1251654340079911 0 0.26818611498992623 0.1403022215883418 0 0.27248198541775659 0.12784311929978001 0 0.26818611498992623 0.1403022215883418 0 0.27913813953766042 0.12972245958528131 0 0.26562400985315288 0.1251654340079911 0 0.27248198541775659 0.12784311929978001 0 0.26818611498992623 0.1403022215883418 0 0.26818611498992623 0.1403022215883418 0 0.27913813953766042 0.12972245958528131 0 0.28414721419066807 0.1482284927670183 0 0.26818611498992623 0.1403022215883418 0 0.26583546295036609 0.16369396270660089 0 0.28414721419066807 0.1482284927670183 0 0.26818611498992623 0.1403022215883418 0 0.25486404381895789 0.1523024957907583 0 0.26583546295036609 0.16369396270660089 0 0.24301228879775941 0.13939302681245261 0 0.26818611498992623 0.1403022215883418 0 0.25486404381895789 0.1523024957907583 0 0.2424223085377801 0.16582077205563811 0 0.25486404381895789 0.1523024957907583 0 0.26583546295036609 0.16369396270660089 0 0.2424223085377801 0.16582077205563811 0 0.26032431562704572 0.18342712708893841 0 0.26583546295036609 0.16369396270660089 0 0.26032431562704572 0.18342712708893841 0 0.27712404590978218 0.18082877805207789 0 0.26583546295036609 0.16369396270660089 0 0.27712404590978218 0.18082877805207789 0 0.26583546295036609 0.16369396270660089 0 0.28977860037431658 0.16805367250728201 0 0.26583546295036609 0.16369396270660089 0 0.28977860037431658 0.16805367250728201 0 0.28414721419066807 0.1482284927670183 0 0.27712404590978218 0.18082877805207789 0 0.28977860037431658 0.16805367250728201 0 0.29478084704188562 0.18627619782702401 0 0.28977860037431658 0.16805367250728201 0 0.29478084704188562 0.18627619782702401 0 0.31259037162619269 0.16725562300018509 0 0.29478084704188562 0.18627619782702401 0 0.31732062797233113 0.1926592597090995 0 0.31259037162619269 0.16725562300018509 0 0.28977860037431658 0.16805367250728201 0 0.29946190776947251 0.15165108642358641 0 0.31259037162619269 0.16725562300018509 0 0.29946190776947251 0.15165108642358641 0 0.31457327253359829 0.14480451223356691 0 0.31259037162619269 0.16725562300018509 0 0.29946190776947251 0.15165108642358641 0 0.29622008012258699 0.12991313160987961 0 0.31457327253359829 0.14480451223356691 0 0.29622008012258699 0.12991313160987961 0 0.31457327253359829 0.14480451223356691 0 0.29622008012258699 0.12991313160987961 0 0.32387679174541939 0.1297141718462434 0 0.31457327253359829 0.14480451223356691 0 0.27913813953766042 0.12972245958528131 0 0.29622008012258699 0.12991313160987961 0 0.28414721419066807 0.1482284927670183 0 0.29946190776947251 0.15165108642358641 0 0.29622008012258699 0.12991313160987961 0 0.28414721419066807 0.1482284927670183 0 0.28977860037431658 0.16805367250728201 0 0.29946190776947251 0.15165108642358641 0 0.28414721419066807 0.1482284927670183 0 0.27355486584907379 0.24364475180805101 0 0.25452501640087027 0.2374112721999547 0 0.26408278890255732 0.22479217687295791 0 0.25404003316197471 0.25208422786308371 0 0.27355486584907379 0.24364475180805101 0 0.25452501640087027 0.2374112721999547 0 0.24523436150048811 0.24199469982198529 0 0.25404003316197471 0.25208422786308371 0 0.25452501640087027 0.2374112721999547 0 0.24868260911088891 0.2303107595792985 0 0.2471090749199483 0.2357199094212839 0 0.25452501640087027 0.2374112721999547 0 0.24868260911088891 0.2303107595792985 0 0.25452501640087027 0.2374112721999547 0 0.26408278890255732 0.22479217687295791 0 0.24868260911088891 0.2303107595792985 0 0.26408278890255732 0.22479217687295791 0 0.25357276657721323 0.21641202867955539 0 0.27355486584907379 0.24364475180805101 0 0.26408278890255732 0.22479217687295791 0 0.28109637724199782 0.22150209212538899 0 0.26408278890255732 0.22479217687295791 0 0.28109637724199782 0.22150209212538899 0 0.27306509823529962 0.19947215684549871 0 0.26408278890255732 0.22479217687295791 0 0.25357276657721323 0.21641202867955539 0 0.27306509823529962 0.19947215684549871 0 0.25357276657721323 0.21641202867955539 0 0.25471258750952741 0.20148162901819469 0 0.27306509823529962 0.19947215684549871 0 0.25357276657721323 0.21641202867955539 0 0.27306509823529962 0.19947215684549871 0 0.2418323282778008 0.1922485172988235 0 0.26032431562704572 0.18342712708893841 0 0.25471258750952741 0.20148162901819469 0 0.26032431562704572 0.18342712708893841 0 0.25471258750952741 0.20148162901819469 0 0.27306509823529962 0.19947215684549871 0 0.26032431562704572 0.18342712708893841 0 0.27712404590978218 0.18082877805207789 0 0.27306509823529962 0.19947215684549871 0 0.29478084704188562 0.18627619782702401 0 0.27306509823529962 0.19947215684549871 0 0.29788838547339219 0.20777731020547871 0 0.27712404590978218 0.18082877805207789 0 0.29478084704188562 0.18627619782702401 0 0.27306509823529962 0.19947215684549871 0 0.29478084704188562 0.18627619782702401 0 0.29788838547339219 0.20777731020547871 0 0.31732062797233113 0.1926592597090995 0 0.29788838547339219 0.20777731020547871 0 0.31916040529159301 0.2166328624030785 0 0.31732062797233113 0.1926592597090995 0 0.28109637724199782 0.22150209212538899 0 0.27306509823529962 0.19947215684549871 0 0.29788838547339219 0.20777731020547871 0 0.28109637724199782 0.22150209212538899 0 0.29788838547339219 0.20777731020547871 0 0.29668368374297521 0.23238313674276659 0 0.27355486584907379 0.24364475180805101 0 0.28109637724199782 0.22150209212538899 0 0.29668368374297521 0.23238313674276659 0 0.29788838547339219 0.20777731020547871 0 0.29668368374297521 0.23238313674276659 0 0.31916040529159301 0.2166328624030785 0 0.29692855903906679 0.25537037528416417 0 0.29668368374297521 0.23238313674276659 0 0.32448256229391081 0.244023600812113 0 0.29692855903906679 0.25537037528416417 0 0.27355486584907379 0.24364475180805101 0 0.29668368374297521 0.23238313674276659 0 0.32448256229391081 0.244023600812113 0 0.33724611662768478 0.226971671205 0 0.35052125483258301 0.2434514759103418 0 0.32448256229391081 0.244023600812113 0 0.33724611662768478 0.226971671205 0 0.31916040529159301 0.2166328624030785 0 0.29668368374297521 0.23238313674276659 0 0.32448256229391081 0.244023600812113 0 0.31916040529159301 0.2166328624030785 0 0.33724611662768478 0.226971671205 0 0.31916040529159301 0.2166328624030785 0 0.34036716376080012 0.20191553243135291 0 0.31916040529159301 0.2166328624030785 0 0.31732062797233113 0.1926592597090995 0 0.34036716376080012 0.20191553243135291 0 0.31732062797233113 0.1926592597090995 0 0.34036716376080012 0.20191553243135291 0 0.33327910971122948 0.1769249887409369 0 0.34036716376080012 0.20191553243135291 0 0.33327910971122948 0.1769249887409369 0 0.35363051640006049 0.1838751638919715 0 0.34036716376080012 0.20191553243135291 0 0.36940151407566268 0.20038014978660379 0 0.35363051640006049 0.1838751638919715 0 0.36940151407566268 0.20038014978660379 0 0.35418005050780299 0.2186338278764331 0 0.36970064025412291 0.2313836502337521 0 0.34036716376080012 0.20191553243135291 0 0.36940151407566268 0.20038014978660379 0 0.35418005050780299 0.2186338278764331 0 0.33724611662768478 0.226971671205 0 0.34036716376080012 0.20191553243135291 0 0.35418005050780299 0.2186338278764331 0 0.33724611662768478 0.226971671205 0 0.35418005050780299 0.2186338278764331 0 0.35052125483258301 0.2434514759103418 0 0.35418005050780299 0.2186338278764331 0 0.36970064025412291 0.2313836502337521 0 0.35052125483258301 0.2434514759103418 0 0.37478492512234668 0.26235925763296819 0 0.36970064025412291 0.2313836502337521 0 0.35052125483258301 0.2434514759103418 0 0.33497932682518311 0.1519205034936916 0 0.32387679174541939 0.1297141718462434 0 0.35327239972246333 0.1300285668288671 0 0.33497932682518311 0.1519205034936916 0 0.31457327253359829 0.14480451223356691 0 0.31259037162619269 0.16725562300018509 0 0.33497932682518311 0.1519205034936916 0 0.32387679174541939 0.1297141718462434 0 0.31457327253359829 0.14480451223356691 0 0.33497932682518311 0.1519205034936916 0 0.31259037162619269 0.16725562300018509 0 0.33327910971122948 0.1769249887409369 0 0.31732062797233113 0.1926592597090995 0 0.31259037162619269 0.16725562300018509 0 0.33327910971122948 0.1769249887409369 0 0.33497932682518311 0.1519205034936916 0 0.33327910971122948 0.1769249887409369 0 0.34907151432127381 0.16521020144779211 0 0.34907151432127381 0.16521020144779211 0 0.35363051640006049 0.1838751638919715 0 0.37277469716236061 0.17385369407461371 0 0.33327910971122948 0.1769249887409369 0 0.34907151432127381 0.16521020144779211 0 0.35363051640006049 0.1838751638919715 0 0.36940151407566268 0.20038014978660379 0 0.35363051640006049 0.1838751638919715 0 0.37277469716236061 0.17385369407461371 0 0.37277469716236061 0.17385369407461371 0 0.36285879787080821 0.15032831482926681 0 0.3843829660287168 0.1587008111838667 0 0.34907151432127381 0.16521020144779211 0 0.37277469716236061 0.17385369407461371 0 0.36285879787080821 0.15032831482926681 0 0.36285879787080821 0.15032831482926681 0 0.36938385952287339 0.13266757129752671 0 0.38232915319187621 0.14145147187989651 0 0.33497932682518311 0.1519205034936916 0 0.36285879787080821 0.15032831482926681 0 0.35327239972246333 0.1300285668288671 0 0.33497932682518311 0.1519205034936916 0 0.34907151432127381 0.16521020144779211 0 0.36285879787080821 0.15032831482926681 0 0.36649271172908648 0.1176987398754743 0 0.35327239972246333 0.1300285668288671 0 0.36938385952287339 0.13266757129752671 0 0.36285879787080821 0.15032831482926681 0 0.35327239972246333 0.1300285668288671 0 0.36938385952287339 0.13266757129752671 0 0.39421974672685411 0.13240309148155921 0 0.38232915319187621 0.14145147187989651 0 0.38138511069115272 0.12353481432135879 0 0.36938385952287339 0.13266757129752671 0 0.38232915319187621 0.14145147187989651 0 0.38138511069115272 0.12353481432135879 0 0.39421974672685411 0.13240309148155921 0 0.41199731756477831 0.13352747615702071 0 0.3942733283070321 0.11371104406223111 0 0.39421974672685411 0.13240309148155921 0 0.40120830104283178 0.15077536395034899 0 0.41199731756477831 0.13352747615702071 0 0.39421974672685411 0.13240309148155921 0 0.40120830104283178 0.15077536395034899 0 0.38232915319187621 0.14145147187989651 0 0.36285879787080821 0.15032831482926681 0 0.38232915319187621 0.14145147187989651 0 0.3843829660287168 0.1587008111838667 0 0.40120830104283178 0.15077536395034899 0 0.38232915319187621 0.14145147187989651 0 0.3843829660287168 0.1587008111838667 0 0.37277469716236061 0.17385369407461371 0 0.3843829660287168 0.1587008111838667 0 0.39936082591505218 0.176604797209717 0 0.37277469716236061 0.17385369407461371 0 0.39936082591505218 0.176604797209717 0 0.38992891259608609 0.19548318162929729 0 0.40120830104283178 0.15077536395034899 0 0.39936082591505218 0.176604797209717 0 0.41410660213767347 0.1652382216241598 0 0.40120830104283178 0.15077536395034899 0 0.3843829660287168 0.1587008111838667 0 0.39936082591505218 0.176604797209717 0 0.40120830104283178 0.15077536395034899 0 0.41410660213767347 0.1652382216241598 0 0.42972130682252457 0.1533439082518103 0 0.39936082591505218 0.176604797209717 0 0.41410660213767347 0.1652382216241598 0 0.42626679864566441 0.18172907206941921 0 0.42626679864566441 0.18172907206941921 0 0.42972130682252457 0.1533439082518103 0 0.45055708181009879 0.1690731760043504 0 0.41410660213767347 0.1652382216241598 0 0.42626679864566441 0.18172907206941921 0 0.42972130682252457 0.1533439082518103 0 0.42972130682252457 0.1533439082518103 0 0.43054248402473921 0.1250848439374013 0 0.44904083753606949 0.1441389705362057 0 0.42972130682252457 0.1533439082518103 0 0.43054248402473921 0.1250848439374013 0 0.41199731756477831 0.13352747615702071 0 0.43054248402473921 0.1250848439374013 0 0.41199731756477831 0.13352747615702071 0 0.41135066019799099 0.1182158826350982 0 0.40120830104283178 0.15077536395034899 0 0.42972130682252457 0.1533439082518103 0 0.41199731756477831 0.13352747615702071 0 0.42972130682252457 0.1533439082518103 0 0.41199731756477831 0.13352747615702071 0 0.40097752291506289 0.25902709479471048 0 0.39333580902427501 0.24081282939082621 0 0.41286841049430861 0.24788583003777651 0 0.37478492512234668 0.26235925763296819 0 0.36970064025412291 0.2313836502337521 0 0.39333580902427501 0.24081282939082621 0 0.36970064025412291 0.2313836502337521 0 0.39333580902427501 0.24081282939082621 0 0.39338333076520482 0.2163019563834182 0 0.39338333076520482 0.2163019563834182 0 0.41736514745474701 0.23222376298023259 0 0.39333580902427501 0.24081282939082621 0 0.39338333076520482 0.2163019563834182 0 0.41736514745474701 0.23222376298023259 0 0.39338333076520482 0.2163019563834182 0 0.38992891259608609 0.19548318162929729 0 0.41508715600771068 0.20488700545500521 0 0.36940151407566268 0.20038014978660379 0 0.39338333076520482 0.2163019563834182 0 0.36940151407566268 0.20038014978660379 0 0.39338333076520482 0.2163019563834182 0 0.38992891259608609 0.19548318162929729 0 0.36940151407566268 0.20038014978660379 0 0.36970064025412291 0.2313836502337521 0 0.39338333076520482 0.2163019563834182 0 0.36940151407566268 0.20038014978660379 0 0.37277469716236061 0.17385369407461371 0 0.38992891259608609 0.19548318162929729 0 0.39936082591505218 0.176604797209717 0 0.38992891259608609 0.19548318162929729 0 0.41508715600771068 0.20488700545500521 0 0.39936082591505218 0.176604797209717 0 0.42626679864566441 0.18172907206941921 0 0.41508715600771068 0.20488700545500521 0 0.42626679864566441 0.18172907206941921 0 0.44140000057487638 0.20455834627575151 0 0.44473765559285833 0.18692520255949671 0 0.42626679864566441 0.18172907206941921 0 0.41508715600771068 0.20488700545500521 0 0.44140000057487638 0.20455834627575151 0 0.41508715600771068 0.20488700545500521 0 0.43790507610234408 0.2273079216372012 0 0.44140000057487638 0.20455834627575151 0 0.39338333076520482 0.2163019563834182 0 0.41508715600771068 0.20488700545500521 0 0.41736514745474701 0.23222376298023259 0 0.41508715600771068 0.20488700545500521 0 0.41736514745474701 0.23222376298023259 0 0.43790507610234408 0.2273079216372012 0 0.42717012070777932 0.25569493195645271 0 0.41736514745474701 0.23222376298023259 0 0.44134696414428898 0.24814556957704689 0 0.41736514745474701 0.23222376298023259 0 0.44134696414428898 0.24814556957704689 0 0.41736514745474701 0.23222376298023259 0 0.44134696414428898 0.24814556957704689 0 0.43790507610234408 0.2273079216372012 0 0.39333580902427501 0.24081282939082621 0 0.41736514745474701 0.23222376298023259 0 0.41286841049430861 0.24788583003777651 0 0.42717012070777932 0.25569493195645271 0 0.41736514745474701 0.23222376298023259 0 0.41286841049430861 0.24788583003777651 0 0.45336271850049548 0.25236276911819511 0 0.45602225988021539 0.23816249748875179 0 0.48180965237011408 0.2487438147612096 0 0.45336271850049548 0.25236276911819511 0 0.45602225988021539 0.23816249748875179 0 0.44134696414428898 0.24814556957704689 0 0.44600400848591359 0.23698591979390529 0 0.43790507610234408 0.2273079216372012 0 0.45336271850049548 0.25236276911819511 0 0.44134696414428898 0.24814556957704689 0 0.44600400848591359 0.23698591979390529 0 0.45336271850049548 0.25236276911819511 0 0.45602225988021539 0.23816249748875179 0 0.44600400848591359 0.23698591979390529 0 0.45602225988021539 0.23816249748875179 0 0.44600400848591359 0.23698591979390529 0 0.45492939023952461 0.2194397610932603 0 0.44600400848591359 0.23698591979390529 0 0.43790507610234408 0.2273079216372012 0 0.45492939023952461 0.2194397610932603 0 0.45602225988021539 0.23816249748875179 0 0.45492939023952461 0.2194397610932603 0 0.47419086539053962 0.2296972043723752 0 0.45492939023952461 0.2194397610932603 0 0.46072674134079361 0.19234021588846559 0 0.47847088324409548 0.2092058758105422 0 0.45492939023952461 0.2194397610932603 0 0.44140000057487638 0.20455834627575151 0 0.46072674134079361 0.19234021588846559 0 0.43790507610234408 0.2273079216372012 0 0.45492939023952461 0.2194397610932603 0 0.44140000057487638 0.20455834627575151 0 0.44140000057487638 0.20455834627575151 0 0.46072674134079361 0.19234021588846559 0 0.44473765559285833 0.18692520255949671 0 0.46072674134079361 0.19234021588846559 0 0.4812983336831132 0.1885899983914231 0 0.47847088324409548 0.2092058758105422 0 0.4812983336831132 0.1885899983914231 0 0.5 0.19797878532577309 0 0.47847088324409548 0.2092058758105422 0 0.5 0.19797878532577309 0 0.47847088324409548 0.2092058758105422 0 0.5 0.22793385045351919 0 0.47847088324409548 0.2092058758105422 0 0.47419086539053962 0.2296972043723752 0 0.5 0.22793385045351919 0 0.45492939023952461 0.2194397610932603 0 0.47847088324409548 0.2092058758105422 0 0.47419086539053962 0.2296972043723752 0 0.5 0.25788891558126559 0 0.5 0.22793385045351919 0 0.48180965237011408 0.2487438147612096 0 0.47419086539053962 0.2296972043723752 0 0.5 0.22793385045351919 0 0.48180965237011408 0.2487438147612096 0 0.45602225988021539 0.23816249748875179 0 0.47419086539053962 0.2296972043723752 0 0.48180965237011408 0.2487438147612096 0 0.46287167922105149 0.15545842773829099 0 0.44904083753606949 0.1441389705362057 0 0.45055708181009879 0.1690731760043504 0 0.46287167922105149 0.15545842773829099 0 0.46355845200513762 0.13850516077978961 0 0.47909635670674228 0.14767892477560191 0 0.46287167922105149 0.15545842773829099 0 0.46355845200513762 0.13850516077978961 0 0.44904083753606949 0.1441389705362057 0 0.46355845200513762 0.13850516077978961 0 0.47795750643906171 0.12649365297180731 0 0.4559740449914913 0.1245921335342187 0 0.46355845200513762 0.13850516077978961 0 0.44904083753606949 0.1441389705362057 0 0.4559740449914913 0.1245921335342187 0 0.43054248402473921 0.1250848439374013 0 0.44904083753606949 0.1441389705362057 0 0.4559740449914913 0.1245921335342187 0 0.42972130682252457 0.1533439082518103 0 0.44904083753606949 0.1441389705362057 0 0.45055708181009879 0.1690731760043504 0 0.42626679864566441 0.18172907206941921 0 0.45055708181009879 0.1690731760043504 0 0.44473765559285833 0.18692520255949671 0 0.46072674134079361 0.19234021588846559 0 0.45055708181009879 0.1690731760043504 0 0.44473765559285833 0.18692520255949671 0 0.46072674134079361 0.19234021588846559 0 0.45055708181009879 0.1690731760043504 0 0.4752785409050499 0.1685484481011886 0 0.46287167922105149 0.15545842773829099 0 0.45055708181009879 0.1690731760043504 0 0.4752785409050499 0.1685484481011886 0 0.45055708181009879 0.1690731760043504 0 0.4752785409050499 0.1685484481011886 0 0.46287167922105149 0.15545842773829099 0 0.4752785409050499 0.1685484481011886 0 0.47909635670674228 0.14767892477560191 0 0.46072674134079361 0.19234021588846559 0 0.4812983336831132 0.1885899983914231 0 0.4752785409050499 0.1685484481011886 0 0.4812983336831132 0.1885899983914231 0 0.4752785409050499 0.1685484481011886 0 0.50000000000000111 0.1680237201980268 0 0.4812983336831132 0.1885899983914231 0 0.5 0.19797878532577309 0 0.50000000000000111 0.1680237201980268 0 0.4752785409050499 0.1685484481011886 0 0.50000000000000111 0.1680237201980268 0 0.4752785409050499 0.1685484481011886 0 0.50000000000000111 0.1680237201980268 0 0.47909635670674228 0.14767892477560191 0 0.50000000000000111 0.1680237201980268 0 0.5 0.14405257421324749 0 0.47909635670674228 0.14767892477560191 0 0.46355845200513762 0.13850516077978961 0 0.47909635670674228 0.14767892477560191 0 0.47795750643906171 0.12649365297180731 0 0.5 0.14405257421324749 0 0.47795750643906171 0.12649365297180731 0 0.5 0.12008142822846821 0 0.5 0.14405257421324749 0 0.47909635670674228 0.14767892477560191 0 0.47795750643906171 0.12649365297180731 0 0.47795750643906171 0.12649365297180731 0 0.5 0.12008142822846821 0 0.48437617198066579 0.1083096126220475 0 0.48437617198066579 0.1083096126220475 0 0.5 0.096110282243688894 0 0.4787628640296252 0.09057766153942011 0 0.5 0.12008142822846821 0 0.48437617198066579 0.1083096126220475 0 0.5 0.096110282243688894 0 0.48437617198066579 0.1083096126220475 0 0.4787628640296252 0.09057766153942011 0 0.46516048943464161 0.10828503812685281 0 0.47795750643906171 0.12649365297180731 0 0.48437617198066579 0.1083096126220475 0 0.46516048943464161 0.10828503812685281 0 0.49999999999999389 0.072139136258909636 0 0.47264706529987838 0.068582714068275596 0 0.5 0.096110282243688894 0 0.49999999999999389 0.072139136258909636 0 0.4787628640296252 0.09057766153942011 0 0.49999999999999389 0.072139136258909636 0 0.4787628640296252 0.09057766153942011 0 0.47264706529987838 0.068582714068275596 0 0.47264706529987838 0.068582714068275596 0 0.44529413059976319 0.065026291877640793 0 0.47264706529987838 0.068582714068275596 0 0.45009241250792742 0.089848104882156193 0 0.44529413059976319 0.065026291877640793 0 0.4787628640296252 0.09057766153942011 0 0.47264706529987838 0.068582714068275596 0 0.45009241250792742 0.089848104882156193 0 0.45009241250792742 0.089848104882156193 0 0.44529413059976319 0.065026291877640793 0 0.42710943965072512 0.080764761008918995 0 0.4559740449914913 0.1245921335342187 0 0.46516048943464161 0.10828503812685281 0 0.44660059903698529 0.1095612823054605 0 0.47795750643906171 0.12649365297180731 0 0.4559740449914913 0.1245921335342187 0 0.46516048943464161 0.10828503812685281 0 0.45009241250792742 0.089848104882156193 0 0.46516048943464161 0.10828503812685281 0 0.44660059903698529 0.1095612823054605 0 0.4787628640296252 0.09057766153942011 0 0.45009241250792742 0.089848104882156193 0 0.46516048943464161 0.10828503812685281 0 0.45009241250792742 0.089848104882156193 0 0.44660059903698529 0.1095612823054605 0 0.42999027194599682 0.1018780191517587 0 0.43054248402473921 0.1250848439374013 0 0.4559740449914913 0.1245921335342187 0 0.44660059903698529 0.1095612823054605 0 0.43054248402473921 0.1250848439374013 0 0.44660059903698529 0.1095612823054605 0 0.42999027194599682 0.1018780191517587 0 0.43054248402473921 0.1250848439374013 0 0.41661501870526302 0.10782610780512 0 0.42999027194599682 0.1018780191517587 0 0.43054248402473921 0.1250848439374013 0 0.41135066019799099 0.1182158826350982 0 0.41661501870526302 0.10782610780512 0 0.43054248402473921 0.1250848439374013 0 0.41135066019799099 0.1182158826350982 0 0.41135066019799099 0.1182158826350982 0 0.41661501870526302 0.10782610780512 0 0.40605193543095291 0.1101899923625959 0 0.41199731756477831 0.13352747615702071 0 0.40856435551682457 0.1195913393650266 0 0.41135066019799099 0.1182158826350982 0 0.41661501870526302 0.10782610780512 0 0.42999027194599682 0.1018780191517587 0 0.41050144950628809 0.092342992232264526 0 0.41661501870526302 0.10782610780512 0 0.41050144950628809 0.092342992232264526 0 0.40408322644931421 0.10337105767737099 0 0.41661501870526302 0.10782610780512 0 0.40605193543095291 0.1101899923625959 0 0.40408322644931421 0.10337105767737099 0 0.45009241250792742 0.089848104882156193 0 0.42999027194599682 0.1018780191517587 0 0.42710943965072512 0.080764761008918995 0 0.42999027194599682 0.1018780191517587 0 0.42710943965072512 0.080764761008918995 0 0.41050144950628809 0.092342992232264526 0 0.44529413059976319 0.065026291877640793 0 0.42710943965072512 0.080764761008918995 0 0.41794119589964812 0.061469869687005997 0 0.44529413059976319 0.065026291877640793 0 0.41794119589964812 0.061469869687005997 0 0.42710943965072512 0.080764761008918995 0 0.40780427562880051 0.074340584248736047 0 0.41794119589964812 0.061469869687005997 0 0.42710943965072512 0.080764761008918995 0 0.40780427562880051 0.074340584248736047 0 0.41050144950628809 0.092342992232264526 0 0.41050144950628809 0.092342992232264526 0 0.39288103188780799 0.079211850819119467 0 0.39173805803946632 0.094638931286680023 0 0.40780427562880051 0.074340584248736047 0 0.41050144950628809 0.092342992232264526 0 0.39288103188780799 0.079211850819119467 0 0.40780427562880051 0.074340584248736047 0 0.39058826119953283 0.057913447496371839 0 0.41794119589964812 0.061469869687005997 0 0.40780427562880051 0.074340584248736047 0 0.39288103188780799 0.079211850819119467 0 0.39058826119953283 0.057913447496371839 0 0.39288103188780799 0.079211850819119467 0 0.37575225644292037 0.071709270247263784 0 0.39058826119953283 0.057913447496371839 0 0.3742009225581896 0.091268948227223284 0 0.39288103188780799 0.079211850819119467 0 0.39173805803946632 0.094638931286680023 0 0.3742009225581896 0.091268948227223284 0 0.39288103188780799 0.079211850819119467 0 0.37575225644292037 0.071709270247263784 0 0.3742009225581896 0.091268948227223284 0 0.39215883637124299 0.11134692133279479 0 0.39173805803946632 0.094638931286680023 0 0.3742009225581896 0.091268948227223284 0 0.39215883637124299 0.11134692133279479 0 0.3742009225581896 0.091268948227223284 0 0.3795225325030368 0.1068242515199407 0 0.39215883637124299 0.11134692133279479 0 0.3795225325030368 0.1068242515199407 0 0.39215883637124299 0.11134692133279479 0 0.3795225325030368 0.1068242515199407 0 0.38138511069115272 0.12353481432135879 0 0.3942733283070321 0.11371104406223111 0 0.36649271172908648 0.1176987398754743 0 0.3795225325030368 0.1068242515199407 0 0.38138511069115272 0.12353481432135879 0 0.39421974672685411 0.13240309148155921 0 0.38138511069115272 0.12353481432135879 0 0.3942733283070321 0.11371104406223111 0 0.3795225325030368 0.1068242515199407 0 0.3942733283070321 0.11371104406223111 0 0.3795225325030368 0.1068242515199407 0 0.39215883637124299 0.11134692133279479 0 0.3942733283070321 0.11371104406223111 0 0.41135066019799099 0.1182158826350982 0 0.39215883637124299 0.11134692133279479 0 0.40605193543095291 0.1101899923625959 0 0.41135066019799099 0.1182158826350982 0 0.39215883637124299 0.11134692133279479 0 0.3942733283070321 0.11371104406223111 0 0.41135066019799099 0.1182158826350982 0 0.39215883637124299 0.11134692133279479 0 0.41199731756477831 0.13352747615702071 0 0.40856435551682457 0.1195913393650266 0 0.3942733283070321 0.11371104406223111 0 0.41199731756477831 0.13352747615702071 0 0.3942733283070321 0.11371104406223111 0 0.40856435551682457 0.1195913393650266 0 0.41135066019799099 0.1182158826350982 0 0.3942733283070321 0.11371104406223111 0 0.39215883637124299 0.11134692133279479 0 0.3942733283070321 0.11371104406223111 0 0.40856435551682457 0.1195913393650266 0 0.3942733283070321 0.11371104406223111 0 0.39215883637124299 0.11134692133279479 0 0.40408322644931421 0.10337105767737099 0 0.39173805803946632 0.094638931286680023 0 0.39215883637124299 0.11134692133279479 0 0.40605193543095291 0.1101899923625959 0 0.40408322644931421 0.10337105767737099 0 0.41050144950628809 0.092342992232264526 0 0.40408322644931421 0.10337105767737099 0 0.39173805803946632 0.094638931286680023 0 0.4038432128890253 0.016274120358417851 0 0.39452024459155199 0.029629145094844 0 0.3798040161112804 0.028996110171619349 0 0.4038432128890253 0.016274120358417851 0 0.39452024459155199 0.029629145094844 0 0.40714332068978548 0.032011032787191827 0 0.4038432128890253 0.016274120358417851 0 0.3798040161112804 0.028996110171619349 0 0.4038432128890253 0.016274120358417851 0 0.39390920682105918 0.0040204267233196643 0 0.38813729234829519 0.016219836643301819 0 0.4038432128890253 0.016274120358417851 0 0.39390920682105918 0.0040204267233196643 0 0.40369857438468087 -0.0060371637805465179 0 0.39390920682105918 0.0040204267233196643 0 0.38212023564171321 0.001094655884648786 0 0.38813729234829519 0.016219836643301819 0 0.38212023564171321 0.001094655884648786 0 0.37537418671591988 0.012891754799621079 0 0.3700201466167648 -0.002195575246397889 0 0.38212023564171321 0.001094655884648786 0 0.37537418671591988 0.012891754799621079 0 0.38813729234829519 0.016219836643301819 0 0.38029426512156322 0.021339738828328979 0 0.38813729234829519 0.016219836643301819 0 0.3798040161112804 0.028996110171619349 0 0.4038432128890253 0.016274120358417851 0 0.38813729234829519 0.016219836643301819 0 0.3798040161112804 0.028996110171619349 0 0.37537418671591988 0.012891754799621079 0 0.38029426512156322 0.021339738828328979 0 0.37786156531075732 0.02725125369877367 0 0.37537418671591988 0.012891754799621079 0 0.38029426512156322 0.021339738828328979 0 0.38813729234829519 0.016219836643301819 0 0.39452024459155199 0.029629145094844 0 0.3798040161112804 0.028996110171619349 0 0.384792923869274 0.033192425096464057 0 0.38029426512156322 0.021339738828328979 0 0.3798040161112804 0.028996110171619349 0 0.37786156531075732 0.02725125369877367 0 0.36984281421283938 0.03924660656396721 0 0.3798040161112804 0.028996110171619349 0 0.37675727284589372 0.036323400775862158 0 0.3798040161112804 0.028996110171619349 0 0.38012370578730592 0.033949837724153123 0 0.37675727284589372 0.036323400775862158 0 0.3798040161112804 0.028996110171619349 0 0.38012370578730592 0.033949837724153123 0 0.384792923869274 0.033192425096464057 0 0.38012370578730592 0.033949837724153123 0 0.38115894465086869 0.037510150111343843 0 0.384792923869274 0.033192425096464057 0 0.38012370578730592 0.033949837724153123 0 0.38115894465086869 0.037510150111343843 0 0.37675727284589372 0.036323400775862158 0 0.38115894465086869 0.037510150111343843 0 0.37675727284589372 0.036323400775862158 0 0.37726993283737248 0.041439113600633092 0 0.37726993283737248 0.041439113600633092 0 0.38325871491723518 0.0441773091346798 0 0.37608467898805159 0.048096788967416412 0 0.38115894465086869 0.037510150111343843 0 0.37726993283737248 0.041439113600633092 0 0.38325871491723518 0.0441773091346798 0 0.38115894465086869 0.037510150111343843 0 0.38325871491723518 0.0441773091346798 0 0.38884635116990662 0.036871995634108659 0 0.38325871491723518 0.0441773091346798 0 0.38884635116990662 0.036871995634108659 0 0.39118926401298038 0.043344116461786472 0 0.39452024459155199 0.029629145094844 0 0.38884635116990662 0.036871995634108659 0 0.384792923869274 0.033192425096464057 0 0.38115894465086869 0.037510150111343843 0 0.38884635116990662 0.036871995634108659 0 0.384792923869274 0.033192425096464057 0 0.36737709041569239 0.056764699852256018 0 0.39058826119953283 0.057913447496371839 0 0.36443667806580698 0.054513224756226962 0 0.37608467898805159 0.048096788967416412 0 0.39058826119953283 0.057913447496371839 0 0.36737709041569239 0.056764699852256018 0 0.37575225644292037 0.071709270247263784 0 0.39058826119953283 0.057913447496371839 0 0.36443667806580698 0.054513224756226962 0 0.39058826119953283 0.057913447496371839 0 0.38325871491723518 0.0441773091346798 0 0.37608467898805159 0.048096788967416412 0 0.39058826119953283 0.057913447496371839 0 0.38325871491723518 0.0441773091346798 0 0.39058826119953283 0.057913447496371839 0 0.39118926401298038 0.043344116461786472 0 0.39058826119953283 0.057913447496371839 0 0.39917917489280202 0.048669550515315511 0 0.40824027372044169 0.058787065978875973 0 0.39058826119953283 0.057913447496371839 0 0.40824027372044169 0.058787065978875973 0 0.39058826119953283 0.057913447496371839 0 0.41794119589964812 0.061469869687005997 0 0.40824027372044169 0.058787065978875973 0 0.39058826119953283 0.057913447496371839 0 0.41794119589964812 0.061469869687005997 0 0.39058826119953283 0.057913447496371839 0 0.39917917489280202 0.048669550515315511 0 0.39118926401298038 0.043344116461786472 0 0.39917917489280202 0.048669550515315511 0 0.40803146459590139 0.044566129264659721 0 0.40824027372044169 0.058787065978875973 0 0.39452024459155199 0.029629145094844 0 0.38884635116990662 0.036871995634108659 0 0.39784661093515339 0.038736993374884177 0 0.39917917489280202 0.048669550515315511 0 0.39784661093515339 0.038736993374884177 0 0.39118926401298038 0.043344116461786472 0 0.38884635116990662 0.036871995634108659 0 0.39784661093515339 0.038736993374884177 0 0.39118926401298038 0.043344116461786472 0 0.39917917489280202 0.048669550515315511 0 0.39784661093515339 0.038736993374884177 0 0.40803146459590139 0.044566129264659721 0 0.39452024459155199 0.029629145094844 0 0.39784661093515339 0.038736993374884177 0 0.40714332068978548 0.032011032787191827 0 0.39784661093515339 0.038736993374884177 0 0.40714332068978548 0.032011032787191827 0 0.40803146459590139 0.044566129264659721 0 0.40714332068978548 0.032011032787191827 0 0.40803146459590139 0.044566129264659721 0 0.41964440497126981 0.040250358009145122 0 0.40803146459590139 0.044566129264659721 0 0.41964440497126981 0.040250358009145122 0 0.41733432138732551 0.050785193364838402 0 0.40714332068978548 0.032011032787191827 0 0.41964440497126981 0.040250358009145122 0 0.41891932927970088 0.026081136014491389 0 0.40824027372044169 0.058787065978875973 0 0.41733432138732551 0.050785193364838402 0 0.42589228624135061 0.059660684461379461 0 0.40824027372044169 0.058787065978875973 0 0.42589228624135061 0.059660684461379461 0 0.41794119589964812 0.061469869687005997 0 0.40824027372044169 0.058787065978875973 0 0.42589228624135061 0.059660684461379461 0 0.40803146459590139 0.044566129264659721 0 0.40824027372044169 0.058787065978875973 0 0.41733432138732551 0.050785193364838402 0 0.41964440497126981 0.040250358009145122 0 0.41733432138732551 0.050785193364838402 0 0.42647272639553008 0.050672874727357403 0 0.44529413059976319 0.065026291877640793 0 0.42589228624135061 0.059660684461379461 0 0.43583307009461808 0.053135938561971199 0 0.44529413059976319 0.065026291877640793 0 0.41794119589964812 0.061469869687005997 0 0.42589228624135061 0.059660684461379461 0 0.42589228624135061 0.059660684461379461 0 0.42647272639553008 0.050672874727357403 0 0.43583307009461808 0.053135938561971199 0 0.41733432138732551 0.050785193364838402 0 0.42589228624135061 0.059660684461379461 0 0.42647272639553008 0.050672874727357403 0 0.42647272639553008 0.050672874727357403 0 0.43583307009461808 0.053135938561971199 0 0.4340740022190257 0.043822740937536728 0 0.41964440497126981 0.040250358009145122 0 0.42987588244635011 0.033334548906864728 0 0.41891932927970088 0.026081136014491389 0 0.41964440497126981 0.040250358009145122 0 0.4340740022190257 0.043822740937536728 0 0.42987588244635011 0.033334548906864728 0 0.41964440497126981 0.040250358009145122 0 0.42647272639553008 0.050672874727357403 0 0.4340740022190257 0.043822740937536728 0 0.4340740022190257 0.043822740937536728 0 0.42987588244635011 0.033334548906864728 0 0.44528176508543132 0.032905620831071007 0 0.42987588244635011 0.033334548906864728 0 0.43184963590009789 0.021236349906575389 0 0.44528176508543132 0.032905620831071007 0 0.43184963590009789 0.021236349906575389 0 0.42259879527057942 0.015927249454054739 0 0.43188165484739188 0.01287087804949661 0 0.43184963590009789 0.021236349906575389 0 0.42259879527057942 0.015927249454054739 0 0.41891932927970088 0.026081136014491389 0 0.42987588244635011 0.033334548906864728 0 0.43184963590009789 0.021236349906575389 0 0.41891932927970088 0.026081136014491389 0 0.4038432128890253 0.016274120358417851 0 0.42259879527057942 0.015927249454054739 0 0.41891932927970088 0.026081136014491389 0 0.4038432128890253 0.016274120358417851 0 0.40714332068978548 0.032011032787191827 0 0.41891932927970088 0.026081136014491389 0 0.4038432128890253 0.016274120358417851 0 0.41402040698134779 -0.0025911497673051101 0 0.40369857438468087 -0.0060371637805465179 0 0.4038432128890253 0.016274120358417851 0 0.42788240966677021 0.003552130545216341 0 0.4038432128890253 0.016274120358417851 0 0.42101935538117791 0.0050386314779034547 0 0.41402040698134779 -0.0025911497673051101 0 0.4038432128890253 0.016274120358417851 0 0.42259879527057942 0.015927249454054739 0 0.42788240966677021 0.003552130545216341 0 0.4038432128890253 0.016274120358417851 0 0.42101935538117791 0.0050386314779034547 0 0.42788240966677021 0.003552130545216341 0 0.42788240966677021 0.003552130545216341 0 0.43188165484739188 0.01287087804949661 0 0.44740740452026229 0.01137317045841814 0 0.42259879527057942 0.015927249454054739 0 0.42788240966677021 0.003552130545216341 0 0.43188165484739188 0.01287087804949661 0 0.43184963590009789 0.021236349906575389 0 0.43188165484739188 0.01287087804949661 0 0.44740740452026229 0.01137317045841814 0 0.42788240966677021 0.003552130545216341 0 0.44740740452026229 0.01137317045841814 0 0.45192160644451512 -0.0091698592679851504 0 0.43184963590009789 0.021236349906575389 0 0.44740740452026229 0.01137317045841814 0 0.44528176508543132 0.032905620831071007 0 0.44740740452026229 0.01137317045841814 0 0.44528176508543132 0.032905620831071007 0 0.46875558315454652 0.02621282055229885 0 0.44740740452026229 0.01137317045841814 0 0.4740075662235973 0.0028935560396234419 0 0.46875558315454652 0.02621282055229885 0 0.44740740452026229 0.01137317045841814 0 0.4740075662235973 0.0028935560396234419 0 0.45192160644451512 -0.0091698592679851504 0 0.44529413059976319 0.065026291877640793 0 0.44587589901867808 0.047550444472131762 0 0.4614262583005877 0.04791767975015173 0 0.44529413059976319 0.065026291877640793 0 0.43583307009461808 0.053135938561971199 0 0.44587589901867808 0.047550444472131762 0 0.43583307009461808 0.053135938561971199 0 0.4340740022190257 0.043822740937536728 0 0.44587589901867808 0.047550444472131762 0 0.44587589901867808 0.047550444472131762 0 0.44528176508543132 0.032905620831071007 0 0.4614262583005877 0.04791767975015173 0 0.4340740022190257 0.043822740937536728 0 0.44587589901867808 0.047550444472131762 0 0.44528176508543132 0.032905620831071007 0 0.44528176508543132 0.032905620831071007 0 0.4614262583005877 0.04791767975015173 0 0.46875558315454652 0.02621282055229885 0 0.47264706529987838 0.068582714068275596 0 0.44529413059976319 0.065026291877640793 0 0.4614262583005877 0.04791767975015173 0 0.47264706529987838 0.068582714068275596 0 0.4614262583005877 0.04791767975015173 0 0.48053199367993171 0.043851827509569327 0 0.4614262583005877 0.04791767975015173 0 0.48053199367993171 0.043851827509569327 0 0.46875558315454652 0.02621282055229885 0 0.48053199367993171 0.043851827509569327 0 0.5 0.04545089247058498 0 0.5 0.018762648682260189 0 0.49999999999999389 0.072139136258909636 0 0.47264706529987838 0.068582714068275596 0 0.48053199367993171 0.043851827509569327 0 0.49999999999999389 0.072139136258909636 0 0.48053199367993171 0.043851827509569327 0 0.5 0.04545089247058498 0 0.48053199367993171 0.043851827509569327 0 0.46875558315454652 0.02621282055229885 0 0.5 0.018762648682260189 0 0.4740075662235973 0.0028935560396234419 0 0.46875558315454652 0.02621282055229885 0 0.5 0.018762648682260189 0 0.4740075662235973 0.0028935560396234419 0 0.5 0.018762648682260189 0 0.5 -0.0079255951060647756 0 0.4740075662235973 0.0028935560396234419 0 0.5 -0.0079255951060647756 0 0.47596080322225992 -0.02189184908118659 0 0.47596080322225992 -0.02189184908118659 0 0.50000000000000377 -0.034613838894389633 0 0.5 -0.0079255951060647756 0 0.47596080322225992 -0.02189184908118659 0 0.50000000000000377 -0.034613838894389633 0 0.47596080322225992 -0.02189184908118659 0 0.50000000000000377 -0.034613838894389633 0 0.48339532061042467 -0.042675677639817791 0 0.50000000000000377 -0.034613838894389633 0 0.5 -0.052291970509826757 0 0.48339532061042467 -0.042675677639817791 0 0.5 -0.052291970509826757 0 0.48378938215607542 -0.060491629721736481 0 0.49999999999999678 -0.069970102125263903 0 0.5 -0.052291970509826757 0 0.48378938215607542 -0.060491629721736481 0 0.48339532061042467 -0.042675677639817791 0 0.48378938215607542 -0.060491629721736481 0 0.47035919737641452 -0.05083356829212015 0 0.48339532061042467 -0.042675677639817791 0 0.48378938215607542 -0.060491629721736481 0 0.47035919737641452 -0.05083356829212015 0 0.46263532094350251 -0.0655193079319734 0 0.47596080322225992 -0.02189184908118659 0 0.48339532061042467 -0.042675677639817791 0 0.46122373864745198 -0.034064038759572521 0 0.47035919737641452 -0.05083356829212015 0 0.48339532061042467 -0.042675677639817791 0 0.46122373864745198 -0.034064038759572521 0 0.46122373864745198 -0.034064038759572521 0 0.45641225836005789 -0.05051217933658872 0 0.44483042593949818 -0.041063070916932051 0 0.47035919737641452 -0.05083356829212015 0 0.46122373864745198 -0.034064038759572521 0 0.45641225836005789 -0.05051217933658872 0 0.45641225836005789 -0.05051217933658872 0 0.44526353314296241 -0.062107813217869068 0 0.46263532094350251 -0.0655193079319734 0 0.47035919737641452 -0.05083356829212015 0 0.45641225836005789 -0.05051217933658872 0 0.46263532094350251 -0.0655193079319734 0 0.45641225836005789 -0.05051217933658872 0 0.44526353314296241 -0.062107813217869068 0 0.44483042593949818 -0.041063070916932051 0 0.44526353314296241 -0.062107813217869068 0 0.44483042593949818 -0.041063070916932051 0 0.42768193525564641 -0.052738548234870043 0 0.46122373864745198 -0.034064038759572521 0 0.44483042593949818 -0.041063070916932051 0 0.44260817666721519 -0.025216613737701819 0 0.44483042593949818 -0.041063070916932051 0 0.44260817666721519 -0.025216613737701819 0 0.43454865465473302 -0.032105158367880783 0 0.46122373864745198 -0.034064038759572521 0 0.44260817666721519 -0.025216613737701819 0 0.45192160644451512 -0.0091698592679851504 0 0.42788240966677021 0.003552130545216341 0 0.45192160644451512 -0.0091698592679851504 0 0.44260817666721519 -0.025216613737701819 0 0.45192160644451512 -0.0091698592679851504 0 0.43543049063324413 -0.012350052332502739 0 0.42788240966677021 0.003552130545216341 0 0.45192160644451512 -0.0091698592679851504 0 0.43543049063324413 -0.012350052332502739 0 0.4740075662235973 0.0028935560396234419 0 0.47596080322225992 -0.02189184908118659 0 0.45192160644451512 -0.0091698592679851504 0 0.47596080322225992 -0.02189184908118659 0 0.45192160644451512 -0.0091698592679851504 0 0.47596080322225992 -0.02189184908118659 0 0.46122373864745198 -0.034064038759572521 0 0.45192160644451512 -0.0091698592679851504 0 0.47621403880257929 -0.099362679963144546 0 0.45825176112352212 -0.1171944005084963 0 0.47461064769812122 -0.12772964805397971 0 0.50000000000000433 -0.1143432737178363 0 0.47621403880257929 -0.099362679963144546 0 0.47461064769812122 -0.12772964805397971 0 0.50000000000000433 -0.1143432737178363 0 0.47461064769812122 -0.12772964805397971 0 0.49999999999998102 -0.1000967699598443 0 0.47621403880257929 -0.099362679963144546 0 0.49999999999998102 -0.1000967699598443 0 0.47621403880257929 -0.099362679963144546 0 0.48785951469139027 -0.086657123706384981 0 0.50000000000000433 -0.1143432737178363 0 0.49999999999998102 -0.1000967699598443 0 0.47621403880257929 -0.099362679963144546 0 0.47621403880257929 -0.099362679963144546 0 0.48785951469139027 -0.086657123706384981 0 0.47522401996300467 -0.077198942777287505 0 0.47621403880257929 -0.099362679963144546 0 0.47522401996300467 -0.077198942777287505 0 0.46460819440086443 -0.0896918568577834 0 0.49999999999998102 -0.1000967699598443 0 0.48785951469139027 -0.086657123706384981 0 0.49999999999999678 -0.069970102125263903 0 0.49999999999999678 -0.069970102125263903 0 0.47522401996300467 -0.077198942777287505 0 0.48785951469139027 -0.086657123706384981 0 0.49999999999999678 -0.069970102125263903 0 0.47522401996300467 -0.077198942777287505 0 0.48378938215607542 -0.060491629721736481 0 0.49999999999999678 -0.069970102125263903 0 0.47522401996300467 -0.077198942777287505 0 0.48378938215607542 -0.060491629721736481 0 0.47522401996300467 -0.077198942777287505 0 0.46263532094350251 -0.0655193079319734 0 0.47522401996300467 -0.077198942777287505 0 0.46263532094350251 -0.0655193079319734 0 0.4504480399260129 -0.084427783429311939 0 0.44526353314296241 -0.062107813217869068 0 0.46263532094350251 -0.0655193079319734 0 0.4504480399260129 -0.084427783429311939 0 0.44526353314296241 -0.062107813217869068 0 0.4504480399260129 -0.084427783429311939 0 0.43069868055782679 -0.078899440675300136 0 0.4504480399260129 -0.084427783429311939 0 0.45242807760517778 -0.098628589966444233 0 0.42864211640777627 -0.097894499969741214 0 0.4504480399260129 -0.084427783429311939 0 0.42567205988902129 -0.091656624081337568 0 0.47522401996300467 -0.077198942777287505 0 0.4504480399260129 -0.084427783429311939 0 0.47522401996300467 -0.077198942777287505 0 0.4504480399260129 -0.084427783429311939 0 0.46460819440086443 -0.0896918568577834 0 0.4504480399260129 -0.084427783429311939 0 0.46460819440086443 -0.0896918568577834 0 0.45242807760517778 -0.098628589966444233 0 0.47621403880257929 -0.099362679963144546 0 0.45242807760517778 -0.098628589966444233 0 0.45825176112352212 -0.1171944005084963 0 0.47621403880257929 -0.099362679963144546 0 0.45242807760517778 -0.098628589966444233 0 0.47621403880257929 -0.099362679963144546 0 0.46460819440086443 -0.0896918568577834 0 0.45242807760517778 -0.098628589966444233 0 0.45242807760517778 -0.098628589966444233 0 0.42864211640777627 -0.097894499969741214 0 0.45242807760517778 -0.098628589966444233 0 0.43893170590200609 -0.1195052611799315 0 0.42864211640777627 -0.097894499969741214 0 0.45242807760517778 -0.098628589966444233 0 0.43893170590200609 -0.1195052611799315 0 0.45825176112352212 -0.1171944005084963 0 0.42080162445294911 -0.1170697999396166 0 0.40604313277712428 -0.1171380761358455 0 0.41368108829086198 -0.13554811058748131 0 0.42080162445294911 -0.1170697999396166 0 0.40662173914453831 -0.097214899993173481 0 0.40604313277712428 -0.1171380761358455 0 0.43893170590200609 -0.1195052611799315 0 0.42080162445294911 -0.1170697999396166 0 0.430889964195386 -0.135117951771525 0 0.43893170590200609 -0.1195052611799315 0 0.42080162445294911 -0.1170697999396166 0 0.42864211640777627 -0.097894499969741214 0 0.43893170590200609 -0.1195052611799315 0 0.42864211640777627 -0.097894499969741214 0 0.42864211640777627 -0.097894499969741214 0 0.42567205988902129 -0.091656624081337568 0 0.42864211640777627 -0.097894499969741214 0 0.40662173914453831 -0.097214899993173481 0 0.42567205988902129 -0.091656624081337568 0 0.42080162445294911 -0.1170697999396166 0 0.42864211640777627 -0.097894499969741214 0 0.40662173914453831 -0.097214899993173481 0 0.42864211640777627 -0.097894499969741214 0 0.40662173914453831 -0.097214899993173481 0 0.40662173914453831 -0.097214899993173481 0 0.42567205988902129 -0.091656624081337568 0 0.40662173914453831 -0.097214899993173481 0 0.41829766411352998 -0.087706900461061957 0 0.42567205988902129 -0.091656624081337568 0 0.40662173914453831 -0.097214899993173481 0 0.41020628866808312 -0.08357079425946129 0 0.41829766411352998 -0.087706900461061957 0 0.41020628866808312 -0.08357079425946129 0 0.42012861486432151 -0.07981881462850364 0 0.41094109939792961 -0.074512111623280808 0 0.41020628866808312 -0.08357079425946129 0 0.41094109939792961 -0.074512111623280808 0 0.40556094342569721 -0.078918860306745137 0 0.41020628866808312 -0.08357079425946129 0 0.42012861486432151 -0.07981881462850364 0 0.41829766411352998 -0.087706900461061957 0 0.42012861486432151 -0.07981881462850364 0 0.41829766411352998 -0.087706900461061957 0 0.42254342745458301 -0.084546146485576762 0 0.41829766411352998 -0.087706900461061957 0 0.42461385466063262 -0.08943412331831832 0 0.42254342745458301 -0.084546146485576762 0 0.42567205988902129 -0.091656624081337568 0 0.42461385466063262 -0.08943412331831832 0 0.43069868055782679 -0.078899440675300136 0 0.4504480399260129 -0.084427783429311939 0 0.42567205988902129 -0.091656624081337568 0 0.43069868055782679 -0.078899440675300136 0 0.4504480399260129 -0.084427783429311939 0 0.42864211640777627 -0.097894499969741214 0 0.42567205988902129 -0.091656624081337568 0 0.42567205988902129 -0.091656624081337568 0 0.42461385466063262 -0.08943412331831832 0 0.41829766411352998 -0.087706900461061957 0 0.42567205988902129 -0.091656624081337568 0 0.42461385466063262 -0.08943412331831832 0 0.42012861486432151 -0.07981881462850364 0 0.43069868055782679 -0.078899440675300136 0 0.42254342745458301 -0.084546146485576762 0 0.42461385466063262 -0.08943412331831832 0 0.43069868055782679 -0.078899440675300136 0 0.42254342745458301 -0.084546146485576762 0 0.43069868055782679 -0.078899440675300136 0 0.42085386234523608 -0.065266903626460593 0 0.41911482919747139 -0.073234494934215744 0 0.43069868055782679 -0.078899440675300136 0 0.42085386234523608 -0.065266903626460593 0 0.42768193525564641 -0.052738548234870043 0 0.44526353314296241 -0.062107813217869068 0 0.43069868055782679 -0.078899440675300136 0 0.42768193525564641 -0.052738548234870043 0 0.43069868055782679 -0.078899440675300136 0 0.42768193525564641 -0.052738548234870043 0 0.42012861486432151 -0.07981881462850364 0 0.43069868055782679 -0.078899440675300136 0 0.41911482919747139 -0.073234494934215744 0 0.42085386234523608 -0.065266903626460593 0 0.41911482919747139 -0.073234494934215744 0 0.41247118756252621 -0.068972059658544485 0 0.41911482919747139 -0.073234494934215744 0 0.41094109939792961 -0.074512111623280808 0 0.41247118756252621 -0.068972059658544485 0 0.42012861486432151 -0.07981881462850364 0 0.41911482919747139 -0.073234494934215744 0 0.41094109939792961 -0.074512111623280808 0 0.41094109939792961 -0.074512111623280808 0 0.41247118756252621 -0.068972059658544485 0 0.40519344017519737 -0.069697512887539489 0 0.42085386234523608 -0.065266903626460593 0 0.41247118756252621 -0.068972059658544485 0 0.40625270669679608 -0.06214927522122575 0 0.41247118756252621 -0.068972059658544485 0 0.40519344017519737 -0.069697512887539489 0 0.40625270669679608 -0.06214927522122575 0 0.40519344017519737 -0.069697512887539489 0 0.3909339432522656 -0.07145852807871525 0 0.40625270669679608 -0.06214927522122575 0 0.41094109939792961 -0.074512111623280808 0 0.40094221169150912 -0.074554002884685597 0 0.40556094342569721 -0.078918860306745137 0 0.40519344017519737 -0.069697512887539489 0 0.40094221169150912 -0.074554002884685597 0 0.3909339432522656 -0.07145852807871525 0 0.41094109939792961 -0.074512111623280808 0 0.40519344017519737 -0.069697512887539489 0 0.40094221169150912 -0.074554002884685597 0 0.40094221169150912 -0.074554002884685597 0 0.3909339432522656 -0.07145852807871525 0 0.39616481607021642 -0.077435810443283751 0 0.3909339432522656 -0.07145852807871525 0 0.39616481607021642 -0.077435810443283751 0 0.39262893539182381 -0.080692178350181262 0 0.39181446083091098 -0.066763706552935329 0 0.38421934743036401 -0.068446750892908373 0 0.38398729378694407 -0.058429379279077209 0 0.38421934743036401 -0.068446750892908373 0 0.37813424473731178 -0.068262582352726586 0 0.38398729378694407 -0.058429379279077209 0 0.37813424473731178 -0.068262582352726586 0 0.38294139036628899 -0.080331335386894381 0 0.37353404377441052 -0.075370636612477671 0 0.38421934743036401 -0.068446750892908373 0 0.37813424473731178 -0.068262582352726586 0 0.38294139036628899 -0.080331335386894381 0 0.39181446083091098 -0.066763706552935329 0 0.38294139036628899 -0.080331335386894381 0 0.39181446083091098 -0.066763706552935329 0 0.38421934743036401 -0.068446750892908373 0 0.38294139036628899 -0.080331335386894381 0 0.3909339432522656 -0.07145852807871525 0 0.39181446083091098 -0.066763706552935329 0 0.38294139036628899 -0.080331335386894381 0 0.38598565568847482 -0.085166122563822014 0 0.39289996883908601 -0.089154852807517448 0 0.39262893539182381 -0.080692178350181262 0 0.3909339432522656 -0.07145852807871525 0 0.38598565568847482 -0.085166122563822014 0 0.39262893539182381 -0.080692178350181262 0 0.3909339432522656 -0.07145852807871525 0 0.37406831990166722 -0.093898964220853504 0 0.3909339432522656 -0.07145852807871525 0 0.38598565568847482 -0.085166122563822014 0 0.37406831990166722 -0.093898964220853504 0 0.3909339432522656 -0.07145852807871525 0 0.38294139036628899 -0.080331335386894381 0 0.37406831990166722 -0.093898964220853504 0 0.38294139036628899 -0.080331335386894381 0 0.37406831990166722 -0.093898964220853504 0 0.38598565568847482 -0.085166122563822014 0 0.38240509603332101 -0.092127683864182172 0 0.37406831990166722 -0.093898964220853504 0 0.38240509603332101 -0.092127683864182172 0 0.39289996883908601 -0.089154852807517448 0 0.38960421283109031 -0.096689699614190994 0 0.38598565568847482 -0.085166122563822014 0 0.38240509603332101 -0.092127683864182172 0 0.39289996883908601 -0.089154852807517448 0 0.39289996883908601 -0.089154852807517448 0 0.39262893539182381 -0.080692178350181262 0 0.40015417394526698 -0.083038532459552866 0 0.39616481607021642 -0.077435810443283751 0 0.39262893539182381 -0.080692178350181262 0 0.40015417394526698 -0.083038532459552866 0 0.40094221169150912 -0.074554002884685597 0 0.40556094342569721 -0.078918860306745137 0 0.40015417394526698 -0.083038532459552866 0 0.40094221169150912 -0.074554002884685597 0 0.39616481607021642 -0.077435810443283751 0 0.40015417394526698 -0.083038532459552866 0 0.41020628866808312 -0.08357079425946129 0 0.40556094342569721 -0.078918860306745137 0 0.40015417394526698 -0.083038532459552866 0 0.40662173914453831 -0.097214899993173481 0 0.39289996883908601 -0.089154852807517448 0 0.40015417394526698 -0.083038532459552866 0 0.40662173914453831 -0.097214899993173481 0 0.41020628866808312 -0.08357079425946129 0 0.40015417394526698 -0.083038532459552866 0 0.40662173914453831 -0.097214899993173481 0 0.3851668720105898 -0.10347474583943909 0 0.38960421283109031 -0.096689699614190994 0 0.40662173914453831 -0.097214899993173481 0 0.3851668720105898 -0.10347474583943909 0 0.40662173914453831 -0.097214899993173481 0 0.39289996883908601 -0.089154852807517448 0 0.38960421283109031 -0.096689699614190994 0 0.40662173914453831 -0.097214899993173481 0 0.38960421283109031 -0.096689699614190994 0 0.40662173914453831 -0.097214899993173481 0 0.3851668720105898 -0.10347474583943909 0 0.39374350655696688 -0.1137959578468639 0 0.38960421283109031 -0.096689699614190994 0 0.37237061700676077 -0.09615783082836224 0 0.3851668720105898 -0.10347474583943909 0 0.38960421283109031 -0.096689699614190994 0 0.37237061700676077 -0.09615783082836224 0 0.38240509603332101 -0.092127683864182172 0 0.38960421283109031 -0.096689699614190994 0 0.37237061700676077 -0.09615783082836224 0 0.38240509603332101 -0.092127683864182172 0 0.37406831990166722 -0.093898964220853504 0 0.37237061700676077 -0.09615783082836224 0 0.3785150876385216 -0.1195111518185689 0 0.39374350655696688 -0.1137959578468639 0 0.39237070121405998 -0.13164091544729051 0 0.3851668720105898 -0.10347474583943909 0 0.3785150876385216 -0.1195111518185689 0 0.36371200487664068 -0.10973459168570281 0 0.3851668720105898 -0.10347474583943909 0 0.3785150876385216 -0.1195111518185689 0 0.39374350655696688 -0.1137959578468639 0 0.40662173914453831 -0.097214899993173481 0 0.39374350655696688 -0.1137959578468639 0 0.40604313277712428 -0.1171380761358455 0 0.39374350655696688 -0.1137959578468639 0 0.40604313277712428 -0.1171380761358455 0 0.39237070121405998 -0.13164091544729051 0 0.41728163952739061 -0.019334187549187701 0 0.42284227266732188 -0.010769512158268201 0 0.42466518995346408 -0.026577655794440151 0 0.41728163952739061 -0.019334187549187701 0 0.41227128108974659 -0.029924501558089681 0 0.42466518995346408 -0.026577655794440151 0 0.41227128108974659 -0.029924501558089681 0 0.40863720631140932 -0.019892986955346081 0 0.40014031603924488 -0.033106741091830219 0 0.41728163952739061 -0.019334187549187701 0 0.41227128108974659 -0.029924501558089681 0 0.40863720631140932 -0.019892986955346081 0 0.41728163952739061 -0.019334187549187701 0 0.40863720631140932 -0.019892986955346081 0 0.41436166681859882 -0.01226683791037885 0 0.40863720631140932 -0.019892986955346081 0 0.41436166681859882 -0.01226683791037885 0 0.40369857438468087 -0.0060371637805465179 0 0.42101935538117791 0.0050386314779034547 0 0.41402040698134779 -0.0025911497673051101 0 0.42284227266732188 -0.010769512158268201 0 0.41402040698134779 -0.0025911497673051101 0 0.41436166681859882 -0.01226683791037885 0 0.40369857438468087 -0.0060371637805465179 0 0.41402040698134779 -0.0025911497673051101 0 0.41436166681859882 -0.01226683791037885 0 0.42284227266732188 -0.010769512158268201 0 0.41728163952739061 -0.019334187549187701 0 0.41436166681859882 -0.01226683791037885 0 0.42284227266732188 -0.010769512158268201 0 0.42284227266732188 -0.010769512158268201 0 0.43543049063324413 -0.012350052332502739 0 0.42769414368384923 -0.02254750278133769 0 0.42101935538117791 0.0050386314779034547 0 0.42284227266732188 -0.010769512158268201 0 0.42101935538117791 0.0050386314779034547 0 0.42788240966677021 0.003552130545216341 0 0.42284227266732188 -0.010769512158268201 0 0.42788240966677021 0.003552130545216341 0 0.42284227266732188 -0.010769512158268201 0 0.43543049063324413 -0.012350052332502739 0 0.42284227266732188 -0.010769512158268201 0 0.42466518995346408 -0.026577655794440151 0 0.42284227266732188 -0.010769512158268201 0 0.42769414368384923 -0.02254750278133769 0 0.42466518995346408 -0.026577655794440151 0 0.44260817666721519 -0.025216613737701819 0 0.43543049063324413 -0.012350052332502739 0 0.42769414368384923 -0.02254750278133769 0 0.42769414368384923 -0.02254750278133769 0 0.42466518995346408 -0.026577655794440151 0 0.43454865465473302 -0.032105158367880783 0 0.42769414368384923 -0.02254750278133769 0 0.42466518995346408 -0.026577655794440151 0 0.44260817666721519 -0.025216613737701819 0 0.42769414368384923 -0.02254750278133769 0 0.43454865465473302 -0.032105158367880783 0 0.42466518995346408 -0.026577655794440151 0 0.43454865465473302 -0.032105158367880783 0 0.42768193525564641 -0.052738548234870043 0 0.42466518995346408 -0.026577655794440151 0 0.42768193525564641 -0.052738548234870043 0 0.44483042593949818 -0.041063070916932051 0 0.43454865465473302 -0.032105158367880783 0 0.42768193525564641 -0.052738548234870043 0 0.42085386234523608 -0.065266903626460593 0 0.42768193525564641 -0.052738548234870043 0 0.40779956660286398 -0.049018091936576927 0 0.42085386234523608 -0.065266903626460593 0 0.40779956660286398 -0.049018091936576927 0 0.40625270669679608 -0.06214927522122575 0 0.42466518995346408 -0.026577655794440151 0 0.42768193525564641 -0.052738548234870043 0 0.40779956660286398 -0.049018091936576927 0 0.42466518995346408 -0.026577655794440151 0 0.40779956660286398 -0.049018091936576927 0 0.41227128108974659 -0.029924501558089681 0 0.42466518995346408 -0.026577655794440151 0 0.40779956660286398 -0.049018091936576927 0 0.41227128108974659 -0.029924501558089681 0 0.40779956660286398 -0.049018091936576927 0 0.40014031603924488 -0.033106741091830219 0 0.40779956660286398 -0.049018091936576927 0 0.40014031603924488 -0.033106741091830219 0 0.3912967176308087 -0.04756724484766426 0 0.40014031603924488 -0.033106741091830219 0 0.3912967176308087 -0.04756724484766426 0 0.38547037370043469 -0.032308846426106139 0 0.3909339432522656 -0.07145852807871525 0 0.40779956660286398 -0.049018091936576927 0 0.40625270669679608 -0.06214927522122575 0 0.3909339432522656 -0.07145852807871525 0 0.39181446083091098 -0.066763706552935329 0 0.40779956660286398 -0.049018091936576927 0 0.39181446083091098 -0.066763706552935329 0 0.40779956660286398 -0.049018091936576927 0 0.3912967176308087 -0.04756724484766426 0 0.3909339432522656 -0.07145852807871525 0 0.40779956660286398 -0.049018091936576927 0 0.3912967176308087 -0.04756724484766426 0 0.38398729378694407 -0.058429379279077209 0 0.37514153202862571 -0.045861082966856079 0 0.39181446083091098 -0.066763706552935329 0 0.3912967176308087 -0.04756724484766426 0 0.38398729378694407 -0.058429379279077209 0 0.38398729378694407 -0.058429379279077209 0 0.37514153202862571 -0.045861082966856079 0 0.37192531576168952 -0.05914395824800911 0 0.37813424473731178 -0.068262582352726586 0 0.38398729378694407 -0.058429379279077209 0 0.37192531576168952 -0.05914395824800911 0 0.3912967176308087 -0.04756724484766426 0 0.38547037370043469 -0.032308846426106139 0 0.37514153202862571 -0.045861082966856079 0 0.38547037370043469 -0.032308846426106139 0 0.37514153202862571 -0.045861082966856079 0 0.36877413775607049 -0.02995327657106206 0 0.38547037370043469 -0.032308846426106139 0 0.37927030083329177 -0.015743113788958679 0 0.36877413775607049 -0.02995327657106206 0 0.38547037370043469 -0.032308846426106139 0 0.37927030083329177 -0.015743113788958679 0 0.39536675090020662 -0.019928774827198261 0 0.40014031603924488 -0.033106741091830219 0 0.38547037370043469 -0.032308846426106139 0 0.39536675090020662 -0.019928774827198261 0 0.40863720631140932 -0.019892986955346081 0 0.40014031603924488 -0.033106741091830219 0 0.39536675090020662 -0.019928774827198261 0 0.40863720631140932 -0.019892986955346081 0 0.39536675090020662 -0.019928774827198261 0 0.40369857438468087 -0.0060371637805465179 0 0.39536675090020662 -0.019928774827198261 0 0.40369857438468087 -0.0060371637805465179 0 0.39174671884158141 -0.0074493154892236006 0 0.39390920682105918 0.0040204267233196643 0 0.40369857438468087 -0.0060371637805465179 0 0.39174671884158141 -0.0074493154892236006 0 0.38212023564171321 0.001094655884648786 0 0.37927030083329177 -0.015743113788958679 0 0.39174671884158141 -0.0074493154892236006 0 0.38212023564171321 0.001094655884648786 0 0.37927030083329177 -0.015743113788958679 0 0.3700201466167648 -0.002195575246397889 0 0.37927030083329177 -0.015743113788958679 0 0.39536675090020662 -0.019928774827198261 0 0.39174671884158141 -0.0074493154892236006 0 0.39390920682105918 0.0040204267233196643 0 0.38212023564171321 0.001094655884648786 0 0.39174671884158141 -0.0074493154892236006 0 0.35686418876597309 0.010252504770385159 0 0.3700201466167648 -0.002195575246397889 0 0.35727920934793722 -0.0129667368589869 0 0.37927030083329177 -0.015743113788958679 0 0.3700201466167648 -0.002195575246397889 0 0.35727920934793722 -0.0129667368589869 0 0.36877413775607049 -0.02995327657106206 0 0.35727920934793722 -0.0129667368589869 0 0.35227314840285812 -0.03152257084722427 0 0.37927030083329177 -0.015743113788958679 0 0.36877413775607049 -0.02995327657106206 0 0.35727920934793722 -0.0129667368589869 0 0.35727920934793722 -0.0129667368589869 0 0.33875503928457851 -0.02222753562310531 0 0.35227314840285812 -0.03152257084722427 0 0.35727920934793722 -0.0129667368589869 0 0.33586681222118892 -0.0067462441580033658 0 0.33875503928457851 -0.02222753562310531 0 0.35686418876597309 0.010252504770385159 0 0.35727920934793722 -0.0129667368589869 0 0.33586681222118892 -0.0067462441580033658 0 0.33586681222118892 -0.0067462441580033658 0 0.33875503928457851 -0.02222753562310531 0 0.31486943567640469 -0.023744993086391868 0 0.33875503928457851 -0.02222753562310531 0 0.31486943567640469 -0.023744993086391868 0 0.33348659077450338 -0.036157133164920148 0 0.33875503928457851 -0.02222753562310531 0 0.33348659077450338 -0.036157133164920148 0 0.35227314840285812 -0.03152257084722427 0 0.31046320235639918 0.0067575729804437252 0 0.33586681222118892 -0.0067462441580033658 0 0.3153830815233527 -0.0087530987426132929 0 0.33586681222118892 -0.0067462441580033658 0 0.31486943567640469 -0.023744993086391868 0 0.3153830815233527 -0.0087530987426132929 0 0.33586681222118892 -0.0067462441580033658 0 0.31486943567640469 -0.023744993086391868 0 0.32115491610998381 -0.052976688016941227 0 0.32092150739102382 -0.073097043805500014 0 0.30601744289912669 -0.055409131432484229 0 0.32115491610998381 -0.052976688016941227 0 0.31197137499350902 -0.041008225260955711 0 0.30601744289912669 -0.055409131432484229 0 0.31486943567640469 -0.023744993086391868 0 0.33348659077450338 -0.036157133164920148 0 0.31197137499350902 -0.041008225260955711 0 0.32115491610998381 -0.052976688016941227 0 0.33348659077450338 -0.036157133164920148 0 0.31197137499350902 -0.041008225260955711 0 0.33348659077450338 -0.036157133164920148 0 0.3363568723602065 -0.050864743298462772 0 0.35116628403686417 -0.048621598638038131 0 0.32115491610998381 -0.052976688016941227 0 0.33348659077450338 -0.036157133164920148 0 0.3363568723602065 -0.050864743298462772 0 0.32115491610998381 -0.052976688016941227 0 0.3363568723602065 -0.050864743298462772 0 0.33388625794764348 -0.064812423232177271 0 0.3363568723602065 -0.050864743298462772 0 0.34794047334546518 -0.063974584280765273 0 0.33388625794764348 -0.064812423232177271 0 0.3363568723602065 -0.050864743298462772 0 0.35116628403686417 -0.048621598638038131 0 0.34794047334546518 -0.063974584280765273 0 0.35116628403686417 -0.048621598638038131 0 0.35914505774559541 -0.060409417065886872 0 0.36392372675137458 -0.051574144679805103 0 0.35116628403686417 -0.048621598638038131 0 0.36240463436463582 -0.041692596330413237 0 0.36392372675137458 -0.051574144679805103 0 0.35116628403686417 -0.048621598638038131 0 0.35914505774559541 -0.060409417065886872 0 0.34794047334546518 -0.063974584280765273 0 0.35116628403686417 -0.048621598638038131 0 0.35227314840285812 -0.03152257084722427 0 0.36240463436463582 -0.041692596330413237 0 0.33348659077450338 -0.036157133164920148 0 0.35116628403686417 -0.048621598638038131 0 0.35227314840285812 -0.03152257084722427 0 0.37514153202862571 -0.045861082966856079 0 0.36877413775607049 -0.02995327657106206 0 0.36240463436463582 -0.041692596330413237 0 0.36877413775607049 -0.02995327657106206 0 0.35227314840285812 -0.03152257084722427 0 0.36240463436463582 -0.041692596330413237 0 0.37514153202862571 -0.045861082966856079 0 0.36240463436463582 -0.041692596330413237 0 0.36392372675137458 -0.051574144679805103 0 0.35914505774559541 -0.060409417065886872 0 0.36392372675137458 -0.051574144679805103 0 0.37192531576168952 -0.05914395824800911 0 0.37514153202862571 -0.045861082966856079 0 0.36392372675137458 -0.051574144679805103 0 0.37192531576168952 -0.05914395824800911 0 0.37813424473731178 -0.068262582352726586 0 0.37192531576168952 -0.05914395824800911 0 0.3680772617285144 -0.06977757947088653 0 0.35914505774559541 -0.060409417065886872 0 0.37192531576168952 -0.05914395824800911 0 0.3680772617285144 -0.06977757947088653 0 0.35914505774559541 -0.060409417065886872 0 0.3680772617285144 -0.06977757947088653 0 0.35837286676988928 -0.071968688592424085 0 0.3680772617285144 -0.06977757947088653 0 0.36498327826552668 -0.083111049239403226 0 0.35837286676988928 -0.071968688592424085 0 0.3680772617285144 -0.06977757947088653 0 0.37353404377441052 -0.075370636612477671 0 0.36498327826552668 -0.083111049239403226 0 0.37813424473731178 -0.068262582352726586 0 0.3680772617285144 -0.06977757947088653 0 0.37353404377441052 -0.075370636612477671 0 0.38294139036628899 -0.080331335386894381 0 0.37353404377441052 -0.075370636612477671 0 0.36498327826552668 -0.083111049239403226 0 0.36498327826552668 -0.083111049239403226 0 0.37237061700676077 -0.09615783082836224 0 0.34241852099989789 -0.095233439592861846 0 0.38294139036628899 -0.080331335386894381 0 0.36498327826552668 -0.083111049239403226 0 0.37406831990166722 -0.093898964220853504 0 0.36498327826552668 -0.083111049239403226 0 0.37406831990166722 -0.093898964220853504 0 0.37237061700676077 -0.09615783082836224 0 0.36498327826552668 -0.083111049239403226 0 0.3449175019875389 -0.076917716904771144 0 0.34241852099989789 -0.095233439592861846 0 0.36498327826552668 -0.083111049239403226 0 0.3449175019875389 -0.076917716904771144 0 0.35837286676988928 -0.071968688592424085 0 0.3449175019875389 -0.076917716904771144 0 0.34794047334546518 -0.063974584280765273 0 0.35837286676988928 -0.071968688592424085 0 0.35914505774559541 -0.060409417065886872 0 0.34794047334546518 -0.063974584280765273 0 0.35837286676988928 -0.071968688592424085 0 0.36371200487664068 -0.10973459168570281 0 0.35664352332635268 -0.13060513793896061 0 0.36779594019891898 -0.12729788290040461 0 0.3785150876385216 -0.1195111518185689 0 0.36371200487664068 -0.10973459168570281 0 0.36779594019891898 -0.12729788290040461 0 0.36371200487664068 -0.10973459168570281 0 0.37237061700676077 -0.09615783082836224 0 0.34241852099989789 -0.095233439592861846 0 0.3851668720105898 -0.10347474583943909 0 0.36371200487664068 -0.10973459168570281 0 0.37237061700676077 -0.09615783082836224 0 0.3851668720105898 -0.10347474583943909 0 0.36371200487664068 -0.10973459168570281 0 0.36371200487664068 -0.10973459168570281 0 0.37237061700676077 -0.09615783082836224 0 0.37406831990166722 -0.093898964220853504 0 0.37237061700676077 -0.09615783082836224 0 0.36371200487664068 -0.10973459168570281 0 0.34332012240242971 -0.1020930362129598 0 0.34241852099989789 -0.095233439592861846 0 0.36371200487664068 -0.10973459168570281 0 0.35002252173753962 -0.112446561286345 0 0.34332012240242971 -0.1020930362129598 0 0.37237061700676077 -0.09615783082836224 0 0.34241852099989789 -0.095233439592861846 0 0.35002252173753962 -0.112446561286345 0 0.34025414842832208 -0.11782241666052221 0 0.34332012240242971 -0.1020930362129598 0 0.36371200487664068 -0.10973459168570281 0 0.35355367174401742 -0.1211945845718113 0 0.34779048707731292 -0.1340798558009649 0 0.36371200487664068 -0.10973459168570281 0 0.35664352332635268 -0.13060513793896061 0 0.34779048707731292 -0.1340798558009649 0 0.36371200487664068 -0.10973459168570281 0 0.34779048707731292 -0.1340798558009649 0 0.36371200487664068 -0.10973459168570281 0 0.35002252173753962 -0.112446561286345 0 0.35355367174401742 -0.1211945845718113 0 0.36371200487664068 -0.10973459168570281 0 0.35355367174401742 -0.1211945845718113 0 0.35002252173753962 -0.112446561286345 0 0.35355367174401742 -0.1211945845718113 0 0.34025414842832208 -0.11782241666052221 0 0.35355367174401742 -0.1211945845718113 0 0.34025414842832208 -0.11782241666052221 0 0.34381162934489939 -0.12854128697128539 0 0.33094534805706732 -0.1177437606496905 0 0.31854024801571379 -0.1183964408803808 0 0.33718817445421712 -0.13355179710808501 0 0.34025414842832208 -0.11782241666052221 0 0.33378984816934337 -0.1086297847084315 0 0.34332012240242971 -0.1020930362129598 0 0.33094534805706732 -0.1177437606496905 0 0.34025414842832208 -0.11782241666052221 0 0.33718817445421712 -0.13355179710808501 0 0.34025414842832208 -0.11782241666052221 0 0.34332012240242971 -0.1020930362129598 0 0.33094534805706732 -0.1177437606496905 0 0.33378984816934337 -0.1086297847084315 0 0.32495432121773932 -0.110318363891034 0 0.33094534805706732 -0.1177437606496905 0 0.34025414842832208 -0.11782241666052221 0 0.33378984816934337 -0.1086297847084315 0 0.33378984816934337 -0.1086297847084315 0 0.32725903490077729 -0.10071499943534749 0 0.32495432121773932 -0.110318363891034 0 0.33378984816934337 -0.1086297847084315 0 0.33669688161811212 -0.1016678149874002 0 0.32725903490077729 -0.10071499943534749 0 0.33378984816934337 -0.1086297847084315 0 0.34332012240242971 -0.1020930362129598 0 0.33669688161811212 -0.1016678149874002 0 0.34332012240242971 -0.1020930362129598 0 0.33669688161811212 -0.1016678149874002 0 0.34241852099989789 -0.095233439592861846 0 0.33669688161811212 -0.1016678149874002 0 0.34241852099989789 -0.095233439592861846 0 0.32725903490077729 -0.10071499943534749 0 0.34241852099989789 -0.095233439592861846 0 0.31246642499303512 -0.0943090483573608 0 0.34241852099989789 -0.095233439592861846 0 0.32725903490077729 -0.10071499943534749 0 0.31246642499303512 -0.0943090483573608 0 0.32725903490077729 -0.10071499943534749 0 0.31716114910448651 -0.10565591717263 0 0.31246642499303512 -0.0943090483573608 0 0.32725903490077729 -0.10071499943534749 0 0.31716114910448651 -0.10565591717263 0 0.32495432121773932 -0.110318363891034 0 0.33094534805706732 -0.1177437606496905 0 0.32495432121773932 -0.110318363891034 0 0.31854024801571379 -0.1183964408803808 0 0.31716114910448651 -0.10565591717263 0 0.32495432121773932 -0.110318363891034 0 0.31854024801571379 -0.1183964408803808 0 0.31716114910448651 -0.10565591717263 0 0.31854024801571379 -0.1183964408803808 0 0.30531265091832138 -0.10738965970164049 0 0.3449175019875389 -0.076917716904771144 0 0.33388625794764348 -0.064812423232177271 0 0.32092150739102382 -0.073097043805500014 0 0.3449175019875389 -0.076917716904771144 0 0.34794047334546518 -0.063974584280765273 0 0.33388625794764348 -0.064812423232177271 0 0.3449175019875389 -0.076917716904771144 0 0.34241852099989789 -0.095233439592861846 0 0.32092150739102382 -0.073097043805500014 0 0.34241852099989789 -0.095233439592861846 0 0.32092150739102382 -0.073097043805500014 0 0.31246642499303512 -0.0943090483573608 0 0.32115491610998381 -0.052976688016941227 0 0.33388625794764348 -0.064812423232177271 0 0.32092150739102382 -0.073097043805500014 0 0.32092150739102382 -0.073097043805500014 0 0.28819319405889499 -0.06706419956831737 0 0.31246642499303512 -0.0943090483573608 0 0.32092150739102382 -0.073097043805500014 0 0.28819319405889499 -0.06706419956831737 0 0.30601744289912669 -0.055409131432484229 0 0.28251432898617262 -0.093384657121855619 0 0.28819319405889499 -0.06706419956831737 0 0.31246642499303512 -0.0943090483573608 0 0.28251432898617262 -0.093384657121855619 0 0.28819319405889499 -0.06706419956831737 0 0.28251432898617262 -0.093384657121855619 0 0.28819319405889499 -0.06706419956831737 0 0.2788070763813692 -0.075616481315712358 0 0.30531265091832138 -0.10738965970164049 0 0.29209333803684512 -0.1204183792118467 0 0.30316218715013699 -0.13585617877411299 0 0.31854024801571379 -0.1183964408803808 0 0.30531265091832138 -0.10738965970164049 0 0.30316218715013699 -0.13585617877411299 0 0.30531265091832138 -0.10738965970164049 0 0.30316218715013699 -0.13585617877411299 0 0.30531265091832138 -0.10738965970164049 0 0.31246642499303512 -0.0943090483573608 0 0.2913954051317153 -0.1063448066268642 0 0.28251432898617262 -0.093384657121855619 0 0.31246642499303512 -0.0943090483573608 0 0.31716114910448651 -0.10565591717263 0 0.30531265091832138 -0.10738965970164049 0 0.31246642499303512 -0.0943090483573608 0 0.28251432898617262 -0.093384657121855619 0 0.31246642499303512 -0.0943090483573608 0 0.2913954051317153 -0.1063448066268642 0 0.28251432898617262 -0.093384657121855619 0 0.2913954051317153 -0.1063448066268642 0 0.27794998204403759 -0.11453953550188679 0 0.30531265091832138 -0.10738965970164049 0 0.2913954051317153 -0.1063448066268642 0 0.29209333803684512 -0.1204183792118467 0 0.2913954051317153 -0.1063448066268642 0 0.29209333803684512 -0.1204183792118467 0 0.27794998204403759 -0.11453953550188679 0 0.27794998204403759 -0.11453953550188679 0 0.25915390151091949 -0.11811210275817149 0 0.27338563510190422 -0.1356944138819183 0 0.29209333803684512 -0.1204183792118467 0 0.27794998204403759 -0.11453953550188679 0 0.27338563510190422 -0.1356944138819183 0 0.28251432898617262 -0.093384657121855619 0 0.27794998204403759 -0.11453953550188679 0 0.25666672159796139 -0.092586939936295867 0 0.28251432898617262 -0.093384657121855619 0 0.27794998204403759 -0.11453953550188679 0 0.25915390151091949 -0.11811210275817149 0 0.25666672159796139 -0.092586939936295867 0 0.23839025179526999 -0.1151992729885977 0 0.27794998204403759 -0.11453953550188679 0 0.25915390151091949 -0.11811210275817149 0 0.25666672159796139 -0.092586939936295867 0 0.28819319405889499 -0.06706419956831737 0 0.27512965144911827 -0.070681904186227995 0 0.27783686619476677 -0.05372527893061739 0 0.26897876163713708 -0.070467118147906876 0 0.27512965144911827 -0.070681904186227995 0 0.27783686619476677 -0.05372527893061739 0 0.26897876163713708 -0.070467118147906876 0 0.26180167325791431 -0.066706815846455908 0 0.27783686619476677 -0.05372527893061739 0 0.27067132333055188 -0.076788874412469815 0 0.26897876163713708 -0.070467118147906876 0 0.26145119023330071 -0.079000043976386408 0 0.27067132333055188 -0.076788874412469815 0 0.26897876163713708 -0.070467118147906876 0 0.2788070763813692 -0.075616481315712358 0 0.26897876163713708 -0.070467118147906876 0 0.27512965144911827 -0.070681904186227995 0 0.28819319405889499 -0.06706419956831737 0 0.2788070763813692 -0.075616481315712358 0 0.27512965144911827 -0.070681904186227995 0 0.26897876163713708 -0.070467118147906876 0 0.2788070763813692 -0.075616481315712358 0 0.26897876163713708 -0.070467118147906876 0 0.2788070763813692 -0.075616481315712358 0 0.27512965144911827 -0.070681904186227995 0 0.28251432898617262 -0.093384657121855619 0 0.25666672159796139 -0.092586939936295867 0 0.28251432898617262 -0.093384657121855619 0 0.27051227275229911 -0.08315566172012806 0 0.25666672159796139 -0.092586939936295867 0 0.28251432898617262 -0.093384657121855619 0 0.2788070763813692 -0.075616481315712358 0 0.27051227275229911 -0.08315566172012806 0 0.27067132333055188 -0.076788874412469815 0 0.27051227275229911 -0.08315566172012806 0 0.26145119023330071 -0.079000043976386408 0 0.27067132333055188 -0.076788874412469815 0 0.2788070763813692 -0.075616481315712358 0 0.27051227275229911 -0.08315566172012806 0 0.26145119023330071 -0.079000043976386408 0 0.25666672159796139 -0.092586939936295867 0 0.24423239209720191 -0.080930297464084477 0 0.27051227275229911 -0.08315566172012806 0 0.26145119023330071 -0.079000043976386408 0 0.25666672159796139 -0.092586939936295867 0 0.26180167325791431 -0.066706815846455908 0 0.25764566998465072 -0.070071372177431313 0 0.24120587699226881 -0.055916030502087773 0 0.26145119023330071 -0.079000043976386408 0 0.25764566998465072 -0.070071372177431313 0 0.24423239209720191 -0.080930297464084477 0 0.25764566998465072 -0.070071372177431313 0 0.24423239209720191 -0.080930297464084477 0 0.26897876163713708 -0.070467118147906876 0 0.26145119023330071 -0.079000043976386408 0 0.25764566998465072 -0.070071372177431313 0 0.26897876163713708 -0.070467118147906876 0 0.26180167325791431 -0.066706815846455908 0 0.25764566998465072 -0.070071372177431313 0 0.26897876163713708 -0.070467118147906876 0 0.25764566998465072 -0.070071372177431313 0 0.26897876163713708 -0.070467118147906876 0 0.26180167325791431 -0.066706815846455908 0 0.26180167325791431 -0.066706815846455908 0 0.25764566998465072 -0.070071372177431313 0 0.26180167325791431 -0.066706815846455908 0 0.26029261894245981 -0.048826031507571623 0 0.24120587699226881 -0.055916030502087773 0 0.26180167325791431 -0.066706815846455908 0 0.24120587699226881 -0.055916030502087773 0 0.26180167325791431 -0.066706815846455908 0 0.26029261894245981 -0.048826031507571623 0 0.27783686619476677 -0.05372527893061739 0 0.26180167325791431 -0.066706815846455908 0 0.27783686619476677 -0.05372527893061739 0 0.26029261894245981 -0.048826031507571623 0 0.27783686619476677 -0.05372527893061739 0 0.27031708646619812 -0.033638605470610219 0 0.27783686619476677 -0.05372527893061739 0 0.27031708646619812 -0.033638605470610219 0 0.28437966209514692 -0.033534114227583768 0 0.26029261894245981 -0.048826031507571623 0 0.27031708646619812 -0.033638605470610219 0 0.25030159180115191 -0.034143426788088307 0 0.26029261894245981 -0.048826031507571623 0 0.25030159180115191 -0.034143426788088307 0 0.24120587699226881 -0.055916030502087773 0 0.25030159180115191 -0.034143426788088307 0 0.26299580833271302 -0.019789195105520681 0 0.2464198669495459 -0.012097030270161889 0 0.27031708646619812 -0.033638605470610219 0 0.25030159180115191 -0.034143426788088307 0 0.26299580833271302 -0.019789195105520681 0 0.25322369798355371 0.0032948183560677501 0 0.26778398551549509 -0.0036893303100333872 0 0.2464198669495459 -0.012097030270161889 0 0.26299580833271302 -0.019789195105520681 0 0.26778398551549509 -0.0036893303100333872 0 0.2464198669495459 -0.012097030270161889 0 0.26299580833271302 -0.019789195105520681 0 0.26778398551549509 -0.0036893303100333872 0 0.28231604015163769 -0.018351258625531171 0 0.2895407867033607 0.0013395930438658619 0 0.26778398551549509 -0.0036893303100333872 0 0.28231604015163769 -0.018351258625531171 0 0.27031708646619812 -0.033638605470610219 0 0.26299580833271302 -0.019789195105520681 0 0.28231604015163769 -0.018351258625531171 0 0.27031708646619812 -0.033638605470610219 0 0.28231604015163769 -0.018351258625531171 0 0.28437966209514692 -0.033534114227583768 0 0.28231604015163769 -0.018351258625531171 0 0.29600028882747859 -0.03087980289019443 0 0.28437966209514692 -0.033534114227583768 0 0.28231604015163769 -0.018351258625531171 0 0.29600028882747859 -0.03087980289019443 0 0.30132541624728598 -0.01217829343577128 0 0.2895407867033607 0.0013395930438658619 0 0.28231604015163769 -0.018351258625531171 0 0.30132541624728598 -0.01217829343577128 0 0.31046320235639918 0.0067575729804437252 0 0.2895407867033607 0.0013395930438658619 0 0.30132541624728598 -0.01217829343577128 0 0.31046320235639918 0.0067575729804437252 0 0.3153830815233527 -0.0087530987426132929 0 0.30132541624728598 -0.01217829343577128 0 0.31486943567640469 -0.023744993086391868 0 0.3153830815233527 -0.0087530987426132929 0 0.30132541624728598 -0.01217829343577128 0 0.31486943567640469 -0.023744993086391868 0 0.29600028882747859 -0.03087980289019443 0 0.30132541624728598 -0.01217829343577128 0 0.31486943567640469 -0.023744993086391868 0 0.31197137499350902 -0.041008225260955711 0 0.29387205913161968 -0.04074374201477949 0 0.31486943567640469 -0.023744993086391868 0 0.29600028882747859 -0.03087980289019443 0 0.29387205913161968 -0.04074374201477949 0 0.31486943567640469 -0.023744993086391868 0 0.29387205913161968 -0.04074374201477949 0 0.31197137499350902 -0.041008225260955711 0 0.30601744289912669 -0.055409131432484229 0 0.29387205913161968 -0.04074374201477949 0 0.28819319405889499 -0.06706419956831737 0 0.27783686619476677 -0.05372527893061739 0 0.29387205913161968 -0.04074374201477949 0 0.28819319405889499 -0.06706419956831737 0 0.29387205913161968 -0.04074374201477949 0 0.27783686619476677 -0.05372527893061739 0 0.29387205913161968 -0.04074374201477949 0 0.28819319405889499 -0.06706419956831737 0 0.30601744289912669 -0.055409131432484229 0 0.29387205913161968 -0.04074374201477949 0 0.27783686619476677 -0.05372527893061739 0 0.28437966209514692 -0.033534114227583768 0 0.29387205913161968 -0.04074374201477949 0 0.29600028882747859 -0.03087980289019443 0 0.28437966209514692 -0.033534114227583768 0 0.29387205913161968 -0.04074374201477949 0 0.29600028882747859 -0.03087980289019443 0 0.29387205913161968 -0.04074374201477949 0 0.28925369461552242 -0.21547475378801551 0 0.29798535605087828 -0.20438389051808681 0 0.27851755886665591 -0.20371457102860641 0 0.28925369461552242 -0.21547475378801551 0 0.28465086540799672 -0.2254021489655588 0 0.27851755886665591 -0.20371457102860641 0 0.28925369461552242 -0.21547475378801551 0 0.29798535605087828 -0.20438389051808681 0 0.29625974568445868 -0.22722646109941139 0 0.28994099481116897 -0.19128490440727269 0 0.29798535605087828 -0.20438389051808681 0 0.29971096641729777 -0.18154131993676231 0 0.28994099481116897 -0.19128490440727269 0 0.27851755886665591 -0.20371457102860641 0 0.28355009790984409 -0.17549983614563519 0 0.28994099481116897 -0.19128490440727269 0 0.29798535605087828 -0.20438389051808681 0 0.27851755886665591 -0.20371457102860641 0 0.30866677822314281 -0.19370433905286669 0 0.29798535605087828 -0.20438389051808681 0 0.29971096641729777 -0.18154131993676231 0 0.29798535605087828 -0.20438389051808681 0 0.29971096641729777 -0.18154131993676231 0 0.30866677822314281 -0.19370433905286669 0 0.30817512199612251 -0.208018461664154 0 0.29798535605087828 -0.20438389051808681 0 0.29798535605087828 -0.20438389051808681 0 0.29625974568445868 -0.22722646109941139 0 0.30367267472900389 -0.2178556058656746 0 0.31200739898088131 -0.22851072207886541 0 0.31883562653249692 -0.20986103607638071 0 0.29798535605087828 -0.20438389051808681 0 0.30367267472900389 -0.2178556058656746 0 0.29625974568445868 -0.22722646109941139 0 0.30817512199612251 -0.208018461664154 0 0.29798535605087828 -0.20438389051808681 0 0.30367267472900389 -0.2178556058656746 0 0.30817512199612251 -0.208018461664154 0 0.30367267472900389 -0.2178556058656746 0 0.31883562653249692 -0.20986103607638071 0 0.30367267472900389 -0.2178556058656746 0 0.31883562653249692 -0.20986103607638071 0 0.31200739898088131 -0.22851072207886541 0 0.30517917142926537 -0.24716040808135001 0 0.29625974568445868 -0.22722646109941139 0 0.30367267472900389 -0.2178556058656746 0 0.31200739898088131 -0.22851072207886541 0 0.29625974568445868 -0.22722646109941139 0 0.31200739898088131 -0.22851072207886541 0 0.30517917142926537 -0.24716040808135001 0 0.30517917142926537 -0.24716040808135001 0 0.28765229627979871 -0.24304032400626949 0 0.29625974568445868 -0.22722646109941139 0 0.28765229627979871 -0.24304032400626949 0 0.29625974568445868 -0.22722646109941139 0 0.28465086540799672 -0.2254021489655588 0 0.28765229627979871 -0.24304032400626949 0 0.28465086540799672 -0.2254021489655588 0 0.27348501982346762 -0.23192930591157759 0 0.28925369461552242 -0.21547475378801551 0 0.29625974568445868 -0.22722646109941139 0 0.28465086540799672 -0.2254021489655588 0 0.28465086540799672 -0.2254021489655588 0 0.27348501982346762 -0.23192930591157759 0 0.27851755886665591 -0.20371457102860641 0 0.27348501982346762 -0.23192930591157759 0 0.25787859859726192 -0.24372773219337371 0 0.26845248078028039 -0.26014404079454911 0 0.28765229627979871 -0.24304032400626949 0 0.27348501982346762 -0.23192930591157759 0 0.26845248078028039 -0.26014404079454911 0 0.27348501982346762 -0.23192930591157759 0 0.26845248078028039 -0.26014404079454911 0 0.27348501982346762 -0.23192930591157759 0 0.25787859859726192 -0.24372773219337371 0 0.2485278721491469 -0.22983386195931649 0 0.27348501982346762 -0.23192930591157759 0 0.25806059678156651 -0.21160485628964759 0 0.2485278721491469 -0.22983386195931649 0 0.27348501982346762 -0.23192930591157759 0 0.27851755886665591 -0.20371457102860641 0 0.27348501982346762 -0.23192930591157759 0 0.25806059678156651 -0.21160485628964759 0 0.27851755886665591 -0.20371457102860641 0 0.27851755886665591 -0.20371457102860641 0 0.26140201073716351 -0.19316186481753209 0 0.27335445324682811 -0.1824409541049711 0 0.25806059678156651 -0.21160485628964759 0 0.27851755886665591 -0.20371457102860641 0 0.26140201073716351 -0.19316186481753209 0 0.27851755886665591 -0.20371457102860641 0 0.28355009790984409 -0.17549983614563519 0 0.25806059678156651 -0.21160485628964759 0 0.26140201073716351 -0.19316186481753209 0 0.24624710011957149 -0.19756578472926509 0 0.26140201073716351 -0.19316186481753209 0 0.25030889548151403 -0.1837077448593728 0 0.24624710011957149 -0.19756578472926509 0 0.25969225384889538 -0.18295045636353721 0 0.2550208565069661 -0.17514012483034949 0 0.27335445324682811 -0.1824409541049711 0 0.26140201073716351 -0.19316186481753209 0 0.25030889548151403 -0.1837077448593728 0 0.25969225384889538 -0.18295045636353721 0 0.25030889548151403 -0.1837077448593728 0 0.25969225384889538 -0.18295045636353721 0 0.2550208565069661 -0.17514012483034949 0 0.2550208565069661 -0.17514012483034949 0 0.2530488896403309 -0.16079061319898569 0 0.27335445324682811 -0.1824409541049711 0 0.26140201073716351 -0.19316186481753209 0 0.25969225384889538 -0.18295045636353721 0 0.27335445324682811 -0.1824409541049711 0 0.2530488896403309 -0.16079061319898569 0 0.272260185211738 -0.168331689764908 0 0.26878477807763418 -0.16016356734556891 0 0.2530488896403309 -0.16079061319898569 0 0.26878477807763418 -0.16016356734556891 0 0.26293682869207591 -0.15391070786642169 0 0.2530488896403309 -0.16079061319898569 0 0.27335445324682811 -0.1824409541049711 0 0.272260185211738 -0.168331689764908 0 0.27899515764395177 -0.15443660918041571 0 0.28355009790984409 -0.17549983614563519 0 0.2530488896403309 -0.16079061319898569 0 0.272260185211738 -0.168331689764908 0 0.27335445324682811 -0.1824409541049711 0 0.272260185211738 -0.168331689764908 0 0.26878477807763418 -0.16016356734556891 0 0.27899515764395177 -0.15443660918041571 0 0.272260185211738 -0.168331689764908 0 0.27335445324682811 -0.1824409541049711 0 0.28355009790984409 -0.17549983614563519 0 0.27851755886665591 -0.20371457102860641 0 0.27335445324682811 -0.1824409541049711 0 0.28355009790984409 -0.17549983614563519 0 0.25915390151091949 -0.11811210275817149 0 0.25133622254172122 -0.13557462765415079 0 0.27338563510190422 -0.1356944138819183 0 0.25133622254172122 -0.13557462765415079 0 0.27338563510190422 -0.1356944138819183 0 0.25133622254172122 -0.13557462765415079 0 0.25208407187516418 -0.1419613505697605 0 0.27338563510190422 -0.1356944138819183 0 0.26557247671991108 -0.14774187414890411 0 0.25208407187516418 -0.1419613505697605 0 0.27142481771649529 -0.14478242884651979 0 0.25208407187516418 -0.1419613505697605 0 0.27142481771649529 -0.14478242884651979 0 0.2530488896403309 -0.16079061319898569 0 0.25208407187516418 -0.1419613505697605 0 0.26293682869207591 -0.15391070786642169 0 0.26557247671991108 -0.14774187414890411 0 0.25208407187516418 -0.1419613505697605 0 0.26293682869207591 -0.15391070786642169 0 0.27899515764395177 -0.15443660918041571 0 0.27142481771649529 -0.14478242884651979 0 0.28858263695303038 -0.1472851012626637 0 0.25208407187516418 -0.1419613505697605 0 0.27142481771649529 -0.14478242884651979 0 0.27338563510190422 -0.1356944138819183 0 0.27142481771649529 -0.14478242884651979 0 0.28858263695303038 -0.1472851012626637 0 0.27142481771649529 -0.14478242884651979 0 0.27338563510190422 -0.1356944138819183 0 0.28952553314766588 -0.14199879033185039 0 0.26878477807763418 -0.16016356734556891 0 0.27009527632936597 -0.15279308215900331 0 0.27899515764395177 -0.15443660918041571 0 0.26557247671991108 -0.14774187414890411 0 0.27009527632936597 -0.15279308215900331 0 0.27142481771649529 -0.14478242884651979 0 0.26878477807763418 -0.16016356734556891 0 0.26293682869207591 -0.15391070786642169 0 0.27009527632936597 -0.15279308215900331 0 0.26557247671991108 -0.14774187414890411 0 0.26293682869207591 -0.15391070786642169 0 0.27009527632936597 -0.15279308215900331 0 0.27009527632936597 -0.15279308215900331 0 0.27899515764395177 -0.15443660918041571 0 0.27142481771649529 -0.14478242884651979 0 0.27794998204403759 -0.11453953550188679 0 0.27338563510190422 -0.1356944138819183 0 0.27142481771649529 -0.14478242884651979 0 0.27338563510190422 -0.1356944138819183 0 0.27338563510190422 -0.1356944138819183 0 0.30316218715013699 -0.13585617877411299 0 0.29209333803684512 -0.1204183792118467 0 0.27338563510190422 -0.1356944138819183 0 0.30316218715013699 -0.13585617877411299 0 0.27338563510190422 -0.1356944138819183 0 0.28952553314766588 -0.14199879033185039 0 0.30316218715013699 -0.13585617877411299 0 0.27142481771649529 -0.14478242884651979 0 0.28952553314766588 -0.14199879033185039 0 0.28858263695303038 -0.1472851012626637 0 0.28858263695303038 -0.1472851012626637 0 0.30013596324633868 -0.14897029159077979 0 0.28952553314766588 -0.14199879033185039 0 0.28858263695303038 -0.1472851012626637 0 0.30013596324633868 -0.14897029159077979 0 0.28952553314766588 -0.14199879033185039 0 0.28858263695303038 -0.1472851012626637 0 0.28858263695303038 -0.1472851012626637 0 0.30013596324633868 -0.14897029159077979 0 0.29372711844303928 -0.1600295372122347 0 0.30316218715013699 -0.13585617877411299 0 0.30143657678371732 -0.15869874935543771 0 0.30013596324633868 -0.14897029159077979 0 0.30316218715013699 -0.13585617877411299 0 0.30143657678371732 -0.15869874935543771 0 0.30316218715013699 -0.13585617877411299 0 0.30143657678371732 -0.15869874935543771 0 0.31253980123811259 -0.14771969478669131 0 0.30013596324633868 -0.14897029159077979 0 0.29372711844303928 -0.1600295372122347 0 0.30143657678371732 -0.15869874935543771 0 0.30143657678371732 -0.15869874935543771 0 0.31557079919726838 -0.1590044961535387 0 0.31253980123811259 -0.14771969478669131 0 0.28952553314766588 -0.14199879033185039 0 0.30013596324633868 -0.14897029159077979 0 0.30316218715013699 -0.13585617877411299 0 0.30316218715013699 -0.13585617877411299 0 0.31993283661344418 -0.13594728745244961 0 0.31253980123811259 -0.14771969478669131 0 0.30316218715013699 -0.13585617877411299 0 0.31993283661344418 -0.13594728745244961 0 0.28994099481116897 -0.19128490440727269 0 0.28355009790984409 -0.17549983614563519 0 0.29971096641729777 -0.18154131993676231 0 0.28355009790984409 -0.17549983614563519 0 0.29493031732226571 -0.16969370770665679 0 0.29971096641729777 -0.18154131993676231 0 0.27899515764395177 -0.15443660918041571 0 0.28858263695303038 -0.1472851012626637 0 0.28355009790984409 -0.17549983614563519 0 0.28858263695303038 -0.1472851012626637 0 0.28355009790984409 -0.17549983614563519 0 0.28858263695303038 -0.1472851012626637 0 0.28355009790984409 -0.17549983614563519 0 0.29372711844303928 -0.1600295372122347 0 0.29372711844303928 -0.1600295372122347 0 0.29493031732226571 -0.16969370770665679 0 0.30143657678371732 -0.15869874935543771 0 0.28355009790984409 -0.17549983614563519 0 0.29372711844303928 -0.1600295372122347 0 0.29493031732226571 -0.16969370770665679 0 0.30143657678371732 -0.15869874935543771 0 0.29971096641729777 -0.18154131993676231 0 0.30143657678371732 -0.15869874935543771 0 0.30809610970482848 -0.16795036279156811 0 0.29971096641729777 -0.18154131993676231 0 0.29493031732226571 -0.16969370770665679 0 0.30143657678371732 -0.15869874935543771 0 0.29971096641729777 -0.18154131993676231 0 0.30143657678371732 -0.15869874935543771 0 0.30809610970482848 -0.16795036279156811 0 0.31557079919726838 -0.1590044961535387 0 0.29971096641729777 -0.18154131993676231 0 0.31498869866721663 -0.1848028620899877 0 0.3156660964210305 -0.17255688572053399 0 0.30809610970482848 -0.16795036279156811 0 0.29971096641729777 -0.18154131993676231 0 0.3156660964210305 -0.17255688572053399 0 0.30866677822314281 -0.19370433905286669 0 0.29971096641729777 -0.18154131993676231 0 0.31498869866721663 -0.1848028620899877 0 0.32729102930978993 -0.18432716657830939 0 0.3156660964210305 -0.17255688572053399 0 0.33199725769327038 -0.160182781354547 0 0.31498869866721663 -0.1848028620899877 0 0.32729102930978993 -0.18432716657830939 0 0.3156660964210305 -0.17255688572053399 0 0.3156660964210305 -0.17255688572053399 0 0.31557079919726838 -0.1590044961535387 0 0.33199725769327038 -0.160182781354547 0 0.30809610970482848 -0.16795036279156811 0 0.3156660964210305 -0.17255688572053399 0 0.31557079919726838 -0.1590044961535387 0 0.32729102930978993 -0.18432716657830939 0 0.34572674800851178 -0.17666980330527179 0 0.34152908302092871 -0.19789605564194099 0 0.32729102930978993 -0.18432716657830939 0 0.33199725769327038 -0.160182781354547 0 0.34572674800851178 -0.17666980330527179 0 0.32729102930978993 -0.18432716657830939 0 0.33199725769327038 -0.160182781354547 0 0.31854024801571379 -0.1183964408803808 0 0.30316218715013699 -0.13585617877411299 0 0.31993283661344418 -0.13594728745244961 0 0.31993283661344418 -0.13594728745244961 0 0.32334883616376942 -0.1477785311756023 0 0.33670348607675138 -0.13603839613078461 0 0.31854024801571379 -0.1183964408803808 0 0.31993283661344418 -0.13594728745244961 0 0.33718817445421712 -0.13355179710808501 0 0.31854024801571379 -0.1183964408803808 0 0.33718817445421712 -0.13355179710808501 0 0.31557079919726838 -0.1590044961535387 0 0.33199725769327038 -0.160182781354547 0 0.32334883616376942 -0.1477785311756023 0 0.31993283661344418 -0.13594728745244961 0 0.32334883616376942 -0.1477785311756023 0 0.31253980123811259 -0.14771969478669131 0 0.31557079919726838 -0.1590044961535387 0 0.32334883616376942 -0.1477785311756023 0 0.31253980123811259 -0.14771969478669131 0 0.33199725769327038 -0.160182781354547 0 0.34027166502062639 -0.13605778071504529 0 0.33670348607675138 -0.13603839613078461 0 0.33199725769327038 -0.160182781354547 0 0.32334883616376942 -0.1477785311756023 0 0.33670348607675138 -0.13603839613078461 0 0.33199725769327038 -0.160182781354547 0 0.33670348607675138 -0.13603839613078461 0 0.31993283661344418 -0.13594728745244961 0 0.33670348607675138 -0.13603839613078461 0 0.31993283661344418 -0.13594728745244961 0 0.33670348607675138 -0.13603839613078461 0 0.33718817445421712 -0.13355179710808501 0 0.34025414842832208 -0.11782241666052221 0 0.33718817445421712 -0.13355179710808501 0 0.34381162934489939 -0.12854128697128539 0 0.34025414842832208 -0.11782241666052221 0 0.33718817445421712 -0.13355179710808501 0 0.34027166502062639 -0.13605778071504529 0 0.33670348607675138 -0.13603839613078461 0 0.33718817445421712 -0.13355179710808501 0 0.34027166502062639 -0.13605778071504529 0 0.33718817445421712 -0.13355179710808501 0 0.34027166502062639 -0.13605778071504529 0 0.33670348607675138 -0.13603839613078461 0 0.33670348607675138 -0.13603839613078461 0 0.33718817445421712 -0.13355179710808501 0 0.34027166502062639 -0.13605778071504529 0 0.33718817445421712 -0.13355179710808501 0 0.34381162934489939 -0.12854128697128539 0 0.33199725769327038 -0.160182781354547 0 0.34027166502062639 -0.13605778071504529 0 0.36359383050920879 -0.15501193774405861 0 0.35355367174401742 -0.1211945845718113 0 0.34381162934489939 -0.12854128697128539 0 0.34779048707731292 -0.1340798558009649 0 0.34027166502062639 -0.13605778071504529 0 0.34884821061351562 -0.13610437388577321 0 0.35664352332635268 -0.13060513793896061 0 0.34779048707731292 -0.1340798558009649 0 0.34884821061351562 -0.13610437388577321 0 0.34027166502062639 -0.13605778071504529 0 0.34779048707731292 -0.1340798558009649 0 0.34884821061351562 -0.13610437388577321 0 0.34027166502062639 -0.13605778071504529 0 0.34381162934489939 -0.12854128697128539 0 0.34779048707731292 -0.1340798558009649 0 0.35664352332635268 -0.13060513793896061 0 0.34884821061351562 -0.13610437388577321 0 0.36374720336072303 -0.13810563056468389 0 0.34884821061351562 -0.13610437388577321 0 0.36359383050920879 -0.15501193774405861 0 0.36374720336072303 -0.13810563056468389 0 0.34027166502062639 -0.13605778071504529 0 0.36359383050920879 -0.15501193774405861 0 0.34027166502062639 -0.13605778071504529 0 0.34884821061351562 -0.13610437388577321 0 0.36359383050920879 -0.15501193774405861 0 0.36359383050920879 -0.15501193774405861 0 0.36374720336072303 -0.13810563056468389 0 0.37656812491251679 -0.13846106794218549 0 0.3785150876385216 -0.1195111518185689 0 0.36779594019891898 -0.12729788290040461 0 0.37656812491251679 -0.13846106794218549 0 0.36374720336072303 -0.13810563056468389 0 0.36779594019891898 -0.12729788290040461 0 0.37656812491251679 -0.13846106794218549 0 0.35664352332635268 -0.13060513793896061 0 0.36374720336072303 -0.13810563056468389 0 0.36779594019891898 -0.12729788290040461 0 0.33199725769327038 -0.160182781354547 0 0.36359383050920879 -0.15501193774405861 0 0.34572674800851178 -0.17666980330527179 0 0.34572674800851178 -0.17666980330527179 0 0.36422253950936112 -0.1859310752075029 0 0.34152908302092871 -0.19789605564194099 0 0.36359383050920879 -0.15501193774405861 0 0.34572674800851178 -0.17666980330527179 0 0.36422253950936112 -0.1859310752075029 0 0.36359383050920879 -0.15501193774405861 0 0.36422253950936112 -0.1859310752075029 0 0.38691599599779503 -0.1739660947730671 0 0.36422253950936112 -0.1859310752075029 0 0.37220629557919183 -0.19612338441269381 0 0.37910290544765168 -0.18685571494790659 0 0.36422253950936112 -0.1859310752075029 0 0.37220629557919183 -0.19612338441269381 0 0.35685044422528578 -0.20027094664828951 0 0.37220629557919183 -0.19612338441269381 0 0.3556522221671049 -0.2162457527497984 0 0.35685044422528578 -0.20027094664828951 0 0.37220629557919183 -0.19612338441269381 0 0.3556522221671049 -0.2162457527497984 0 0.37273333868611941 -0.2093978965492076 0 0.3556522221671049 -0.2162457527497984 0 0.3731990688381891 -0.2228302363117915 0 0.37220629557919183 -0.19612338441269381 0 0.37273333868611941 -0.2093978965492076 0 0.3556522221671049 -0.2162457527497984 0 0.34913249600123192 -0.20719712371303781 0 0.34152908302092871 -0.19789605564194099 0 0.34144894007629428 -0.2139395960038605 0 0.3556522221671049 -0.2162457527497984 0 0.34913249600123192 -0.20719712371303781 0 0.35685044422528578 -0.20027094664828951 0 0.3556522221671049 -0.2162457527497984 0 0.34913249600123192 -0.20719712371303781 0 0.34144894007629428 -0.2139395960038605 0 0.36422253950936112 -0.1859310752075029 0 0.35685044422528578 -0.20027094664828951 0 0.34152908302092871 -0.19789605564194099 0 0.36422253950936112 -0.1859310752075029 0 0.34152908302092871 -0.19789605564194099 0 0.34913249600123192 -0.20719712371303781 0 0.35685044422528578 -0.20027094664828951 0 0.34152908302092871 -0.19789605564194099 0 0.32729102930978993 -0.18432716657830939 0 0.34152908302092871 -0.19789605564194099 0 0.32289957828838461 -0.19876131457419149 0 0.34152908302092871 -0.19789605564194099 0 0.31883562653249692 -0.20986103607638071 0 0.34152908302092871 -0.19789605564194099 0 0.34144894007629428 -0.2139395960038605 0 0.31883562653249692 -0.20986103607638071 0 0.34144894007629428 -0.2139395960038605 0 0.31883562653249692 -0.20986103607638071 0 0.32331405575278033 -0.23055000204260581 0 0.31883562653249692 -0.20986103607638071 0 0.32289957828838461 -0.19876131457419149 0 0.30817512199612251 -0.208018461664154 0 0.31883562653249692 -0.20986103607638071 0 0.32289957828838461 -0.19876131457419149 0 0.30866677822314281 -0.19370433905286669 0 0.30817512199612251 -0.208018461664154 0 0.32289957828838461 -0.19876131457419149 0 0.34152908302092871 -0.19789605564194099 0 0.31883562653249692 -0.20986103607638071 0 0.32289957828838461 -0.19876131457419149 0 0.30866677822314281 -0.19370433905286669 0 0.31498869866721663 -0.1848028620899877 0 0.32289957828838461 -0.19876131457419149 0 0.31498869866721663 -0.1848028620899877 0 0.32729102930978993 -0.18432716657830939 0 0.32289957828838461 -0.19876131457419149 0 0.30517917142926537 -0.24716040808135001 0 0.32331405575278033 -0.23055000204260581 0 0.30517917142926537 -0.24716040808135001 0 0.32331405575278033 -0.23055000204260581 0 0.322544075342931 -0.25649048942400782 0 0.31200739898088131 -0.22851072207886541 0 0.30517917142926537 -0.24716040808135001 0 0.32331405575278033 -0.23055000204260581 0 0.31200739898088131 -0.22851072207886541 0 0.31883562653249692 -0.20986103607638071 0 0.31200739898088131 -0.22851072207886541 0 0.31883562653249692 -0.20986103607638071 0 0.32331405575278033 -0.23055000204260581 0 0.34144894007629428 -0.2139395960038605 0 0.32331405575278033 -0.23055000204260581 0 0.34144894007629428 -0.2139395960038605 0 0.32331405575278033 -0.23055000204260581 0 0.33909814875501798 -0.23636812108690311 0 0.33909814875501798 -0.23636812108690311 0 0.322544075342931 -0.25649048942400782 0 0.32331405575278033 -0.23055000204260581 0 0.33909814875501798 -0.23636812108690311 0 0.322544075342931 -0.25649048942400782 0 0.33909814875501798 -0.23636812108690311 0 0.35007299243335749 -0.24785688602667111 0 0.33700232267718733 -0.25494009872172468 0 0.33909814875501798 -0.23636812108690311 0 0.322544075342931 -0.25649048942400782 0 0.33700232267718733 -0.25494009872172468 0 0.33909814875501798 -0.23636812108690311 0 0.35007299243335749 -0.24785688602667111 0 0.35471840821638012 -0.232162972911199 0 0.35007299243335749 -0.24785688602667111 0 0.35471840821638012 -0.232162972911199 0 0.36225179838031341 -0.2439392928582107 0 0.35007299243335749 -0.24785688602667111 0 0.36225179838031341 -0.2439392928582107 0 0.36124693131331159 -0.25807728632712912 0 0.3556522221671049 -0.2162457527497984 0 0.33909814875501798 -0.23636812108690311 0 0.3556522221671049 -0.2162457527497984 0 0.33909814875501798 -0.23636812108690311 0 0.35471840821638012 -0.232162972911199 0 0.3556522221671049 -0.2162457527497984 0 0.34144894007629428 -0.2139395960038605 0 0.33909814875501798 -0.23636812108690311 0 0.35471840821638012 -0.232162972911199 0 0.3731990688381891 -0.2228302363117915 0 0.36225179838031341 -0.2439392928582107 0 0.3556522221671049 -0.2162457527497984 0 0.35471840821638012 -0.232162972911199 0 0.3731990688381891 -0.2228302363117915 0 0.3731990688381891 -0.2228302363117915 0 0.36225179838031341 -0.2439392928582107 0 0.3731990688381891 -0.2228302363117915 0 0.36225179838031341 -0.2439392928582107 0 0.38186963046980549 -0.2367879359972051 0 0.36225179838031341 -0.2439392928582107 0 0.38186963046980549 -0.2367879359972051 0 0.37510228513818711 -0.25237727586059511 0 0.38186963046980549 -0.2367879359972051 0 0.39206528024080278 -0.24921397013056479 0 0.37510228513818711 -0.25237727586059511 0 0.39206528024080278 -0.24921397013056479 0 0.40137725565661481 -0.22692044649349019 0 0.4148006158986044 -0.24103970595398019 0 0.39206528024080278 -0.24921397013056479 0 0.4148006158986044 -0.24103970595398019 0 0.40884184876520419 -0.25890250189124958 0 0.38186963046980549 -0.2367879359972051 0 0.39206528024080278 -0.24921397013056479 0 0.40137725565661481 -0.22692044649349019 0 0.40137725565661481 -0.22692044649349019 0 0.39915185452682361 -0.21610044156742811 0 0.41396763236883027 -0.21470461273584779 0 0.40137725565661481 -0.22692044649349019 0 0.38700545273377529 -0.2233412248148075 0 0.39915185452682361 -0.21610044156742811 0 0.38186963046980549 -0.2367879359972051 0 0.40137725565661481 -0.22692044649349019 0 0.38700545273377529 -0.2233412248148075 0 0.3731990688381891 -0.2228302363117915 0 0.38186963046980549 -0.2367879359972051 0 0.38700545273377529 -0.2233412248148075 0 0.3731990688381891 -0.2228302363117915 0 0.38414633929606479 -0.2017211797653724 0 0.37273333868611941 -0.2093978965492076 0 0.3731990688381891 -0.2228302363117915 0 0.38414633929606479 -0.2017211797653724 0 0.3731990688381891 -0.2228302363117915 0 0.38675328488958288 -0.2095276895359276 0 0.38414633929606479 -0.2017211797653724 0 0.3731990688381891 -0.2228302363117915 0 0.38700545273377529 -0.2233412248148075 0 0.38675328488958288 -0.2095276895359276 0 0.38675328488958288 -0.2095276895359276 0 0.38414633929606479 -0.2017211797653724 0 0.39287005569986072 -0.20314648074516001 0 0.38414633929606479 -0.2017211797653724 0 0.38373621375160438 -0.1885238144486111 0 0.39509360975394031 -0.18061212321895309 0 0.38414633929606479 -0.2017211797653724 0 0.39509360975394031 -0.18061212321895309 0 0.37999921147615667 -0.19503406661491049 0 0.38373621375160438 -0.1885238144486111 0 0.37910290544765168 -0.18685571494790659 0 0.37999921147615667 -0.19503406661491049 0 0.38414633929606479 -0.2017211797653724 0 0.38373621375160438 -0.1885238144486111 0 0.37220629557919183 -0.19612338441269381 0 0.37999921147615667 -0.19503406661491049 0 0.37910290544765168 -0.18685571494790659 0 0.37220629557919183 -0.19612338441269381 0 0.37273333868611941 -0.2093978965492076 0 0.38414633929606479 -0.2017211797653724 0 0.37220629557919183 -0.19612338441269381 0 0.37999921147615667 -0.19503406661491049 0 0.38414633929606479 -0.2017211797653724 0 0.38414633929606479 -0.2017211797653724 0 0.39694758591794982 -0.18886739411602391 0 0.39509360975394031 -0.18061212321895309 0 0.39694758591794982 -0.18886739411602391 0 0.3969424320709618 -0.1972324897541754 0 0.40101572763622523 -0.19231380306325679 0 0.38414633929606479 -0.2017211797653724 0 0.39694758591794982 -0.18886739411602391 0 0.3969424320709618 -0.1972324897541754 0 0.38414633929606479 -0.2017211797653724 0 0.3969424320709618 -0.1972324897541754 0 0.39287005569986072 -0.20314648074516001 0 0.3969424320709618 -0.1972324897541754 0 0.400612395600416 -0.20053006859666331 0 0.39287005569986072 -0.20314648074516001 0 0.3969424320709618 -0.1972324897541754 0 0.4059814476455269 -0.19573306963025069 0 0.400612395600416 -0.20053006859666331 0 0.4059814476455269 -0.19573306963025069 0 0.400612395600416 -0.20053006859666331 0 0.40665564698531481 -0.2060082342570673 0 0.3969424320709618 -0.1972324897541754 0 0.4059814476455269 -0.19573306963025069 0 0.40101572763622523 -0.19231380306325679 0 0.4059814476455269 -0.19573306963025069 0 0.40101572763622523 -0.19231380306325679 0 0.40419144491046238 -0.1874222587525772 0 0.39694758591794982 -0.18886739411602391 0 0.40101572763622523 -0.19231380306325679 0 0.40419144491046238 -0.1874222587525772 0 0.38675328488958288 -0.2095276895359276 0 0.40665564698531481 -0.2060082342570673 0 0.38675328488958288 -0.2095276895359276 0 0.39915185452682361 -0.21610044156742811 0 0.40665564698531481 -0.2060082342570673 0 0.38675328488958288 -0.2095276895359276 0 0.39287005569986072 -0.20314648074516001 0 0.40665564698531481 -0.2060082342570673 0 0.38700545273377529 -0.2233412248148075 0 0.38675328488958288 -0.2095276895359276 0 0.39915185452682361 -0.21610044156742811 0 0.400612395600416 -0.20053006859666331 0 0.39287005569986072 -0.20314648074516001 0 0.40665564698531481 -0.2060082342570673 0 0.41396763236883027 -0.21470461273584779 0 0.40665564698531481 -0.2060082342570673 0 0.42655800908104652 -0.20248877897820619 0 0.40665564698531481 -0.2060082342570673 0 0.42655800908104652 -0.20248877897820619 0 0.39915185452682361 -0.21610044156742811 0 0.41396763236883027 -0.21470461273584779 0 0.40665564698531481 -0.2060082342570673 0 0.41396763236883027 -0.21470461273584779 0 0.42655800908104652 -0.20248877897820619 0 0.40665564698531481 -0.2060082342570673 0 0.41640017291144837 -0.19588579121564459 0 0.42655800908104652 -0.20248877897820619 0 0.4059814476455269 -0.19573306963025069 0 0.41640017291144837 -0.19588579121564459 0 0.41453364601533049 -0.1862870086825022 0 0.4059814476455269 -0.19573306963025069 0 0.40419144491046238 -0.1874222587525772 0 0.41453364601533049 -0.1862870086825022 0 0.4059814476455269 -0.19573306963025069 0 0.40665564698531481 -0.2060082342570673 0 0.41640017291144837 -0.19588579121564459 0 0.41640017291144837 -0.19588579121564459 0 0.42581299264578848 -0.18832250896932939 0 0.41453364601533049 -0.1862870086825022 0 0.42655800908104652 -0.20248877897820619 0 0.444302871767289 -0.18527179670816579 0 0.42581299264578848 -0.18832250896932939 0 0.42655800908104652 -0.20248877897820619 0 0.444302871767289 -0.18527179670816579 0 0.41640017291144837 -0.19588579121564459 0 0.42581299264578848 -0.18832250896932939 0 0.42655800908104652 -0.20248877897820619 0 0.42655800908104652 -0.20248877897820619 0 0.43237997939727391 -0.21969514264188619 0 0.44995934289594253 -0.19835057932979169 0 0.41396763236883027 -0.21470461273584779 0 0.42655800908104652 -0.20248877897820619 0 0.43237997939727391 -0.21969514264188619 0 0.43237997939727391 -0.21969514264188619 0 0.43199948472716282 -0.23703470349933331 0 0.4148006158986044 -0.24103970595398019 0 0.43237997939727391 -0.21969514264188619 0 0.4148006158986044 -0.24103970595398019 0 0.43199948472716282 -0.23703470349933331 0 0.4148006158986044 -0.24103970595398019 0 0.42892204251950339 -0.2594807324876427 0 0.43199948472716282 -0.23703470349933331 0 0.44338493428344739 -0.24574379201886831 0 0.42892204251950339 -0.2594807324876427 0 0.43237997939727391 -0.21969514264188619 0 0.4148006158986044 -0.24103970595398019 0 0.41563137083033092 -0.22558997695630109 0 0.41396763236883027 -0.21470461273584779 0 0.43237997939727391 -0.21969514264188619 0 0.41563137083033092 -0.22558997695630109 0 0.40137725565661481 -0.22692044649349019 0 0.4148006158986044 -0.24103970595398019 0 0.41563137083033092 -0.22558997695630109 0 0.40137725565661481 -0.22692044649349019 0 0.41396763236883027 -0.21470461273584779 0 0.40137725565661481 -0.22692044649349019 0 0.41396763236883027 -0.21470461273584779 0 0.41563137083033092 -0.22558997695630109 0 0.39237070121405998 -0.13164091544729051 0 0.39988799210863701 -0.14408364481314989 0 0.41368108829086198 -0.13554811058748131 0 0.40604313277712428 -0.1171380761358455 0 0.39237070121405998 -0.13164091544729051 0 0.41368108829086198 -0.13554811058748131 0 0.39237070121405998 -0.13164091544729051 0 0.37656812491251679 -0.13846106794218549 0 0.38605620033535121 -0.1499684147877679 0 0.3785150876385216 -0.1195111518185689 0 0.39237070121405998 -0.13164091544729051 0 0.37656812491251679 -0.13846106794218549 0 0.36359383050920879 -0.15501193774405861 0 0.37656812491251679 -0.13846106794218549 0 0.38605620033535121 -0.1499684147877679 0 0.39237070121405998 -0.13164091544729051 0 0.38605620033535121 -0.1499684147877679 0 0.39988799210863701 -0.14408364481314989 0 0.38605620033535121 -0.1499684147877679 0 0.39988799210863701 -0.14408364481314989 0 0.39700055726989097 -0.15664682800685811 0 0.39988799210863701 -0.14408364481314989 0 0.39700055726989097 -0.15664682800685811 0 0.40766935758353628 -0.1563629578155839 0 0.40291487034120532 -0.16553079014728059 0 0.39700055726989097 -0.15664682800685811 0 0.38691599599779503 -0.1739660947730671 0 0.40291487034120532 -0.16553079014728059 0 0.38691599599779503 -0.1739660947730671 0 0.40291487034120532 -0.16553079014728059 0 0.39700055726989097 -0.15664682800685811 0 0.40766935758353628 -0.1563629578155839 0 0.40291487034120532 -0.16553079014728059 0 0.40766935758353628 -0.1563629578155839 0 0.38605620033535121 -0.1499684147877679 0 0.39700055726989097 -0.15664682800685811 0 0.38691599599779503 -0.1739660947730671 0 0.36359383050920879 -0.15501193774405861 0 0.38691599599779503 -0.1739660947730671 0 0.36359383050920879 -0.15501193774405861 0 0.38605620033535121 -0.1499684147877679 0 0.38691599599779503 -0.1739660947730671 0 0.36422253950936112 -0.1859310752075029 0 0.38691599599779503 -0.1739660947730671 0 0.37910290544765168 -0.18685571494790659 0 0.36422253950936112 -0.1859310752075029 0 0.38691599599779503 -0.1739660947730671 0 0.38691599599779503 -0.1739660947730671 0 0.38753717637180268 -0.18155585423065651 0 0.39509360975394031 -0.18061212321895309 0 0.38373621375160438 -0.1885238144486111 0 0.38753717637180268 -0.18155585423065651 0 0.39509360975394031 -0.18061212321895309 0 0.38691599599779503 -0.1739660947730671 0 0.37910290544765168 -0.18685571494790659 0 0.38753717637180268 -0.18155585423065651 0 0.38373621375160438 -0.1885238144486111 0 0.37910290544765168 -0.18685571494790659 0 0.38753717637180268 -0.18155585423065651 0 0.40291487034120532 -0.16553079014728059 0 0.38691599599779503 -0.1739660947730671 0 0.39509360975394031 -0.18061212321895309 0 0.39694758591794982 -0.18886739411602391 0 0.39665445354372708 -0.18451779314135289 0 0.39509360975394031 -0.18061212321895309 0 0.39694758591794982 -0.18886739411602391 0 0.39665445354372708 -0.18451779314135289 0 0.40021252966215071 -0.18382207331845951 0 0.39665445354372708 -0.18451779314135289 0 0.39509360975394031 -0.18061212321895309 0 0.40021252966215071 -0.18382207331845951 0 0.38691599599779503 -0.1739660947730671 0 0.39509360975394031 -0.18061212321895309 0 0.40291487034120532 -0.16553079014728059 0 0.39509360975394031 -0.18061212321895309 0 0.40549068313545528 -0.17742909809594989 0 0.40291487034120532 -0.16553079014728059 0 0.39509360975394031 -0.18061212321895309 0 0.40549068313545528 -0.17742909809594989 0 0.40419144491046238 -0.1874222587525772 0 0.40021252966215071 -0.18382207331845951 0 0.39509360975394031 -0.18061212321895309 0 0.40549068313545528 -0.17742909809594989 0 0.40021252966215071 -0.18382207331845951 0 0.39694758591794982 -0.18886739411602391 0 0.40419144491046238 -0.1874222587525772 0 0.40021252966215071 -0.18382207331845951 0 0.42581299264578848 -0.18832250896932939 0 0.41453364601533049 -0.1862870086825022 0 0.42235201908535791 -0.17050045814039369 0 0.40549068313545528 -0.17742909809594989 0 0.41453364601533049 -0.1862870086825022 0 0.42235201908535791 -0.17050045814039369 0 0.40549068313545528 -0.17742909809594989 0 0.40419144491046238 -0.1874222587525772 0 0.41453364601533049 -0.1862870086825022 0 0.42235201908535791 -0.17050045814039369 0 0.44127751826325029 -0.16493106072254701 0 0.444302871767289 -0.18527179670816579 0 0.42581299264578848 -0.18832250896932939 0 0.42235201908535791 -0.17050045814039369 0 0.444302871767289 -0.18527179670816579 0 0.42235201908535791 -0.17050045814039369 0 0.42606808286872072 -0.1533234062687002 0 0.44127751826325029 -0.16493106072254701 0 0.40291487034120532 -0.16553079014728059 0 0.40766935758353628 -0.1563629578155839 0 0.42606808286872072 -0.1533234062687002 0 0.40291487034120532 -0.16553079014728059 0 0.42606808286872072 -0.1533234062687002 0 0.40291487034120532 -0.16553079014728059 0 0.42235201908535791 -0.17050045814039369 0 0.42606808286872072 -0.1533234062687002 0 0.40291487034120532 -0.16553079014728059 0 0.40549068313545528 -0.17742909809594989 0 0.42235201908535791 -0.17050045814039369 0 0.41182663021293903 -0.1473295298712288 0 0.42606808286872072 -0.1533234062687002 0 0.41368108829086198 -0.13554811058748131 0 0.40766935758353628 -0.1563629578155839 0 0.41182663021293903 -0.1473295298712288 0 0.42606808286872072 -0.1533234062687002 0 0.39988799210863701 -0.14408364481314989 0 0.40766935758353628 -0.1563629578155839 0 0.41182663021293903 -0.1473295298712288 0 0.39988799210863701 -0.14408364481314989 0 0.41182663021293903 -0.1473295298712288 0 0.41368108829086198 -0.13554811058748131 0 0.42606808286872072 -0.1533234062687002 0 0.430889964195386 -0.135117951771525 0 0.44922129539623712 -0.14111602239012119 0 0.42606808286872072 -0.1533234062687002 0 0.430889964195386 -0.135117951771525 0 0.41368108829086198 -0.13554811058748131 0 0.42080162445294911 -0.1170697999396166 0 0.430889964195386 -0.135117951771525 0 0.41368108829086198 -0.13554811058748131 0 0.45825176112352212 -0.1171944005084963 0 0.44922129539623712 -0.14111602239012119 0 0.47461064769812122 -0.12772964805397971 0 0.44922129539623712 -0.14111602239012119 0 0.47461064769812122 -0.12772964805397971 0 0.44922129539623712 -0.14111602239012119 0 0.47041229806123103 -0.14236165737458781 0 0.47461064769812122 -0.12772964805397971 0 0.43893170590200609 -0.1195052611799315 0 0.430889964195386 -0.135117951771525 0 0.44922129539623712 -0.14111602239012119 0 0.43893170590200609 -0.1195052611799315 0 0.45825176112352212 -0.1171944005084963 0 0.44922129539623712 -0.14111602239012119 0 0.43893170590200609 -0.1195052611799315 0 0.44922129539623712 -0.14111602239012119 0 0.42606808286872072 -0.1533234062687002 0 0.44922129539623712 -0.14111602239012119 0 0.44127751826325029 -0.16493106072254701 0 0.42606808286872072 -0.1533234062687002 0 0.44922129539623712 -0.14111602239012119 0 0.44922129539623712 -0.14111602239012119 0 0.46204773445353348 -0.16805481443812731 0 0.44922129539623712 -0.14111602239012119 0 0.46204773445353348 -0.16805481443812731 0 0.47041229806123103 -0.14236165737458781 0 0.44922129539623712 -0.14111602239012119 0 0.46204773445353348 -0.16805481443812731 0 0.44127751826325029 -0.16493106072254701 0 0.46204773445353348 -0.16805481443812731 0 0.44127751826325029 -0.16493106072254701 0 0.444302871767289 -0.18527179670816579 0 0.46204773445353348 -0.16805481443812731 0 0.444302871767289 -0.18527179670816579 0 0.46675991992270621 -0.1779516052682695 0 0.47013600328087812 -0.185042241033678 0 0.44995934289594253 -0.19835057932979169 0 0.444302871767289 -0.18527179670816579 0 0.46675991992270621 -0.1779516052682695 0 0.44995934289594253 -0.19835057932979169 0 0.46204773445353348 -0.16805481443812731 0 0.444302871767289 -0.18527179670816579 0 0.46675991992270621 -0.1779516052682695 0 0.46204773445353348 -0.16805481443812731 0 0.46675991992270621 -0.1779516052682695 0 0.46675991992270621 -0.1779516052682695 0 0.47013600328087812 -0.185042241033678 0 0.46675991992270621 -0.1779516052682695 0 0.48388214138120561 -0.17390417728894431 0 0.47927416581767118 -0.18397687174081401 0 0.46675991992270621 -0.1779516052682695 0 0.47013600328087812 -0.185042241033678 0 0.47927416581767118 -0.18397687174081401 0 0.48388214138120561 -0.17390417728894431 0 0.47927416581767118 -0.18397687174081401 0 0.48987334582395858 -0.18140433091368091 0 0.48987334582395858 -0.18140433091368091 0 0.5 -0.16492372169971509 0 0.5 -0.19225537639104809 0 0.48388214138120561 -0.17390417728894431 0 0.48987334582395858 -0.18140433091368091 0 0.5 -0.16492372169971509 0 0.47927416581767118 -0.18397687174081401 0 0.48987334582395858 -0.18140433091368091 0 0.48552241192915191 -0.19206174635411891 0 0.48388214138120561 -0.17390417728894431 0 0.5 -0.16492372169971509 0 0.48337995996135552 -0.1577718361383266 0 0.46675991992270621 -0.1779516052682695 0 0.48388214138120561 -0.17390417728894431 0 0.48337995996135552 -0.1577718361383266 0 0.46204773445353348 -0.16805481443812731 0 0.46675991992270621 -0.1779516052682695 0 0.48337995996135552 -0.1577718361383266 0 0.46204773445353348 -0.16805481443812731 0 0.48337995996135552 -0.1577718361383266 0 0.47713463147989749 -0.15341672773068571 0 0.46675991992270621 -0.1779516052682695 0 0.48337995996135552 -0.1577718361383266 0 0.46204773445353348 -0.16805481443812731 0 0.47713463147989749 -0.15341672773068571 0 0.46204773445353348 -0.16805481443812731 0 0.47041229806123103 -0.14236165737458781 0 0.47713463147989749 -0.15341672773068571 0 0.48337995996135552 -0.1577718361383266 0 0.47713463147989749 -0.15341672773068571 0 0.48456351921585428 -0.1397192317593817 0 0.47041229806123103 -0.14236165737458781 0 0.47713463147989749 -0.15341672773068571 0 0.48456351921585428 -0.1397192317593817 0 0.48337995996135552 -0.1577718361383266 0 0.50000000000000311 -0.1375920670083822 0 0.48456351921585428 -0.1397192317593817 0 0.5 -0.16492372169971509 0 0.48337995996135552 -0.1577718361383266 0 0.50000000000000311 -0.1375920670083822 0 0.48337995996135552 -0.1577718361383266 0 0.50000000000000311 -0.1375920670083822 0 0.50000000000000433 -0.1143432737178363 0 0.50000000000000311 -0.1375920670083822 0 0.48456351921585428 -0.1397192317593817 0 0.50000000000000433 -0.1143432737178363 0 0.48456351921585428 -0.1397192317593817 0 0.47461064769812122 -0.12772964805397971 0 0.47041229806123103 -0.14236165737458781 0 0.48456351921585428 -0.1397192317593817 0 0.47461064769812122 -0.12772964805397971 0 0.46695018322910392 -0.22473955239466681 0 0.44975785303280541 -0.2255898949688982 0 0.46528918090086291 -0.2095084705765255 0 0.46695018322910392 -0.22473955239466681 0 0.46086119099944728 -0.24298014516654151 0 0.44975785303280541 -0.2255898949688982 0 0.46086119099944728 -0.24298014516654151 0 0.44338493428344739 -0.24574379201886831 0 0.44975785303280541 -0.2255898949688982 0 0.43199948472716282 -0.23703470349933331 0 0.44338493428344739 -0.24574379201886831 0 0.44975785303280541 -0.2255898949688982 0 0.46086119099944728 -0.24298014516654151 0 0.44338493428344739 -0.24574379201886831 0 0.45165913482636821 -0.26068325523694041 0 0.43237997939727391 -0.21969514264188619 0 0.43199948472716282 -0.23703470349933331 0 0.44975785303280541 -0.2255898949688982 0 0.43237997939727391 -0.21969514264188619 0 0.44975785303280541 -0.2255898949688982 0 0.44995934289594253 -0.19835057932979169 0 0.43237997939727391 -0.21969514264188619 0 0.44995934289594253 -0.19835057932979169 0 0.42655800908104652 -0.20248877897820619 0 0.444302871767289 -0.18527179670816579 0 0.44995934289594253 -0.19835057932979169 0 0.42655800908104652 -0.20248877897820619 0 0.44995934289594253 -0.19835057932979169 0 0.46675991992270621 -0.1779516052682695 0 0.44995934289594253 -0.19835057932979169 0 0.44995934289594253 -0.19835057932979169 0 0.46774087741254722 -0.19520616284195491 0 0.47013600328087812 -0.185042241033678 0 0.44995934289594253 -0.19835057932979169 0 0.46774087741254722 -0.19520616284195491 0 0.44995934289594253 -0.19835057932979169 0 0.46774087741254722 -0.19520616284195491 0 0.46528918090086291 -0.2095084705765255 0 0.44975785303280541 -0.2255898949688982 0 0.44995934289594253 -0.19835057932979169 0 0.46528918090086291 -0.2095084705765255 0 0.46695018322910392 -0.22473955239466681 0 0.46528918090086291 -0.2095084705765255 0 0.48029579162163721 -0.21558854579597769 0 0.46528918090086291 -0.2095084705765255 0 0.47801733861628259 -0.20339364304417529 0 0.48029579162163721 -0.21558854579597769 0 0.47801733861628259 -0.20339364304417529 0 0.48029579162163721 -0.21558854579597769 0 0.48876710843341442 -0.20457726853354019 0 0.46774087741254722 -0.19520616284195491 0 0.47801733861628259 -0.20339364304417529 0 0.48552241192915191 -0.19206174635411891 0 0.47927416581767118 -0.18397687174081401 0 0.46774087741254722 -0.19520616284195491 0 0.48552241192915191 -0.19206174635411891 0 0.46774087741254722 -0.19520616284195491 0 0.48552241192915191 -0.19206174635411891 0 0.47013600328087812 -0.185042241033678 0 0.47927416581767118 -0.18397687174081401 0 0.46774087741254722 -0.19520616284195491 0 0.46774087741254722 -0.19520616284195491 0 0.46528918090086291 -0.2095084705765255 0 0.47801733861628259 -0.20339364304417529 0 0.47801733861628259 -0.20339364304417529 0 0.48552241192915191 -0.19206174635411891 0 0.48876710843341442 -0.20457726853354019 0 0.48987334582395858 -0.18140433091368091 0 0.48552241192915191 -0.19206174635411891 0 0.5 -0.19225537639104809 0 0.48552241192915191 -0.19206174635411891 0 0.5 -0.19225537639104809 0 0.48876710843341442 -0.20457726853354019 0 0.5 -0.19225537639104809 0 0.48876710843341442 -0.20457726853354019 0 0.5 -0.21958703108238101 0 0.48029579162163721 -0.21558854579597769 0 0.48876710843341442 -0.20457726853354019 0 0.5 -0.21958703108238101 0 0.5 -0.21958703108238101 0 0.48033598971293961 -0.23536730169414519 0 0.5 -0.24691868577371379 0 0.48029579162163721 -0.21558854579597769 0 0.5 -0.21958703108238101 0 0.48033598971293961 -0.23536730169414519 0 0.46695018322910392 -0.22473955239466681 0 0.46086119099944728 -0.24298014516654151 0 0.48033598971293961 -0.23536730169414519 0 0.46695018322910392 -0.22473955239466681 0 0.48029579162163721 -0.21558854579597769 0 0.48033598971293961 -0.23536730169414519 0 0.46086119099944728 -0.24298014516654151 0 0.48033598971293961 -0.23536730169414519 0 0.47450143065275591 -0.2599846894272051 0 0.48033598971293961 -0.23536730169414519 0 0.5 -0.24691868577371379 0 0.47450143065275591 -0.2599846894272051 0 0.5 -0.24691868577371379 0 0.50000000000000222 -0.27425034046504659 0 0.47450143065275591 -0.2599846894272051 0 0.50000000000000222 -0.27425034046504659 0 0.47605513413645029 -0.28008102786359129 0 0.47450143065275591 -0.2599846894272051 0 0.47605513413645029 -0.28008102786359129 0 0.47450143065275591 -0.2599846894272051 0 0.45931845050930209 -0.27772900618102819 0 0.46086119099944728 -0.24298014516654151 0 0.47450143065275591 -0.2599846894272051 0 0.45165913482636821 -0.26068325523694041 0 0.47450143065275591 -0.2599846894272051 0 0.45931845050930209 -0.27772900618102819 0 0.45165913482636821 -0.26068325523694041 0 0.45931845050930209 -0.27772900618102819 0 0.44355941821905998 -0.27577600561597132 0 0.45165913482636821 -0.26068325523694041 0 0.44338493428344739 -0.24574379201886831 0 0.45165913482636821 -0.26068325523694041 0 0.42892204251950339 -0.2594807324876427 0 0.44355941821905998 -0.27577600561597132 0 0.45165913482636821 -0.26068325523694041 0 0.42892204251950339 -0.2594807324876427 0 0.44743457629936911 -0.29125199491084608 0 0.45088585771739531 -0.31517042999936162 0 0.43686388954492023 -0.30206384222820981 0 0.45088585771739531 -0.31517042999936162 0 0.43602078127065758 -0.31524868357114688 0 0.43686388954492023 -0.30206384222820981 0 0.45931845050930209 -0.27772900618102819 0 0.44355941821905998 -0.27577600561597132 0 0.44743457629936911 -0.29125199491084608 0 0.44355941821905998 -0.27577600561597132 0 0.44743457629936911 -0.29125199491084608 0 0.42611848489587972 -0.28658767974219163 0 0.47605513413645029 -0.28008102786359129 0 0.45931845050930209 -0.27772900618102819 0 0.46516191830632447 -0.295844547827811 0 0.45931845050930209 -0.27772900618102819 0 0.44743457629936911 -0.29125199491084608 0 0.46516191830632447 -0.295844547827811 0 0.44743457629936911 -0.29125199491084608 0 0.46516191830632447 -0.295844547827811 0 0.45088585771739531 -0.31517042999936162 0 0.46516191830632447 -0.295844547827811 0 0.47218478901913252 -0.31616939882945228 0 0.45088585771739531 -0.31517042999936162 0 0.4860923945095682 -0.29520986964724988 0 0.47218478901913252 -0.31616939882945228 0 0.50000000000000222 -0.27425034046504659 0 0.4860923945095682 -0.29520986964724988 0 0.5 -0.307151228172029 0 0.46516191830632447 -0.295844547827811 0 0.4860923945095682 -0.29520986964724988 0 0.47218478901913252 -0.31616939882945228 0 0.47605513413645029 -0.28008102786359129 0 0.46516191830632447 -0.295844547827811 0 0.4860923945095682 -0.29520986964724988 0 0.50000000000000222 -0.27425034046504659 0 0.47605513413645029 -0.28008102786359129 0 0.4860923945095682 -0.29520986964724988 0 0.50000000000000222 -0.27425034046504659 0 0.4860923945095682 -0.29520986964724988 0 0.4860923945095682 -0.29520986964724988 0 0.5 -0.307151228172029 0 0.47218478901913252 -0.31616939882945228 0 0.5 -0.307151228172029 0 0.47500442815187882 -0.33618410333150461 0 0.5 -0.35237408365171952 0 0.5 -0.307151228172029 0 0.47500442815187882 -0.33618410333150461 0 0.47218478901913252 -0.31616939882945228 0 0.47500442815187882 -0.33618410333150461 0 0.5 -0.35237408365171952 0 0.46252966193221051 -0.36479181955861489 0 0.5 -0.35237408365171952 0 0.46252966193221051 -0.36479181955861489 0 0.4680243894331878 -0.39009447735167219 0 0.46252966193221051 -0.36479181955861489 0 0.44439653888602387 -0.37108278870097211 0 0.45518384933885458 -0.37953704158418422 0 0.46252966193221051 -0.36479181955861489 0 0.4490308344886651 -0.35295870566956811 0 0.45703493443123322 -0.33948916176555749 0 0.47500442815187882 -0.33618410333150461 0 0.46252966193221051 -0.36479181955861489 0 0.45703493443123322 -0.33948916176555749 0 0.46252966193221051 -0.36479181955861489 0 0.45703493443123322 -0.33948916176555749 0 0.4490308344886651 -0.35295870566956811 0 0.44439653888602387 -0.37108278870097211 0 0.43547581015886039 -0.35374612963373181 0 0.44432011104097457 -0.34600420025309703 0 0.4490308344886651 -0.35295870566956811 0 0.45042795048268808 -0.34263813410543531 0 0.4490308344886651 -0.35295870566956811 0 0.45703493443123322 -0.33948916176555749 0 0.45042795048268808 -0.34263813410543531 0 0.44432011104097457 -0.34600420025309703 0 0.4490308344886651 -0.35295870566956811 0 0.43547581015886039 -0.35374612963373181 0 0.44432011104097457 -0.34600420025309703 0 0.43877314986606192 -0.33818418946214152 0 0.43547581015886039 -0.35374612963373181 0 0.46252966193221051 -0.36479181955861489 0 0.4490308344886651 -0.35295870566956811 0 0.44439653888602387 -0.37108278870097211 0 0.47218478901913252 -0.31616939882945228 0 0.45845081404400378 -0.32484725803309861 0 0.45088585771739531 -0.31517042999936162 0 0.47218478901913252 -0.31616939882945228 0 0.45845081404400378 -0.32484725803309861 0 0.45827718352869679 -0.33712892801165451 0 0.47218478901913252 -0.31616939882945228 0 0.45827718352869679 -0.33712892801165451 0 0.45845081404400378 -0.32484725803309861 0 0.45465012105844921 -0.33200612518688721 0 0.44755831468875862 -0.32470483606049327 0 0.47500442815187882 -0.33618410333150461 0 0.45703493443123322 -0.33948916176555749 0 0.45827718352869679 -0.33712892801165451 0 0.47500442815187882 -0.33618410333150461 0 0.47218478901913252 -0.31616939882945228 0 0.45827718352869679 -0.33712892801165451 0 0.45703493443123322 -0.33948916176555749 0 0.4547926195999189 -0.33699511694280199 0 0.45042795048268808 -0.34263813410543531 0 0.45703493443123322 -0.33948916176555749 0 0.45827718352869679 -0.33712892801165451 0 0.4547926195999189 -0.33699511694280199 0 0.45845081404400378 -0.32484725803309861 0 0.45827718352869679 -0.33712892801165451 0 0.45465012105844921 -0.33200612518688721 0 0.4547926195999189 -0.33699511694280199 0 0.45465012105844921 -0.33200612518688721 0 0.45190540097192972 -0.33615439765103378 0 0.45827718352869679 -0.33712892801165451 0 0.4547926195999189 -0.33699511694280199 0 0.45465012105844921 -0.33200612518688721 0 0.45465012105844921 -0.33200612518688721 0 0.44749393872662357 -0.33307274595813069 0 0.44755831468875862 -0.32470483606049327 0 0.45465012105844921 -0.33200612518688721 0 0.44749393872662357 -0.33307274595813069 0 0.45190540097192972 -0.33615439765103378 0 0.4547926195999189 -0.33699511694280199 0 0.45042795048268808 -0.34263813410543531 0 0.45190540097192972 -0.33615439765103378 0 0.45042795048268808 -0.34263813410543531 0 0.45190540097192972 -0.33615439765103378 0 0.44691761172297523 -0.33872250108465612 0 0.44749393872662357 -0.33307274595813069 0 0.45190540097192972 -0.33615439765103378 0 0.44691761172297523 -0.33872250108465612 0 0.44432011104097457 -0.34600420025309703 0 0.45042795048268808 -0.34263813410543531 0 0.44691761172297523 -0.33872250108465612 0 0.44432011104097457 -0.34600420025309703 0 0.44691761172297523 -0.33872250108465612 0 0.43877314986606192 -0.33818418946214152 0 0.44749393872662357 -0.33307274595813069 0 0.44691761172297523 -0.33872250108465612 0 0.43877314986606192 -0.33818418946214152 0 0.44749393872662357 -0.33307274595813069 0 0.43877314986606192 -0.33818418946214152 0 0.43784837531542259 -0.32788377361433518 0 0.44749393872662357 -0.33307274595813069 0 0.43784837531542259 -0.32788377361433518 0 0.44755831468875862 -0.32470483606049327 0 0.43784837531542259 -0.32788377361433518 0 0.44755831468875862 -0.32470483606049327 0 0.43602078127065758 -0.31524868357114688 0 0.45845081404400378 -0.32484725803309861 0 0.44755831468875862 -0.32470483606049327 0 0.45088585771739531 -0.31517042999936162 0 0.44755831468875862 -0.32470483606049327 0 0.45088585771739531 -0.31517042999936162 0 0.43602078127065758 -0.31524868357114688 0 0.43784837531542259 -0.32788377361433518 0 0.42583518759170652 -0.33528639298719382 0 0.41775460495295358 -0.31793141321765611 0 0.43784837531542259 -0.32788377361433518 0 0.43602078127065758 -0.31524868357114688 0 0.41775460495295358 -0.31793141321765611 0 0.43877314986606192 -0.33818418946214152 0 0.43784837531542259 -0.32788377361433518 0 0.42583518759170652 -0.33528639298719382 0 0.43877314986606192 -0.33818418946214152 0 0.42583518759170652 -0.33528639298719382 0 0.43547581015886039 -0.35374612963373181 0 0.41250416259223432 -0.33960725990233392 0 0.41775460495295358 -0.31793141321765611 0 0.39805431729583179 -0.33510365622952631 0 0.41250416259223432 -0.33960725990233392 0 0.41775460495295358 -0.31793141321765611 0 0.42583518759170652 -0.33528639298719382 0 0.41250416259223432 -0.33960725990233392 0 0.41775460495295358 -0.31793141321765611 0 0.42583518759170652 -0.33528639298719382 0 0.41250416259223432 -0.33960725990233392 0 0.42034794007649889 -0.35298104146800569 0 0.43547581015886039 -0.35374612963373181 0 0.42034794007649889 -0.35298104146800569 0 0.42578668388574042 -0.37577956855813549 0 0.44439653888602387 -0.37108278870097211 0 0.43547581015886039 -0.35374612963373181 0 0.42578668388574042 -0.37577956855813549 0 0.42583518759170652 -0.33528639298719382 0 0.43547581015886039 -0.35374612963373181 0 0.42034794007649889 -0.35298104146800569 0 0.41250416259223432 -0.33960725990233392 0 0.42034794007649889 -0.35298104146800569 0 0.40725372023151529 -0.36128310658701179 0 0.41250416259223432 -0.33960725990233392 0 0.40725372023151529 -0.36128310658701179 0 0.40725372023151529 -0.36128310658701179 0 0.42578668388574042 -0.37577956855813549 0 0.40193856510946419 -0.3832261124550107 0 0.40725372023151529 -0.36128310658701179 0 0.42578668388574042 -0.37577956855813549 0 0.42034794007649889 -0.35298104146800569 0 0.40725372023151529 -0.36128310658701179 0 0.42578668388574042 -0.37577956855813549 0 0.40725372023151529 -0.36128310658701179 0 0.39425043507280438 -0.36432915978129837 0 0.40193856510946419 -0.3832261124550107 0 0.40725372023151529 -0.36128310658701179 0 0.40193856510946419 -0.3832261124550107 0 0.39425043507280438 -0.36432915978129837 0 0.38081427771294768 -0.36737052156009248 0 0.40193856510946419 -0.3832261124550107 0 0.40725372023151529 -0.36128310658701179 0 0.38699517723729038 -0.34543689852307891 0 0.39805431729583179 -0.33510365622952631 0 0.40725372023151529 -0.36128310658701179 0 0.39425043507280438 -0.36432915978129837 0 0.38699517723729038 -0.34543689852307891 0 0.40725372023151529 -0.36128310658701179 0 0.38699517723729038 -0.34543689852307891 0 0.41250416259223432 -0.33960725990233392 0 0.40725372023151529 -0.36128310658701179 0 0.39805431729583179 -0.33510365622952631 0 0.38699517723729038 -0.34543689852307891 0 0.38081427771294768 -0.36737052156009248 0 0.37640125955739012 -0.35149107478397351 0 0.38465179156333151 -0.34360390505586791 0 0.36805061276354478 -0.3427907498460791 0 0.39425043507280438 -0.36432915978129837 0 0.38699517723729038 -0.34543689852307891 0 0.38081427771294768 -0.36737052156009248 0 0.38699517723729038 -0.34543689852307891 0 0.37640125955739012 -0.35149107478397351 0 0.38081427771294768 -0.36737052156009248 0 0.38699517723729038 -0.34543689852307891 0 0.38465179156333151 -0.34360390505586791 0 0.38699517723729038 -0.34543689852307891 0 0.37640125955739012 -0.35149107478397351 0 0.38465179156333151 -0.34360390505586791 0 0.41775460495295358 -0.31793141321765611 0 0.39401776620237461 -0.32051644503610022 0 0.39805431729583179 -0.33510365622952631 0 0.38699517723729038 -0.34543689852307891 0 0.39401776620237461 -0.32051644503610022 0 0.39805431729583179 -0.33510365622952631 0 0.38699517723729038 -0.34543689852307891 0 0.39401776620237461 -0.32051644503610022 0 0.38465179156333151 -0.34360390505586791 0 0.37858644206980091 -0.32769985780377792 0 0.36805061276354478 -0.3427907498460791 0 0.38699517723729038 -0.34543689852307891 0 0.39401776620237461 -0.32051644503610022 0 0.38465179156333151 -0.34360390505586791 0 0.39401776620237461 -0.32051644503610022 0 0.38465179156333151 -0.34360390505586791 0 0.37858644206980091 -0.32769985780377792 0 0.39401776620237461 -0.32051644503610022 0 0.37858644206980091 -0.32769985780377792 0 0.37861767820969228 -0.30691821554646831 0 0.41775460495295358 -0.31793141321765611 0 0.39401776620237461 -0.32051644503610022 0 0.40104035516745928 -0.29559599154912142 0 0.39401776620237461 -0.32051644503610022 0 0.37861767820969228 -0.30691821554646831 0 0.40104035516745928 -0.29559599154912142 0 0.39401776620237461 -0.32051644503610022 0 0.40104035516745928 -0.29559599154912142 0 0.40104035516745928 -0.29559599154912142 0 0.38498320530945151 -0.287592927137584 0 0.39655653748852282 -0.27284147297554762 0 0.38498320530945151 -0.287592927137584 0 0.37764450162479901 -0.26965755496232408 0 0.36873774536035581 -0.28861226174546889 0 0.37861767820969228 -0.30691821554646831 0 0.40104035516745928 -0.29559599154912142 0 0.38498320530945151 -0.287592927137584 0 0.37861767820969228 -0.30691821554646831 0 0.38498320530945151 -0.287592927137584 0 0.36873774536035581 -0.28861226174546889 0 0.38498320530945151 -0.287592927137584 0 0.37764450162479901 -0.26965755496232408 0 0.39655653748852282 -0.27284147297554762 0 0.39206528024080278 -0.24921397013056479 0 0.37764450162479901 -0.26965755496232408 0 0.39655653748852282 -0.27284147297554762 0 0.39206528024080278 -0.24921397013056479 0 0.37764450162479901 -0.26965755496232408 0 0.37510228513818711 -0.25237727586059511 0 0.39206528024080278 -0.24921397013056479 0 0.39655653748852282 -0.27284147297554762 0 0.40884184876520419 -0.25890250189124958 0 0.40104035516745928 -0.29559599154912142 0 0.39655653748852282 -0.27284147297554762 0 0.4136044294752057 -0.2739163227279473 0 0.39655653748852282 -0.27284147297554762 0 0.4136044294752057 -0.2739163227279473 0 0.40884184876520419 -0.25890250189124958 0 0.4148006158986044 -0.24103970595398019 0 0.40884184876520419 -0.25890250189124958 0 0.42892204251950339 -0.2594807324876427 0 0.4136044294752057 -0.2739163227279473 0 0.40884184876520419 -0.25890250189124958 0 0.42892204251950339 -0.2594807324876427 0 0.4136044294752057 -0.2739163227279473 0 0.42892204251950339 -0.2594807324876427 0 0.42611848489587972 -0.28658767974219163 0 0.44355941821905998 -0.27577600561597132 0 0.42892204251950339 -0.2594807324876427 0 0.42611848489587972 -0.28658767974219163 0 0.44743457629936911 -0.29125199491084608 0 0.42611848489587972 -0.28658767974219163 0 0.43686388954492023 -0.30206384222820981 0 0.43602078127065758 -0.31524868357114688 0 0.41775460495295358 -0.31793141321765611 0 0.42179240152309172 -0.30222108271158582 0 0.42611848489587972 -0.28658767974219163 0 0.43686388954492023 -0.30206384222820981 0 0.42179240152309172 -0.30222108271158582 0 0.43602078127065758 -0.31524868357114688 0 0.43686388954492023 -0.30206384222820981 0 0.42179240152309172 -0.30222108271158582 0 0.41775460495295358 -0.31793141321765611 0 0.40104035516745928 -0.29559599154912142 0 0.42179240152309172 -0.30222108271158582 0 0.40104035516745928 -0.29559599154912142 0 0.4136044294752057 -0.2739163227279473 0 0.42611848489587972 -0.28658767974219163 0 0.40104035516745928 -0.29559599154912142 0 0.42611848489587972 -0.28658767974219163 0 0.42179240152309172 -0.30222108271158582 0 0.5 -0.5 0 0.478892924595126 -0.45923392689990328 0 0.5 -0.41454166856117469 0 0.5 -0.5 0 0.47943423265092072 -0.49342116463239621 0 0.40014079662082208 -0.5 0 0.43983937115661631 -0.46972557693384148 0 0.47943423265092072 -0.49342116463239621 0 0.40014079662082208 -0.5 0 0.43983937115661631 -0.46972557693384148 0 0.46715606132834708 -0.47012790102379598 0 0.47943423265092072 -0.49342116463239621 0 0.5 -0.5 0 0.47943423265092072 -0.49342116463239621 0 0.478892924595126 -0.45923392689990328 0 0.46715606132834708 -0.47012790102379598 0 0.47943423265092072 -0.49342116463239621 0 0.478892924595126 -0.45923392689990328 0 0.46715606132834708 -0.47012790102379598 0 0.47943423265092072 -0.49342116463239621 0 0.478892924595126 -0.45923392689990328 0 0.45487789000577361 -0.44683463741519602 0 0.47188936358571532 -0.4304781897668572 0 0.46715606132834708 -0.47012790102379598 0 0.45487789000577361 -0.44683463741519602 0 0.46715606132834708 -0.47012790102379598 0 0.478892924595126 -0.45923392689990328 0 0.45487789000577361 -0.44683463741519602 0 0.43983937115661631 -0.46972557693384148 0 0.46715606132834708 -0.47012790102379598 0 0.45487789000577361 -0.44683463741519602 0 0.43983937115661631 -0.46972557693384148 0 0.45487789000577361 -0.44683463741519602 0 0.43095981599733307 -0.44753658110846528 0 0.45487789000577361 -0.44683463741519602 0 0.43408281430989271 -0.43319973453275151 0 0.43095981599733307 -0.44753658110846528 0 0.45487789000577361 -0.44683463741519602 0 0.44259971868320003 -0.42354137380659601 0 0.45487789000577361 -0.44683463741519602 0 0.44259971868320003 -0.42354137380659601 0 0.43408281430989271 -0.43319973453275151 0 0.45487789000577361 -0.44683463741519602 0 0.44259971868320003 -0.42354137380659601 0 0.45959372781066021 -0.42263882295877442 0 0.44259971868320003 -0.42354137380659601 0 0.45186952978880229 -0.40983589673226128 0 0.45959372781066021 -0.42263882295877442 0 0.44259971868320003 -0.42354137380659601 0 0.45186952978880229 -0.40983589673226128 0 0.44161148704613862 -0.40579593671517361 0 0.44259971868320003 -0.42354137380659601 0 0.44161148704613862 -0.40579593671517361 0 0.43098246877755192 -0.41858878846052949 0 0.45186952978880229 -0.40983589673226128 0 0.45959372781066021 -0.42263882295877442 0 0.46285261119418991 -0.40477249250038388 0 0.45959372781066021 -0.42263882295877442 0 0.4735191169341651 -0.41539713514472942 0 0.46285261119418991 -0.40477249250038388 0 0.45959372781066021 -0.42263882295877442 0 0.47188936358571532 -0.4304781897668572 0 0.4735191169341651 -0.41539713514472942 0 0.45487789000577361 -0.44683463741519602 0 0.45959372781066021 -0.42263882295877442 0 0.47188936358571532 -0.4304781897668572 0 0.5 -0.41454166856117469 0 0.4735191169341651 -0.41539713514472942 0 0.4680243894331878 -0.39009447735167219 0 0.478892924595126 -0.45923392689990328 0 0.47188936358571532 -0.4304781897668572 0 0.5 -0.41454166856117469 0 0.47188936358571532 -0.4304781897668572 0 0.5 -0.41454166856117469 0 0.4735191169341651 -0.41539713514472942 0 0.5 -0.35237408365171952 0 0.5 -0.41454166856117469 0 0.4680243894331878 -0.39009447735167219 0 0.4735191169341651 -0.41539713514472942 0 0.4680243894331878 -0.39009447735167219 0 0.46252966193221051 -0.36479181955861489 0 0.45518384933885458 -0.37953704158418422 0 0.4680243894331878 -0.39009447735167219 0 0.45518384933885458 -0.37953704158418422 0 0.4680243894331878 -0.39009447735167219 0 0.44431964753996511 -0.39027603052925969 0 0.46252966193221051 -0.36479181955861489 0 0.4680243894331878 -0.39009447735167219 0 0.4735191169341651 -0.41539713514472942 0 0.4680243894331878 -0.39009447735167219 0 0.46285261119418991 -0.40477249250038388 0 0.4680243894331878 -0.39009447735167219 0 0.46285261119418991 -0.40477249250038388 0 0.44431964753996511 -0.39027603052925969 0 0.46285261119418991 -0.40477249250038388 0 0.44431964753996511 -0.39027603052925969 0 0.45186952978880229 -0.40983589673226128 0 0.44161148704613862 -0.40579593671517361 0 0.44431964753996511 -0.39027603052925969 0 0.45186952978880229 -0.40983589673226128 0 0.46285261119418991 -0.40477249250038388 0 0.44431964753996511 -0.39027603052925969 0 0.44439653888602387 -0.37108278870097211 0 0.44431964753996511 -0.39027603052925969 0 0.42578668388574042 -0.37577956855813549 0 0.44439653888602387 -0.37108278870097211 0 0.45518384933885458 -0.37953704158418422 0 0.44431964753996511 -0.39027603052925969 0 0.44431964753996511 -0.39027603052925969 0 0.42578668388574042 -0.37577956855813549 0 0.42627525148907153 -0.39512359141131242 0 0.44431964753996511 -0.39027603052925969 0 0.42578668388574042 -0.37577956855813549 0 0.44161148704613862 -0.40579593671517361 0 0.44431964753996511 -0.39027603052925969 0 0.42627525148907153 -0.39512359141131242 0 0.44161148704613862 -0.40579593671517361 0 0.42627525148907153 -0.39512359141131242 0 0.41380476734409732 -0.40903711363024231 0 0.41288573556315727 -0.39366710087554208 0 0.39662340998741341 -0.40516911832300972 0 0.41380476734409732 -0.40903711363024231 0 0.42627525148907153 -0.39512359141131242 0 0.41288573556315727 -0.39366710087554208 0 0.41380476734409732 -0.40903711363024231 0 0.42578668388574042 -0.37577956855813549 0 0.41288573556315727 -0.39366710087554208 0 0.40193856510946419 -0.3832261124550107 0 0.42578668388574042 -0.37577956855813549 0 0.42627525148907153 -0.39512359141131242 0 0.41288573556315727 -0.39366710087554208 0 0.38081427771294768 -0.36737052156009248 0 0.37463337818860382 -0.38930414459710588 0 0.3737028077843495 -0.38742295831448542 0 0.38081427771294768 -0.36737052156009248 0 0.38897026210220897 -0.39170162293651239 0 0.37463337818860382 -0.38930414459710588 0 0.38081427771294768 -0.36737052156009248 0 0.37463337818860382 -0.38930414459710588 0 0.38081427771294768 -0.36737052156009248 0 0.40193856510946419 -0.3832261124550107 0 0.38897026210220897 -0.39170162293651239 0 0.38599804764205609 -0.41227829054531151 0 0.37463337818860382 -0.38930414459710588 0 0.38897026210220897 -0.39170162293651239 0 0.39662340998741341 -0.40516911832300972 0 0.38599804764205609 -0.41227829054531151 0 0.38599804764205609 -0.41227829054531151 0 0.36755341006792419 -0.41442821452601158 0 0.37463337818860382 -0.38930414459710588 0 0.38897026210220897 -0.39170162293651239 0 0.38599804764205609 -0.41227829054531151 0 0.37463337818860382 -0.38930414459710588 0 0.40193856510946419 -0.3832261124550107 0 0.38897026210220897 -0.39170162293651239 0 0.39662340998741341 -0.40516911832300972 0 0.41288573556315727 -0.39366710087554208 0 0.40193856510946419 -0.3832261124550107 0 0.39662340998741341 -0.40516911832300972 0 0.40193856510946419 -0.3832261124550107 0 0.39662340998741341 -0.40516911832300972 0 0.38599804764205609 -0.41227829054531151 0 0.41380476734409732 -0.40903711363024231 0 0.39662340998741341 -0.40516911832300972 0 0.38599804764205609 -0.41227829054531151 0 0.41380476734409732 -0.40903711363024231 0 0.40147331832312588 -0.42054231308375889 0 0.38599804764205609 -0.41227829054531151 0 0.41380476734409732 -0.40903711363024231 0 0.38599804764205609 -0.41227829054531151 0 0.36755341006792419 -0.41442821452601158 0 0.38599804764205609 -0.41227829054531151 0 0.37837193070639508 -0.43074191130029282 0 0.36755341006792419 -0.41442821452601158 0 0.38599804764205609 -0.41227829054531151 0 0.37837193070639508 -0.43074191130029282 0 0.39716653888589531 -0.43485585418744782 0 0.37837193070639508 -0.43074191130029282 0 0.39716653888589531 -0.43485585418744782 0 0.38455236834147782 -0.44235831893697952 0 0.38599804764205609 -0.41227829054531151 0 0.39716653888589531 -0.43485585418744782 0 0.40147331832312588 -0.42054231308375889 0 0.38599804764205609 -0.41227829054531151 0 0.39716653888589531 -0.43485585418744782 0 0.40147331832312588 -0.42054231308375889 0 0.39716653888589531 -0.43485585418744782 0 0.40988830344794153 -0.42850982814637428 0 0.39716653888589531 -0.43485585418744782 0 0.40988830344794153 -0.42850982814637428 0 0.41424956646142452 -0.44145335337101582 0 0.40988830344794153 -0.42850982814637428 0 0.42255857874347952 -0.42798536962106742 0 0.41424956646142452 -0.44145335337101582 0 0.40147331832312588 -0.42054231308375889 0 0.40988830344794153 -0.42850982814637428 0 0.41380476734409732 -0.40903711363024231 0 0.40988830344794153 -0.42850982814637428 0 0.41380476734409732 -0.40903711363024231 0 0.42255857874347952 -0.42798536962106742 0 0.44161148704613862 -0.40579593671517361 0 0.41380476734409732 -0.40903711363024231 0 0.43098246877755192 -0.41858878846052949 0 0.44161148704613862 -0.40579593671517361 0 0.41380476734409732 -0.40903711363024231 0 0.41380476734409732 -0.40903711363024231 0 0.43098246877755192 -0.41858878846052949 0 0.42255857874347952 -0.42798536962106742 0 0.43408281430989271 -0.43319973453275151 0 0.42255857874347952 -0.42798536962106742 0 0.43095981599733307 -0.44753658110846528 0 0.44259971868320003 -0.42354137380659601 0 0.43098246877755192 -0.41858878846052949 0 0.43408281430989271 -0.43319973453275151 0 0.43098246877755192 -0.41858878846052949 0 0.43408281430989271 -0.43319973453275151 0 0.42255857874347952 -0.42798536962106742 0 0.42255857874347952 -0.42798536962106742 0 0.43095981599733307 -0.44753658110846528 0 0.41424956646142452 -0.44145335337101582 0 0.43983937115661631 -0.46972557693384148 0 0.42706067288056998 -0.45966910190407051 0 0.41707216494033877 -0.46659444091922031 0 0.43983937115661631 -0.46972557693384148 0 0.43095981599733307 -0.44753658110846528 0 0.42706067288056998 -0.45966910190407051 0 0.43095981599733307 -0.44753658110846528 0 0.42706067288056998 -0.45966910190407051 0 0.42037133942799187 -0.45481980865475502 0 0.42037133942799187 -0.45481980865475502 0 0.41707216494033877 -0.46659444091922031 0 0.40833503012973449 -0.45743341782958391 0 0.42706067288056998 -0.45966910190407051 0 0.42037133942799187 -0.45481980865475502 0 0.41707216494033877 -0.46659444091922031 0 0.41707216494033877 -0.46659444091922031 0 0.40833503012973449 -0.45743341782958391 0 0.39424227281986102 -0.46676003377889269 0 0.43095981599733307 -0.44753658110846528 0 0.42037133942799187 -0.45481980865475502 0 0.41424956646142452 -0.44145335337101582 0 0.42037133942799187 -0.45481980865475502 0 0.40833503012973449 -0.45743341782958391 0 0.41424956646142452 -0.44145335337101582 0 0.39716653888589531 -0.43485585418744782 0 0.40833503012973449 -0.45743341782958391 0 0.41424956646142452 -0.44145335337101582 0 0.39716653888589531 -0.43485585418744782 0 0.39345157537004599 -0.45057062730194619 0 0.38455236834147782 -0.44235831893697952 0 0.39716653888589531 -0.43485585418744782 0 0.40833503012973449 -0.45743341782958391 0 0.39345157537004599 -0.45057062730194619 0 0.39716653888589531 -0.43485585418744782 0 0.40833503012973449 -0.45743341782958391 0 0.39345157537004599 -0.45057062730194619 0 0.38455236834147782 -0.44235831893697952 0 0.38182359321740972 -0.45292134106576409 0 0.38455236834147782 -0.44235831893697952 0 0.38182359321740972 -0.45292134106576409 0 0.37194820352764257 -0.4427018608294464 0 0.37837193070639508 -0.43074191130029282 0 0.38455236834147782 -0.44235831893697952 0 0.37194820352764257 -0.4427018608294464 0 0.38182359321740972 -0.45292134106576409 0 0.39424227281986102 -0.46676003377889269 0 0.37141238069938332 -0.46692562663856529 0 0.39345157537004599 -0.45057062730194619 0 0.38182359321740972 -0.45292134106576409 0 0.39424227281986102 -0.46676003377889269 0 0.39424227281986102 -0.46676003377889269 0 0.37141238069938332 -0.46692562663856529 0 0.40833503012973449 -0.45743341782958391 0 0.39345157537004599 -0.45057062730194619 0 0.39424227281986102 -0.46676003377889269 0 0.41707216494033877 -0.46659444091922031 0 0.39424227281986102 -0.46676003377889269 0 0.41707216494033877 -0.46659444091922031 0 0.39424227281986102 -0.46676003377889269 0 0.40014079662082208 -0.5 0 0.39424227281986102 -0.46676003377889269 0 0.40014079662082208 -0.5 0 0.37141238069938332 -0.46692562663856529 0 0.43983937115661631 -0.46972557693384148 0 0.41707216494033877 -0.46659444091922031 0 0.40014079662082208 -0.5 0 0.40014079662082208 -0.5 0 0.32546065004022617 -0.5 0 0.3462765218470546 -0.48033279556006703 0 0.32546065004022617 -0.5 0 0.3462765218470546 -0.48033279556006703 0 0.30631021868456298 -0.48072311486568892 0 0.3462765218470546 -0.48033279556006703 0 0.32575259645842791 -0.46725681235791028 0 0.30631021868456298 -0.48072311486568892 0 0.3462765218470546 -0.48033279556006703 0 0.3485824885789055 -0.46709121949823779 0 0.32575259645842791 -0.46725681235791028 0 0.40014079662082208 -0.5 0 0.3462765218470546 -0.48033279556006703 0 0.37141238069938332 -0.46692562663856529 0 0.3462765218470546 -0.48033279556006703 0 0.3485824885789055 -0.46709121949823779 0 0.37141238069938332 -0.46692562663856529 0 0.3485824885789055 -0.46709121949823779 0 0.37141238069938332 -0.46692562663856529 0 0.35324569388809701 -0.44989359131069062 0 0.3485824885789055 -0.46709121949823779 0 0.35324569388809701 -0.44989359131069062 0 0.33806214337105372 -0.45777686618061397 0 0.38182359321740972 -0.45292134106576409 0 0.37141238069938332 -0.46692562663856529 0 0.35324569388809701 -0.44989359131069062 0 0.3485824885789055 -0.46709121949823779 0 0.37141238069938332 -0.46692562663856529 0 0.36060935802898147 -0.43906997082244181 0 0.37194820352764257 -0.4427018608294464 0 0.35324569388809701 -0.44989359131069062 0 0.38182359321740972 -0.45292134106576409 0 0.35324569388809701 -0.44989359131069062 0 0.37837193070639508 -0.43074191130029282 0 0.36060935802898147 -0.43906997082244181 0 0.37194820352764257 -0.4427018608294464 0 0.38182359321740972 -0.45292134106576409 0 0.37194820352764257 -0.4427018608294464 0 0.35324569388809701 -0.44989359131069062 0 0.36060935802898147 -0.43906997082244181 0 0.35324569388809701 -0.44989359131069062 0 0.34315104194743368 -0.43483422324315929 0 0.32466779455878442 -0.44686584155561709 0 0.32761501992215097 -0.43116249501185328 0 0.34315104194743368 -0.43483422324315929 0 0.35324569388809701 -0.44989359131069062 0 0.33806214337105372 -0.45777686618061397 0 0.32466779455878442 -0.44686584155561709 0 0.35324569388809701 -0.44989359131069062 0 0.32466779455878442 -0.44686584155561709 0 0.34315104194743368 -0.43483422324315929 0 0.35324569388809701 -0.44989359131069062 0 0.32466779455878442 -0.44686584155561709 0 0.3485824885789055 -0.46709121949823779 0 0.32575259645842791 -0.46725681235791028 0 0.3485824885789055 -0.46709121949823779 0 0.33806214337105372 -0.45777686618061397 0 0.32575259645842791 -0.46725681235791028 0 0.33806214337105372 -0.45777686618061397 0 0.32575259645842791 -0.46725681235791028 0 0.32466779455878442 -0.44686584155561709 0 0.32575259645842791 -0.46725681235791028 0 0.30904716904302271 -0.45792120175055678 0 0.30631021868456298 -0.48072311486568892 0 0.32575259645842791 -0.46725681235791028 0 0.32466779455878442 -0.44686584155561709 0 0.30904716904302271 -0.45792120175055678 0 0.32466779455878442 -0.44686584155561709 0 0.31800868577585262 -0.43516031519895321 0 0.30735360635596409 -0.43632211706289747 0 0.32466779455878442 -0.44686584155561709 0 0.32761501992215097 -0.43116249501185328 0 0.31800868577585262 -0.43516031519895321 0 0.32761501992215097 -0.43116249501185328 0 0.32339131420283213 -0.41656724990055422 0 0.31239832226651099 -0.42629080716544471 0 0.32761501992215097 -0.43116249501185328 0 0.31800868577585262 -0.43516031519895321 0 0.31239832226651099 -0.42629080716544471 0 0.31800868577585262 -0.43516031519895321 0 0.31239832226651099 -0.42629080716544471 0 0.30735360635596409 -0.43632211706289747 0 0.32339131420283213 -0.41656724990055422 0 0.31120060169272079 -0.4133373498197 0 0.31239832226651099 -0.42629080716544471 0 0.32339131420283213 -0.41656724990055422 0 0.319673984964159 -0.40346676889879052 0 0.31120060169272079 -0.4133373498197 0 0.319673984964159 -0.40346676889879052 0 0.30884060304287331 -0.40229515593698711 0 0.31120060169272079 -0.4133373498197 0 0.32339131420283213 -0.41656724990055422 0 0.33281994217864741 -0.40778505865636938 0 0.319673984964159 -0.40346676889879052 0 0.32761501992215097 -0.43116249501185328 0 0.32339131420283213 -0.41656724990055422 0 0.33796042338316851 -0.41787760036937549 0 0.32339131420283213 -0.41656724990055422 0 0.33281994217864741 -0.40778505865636938 0 0.33796042338316851 -0.41787760036937549 0 0.33281994217864741 -0.40778505865636938 0 0.33796042338316851 -0.41787760036937549 0 0.34601675315157321 -0.40486547886918423 0 0.32761501992215097 -0.43116249501185328 0 0.33796042338316851 -0.41787760036937549 0 0.34315104194743368 -0.43483422324315929 0 0.33796042338316851 -0.41787760036937549 0 0.34315104194743368 -0.43483422324315929 0 0.35231855835687692 -0.42655250224024699 0 0.36060935802898147 -0.43906997082244181 0 0.34315104194743368 -0.43483422324315929 0 0.35231855835687692 -0.42655250224024699 0 0.37837193070639508 -0.43074191130029282 0 0.36060935802898147 -0.43906997082244181 0 0.36755341006792419 -0.41442821452601158 0 0.36060935802898147 -0.43906997082244181 0 0.35231855835687692 -0.42655250224024699 0 0.36755341006792419 -0.41442821452601158 0 0.36060935802898147 -0.43906997082244181 0 0.36755341006792419 -0.41442821452601158 0 0.33796042338316851 -0.41787760036937549 0 0.35231855835687692 -0.42655250224024699 0 0.36755341006792419 -0.41442821452601158 0 0.33796042338316851 -0.41787760036937549 0 0.36755341006792419 -0.41442821452601158 0 0.34601675315157321 -0.40486547886918423 0 0.33796042338316851 -0.41787760036937549 0 0.36755341006792419 -0.41442821452601158 0 0.36755341006792419 -0.41442821452601158 0 0.34601675315157321 -0.40486547886918423 0 0.35566250251704978 -0.3975177511027051 0 0.34601675315157321 -0.40486547886918423 0 0.34667365318154342 -0.39629832909528578 0 0.35566250251704978 -0.3975177511027051 0 0.34667365318154342 -0.39629832909528578 0 0.34795812186604658 -0.38666189116531141 0 0.33705723519150399 -0.3961481952439429 0 0.34667365318154342 -0.39629832909528578 0 0.35566250251704978 -0.3975177511027051 0 0.34795812186604658 -0.38666189116531141 0 0.36755341006792419 -0.41442821452601158 0 0.35566250251704978 -0.3975177511027051 0 0.36706103815962848 -0.39187921332532882 0 0.36755341006792419 -0.41442821452601158 0 0.37463337818860382 -0.38930414459710588 0 0.36755341006792419 -0.41442821452601158 0 0.36706103815962848 -0.39187921332532882 0 0.37463337818860382 -0.38930414459710588 0 0.35566250251704978 -0.3975177511027051 0 0.36706103815962848 -0.39187921332532882 0 0.35924801608749379 -0.38543857686598643 0 0.38081427771294768 -0.36737052156009248 0 0.36848073339739068 -0.37517807712711049 0 0.3737028077843495 -0.38742295831448542 0 0.36848073339739068 -0.37517807712711049 0 0.3737028077843495 -0.38742295831448542 0 0.36599997940964812 -0.38379980358563692 0 0.36706103815962848 -0.39187921332532882 0 0.3737028077843495 -0.38742295831448542 0 0.36599997940964812 -0.38379980358563692 0 0.36706103815962848 -0.39187921332532882 0 0.37463337818860382 -0.38930414459710588 0 0.3737028077843495 -0.38742295831448542 0 0.37463337818860382 -0.38930414459710588 0 0.3737028077843495 -0.38742295831448542 0 0.36706103815962848 -0.39187921332532882 0 0.36599997940964812 -0.38379980358563692 0 0.35924801608749379 -0.38543857686598643 0 0.36599997940964812 -0.38379980358563692 0 0.36207090148421361 -0.37959838259465167 0 0.35924801608749379 -0.38543857686598643 0 0.36848073339739068 -0.37517807712711049 0 0.36599997940964812 -0.38379980358563692 0 0.36207090148421361 -0.37959838259465167 0 0.36848073339739068 -0.37517807712711049 0 0.36207090148421361 -0.37959838259465167 0 0.3554566368260581 -0.37480617727887811 0 0.36207090148421361 -0.37959838259465167 0 0.35924801608749379 -0.38543857686598643 0 0.3554566368260581 -0.37480617727887811 0 0.35924801608749379 -0.38543857686598643 0 0.34795812186604658 -0.38666189116531141 0 0.3554566368260581 -0.37480617727887811 0 0.35566250251704978 -0.3975177511027051 0 0.35924801608749379 -0.38543857686598643 0 0.34795812186604658 -0.38666189116531141 0 0.34795812186604658 -0.38666189116531141 0 0.34537995690420659 -0.3737828605913362 0 0.3554566368260581 -0.37480617727887811 0 0.34795812186604658 -0.38666189116531141 0 0.33323562740676532 -0.37769939737979058 0 0.34537995690420659 -0.3737828605913362 0 0.34795812186604658 -0.38666189116531141 0 0.33323562740676532 -0.37769939737979058 0 0.33705723519150399 -0.3961481952439429 0 0.33323562740676532 -0.37769939737979058 0 0.33705723519150399 -0.3961481952439429 0 0.319673984964159 -0.40346676889879052 0 0.33281994217864741 -0.40778505865636938 0 0.33705723519150399 -0.3961481952439429 0 0.319673984964159 -0.40346676889879052 0 0.33281994217864741 -0.40778505865636938 0 0.34601675315157321 -0.40486547886918423 0 0.33705723519150399 -0.3961481952439429 0 0.34601675315157321 -0.40486547886918423 0 0.34667365318154342 -0.39629832909528578 0 0.33705723519150399 -0.3961481952439429 0 0.33323562740676532 -0.37769939737979058 0 0.319673984964159 -0.40346676889879052 0 0.31422368515007948 -0.393427126581603 0 0.319673984964159 -0.40346676889879052 0 0.31422368515007948 -0.393427126581603 0 0.30884060304287331 -0.40229515593698711 0 0.33323562740676532 -0.37769939737979058 0 0.319673984964159 -0.40346676889879052 0 0.31422368515007948 -0.393427126581603 0 0.30591552541026101 -0.37751124227982003 0 0.32002671755222051 -0.36641101040373808 0 0.33323562740676532 -0.37769939737979058 0 0.31422368515007948 -0.393427126581603 0 0.32002671755222051 -0.36641101040373808 0 0.31422368515007948 -0.393427126581603 0 0.32002671755222051 -0.36641101040373808 0 0.30591552541026101 -0.37751124227982003 0 0.29934269892459558 -0.39453707190143028 0 0.28871394442674109 -0.38265385864092483 0 0.31422368515007948 -0.393427126581603 0 0.30591552541026101 -0.37751124227982003 0 0.29934269892459558 -0.39453707190143028 0 0.31422368515007948 -0.393427126581603 0 0.30884060304287331 -0.40229515593698711 0 0.29934269892459558 -0.39453707190143028 0 0.30884060304287331 -0.40229515593698711 0 0.29934269892459558 -0.39453707190143028 0 0.29896657827583012 -0.40866065312134409 0 0.28871394442674109 -0.38265385864092483 0 0.27786210523133942 -0.40981541802129928 0 0.29934269892459558 -0.39453707190143028 0 0.27786210523133942 -0.40981541802129928 0 0.29896657827583012 -0.40866065312134409 0 0.29934269892459558 -0.39453707190143028 0 0.28871394442674109 -0.38265385864092483 0 0.27786210523133942 -0.40981541802129928 0 0.28871394442674109 -0.38265385864092483 0 0.26416245427686541 -0.38049931320234009 0 0.26125098829365018 -0.39969694482297641 0 0.28871394442674109 -0.38265385864092483 0 0.26416245427686541 -0.38049931320234009 0 0.27571190406721402 -0.36345127203525351 0 0.26416245427686541 -0.38049931320234009 0 0.24971336314328341 -0.36520417674804972 0 0.24502858373403441 -0.39146921073642488 0 0.26416245427686541 -0.38049931320234009 0 0.26125098829365018 -0.39969694482297641 0 0.24502858373403441 -0.39146921073642488 0 0.28871394442674109 -0.38265385864092483 0 0.26125098829365018 -0.39969694482297641 0 0.27786210523133942 -0.40981541802129928 0 0.26125098829365018 -0.39969694482297641 0 0.25610826383841628 -0.42120346698794331 0 0.2333640889907381 -0.41241884790723538 0 0.26125098829365018 -0.39969694482297641 0 0.27786210523133942 -0.40981541802129928 0 0.25610826383841628 -0.42120346698794331 0 0.25610826383841628 -0.42120346698794331 0 0.26701026603593758 -0.43697697740167368 0 0.2518592606704963 -0.43815060111373921 0 0.27786210523133942 -0.40981541802129928 0 0.26701026603593758 -0.43697697740167368 0 0.28078102790119369 -0.4274552938509788 0 0.27786210523133942 -0.40981541802129928 0 0.26701026603593758 -0.43697697740167368 0 0.27786210523133942 -0.40981541802129928 0 0.25610826383841628 -0.42120346698794331 0 0.26701026603593758 -0.43697697740167368 0 0.26701026603593758 -0.43697697740167368 0 0.28078102790119369 -0.4274552938509788 0 0.27712236562531017 -0.4375193999175232 0 0.28078102790119369 -0.4274552938509788 0 0.28865243891263809 -0.43215364344327012 0 0.27712236562531017 -0.4375193999175232 0 0.28865243891263809 -0.43215364344327012 0 0.28959476197880307 -0.44168956347039928 0 0.27712236562531017 -0.4375193999175232 0 0.28865243891263809 -0.43215364344327012 0 0.29503220707493127 -0.43614369036708622 0 0.29829711678041942 -0.42866378264525379 0 0.28865243891263809 -0.43215364344327012 0 0.29503220707493127 -0.43614369036708622 0 0.28959476197880307 -0.44168956347039928 0 0.28865243891263809 -0.43215364344327012 0 0.29108715411517122 -0.42145013040837909 0 0.29829711678041942 -0.42866378264525379 0 0.28078102790119369 -0.4274552938509788 0 0.28865243891263809 -0.43215364344327012 0 0.29108715411517122 -0.42145013040837909 0 0.27786210523133942 -0.40981541802129928 0 0.28078102790119369 -0.4274552938509788 0 0.29108715411517122 -0.42145013040837909 0 0.27786210523133942 -0.40981541802129928 0 0.29108715411517122 -0.42145013040837909 0 0.29896657827583012 -0.40866065312134409 0 0.29108715411517122 -0.42145013040837909 0 0.30377653118007591 -0.4205559058691733 0 0.29896657827583012 -0.40866065312134409 0 0.30377653118007591 -0.4205559058691733 0 0.29896657827583012 -0.40866065312134409 0 0.31120060169272079 -0.4133373498197 0 0.30884060304287331 -0.40229515593698711 0 0.29896657827583012 -0.40866065312134409 0 0.31120060169272079 -0.4133373498197 0 0.30377653118007591 -0.4205559058691733 0 0.31120060169272079 -0.4133373498197 0 0.31239832226651099 -0.42629080716544471 0 0.30377653118007591 -0.4205559058691733 0 0.31239832226651099 -0.42629080716544471 0 0.29829711678041942 -0.42866378264525379 0 0.31239832226651099 -0.42629080716544471 0 0.30735360635596409 -0.43632211706289747 0 0.29829711678041942 -0.42866378264525379 0 0.29503220707493127 -0.43614369036708622 0 0.30735360635596409 -0.43632211706289747 0 0.29829711678041942 -0.42866378264525379 0 0.29108715411517122 -0.42145013040837909 0 0.30377653118007591 -0.4205559058691733 0 0.29829711678041942 -0.42866378264525379 0 0.32466779455878442 -0.44686584155561709 0 0.30904716904302271 -0.45792120175055678 0 0.29608989522947149 -0.44383809180054362 0 0.32466779455878442 -0.44686584155561709 0 0.29608989522947149 -0.44383809180054362 0 0.32466779455878442 -0.44686584155561709 0 0.30735360635596409 -0.43632211706289747 0 0.29608989522947149 -0.44383809180054362 0 0.30904716904302271 -0.45792120175055678 0 0.29860320416278402 -0.45529674645956592 0 0.29608989522947149 -0.44383809180054362 0 0.29503220707493127 -0.43614369036708622 0 0.30735360635596409 -0.43632211706289747 0 0.29608989522947149 -0.44383809180054362 0 0.30904716904302271 -0.45792120175055678 0 0.29721119201091789 -0.46522563712477349 0 0.30631021868456298 -0.48072311486568892 0 0.30904716904302271 -0.45792120175055678 0 0.29721119201091789 -0.46522563712477349 0 0.29860320416278402 -0.45529674645956592 0 0.28932919617959602 -0.45338424297023883 0 0.27756010650442758 -0.45518222858252849 0 0.28072062580449653 -0.47155582870540619 0 0.29721119201091789 -0.46522563712477349 0 0.28932919617959602 -0.45338424297023883 0 0.28072062580449653 -0.47155582870540619 0 0.29721119201091789 -0.46522563712477349 0 0.29860320416278402 -0.45529674645956592 0 0.28932919617959602 -0.45338424297023883 0 0.28932919617959602 -0.45338424297023883 0 0.28959476197880307 -0.44168956347039928 0 0.27756010650442758 -0.45518222858252849 0 0.29860320416278402 -0.45529674645956592 0 0.28932919617959602 -0.45338424297023883 0 0.29608989522947149 -0.44383809180054362 0 0.28932919617959602 -0.45338424297023883 0 0.29608989522947149 -0.44383809180054362 0 0.28959476197880307 -0.44168956347039928 0 0.29503220707493127 -0.43614369036708622 0 0.29608989522947149 -0.44383809180054362 0 0.28959476197880307 -0.44168956347039928 0 0.28959476197880307 -0.44168956347039928 0 0.26138620688844749 -0.44792543592233808 0 0.26701026603593758 -0.43697697740167368 0 0.27712236562531017 -0.4375193999175232 0 0.26138620688844749 -0.44792543592233808 0 0.28959476197880307 -0.44168956347039928 0 0.26138620688844749 -0.44792543592233808 0 0.27756010650442758 -0.45518222858252849 0 0.28959476197880307 -0.44168956347039928 0 0.27712236562531017 -0.4375193999175232 0 0.26138620688844749 -0.44792543592233808 0 0.26701026603593758 -0.43697697740167368 0 0.26138620688844749 -0.44792543592233808 0 0.2518592606704963 -0.43815060111373921 0 0.26138620688844749 -0.44792543592233808 0 0.26339579246569877 -0.46312143350125029 0 0.23317765179809191 -0.45416130837427687 0 0.26138620688844749 -0.44792543592233808 0 0.26339579246569877 -0.46312143350125029 0 0.27756010650442758 -0.45518222858252849 0 0.26339579246569877 -0.46312143350125029 0 0.27756010650442758 -0.45518222858252849 0 0.28072062580449653 -0.47155582870540619 0 0.28072062580449653 -0.47155582870540619 0 0.2532296876789632 -0.47497352743918242 0 0.27004646425256568 -0.5 0 0.26339579246569877 -0.46312143350125029 0 0.28072062580449653 -0.47155582870540619 0 0.2532296876789632 -0.47497352743918242 0 0.32546065004022617 -0.5 0 0.27004646425256568 -0.5 0 0.30631021868456298 -0.48072311486568892 0 0.28072062580449653 -0.47155582870540619 0 0.27004646425256568 -0.5 0 0.30631021868456298 -0.48072311486568892 0 0.29721119201091789 -0.46522563712477349 0 0.28072062580449653 -0.47155582870540619 0 0.30631021868456298 -0.48072311486568892 0 0.33743581475864359 -0.28536266187014298 0 0.3388307833371127 -0.27886836189579028 0 0.34706744656536048 -0.28007479224216619 0 0.33743581475864359 -0.28536266187014298 0 0.3388307833371127 -0.27886836189579028 0 0.33743581475864359 -0.28536266187014298 0 0.33163278235650262 -0.31237877804800812 0 0.33743581475864359 -0.28536266187014298 0 0.33163278235650262 -0.31237877804800812 0 0.34308905326158867 -0.30070827197480321 0 0.33743581475864359 -0.28536266187014298 0 0.33163278235650262 -0.31237877804800812 0 0.32364365619397351 -0.29600562892690968 0 0.33163278235650262 -0.31237877804800812 0 0.32364365619397351 -0.29600562892690968 0 0.30954970221622308 -0.30462347215273478 0 0.31296692944630888 -0.29314018565426941 0 0.32364365619397351 -0.29600562892690968 0 0.30954970221622308 -0.30462347215273478 0 0.31296692944630888 -0.29314018565426941 0 0.32364365619397351 -0.29600562892690968 0 0.31569414790308259 -0.28159305760617132 0 0.33743581475864359 -0.28536266187014298 0 0.32364365619397351 -0.29600562892690968 0 0.31569414790308259 -0.28159305760617132 0 0.33743581475864359 -0.28536266187014298 0 0.31569414790308259 -0.28159305760617132 0 0.33743581475864359 -0.28536266187014298 0 0.31569414790308259 -0.28159305760617132 0 0.32852563272885182 -0.27784073863383552 0 0.31569414790308259 -0.28159305760617132 0 0.31275786215232049 -0.27168837282467972 0 0.32066228436037369 -0.27402337931129878 0 0.31275786215232049 -0.27168837282467972 0 0.32001527731196461 -0.26686042829596718 0 0.31054181011664339 -0.26140137874582919 0 0.31275786215232049 -0.27168837282467972 0 0.32001527731196461 -0.26686042829596718 0 0.32066228436037369 -0.27402337931129878 0 0.32001527731196461 -0.26686042829596718 0 0.32631850170564902 -0.27213429919584042 0 0.32066228436037369 -0.27402337931129878 0 0.32001527731196461 -0.26686042829596718 0 0.32631850170564902 -0.27213429919584042 0 0.32861545200372733 -0.26431566092564712 0 0.32631850170564902 -0.27213429919584042 0 0.32066228436037369 -0.27402337931129878 0 0.32852563272885182 -0.27784073863383552 0 0.31569414790308259 -0.28159305760617132 0 0.32066228436037369 -0.27402337931129878 0 0.32852563272885182 -0.27784073863383552 0 0.30517917142926537 -0.24716040808135001 0 0.322544075342931 -0.25649048942400782 0 0.31054181011664339 -0.26140137874582919 0 0.32001527731196461 -0.26686042829596718 0 0.322544075342931 -0.25649048942400782 0 0.31054181011664339 -0.26140137874582919 0 0.32001527731196461 -0.26686042829596718 0 0.322544075342931 -0.25649048942400782 0 0.32861545200372733 -0.26431566092564712 0 0.322544075342931 -0.25649048942400782 0 0.32861545200372733 -0.26431566092564712 0 0.33700232267718733 -0.25494009872172468 0 0.32861545200372733 -0.26431566092564712 0 0.33700232267718733 -0.25494009872172468 0 0.3370936559567923 -0.26597622971595652 0 0.33700232267718733 -0.25494009872172468 0 0.3370936559567923 -0.26597622971595652 0 0.34612034525793539 -0.26165354425485998 0 0.32852563272885182 -0.27784073863383552 0 0.33374486488877292 -0.2728357791174113 0 0.3388307833371127 -0.27886836189579028 0 0.33743581475864359 -0.28536266187014298 0 0.32852563272885182 -0.27784073863383552 0 0.3388307833371127 -0.27886836189579028 0 0.32631850170564902 -0.27213429919584042 0 0.32852563272885182 -0.27784073863383552 0 0.33374486488877292 -0.2728357791174113 0 0.32631850170564902 -0.27213429919584042 0 0.32861545200372733 -0.26431566092564712 0 0.33374486488877292 -0.2728357791174113 0 0.32861545200372733 -0.26431566092564712 0 0.33374486488877292 -0.2728357791174113 0 0.3370936559567923 -0.26597622971595652 0 0.34349817463331772 -0.27223575233246988 0 0.3370936559567923 -0.26597622971595652 0 0.34612034525793539 -0.26165354425485998 0 0.33374486488877292 -0.2728357791174113 0 0.34349817463331772 -0.27223575233246988 0 0.3370936559567923 -0.26597622971595652 0 0.33374486488877292 -0.2728357791174113 0 0.34349817463331772 -0.27223575233246988 0 0.3388307833371127 -0.27886836189579028 0 0.34349817463331772 -0.27223575233246988 0 0.3388307833371127 -0.27886836189579028 0 0.34706744656536048 -0.28007479224216619 0 0.34349817463331772 -0.27223575233246988 0 0.34706744656536048 -0.28007479224216619 0 0.35711558672006172 -0.27354793744083078 0 0.34349817463331772 -0.27223575233246988 0 0.35711558672006172 -0.27354793744083078 0 0.34612034525793539 -0.26165354425485998 0 0.34706744656536048 -0.28007479224216619 0 0.35711558672006172 -0.27354793744083078 0 0.35357832102308678 -0.28816147489813743 0 0.35007299243335749 -0.24785688602667111 0 0.33700232267718733 -0.25494009872172468 0 0.34612034525793539 -0.26165354425485998 0 0.35711558672006172 -0.27354793744083078 0 0.34612034525793539 -0.26165354425485998 0 0.36124693131331159 -0.25807728632712912 0 0.35007299243335749 -0.24785688602667111 0 0.34612034525793539 -0.26165354425485998 0 0.36124693131331159 -0.25807728632712912 0 0.37764450162479901 -0.26965755496232408 0 0.37510228513818711 -0.25237727586059511 0 0.36124693131331159 -0.25807728632712912 0 0.36225179838031341 -0.2439392928582107 0 0.37510228513818711 -0.25237727586059511 0 0.36124693131331159 -0.25807728632712912 0 0.37764450162479901 -0.26965755496232408 0 0.35711558672006172 -0.27354793744083078 0 0.36124693131331159 -0.25807728632712912 0 0.37764450162479901 -0.26965755496232408 0 0.35711558672006172 -0.27354793744083078 0 0.36873774536035581 -0.28861226174546889 0 0.36873774536035581 -0.28861226174546889 0 0.35357832102308678 -0.28816147489813743 0 0.36087634202934032 -0.30211297570133377 0 0.35711558672006172 -0.27354793744083078 0 0.36873774536035581 -0.28861226174546889 0 0.35357832102308678 -0.28816147489813743 0 0.33743581475864359 -0.28536266187014298 0 0.35357832102308678 -0.28816147489813743 0 0.33743581475864359 -0.28536266187014298 0 0.34706744656536048 -0.28007479224216619 0 0.35357832102308678 -0.28816147489813743 0 0.33743581475864359 -0.28536266187014298 0 0.34308905326158867 -0.30070827197480321 0 0.35357832102308678 -0.28816147489813743 0 0.34308905326158867 -0.30070827197480321 0 0.36087634202934032 -0.30211297570133377 0 0.3603589122919777 -0.32616465434179109 0 0.34308905326158867 -0.30070827197480321 0 0.35357832102308678 -0.28816147489813743 0 0.36087634202934032 -0.30211297570133377 0 0.37861767820969228 -0.30691821554646831 0 0.36873774536035581 -0.28861226174546889 0 0.36087634202934032 -0.30211297570133377 0 0.37861767820969228 -0.30691821554646831 0 0.36087634202934032 -0.30211297570133377 0 0.3603589122919777 -0.32616465434179109 0 0.37858644206980091 -0.32769985780377792 0 0.37861767820969228 -0.30691821554646831 0 0.3603589122919777 -0.32616465434179109 0 0.37858644206980091 -0.32769985780377792 0 0.3603589122919777 -0.32616465434179109 0 0.36805061276354478 -0.3427907498460791 0 0.3603589122919777 -0.32616465434179109 0 0.34679726984937148 -0.35193202586079081 0 0.3603589122919777 -0.32616465434179109 0 0.34679726984937148 -0.35193202586079081 0 0.3423644242317993 -0.33453707324987059 0 0.3603589122919777 -0.32616465434179109 0 0.36805061276354478 -0.3427907498460791 0 0.34679726984937148 -0.35193202586079081 0 0.33163278235650262 -0.31237877804800812 0 0.34308905326158867 -0.30070827197480321 0 0.3603589122919777 -0.32616465434179109 0 0.33163278235650262 -0.31237877804800812 0 0.3603589122919777 -0.32616465434179109 0 0.3423644242317993 -0.33453707324987059 0 0.37640125955739012 -0.35149107478397351 0 0.38081427771294768 -0.36737052156009248 0 0.36600013168445039 -0.36059477107615401 0 0.36848073339739068 -0.37517807712711049 0 0.36600013168445039 -0.36059477107615401 0 0.3554566368260581 -0.37480617727887811 0 0.38081427771294768 -0.36737052156009248 0 0.36848073339739068 -0.37517807712711049 0 0.36600013168445039 -0.36059477107615401 0 0.36805061276354478 -0.3427907498460791 0 0.36600013168445039 -0.36059477107615401 0 0.34679726984937148 -0.35193202586079081 0 0.37640125955739012 -0.35149107478397351 0 0.36805061276354478 -0.3427907498460791 0 0.36600013168445039 -0.36059477107615401 0 0.36600013168445039 -0.36059477107615401 0 0.34679726984937148 -0.35193202586079081 0 0.3554566368260581 -0.37480617727887811 0 0.34679726984937148 -0.35193202586079081 0 0.34537995690420659 -0.3737828605913362 0 0.3554566368260581 -0.37480617727887811 0 0.33323562740676532 -0.37769939737979058 0 0.33171275220581908 -0.35441984147836231 0 0.32002671755222051 -0.36641101040373808 0 0.33323562740676532 -0.37769939737979058 0 0.34679726984937148 -0.35193202586079081 0 0.33323562740676532 -0.37769939737979058 0 0.34679726984937148 -0.35193202586079081 0 0.34537995690420659 -0.3737828605913362 0 0.33323562740676532 -0.37769939737979058 0 0.34679726984937148 -0.35193202586079081 0 0.33171275220581908 -0.35441984147836231 0 0.34679726984937148 -0.35193202586079081 0 0.33171275220581908 -0.35441984147836231 0 0.3423644242317993 -0.33453707324987059 0 0.33171275220581908 -0.35441984147836231 0 0.32002671755222051 -0.36641101040373808 0 0.32582974995436148 -0.33939489422587321 0 0.32002671755222051 -0.36641101040373808 0 0.32582974995436148 -0.33939489422587321 0 0.31500009593534162 -0.35119999692538878 0 0.32002671755222051 -0.36641101040373808 0 0.32582974995436148 -0.33939489422587321 0 0.33163278235650262 -0.31237877804800812 0 0.32582974995436148 -0.33939489422587321 0 0.33163278235650262 -0.31237877804800812 0 0.3423644242317993 -0.33453707324987059 0 0.32582974995436148 -0.33939489422587321 0 0.33171275220581908 -0.35441984147836231 0 0.3423644242317993 -0.33453707324987059 0 0.32582974995436148 -0.33939489422587321 0 0.31500009593534162 -0.35119999692538878 0 0.32582974995436148 -0.33939489422587321 0 0.31041762281754448 -0.32833073988017608 0 0.33163278235650262 -0.31237877804800812 0 0.32582974995436148 -0.33939489422587321 0 0.31041762281754448 -0.32833073988017608 0 0.33163278235650262 -0.31237877804800812 0 0.31041762281754448 -0.32833073988017608 0 0.30954970221622308 -0.30462347215273478 0 0.31041762281754448 -0.32833073988017608 0 0.29592063247569211 -0.31558436997640987 0 0.30954970221622308 -0.30462347215273478 0 0.31041762281754448 -0.32833073988017608 0 0.29132656616613523 -0.33188180257029998 0 0.29592063247569211 -0.31558436997640987 0 0.31041762281754448 -0.32833073988017608 0 0.29132656616613523 -0.33188180257029998 0 0.29956578362214281 -0.35549229926055048 0 0.31041762281754448 -0.32833073988017608 0 0.29956578362214281 -0.35549229926055048 0 0.29132656616613523 -0.33188180257029998 0 0.28219501787468609 -0.34702129220438421 0 0.27282035448602859 -0.33554085100614839 0 0.29132656616613523 -0.33188180257029998 0 0.29592063247569211 -0.31558436997640987 0 0.27986439667319313 -0.31630171845149863 0 0.29132656616613523 -0.33188180257029998 0 0.27986439667319313 -0.31630171845149863 0 0.27282035448602859 -0.33554085100614839 0 0.30591552541026101 -0.37751124227982003 0 0.28871394442674109 -0.38265385864092483 0 0.29956578362214281 -0.35549229926055048 0 0.30591552541026101 -0.37751124227982003 0 0.32002671755222051 -0.36641101040373808 0 0.29956578362214281 -0.35549229926055048 0 0.31500009593534162 -0.35119999692538878 0 0.32002671755222051 -0.36641101040373808 0 0.29956578362214281 -0.35549229926055048 0 0.31500009593534162 -0.35119999692538878 0 0.31041762281754448 -0.32833073988017608 0 0.29956578362214281 -0.35549229926055048 0 0.29956578362214281 -0.35549229926055048 0 0.28219501787468609 -0.34702129220438421 0 0.27571190406721402 -0.36345127203525351 0 0.29132656616613523 -0.33188180257029998 0 0.29956578362214281 -0.35549229926055048 0 0.28219501787468609 -0.34702129220438421 0 0.28871394442674109 -0.38265385864092483 0 0.29956578362214281 -0.35549229926055048 0 0.27571190406721402 -0.36345127203525351 0 0.28871394442674109 -0.38265385864092483 0 0.29956578362214281 -0.35549229926055048 0 0.28219501787468609 -0.34702129220438421 0 0.27571190406721402 -0.36345127203525351 0 0.2669677564247489 -0.35003134695070198 0 0.28219501787468609 -0.34702129220438421 0 0.2669677564247489 -0.35003134695070198 0 0.27282035448602859 -0.33554085100614839 0 0.2669677564247489 -0.35003134695070198 0 0.2543981425525324 -0.33893914275967452 0 0.24971336314328341 -0.36520417674804972 0 0.2543981425525324 -0.33893914275967452 0 0.24971336314328341 -0.36520417674804972 0 0.26416245427686541 -0.38049931320234009 0 0.27571190406721402 -0.36345127203525351 0 0.24971336314328341 -0.36520417674804972 0 0.27571190406721402 -0.36345127203525351 0 0.2669677564247489 -0.35003134695070198 0 0.24971336314328341 -0.36520417674804972 0 0.27986439667319313 -0.31630171845149863 0 0.27282035448602859 -0.33554085100614839 0 0.27986439667319313 -0.31630171845149863 0 0.27282035448602859 -0.33554085100614839 0 0.2590829219617814 -0.31267410877129931 0 0.2669677564247489 -0.35003134695070198 0 0.27282035448602859 -0.33554085100614839 0 0.2543981425525324 -0.33893914275967452 0 0.27282035448602859 -0.33554085100614839 0 0.2543981425525324 -0.33893914275967452 0 0.2590829219617814 -0.31267410877129931 0 0.2543981425525324 -0.33893914275967452 0 0.2590829219617814 -0.31267410877129931 0 0.24087195768162309 -0.32614810142562012 0 0.2543981425525324 -0.33893914275967452 0 0.2590829219617814 -0.31267410877129931 0 0.2590829219617814 -0.31267410877129931 0 0.26376770137103039 -0.2864090747829241 0 0.27385105082646688 -0.29718155094811333 0 0.2590829219617814 -0.31267410877129931 0 0.26376770137103039 -0.2864090747829241 0 0.24821325608307901 -0.29522124281265988 0 0.2590829219617814 -0.31267410877129931 0 0.26376770137103039 -0.2864090747829241 0 0.26376770137103039 -0.2864090747829241 0 0.24785603391849151 -0.27709942466880599 0 0.24821325608307901 -0.29522124281265988 0 0.26376770137103039 -0.2864090747829241 0 0.27275834958840189 -0.28372268528309152 0 0.2724225943816766 -0.27409056785933389 0 0.26376770137103039 -0.2864090747829241 0 0.27275834958840189 -0.28372268528309152 0 0.27385105082646688 -0.29718155094811333 0 0.28072449650403741 -0.28691913250301798 0 0.27385105082646688 -0.29718155094811333 0 0.2869084388603575 -0.29706258589684881 0 0.27275834958840189 -0.28372268528309152 0 0.28072449650403741 -0.28691913250301798 0 0.27385105082646688 -0.29718155094811333 0 0.27275834958840189 -0.28372268528309152 0 0.28072449650403741 -0.28691913250301798 0 0.27996448038040939 -0.28063895974691061 0 0.27986439667319313 -0.31630171845149863 0 0.2590829219617814 -0.31267410877129931 0 0.27385105082646688 -0.29718155094811333 0 0.27986439667319313 -0.31630171845149863 0 0.27385105082646688 -0.29718155094811333 0 0.2869084388603575 -0.29706258589684881 0 0.27986439667319313 -0.31630171845149863 0 0.2869084388603575 -0.29706258589684881 0 0.29592063247569211 -0.31558436997640987 0 0.27986439667319313 -0.31630171845149863 0 0.2869084388603575 -0.29706258589684881 0 0.2869084388603575 -0.29706258589684881 0 0.30298021147195658 -0.29033858393126172 0 0.29395248104752192 -0.27782345334219888 0 0.28072449650403741 -0.28691913250301798 0 0.2869084388603575 -0.29706258589684881 0 0.29395248104752192 -0.27782345334219888 0 0.2869084388603575 -0.29706258589684881 0 0.29395248104752192 -0.27782345334219888 0 0.28072449650403741 -0.28691913250301798 0 0.29395248104752192 -0.27782345334219888 0 0.27996448038040939 -0.28063895974691061 0 0.31569414790308259 -0.28159305760617132 0 0.30298021147195658 -0.29033858393126172 0 0.29395248104752192 -0.27782345334219888 0 0.31296692944630888 -0.29314018565426941 0 0.31569414790308259 -0.28159305760617132 0 0.30298021147195658 -0.29033858393126172 0 0.31296692944630888 -0.29314018565426941 0 0.30298021147195658 -0.29033858393126172 0 0.30954970221622308 -0.30462347215273478 0 0.2869084388603575 -0.29706258589684881 0 0.30298021147195658 -0.29033858393126172 0 0.30954970221622308 -0.30462347215273478 0 0.29592063247569211 -0.31558436997640987 0 0.2869084388603575 -0.29706258589684881 0 0.30954970221622308 -0.30462347215273478 0 0.30517917142926537 -0.24716040808135001 0 0.31054181011664339 -0.26140137874582919 0 0.2976408850071105 -0.26774945168120262 0 0.30517917142926537 -0.24716040808135001 0 0.2976408850071105 -0.26774945168120262 0 0.31275786215232049 -0.27168837282467972 0 0.2976408850071105 -0.26774945168120262 0 0.29395248104752192 -0.27782345334219888 0 0.31275786215232049 -0.27168837282467972 0 0.2976408850071105 -0.26774945168120262 0 0.31275786215232049 -0.27168837282467972 0 0.31054181011664339 -0.26140137874582919 0 0.2976408850071105 -0.26774945168120262 0 0.31569414790308259 -0.28159305760617132 0 0.29395248104752192 -0.27782345334219888 0 0.31569414790308259 -0.28159305760617132 0 0.31275786215232049 -0.27168837282467972 0 0.29395248104752192 -0.27782345334219888 0 0.2976408850071105 -0.26774945168120262 0 0.28600938745522969 -0.26471871668720698 0 0.2976408850071105 -0.26774945168120262 0 0.29395248104752192 -0.27782345334219888 0 0.29395248104752192 -0.27782345334219888 0 0.27996448038040939 -0.28063895974691061 0 0.2724225943816766 -0.27409056785933389 0 0.29395248104752192 -0.27782345334219888 0 0.28600938745522969 -0.26471871668720698 0 0.27658132089261911 -0.27335422882897692 0 0.2976408850071105 -0.26774945168120262 0 0.29395248104752192 -0.27782345334219888 0 0.28600938745522969 -0.26471871668720698 0 0.29395248104752192 -0.27782345334219888 0 0.2724225943816766 -0.27409056785933389 0 0.28600938745522969 -0.26471871668720698 0 0.27658132089261911 -0.27335422882897692 0 0.30517917142926537 -0.24716040808135001 0 0.28600938745522969 -0.26471871668720698 0 0.30517917142926537 -0.24716040808135001 0 0.2976408850071105 -0.26774945168120262 0 0.28600938745522969 -0.26471871668720698 0 0.30517917142926537 -0.24716040808135001 0 0.28765229627979871 -0.24304032400626949 0 0.28600938745522969 -0.26471871668720698 0 0.28600938745522969 -0.26471871668720698 0 0.26845248078028039 -0.26014404079454911 0 0.28765229627979871 -0.24304032400626949 0 0.28600938745522969 -0.26471871668720698 0 0.26845248078028039 -0.26014404079454911 0 0.26376770137103039 -0.2864090747829241 0 0.26845248078028039 -0.26014404079454911 0 0.2724225943816766 -0.27409056785933389 0 0.28600938745522969 -0.26471871668720698 0 0.26845248078028039 -0.26014404079454911 0 0.27658132089261911 -0.27335422882897692 0 0.26376770137103039 -0.2864090747829241 0 0.26845248078028039 -0.26014404079454911 0 0.29395248104752192 -0.27782345334219888 0 0.27658132089261911 -0.27335422882897692 0 0.2724225943816766 -0.27409056785933389 0 0.27275834958840189 -0.28372268528309152 0 0.27996448038040939 -0.28063895974691061 0 0.2724225943816766 -0.27409056785933389 0 0.26845248078028039 -0.26014404079454911 0 0.27658132089261911 -0.27335422882897692 0 0.2724225943816766 -0.27409056785933389 0 0.26376770137103039 -0.2864090747829241 0 0.26845248078028039 -0.26014404079454911 0 0.24785603391849151 -0.27709942466880599 0 0.26845248078028039 -0.26014404079454911 0 0.2410490216361528 -0.25300372010805161 0 0.26845248078028039 -0.26014404079454911 0 0.2410490216361528 -0.25300372010805161 0 0.24785603391849151 -0.27709942466880599 0 0.25787859859726192 -0.24372773219337371 0 0.26845248078028039 -0.26014404079454911 0 0.2410490216361528 -0.25300372010805161 0 0.2410490216361528 -0.25300372010805161 0 0.24785603391849151 -0.27709942466880599 0 0.23139485578507429 -0.27647983237136509 0 0.23139485578507429 -0.27647983237136509 0 0.2171028506536257 -0.26700629366950379 0 0.21674952071488601 -0.28686299221921707 0 0.2410490216361528 -0.25300372010805161 0 0.23139485578507429 -0.27647983237136509 0 0.2171028506536257 -0.26700629366950379 0 0.2410490216361528 -0.25300372010805161 0 0.2171028506536257 -0.26700629366950379 0 0.2136455624920251 -0.24586339942155419 0 0.2171028506536257 -0.26700629366950379 0 0.1960217485778272 -0.26205501631648559 0 0.2136455624920251 -0.24586339942155419 0 0.2171028506536257 -0.26700629366950379 0 0.2037572178097509 -0.27803645254629672 0 0.1960217485778272 -0.26205501631648559 0 0.2171028506536257 -0.26700629366950379 0 0.2037572178097509 -0.27803645254629672 0 0.21674952071488601 -0.28686299221921707 0 0.2037572178097509 -0.27803645254629672 0 0.1960217485778272 -0.26205501631648559 0 0.18672217274589489 -0.28463667424064248 0 0.1960217485778272 -0.26205501631648559 0 0.2136455624920251 -0.24586339942155419 0 0.1970165427207646 -0.2431475676051908 0 0.1960217485778272 -0.26205501631648559 0 0.1970165427207646 -0.2431475676051908 0 0.18013525364959199 -0.24590787480667409 0 0.19163287831415901 -0.30538761534618902 0 0.20219697373587131 -0.29192032270869461 0 0.2153952098199983 -0.30425933719731207 0 0.2037572178097509 -0.27803645254629672 0 0.20219697373587131 -0.29192032270869461 0 0.18672217274589489 -0.28463667424064248 0 0.19163287831415901 -0.30538761534618902 0 0.20219697373587131 -0.29192032270869461 0 0.18672217274589489 -0.28463667424064248 0 0.20219697373587131 -0.29192032270869461 0 0.21674952071488601 -0.28686299221921707 0 0.2153952098199983 -0.30425933719731207 0 0.2037572178097509 -0.27803645254629672 0 0.20219697373587131 -0.29192032270869461 0 0.21674952071488601 -0.28686299221921707 0 0.19163287831415901 -0.30538761534618902 0 0.2153952098199983 -0.30425933719731207 0 0.20381788977078771 -0.32236963909420019 0 0.2153952098199983 -0.30425933719731207 0 0.2333373149176502 -0.29099433783704243 0 0.2370223082464416 -0.30892926800322767 0 0.2153952098199983 -0.30425933719731207 0 0.2370223082464416 -0.30892926800322767 0 0.22300958304019269 -0.32335118517261402 0 0.21674952071488601 -0.28686299221921707 0 0.2153952098199983 -0.30425933719731207 0 0.2333373149176502 -0.29099433783704243 0 0.23139485578507429 -0.27647983237136509 0 0.21674952071488601 -0.28686299221921707 0 0.2333373149176502 -0.29099433783704243 0 0.24785603391849151 -0.27709942466880599 0 0.2333373149176502 -0.29099433783704243 0 0.24821325608307901 -0.29522124281265988 0 0.24785603391849151 -0.27709942466880599 0 0.23139485578507429 -0.27647983237136509 0 0.2333373149176502 -0.29099433783704243 0 0.2333373149176502 -0.29099433783704243 0 0.24821325608307901 -0.29522124281265988 0 0.2370223082464416 -0.30892926800322767 0 0.2590829219617814 -0.31267410877129931 0 0.24821325608307901 -0.29522124281265988 0 0.2370223082464416 -0.30892926800322767 0 0.2590829219617814 -0.31267410877129931 0 0.2370223082464416 -0.30892926800322767 0 0.24087195768162309 -0.32614810142562012 0 0.2543981425525324 -0.33893914275967452 0 0.24087195768162309 -0.32614810142562012 0 0.2308468326071676 -0.34684680242128502 0 0.24087195768162309 -0.32614810142562012 0 0.22300958304019269 -0.32335118517261402 0 0.2308468326071676 -0.34684680242128502 0 0.22300958304019269 -0.32335118517261402 0 0.2308468326071676 -0.34684680242128502 0 0.21275128108028149 -0.33749920242868869 0 0.2370223082464416 -0.30892926800322767 0 0.24087195768162309 -0.32614810142562012 0 0.22300958304019269 -0.32335118517261402 0 0.24971336314328341 -0.36520417674804972 0 0.2308468326071676 -0.34684680242128502 0 0.229200177642885 -0.36995291413531828 0 0.2543981425525324 -0.33893914275967452 0 0.24971336314328341 -0.36520417674804972 0 0.2308468326071676 -0.34684680242128502 0 0.229200177642885 -0.36995291413531828 0 0.20725651587090471 -0.36571099534901208 0 0.22031030243082139 -0.38906492162812378 0 0.2308468326071676 -0.34684680242128502 0 0.229200177642885 -0.36995291413531828 0 0.20725651587090471 -0.36571099534901208 0 0.2308468326071676 -0.34684680242128502 0 0.20725651587090471 -0.36571099534901208 0 0.21275128108028149 -0.33749920242868869 0 0.20725651587090471 -0.36571099534901208 0 0.21275128108028149 -0.33749920242868869 0 0.194202729310988 -0.34235706906990038 0 0.20725651587090471 -0.36571099534901208 0 0.194202729310988 -0.34235706906990038 0 0.180238718969634 -0.3612454971324468 0 0.20725651587090471 -0.36571099534901208 0 0.194202729310988 -0.34235706906990038 0 0.20725651587090471 -0.36571099534901208 0 0.19261827162763251 -0.374541644607297 0 0.180238718969634 -0.3612454971324468 0 0.22300958304019269 -0.32335118517261402 0 0.20381788977078771 -0.32236963909420019 0 0.21275128108028149 -0.33749920242868869 0 0.2153952098199983 -0.30425933719731207 0 0.22300958304019269 -0.32335118517261402 0 0.20381788977078771 -0.32236963909420019 0 0.20381788977078771 -0.32236963909420019 0 0.21275128108028149 -0.33749920242868869 0 0.194202729310988 -0.34235706906990038 0 0.20381788977078771 -0.32236963909420019 0 0.194202729310988 -0.34235706906990038 0 0.18384400034678741 -0.32250280289756078 0 0.19163287831415901 -0.30538761534618902 0 0.20381788977078771 -0.32236963909420019 0 0.18384400034678741 -0.32250280289756078 0 0.18384400034678741 -0.32250280289756078 0 0.17702055828029431 -0.33666004199980942 0 0.15719449589681389 -0.32866913917705798 0 0.194202729310988 -0.34235706906990038 0 0.18384400034678741 -0.32250280289756078 0 0.17702055828029431 -0.33666004199980942 0 0.15719449589681389 -0.32866913917705798 0 0.16581699513551909 -0.35306125248096398 0 0.17702055828029431 -0.33666004199980942 0 0.15719449589681389 -0.32866913917705798 0 0.16581699513551909 -0.35306125248096398 0 0.18384400034678741 -0.32250280289756078 0 0.15719449589681389 -0.32866913917705798 0 0.17186855286937899 -0.30453082832045192 0 0.180238718969634 -0.3612454971324468 0 0.1834568796589737 -0.38583095226508418 0 0.17443949437422429 -0.37745336578486988 0 0.180238718969634 -0.3612454971324468 0 0.16581699513551909 -0.35306125248096398 0 0.17443949437422429 -0.37745336578486988 0 0.180238718969634 -0.3612454971324468 0 0.1834568796589737 -0.38583095226508418 0 0.19261827162763251 -0.374541644607297 0 0.180238718969634 -0.3612454971324468 0 0.1834568796589737 -0.38583095226508418 0 0.17702055828029431 -0.33666004199980942 0 0.180238718969634 -0.3612454971324468 0 0.16581699513551909 -0.35306125248096398 0 0.17702055828029431 -0.33666004199980942 0 0.180238718969634 -0.3612454971324468 0 0.194202729310988 -0.34235706906990038 0 0.17702055828029431 -0.33666004199980942 0 0.180238718969634 -0.3612454971324468 0 0.16581699513551909 -0.35306125248096398 0 0.1602354860011011 -0.36875954027416918 0 0.14952990885070691 -0.36034775620209553 0 0.16581699513551909 -0.35306125248096398 0 0.17443949437422429 -0.37745336578486988 0 0.16581699513551909 -0.35306125248096398 0 0.1602354860011011 -0.36875954027416918 0 0.17443949437422429 -0.37745336578486988 0 0.1602354860011011 -0.36875954027416918 0 0.14673951295096799 -0.37363029079717242 0 0.14952990885070691 -0.36034775620209553 0 0.16581699513551909 -0.35306125248096398 0 0.14952990885070691 -0.36034775620209553 0 0.144826286403443 -0.34676284914488159 0 0.14952990885070691 -0.36034775620209553 0 0.144826286403443 -0.34676284914488159 0 0.12334710111447229 -0.36406834251145731 0 0.144826286403443 -0.34676284914488159 0 0.12334710111447229 -0.36406834251145731 0 0.144826286403443 -0.34676284914488159 0 0.12334710111447229 -0.36406834251145731 0 0.11573058637367541 -0.34380091622275832 0 0.13273239812562251 -0.3803535413873157 0 0.1208593498238435 -0.38006314209191833 0 0.12334710111447229 -0.36406834251145731 0 0.14673951295096799 -0.37363029079717242 0 0.14952990885070691 -0.36034775620209553 0 0.12334710111447229 -0.36406834251145731 0 0.14673951295096799 -0.37363029079717242 0 0.13273239812562251 -0.3803535413873157 0 0.12334710111447229 -0.36406834251145731 0 0.15719449589681389 -0.32866913917705798 0 0.13978194378111039 -0.33004063130878142 0 0.14857199665810869 -0.30427702587315197 0 0.15719449589681389 -0.32866913917705798 0 0.14857199665810869 -0.30427702587315197 0 0.15719449589681389 -0.32866913917705798 0 0.144826286403443 -0.34676284914488159 0 0.13978194378111039 -0.33004063130878142 0 0.15719449589681389 -0.32866913917705798 0 0.16581699513551909 -0.35306125248096398 0 0.144826286403443 -0.34676284914488159 0 0.13978194378111039 -0.33004063130878142 0 0.1249111379911398 -0.32186001205002218 0 0.11573058637367541 -0.34380091622275832 0 0.144826286403443 -0.34676284914488159 0 0.13978194378111039 -0.33004063130878142 0 0.11573058637367541 -0.34380091622275832 0 0.13978194378111039 -0.33004063130878142 0 0.14857199665810869 -0.30427702587315197 0 0.1249111379911398 -0.32186001205002218 0 0.14857199665810869 -0.30427702587315197 0 0.13584279120622419 -0.29064916595208462 0 0.1212075847983899 -0.30357596212866123 0 0.14857199665810869 -0.30427702587315197 0 0.1212075847983899 -0.30357596212866123 0 0.1249111379911398 -0.32186001205002218 0 0.14857199665810869 -0.30427702587315197 0 0.14941647374314521 -0.28066083506566319 0 0.1659314811884508 -0.28303851802095531 0 0.14857199665810869 -0.30427702587315197 0 0.13584279120622419 -0.29064916595208462 0 0.14941647374314521 -0.28066083506566319 0 0.13554841089854469 -0.28148943716570812 0 0.13584279120622419 -0.29064916595208462 0 0.14941647374314521 -0.28066083506566319 0 0.13554841089854469 -0.28148943716570812 0 0.13584279120622419 -0.29064916595208462 0 0.1176113560141319 -0.2851589593963586 0 0.1376178273856396 -0.2676878026278281 0 0.13932302263067731 -0.26948878824872591 0 0.1176113560141319 -0.2851589593963586 0 0.13554841089854469 -0.28148943716570812 0 0.13932302263067731 -0.26948878824872591 0 0.1176113560141319 -0.2851589593963586 0 0.13932302263067731 -0.26948878824872591 0 0.1176113560141319 -0.2851589593963586 0 0.1376178273856396 -0.2676878026278281 0 0.1200034520355143 -0.24749468667538321 0 0.1376178273856396 -0.2676878026278281 0 0.1200034520355143 -0.24749468667538321 0 0.1412434604122122 -0.24631040783256791 0 0.1376178273856396 -0.2676878026278281 0 0.16103468924722281 -0.25381861710109321 0 0.1412434604122122 -0.24631040783256791 0 0.1376178273856396 -0.2676878026278281 0 0.13932302263067731 -0.26948878824872591 0 0.16103468924722281 -0.25381861710109321 0 0.13932302263067731 -0.26948878824872591 0 0.16103468924722281 -0.25381861710109321 0 0.13932302263067731 -0.26948878824872591 0 0.14941647374314521 -0.28066083506566319 0 0.16103468924722281 -0.25381861710109321 0 0.13554841089854469 -0.28148943716570812 0 0.13932302263067731 -0.26948878824872591 0 0.14941647374314521 -0.28066083506566319 0 0.14941647374314521 -0.28066083506566319 0 0.16103468924722281 -0.25381861710109321 0 0.1659314811884508 -0.28303851802095531 0 0.16103468924722281 -0.25381861710109321 0 0.1779690690817976 -0.26589134009717008 0 0.1659314811884508 -0.28303851802095531 0 0.16103468924722281 -0.25381861710109321 0 0.1779690690817976 -0.26589134009717008 0 0.18013525364959199 -0.24590787480667409 0 0.1960217485778272 -0.26205501631648559 0 0.1779690690817976 -0.26589134009717008 0 0.18013525364959199 -0.24590787480667409 0 0.1960217485778272 -0.26205501631648559 0 0.1779690690817976 -0.26589134009717008 0 0.18672217274589489 -0.28463667424064248 0 0.1779690690817976 -0.26589134009717008 0 0.18672217274589489 -0.28463667424064248 0 0.1659314811884508 -0.28303851802095531 0 0.18672217274589489 -0.28463667424064248 0 0.17186855286937899 -0.30453082832045192 0 0.1659314811884508 -0.28303851802095531 0 0.19163287831415901 -0.30538761534618902 0 0.18384400034678741 -0.32250280289756078 0 0.17186855286937899 -0.30453082832045192 0 0.19163287831415901 -0.30538761534618902 0 0.18672217274589489 -0.28463667424064248 0 0.17186855286937899 -0.30453082832045192 0 0.14857199665810869 -0.30427702587315197 0 0.17186855286937899 -0.30453082832045192 0 0.1659314811884508 -0.28303851802095531 0 0.15719449589681389 -0.32866913917705798 0 0.14857199665810869 -0.30427702587315197 0 0.17186855286937899 -0.30453082832045192 0 0.27004646425256568 -0.5 0 0.19840125792562099 -0.499999999999995 0 0.2258071254777905 -0.47806137695806639 0 0.19840125792562099 -0.499999999999995 0 0.1955652389629654 -0.47833395417678298 0 0.19840125792562099 -0.499999999999995 0 0.1955652389629654 -0.47833395417678298 0 0.1857239970351309 -0.48926605560099218 0 0.1955652389629654 -0.47833395417678298 0 0.2258071254777905 -0.47806137695806639 0 0.20496909670773639 -0.46039718082621561 0 0.19840125792562099 -0.499999999999995 0 0.1955652389629654 -0.47833395417678298 0 0.2258071254777905 -0.47806137695806639 0 0.2532296876789632 -0.47497352743918242 0 0.27004646425256568 -0.5 0 0.2258071254777905 -0.47806137695806639 0 0.2532296876789632 -0.47497352743918242 0 0.2258071254777905 -0.47806137695806639 0 0.23317765179809191 -0.45416130837427687 0 0.2258071254777905 -0.47806137695806639 0 0.23317765179809191 -0.45416130837427687 0 0.20496909670773639 -0.46039718082621561 0 0.23317765179809191 -0.45416130837427687 0 0.20496909670773639 -0.46039718082621561 0 0.26339579246569877 -0.46312143350125029 0 0.2532296876789632 -0.47497352743918242 0 0.23317765179809191 -0.45416130837427687 0 0.26138620688844749 -0.44792543592233808 0 0.2518592606704963 -0.43815060111373921 0 0.23317765179809191 -0.45416130837427687 0 0.26138620688844749 -0.44792543592233808 0 0.23317765179809191 -0.45416130837427687 0 0.2518592606704963 -0.43815060111373921 0 0.23317765179809191 -0.45416130837427687 0 0.24161391479158839 -0.43048581688246368 0 0.23317765179809191 -0.45416130837427687 0 0.21274467024756119 -0.44537306322652892 0 0.22596778666418391 -0.43195218695593612 0 0.23317765179809191 -0.45416130837427687 0 0.22596778666418391 -0.43195218695593612 0 0.24161391479158839 -0.43048581688246368 0 0.20738663592967541 -0.43977689630152639 0 0.21274467024756119 -0.44537306322652892 0 0.21231789143938981 -0.43260924517595267 0 0.20738663592967541 -0.43977689630152639 0 0.20306963394956029 -0.44528763306514119 0 0.2014143480821905 -0.43583764373848299 0 0.20738663592967541 -0.43977689630152639 0 0.21274467024756119 -0.44537306322652892 0 0.20306963394956029 -0.44528763306514119 0 0.21274467024756119 -0.44537306322652892 0 0.20306963394956029 -0.44528763306514119 0 0.20202636709778779 -0.45196992376671852 0 0.21274467024756119 -0.44537306322652892 0 0.20496909670773639 -0.46039718082621561 0 0.20202636709778779 -0.45196992376671852 0 0.23317765179809191 -0.45416130837427687 0 0.21274467024756119 -0.44537306322652892 0 0.20496909670773639 -0.46039718082621561 0 0.1955652389629654 -0.47833395417678298 0 0.20496909670773639 -0.46039718082621561 0 0.1927292200003092 -0.45666790835357102 0 0.1955652389629654 -0.47833395417678298 0 0.1927292200003092 -0.45666790835357102 0 0.1955652389629654 -0.47833395417678298 0 0.19047701204926121 -0.46094242075341862 0 0.1927292200003092 -0.45666790835357102 0 0.20496909670773639 -0.46039718082621561 0 0.1927292200003092 -0.45666790835357102 0 0.20202636709778779 -0.45196992376671852 0 0.19047701204926121 -0.46094242075341862 0 0.1927292200003092 -0.45666790835357102 0 0.1876592352144193 -0.45673372923780892 0 0.1927292200003092 -0.45666790835357102 0 0.1876592352144193 -0.45673372923780892 0 0.18777566972406101 -0.44981142861604279 0 0.1927292200003092 -0.45666790835357102 0 0.19595067699787469 -0.4453334870477933 0 0.18989320103765239 -0.43500186253035911 0 0.1927292200003092 -0.45666790835357102 0 0.18989320103765239 -0.43500186253035911 0 0.1927292200003092 -0.45666790835357102 0 0.18777566972406101 -0.44981142861604279 0 0.18989320103765239 -0.43500186253035911 0 0.19521760998379711 -0.43854214036159178 0 0.19595067699787469 -0.4453334870477933 0 0.1916906899727929 -0.43609695451772118 0 0.19595067699787469 -0.4453334870477933 0 0.1916906899727929 -0.43609695451772118 0 0.18989320103765239 -0.43500186253035911 0 0.19521760998379711 -0.43854214036159178 0 0.19821003569121751 -0.44088076654097252 0 0.19595067699787469 -0.4453334870477933 0 0.19821003569121751 -0.44088076654097252 0 0.20306963394956029 -0.44528763306514119 0 0.19595067699787469 -0.4453334870477933 0 0.19821003569121751 -0.44088076654097252 0 0.20306963394956029 -0.44528763306514119 0 0.2014143480821905 -0.43583764373848299 0 0.19521760998379711 -0.43854214036159178 0 0.19821003569121751 -0.44088076654097252 0 0.19632921389935129 -0.43529695882979857 0 0.20306963394956029 -0.44528763306514119 0 0.20202636709778779 -0.45196992376671852 0 0.19595067699787469 -0.4453334870477933 0 0.1927292200003092 -0.45666790835357102 0 0.20202636709778779 -0.45196992376671852 0 0.19595067699787469 -0.4453334870477933 0 0.18989320103765239 -0.43500186253035911 0 0.193210065479164 -0.42351508711829272 0 0.18667504034831339 -0.41041640739772162 0 0.18989320103765239 -0.43500186253035911 0 0.18667504034831339 -0.41041640739772162 0 0.1973860855611401 -0.42692030526330021 0 0.193210065479164 -0.42351508711829272 0 0.19846083006015189 -0.42045811652912207 0 0.1973860855611401 -0.42692030526330021 0 0.19846083006015189 -0.42045811652912207 0 0.20326441538295181 -0.42746054266679712 0 0.1973860855611401 -0.42692030526330021 0 0.19826447490927249 -0.43151164360587502 0 0.20326441538295181 -0.42746054266679712 0 0.2014143480821905 -0.43583764373848299 0 0.19826447490927249 -0.43151164360587502 0 0.20326441538295181 -0.42746054266679712 0 0.19821003569121751 -0.44088076654097252 0 0.2014143480821905 -0.43583764373848299 0 0.19632921389935129 -0.43529695882979857 0 0.2014143480821905 -0.43583764373848299 0 0.19632921389935129 -0.43529695882979857 0 0.19826447490927249 -0.43151164360587502 0 0.19632921389935129 -0.43529695882979857 0 0.19826447490927249 -0.43151164360587502 0 0.1929283116207289 -0.43204276753099607 0 0.1973860855611401 -0.42692030526330021 0 0.19826447490927249 -0.43151164360587502 0 0.1929283116207289 -0.43204276753099607 0 0.1929283116207289 -0.43204276753099607 0 0.18989320103765239 -0.43500186253035911 0 0.193210065479164 -0.42351508711829272 0 0.19521760998379711 -0.43854214036159178 0 0.19632921389935129 -0.43529695882979857 0 0.19377820557052011 -0.43520734882518619 0 0.19521760998379711 -0.43854214036159178 0 0.19377820557052011 -0.43520734882518619 0 0.1916906899727929 -0.43609695451772118 0 0.19632921389935129 -0.43529695882979857 0 0.1929283116207289 -0.43204276753099607 0 0.19377820557052011 -0.43520734882518619 0 0.1929283116207289 -0.43204276753099607 0 0.19210490899723079 -0.4345610298626873 0 0.18989320103765239 -0.43500186253035911 0 0.19377820557052011 -0.43520734882518619 0 0.19210490899723079 -0.4345610298626873 0 0.1916906899727929 -0.43609695451772118 0 0.1929283116207289 -0.43204276753099607 0 0.19377820557052011 -0.43520734882518619 0 0.19210490899723079 -0.4345610298626873 0 0.1916906899727929 -0.43609695451772118 0 0.18989320103765239 -0.43500186253035911 0 0.19210490899723079 -0.4345610298626873 0 0.1916906899727929 -0.43609695451772118 0 0.18989320103765239 -0.43500186253035911 0 0.1973860855611401 -0.42692030526330021 0 0.1929283116207289 -0.43204276753099607 0 0.193210065479164 -0.42351508711829272 0 0.193210065479164 -0.42351508711829272 0 0.1939169242469973 -0.41625106345825691 0 0.18667504034831339 -0.41041640739772162 0 0.193210065479164 -0.42351508711829272 0 0.1939169242469973 -0.41625106345825691 0 0.19846083006015189 -0.42045811652912207 0 0.1968341740193896 -0.41150644481021997 0 0.19418069224578771 -0.40518464808912641 0 0.18667504034831339 -0.41041640739772162 0 0.1939169242469973 -0.41625106345825691 0 0.1968341740193896 -0.41150644481021997 0 0.18667504034831339 -0.41041640739772162 0 0.1968341740193896 -0.41150644481021997 0 0.20469814770209749 -0.41520386531910081 0 0.20485234226760879 -0.40188257102108682 0 0.19846083006015189 -0.42045811652912207 0 0.20469814770209749 -0.41520386531910081 0 0.20326441538295181 -0.42746054266679712 0 0.1939169242469973 -0.41625106345825691 0 0.1968341740193896 -0.41150644481021997 0 0.19846083006015189 -0.42045811652912207 0 0.1968341740193896 -0.41150644481021997 0 0.19846083006015189 -0.42045811652912207 0 0.20469814770209749 -0.41520386531910081 0 0.20469814770209749 -0.41520386531910081 0 0.21626227209603979 -0.41615869782113413 0 0.20326441538295181 -0.42746054266679712 0 0.20469814770209749 -0.41520386531910081 0 0.21626227209603979 -0.41615869782113413 0 0.20485234226760879 -0.40188257102108682 0 0.21626227209603979 -0.41615869782113413 0 0.20326441538295181 -0.42746054266679712 0 0.21231789143938981 -0.43260924517595267 0 0.21626227209603979 -0.41615869782113413 0 0.21231789143938981 -0.43260924517595267 0 0.22596778666418391 -0.43195218695593612 0 0.20738663592967541 -0.43977689630152639 0 0.2014143480821905 -0.43583764373848299 0 0.21231789143938981 -0.43260924517595267 0 0.2014143480821905 -0.43583764373848299 0 0.20326441538295181 -0.42746054266679712 0 0.21231789143938981 -0.43260924517595267 0 0.21274467024756119 -0.44537306322652892 0 0.21231789143938981 -0.43260924517595267 0 0.22596778666418391 -0.43195218695593612 0 0.22596778666418391 -0.43195218695593612 0 0.24161391479158839 -0.43048581688246368 0 0.2333640889907381 -0.41241884790723538 0 0.25610826383841628 -0.42120346698794331 0 0.2518592606704963 -0.43815060111373921 0 0.24161391479158839 -0.43048581688246368 0 0.25610826383841628 -0.42120346698794331 0 0.24161391479158839 -0.43048581688246368 0 0.2333640889907381 -0.41241884790723538 0 0.21626227209603979 -0.41615869782113413 0 0.22596778666418391 -0.43195218695593612 0 0.2333640889907381 -0.41241884790723538 0 0.2333640889907381 -0.41241884790723538 0 0.24502858373403441 -0.39146921073642488 0 0.22031030243082139 -0.38906492162812378 0 0.21626227209603979 -0.41615869782113413 0 0.2333640889907381 -0.41241884790723538 0 0.22031030243082139 -0.38906492162812378 0 0.2333640889907381 -0.41241884790723538 0 0.22031030243082139 -0.38906492162812378 0 0.26125098829365018 -0.39969694482297641 0 0.2333640889907381 -0.41241884790723538 0 0.24502858373403441 -0.39146921073642488 0 0.24971336314328341 -0.36520417674804972 0 0.24502858373403441 -0.39146921073642488 0 0.24971336314328341 -0.36520417674804972 0 0.229200177642885 -0.36995291413531828 0 0.24502858373403441 -0.39146921073642488 0 0.229200177642885 -0.36995291413531828 0 0.24502858373403441 -0.39146921073642488 0 0.22031030243082139 -0.38906492162812378 0 0.20725651587090471 -0.36571099534901208 0 0.22031030243082139 -0.38906492162812378 0 0.19952097201101759 -0.38537913368264481 0 0.20725651587090471 -0.36571099534901208 0 0.22031030243082139 -0.38906492162812378 0 0.21626227209603979 -0.41615869782113413 0 0.22031030243082139 -0.38906492162812378 0 0.20485234226760879 -0.40188257102108682 0 0.22031030243082139 -0.38906492162812378 0 0.20485234226760879 -0.40188257102108682 0 0.19952097201101759 -0.38537913368264481 0 0.20485234226760879 -0.40188257102108682 0 0.19159455078491761 -0.39726910731705511 0 0.19952097201101759 -0.38537913368264481 0 0.1968341740193896 -0.41150644481021997 0 0.20485234226760879 -0.40188257102108682 0 0.19418069224578771 -0.40518464808912641 0 0.20485234226760879 -0.40188257102108682 0 0.19418069224578771 -0.40518464808912641 0 0.19159455078491761 -0.39726910731705511 0 0.19418069224578771 -0.40518464808912641 0 0.19159455078491761 -0.39726910731705511 0 0.18667504034831339 -0.41041640739772162 0 0.20725651587090471 -0.36571099534901208 0 0.19261827162763251 -0.374541644607297 0 0.19952097201101759 -0.38537913368264481 0 0.19261827162763251 -0.374541644607297 0 0.19952097201101759 -0.38537913368264481 0 0.1834568796589737 -0.38583095226508418 0 0.19159455078491761 -0.39726910731705511 0 0.19952097201101759 -0.38537913368264481 0 0.1834568796589737 -0.38583095226508418 0 0.17443949437422429 -0.37745336578486988 0 0.18306199361292941 -0.40184547908877583 0 0.1834568796589737 -0.38583095226508418 0 0.17443949437422429 -0.37745336578486988 0 0.18306199361292941 -0.40184547908877583 0 0.17443949437422429 -0.37745336578486988 0 0.18306199361292941 -0.40184547908877583 0 0.1699565165384864 -0.39219147373696051 0 0.19159455078491761 -0.39726910731705511 0 0.1834568796589737 -0.38583095226508418 0 0.18667504034831339 -0.41041640739772162 0 0.1834568796589737 -0.38583095226508418 0 0.18667504034831339 -0.41041640739772162 0 0.1834568796589737 -0.38583095226508418 0 0.18306199361292941 -0.40184547908877583 0 0.18667504034831339 -0.41041640739772162 0 0.18306199361292941 -0.40184547908877583 0 0.1699565165384864 -0.39219147373696051 0 0.17103987791038719 -0.40450309618882169 0 0.18306199361292941 -0.40184547908877583 0 0.17103987791038719 -0.40450309618882169 0 0.1814131781600461 -0.40758752999736902 0 0.1699565165384864 -0.39219147373696051 0 0.17103987791038719 -0.40450309618882169 0 0.15993177942481909 -0.39557864441750712 0 0.17103987791038719 -0.40450309618882169 0 0.15993177942481909 -0.39557864441750712 0 0.14638679418839309 -0.40849626541203388 0 0.1699565165384864 -0.39219147373696051 0 0.15993177942481909 -0.39557864441750712 0 0.1595700277473481 -0.38298567724053401 0 0.17443949437422429 -0.37745336578486988 0 0.1699565165384864 -0.39219147373696051 0 0.1595700277473481 -0.38298567724053401 0 0.1602354860011011 -0.36875954027416918 0 0.17443949437422429 -0.37745336578486988 0 0.1595700277473481 -0.38298567724053401 0 0.1602354860011011 -0.36875954027416918 0 0.14673951295096799 -0.37363029079717242 0 0.1595700277473481 -0.38298567724053401 0 0.14673951295096799 -0.37363029079717242 0 0.1595700277473481 -0.38298567724053401 0 0.14586341328622179 -0.39002728499933198 0 0.14673951295096799 -0.37363029079717242 0 0.14586341328622179 -0.39002728499933198 0 0.13273239812562251 -0.3803535413873157 0 0.15993177942481909 -0.39557864441750712 0 0.1595700277473481 -0.38298567724053401 0 0.14586341328622179 -0.39002728499933198 0 0.14586341328622179 -0.39002728499933198 0 0.13273239812562251 -0.3803535413873157 0 0.12412735500694751 -0.39493505064503392 0 0.13273239812562251 -0.3803535413873157 0 0.12412735500694751 -0.39493505064503392 0 0.1208593498238435 -0.38006314209191833 0 0.14586341328622179 -0.39002728499933198 0 0.14638679418839309 -0.40849626541203388 0 0.12412735500694751 -0.39493505064503392 0 0.14638679418839309 -0.40849626541203388 0 0.1185943653130178 -0.41089393958744808 0 0.12412735500694751 -0.39493505064503392 0 0.14638679418839309 -0.40849626541203388 0 0.12412735500694751 -0.39493505064503392 0 0.15993177942481909 -0.39557864441750712 0 0.14586341328622179 -0.39002728499933198 0 0.14638679418839309 -0.40849626541203388 0 0.14638679418839309 -0.40849626541203388 0 0.12945713117598301 -0.42527718494859718 0 0.1185943653130178 -0.41089393958744808 0 0.12945713117598301 -0.42527718494859718 0 0.1521605439778134 -0.43517333823265708 0 0.13567485458578729 -0.448289196286278 0 0.14638679418839309 -0.40849626541203388 0 0.12945713117598301 -0.42527718494859718 0 0.1521605439778134 -0.43517333823265708 0 0.14638679418839309 -0.40849626541203388 0 0.1521605439778134 -0.43517333823265708 0 0.16864623336983819 -0.42205748017903449 0 0.1521605439778134 -0.43517333823265708 0 0.16864623336983819 -0.42205748017903449 0 0.1521605439778134 -0.43517333823265708 0 0.16864623336983819 -0.42205748017903449 0 0.16573483381671769 -0.43911683261624462 0 0.16864623336983819 -0.42205748017903449 0 0.17670256027174869 -0.43608133600128551 0 0.16573483381671769 -0.43911683261624462 0 0.17103987791038719 -0.40450309618882169 0 0.14638679418839309 -0.40849626541203388 0 0.16962733287145829 -0.41306172809692981 0 0.14638679418839309 -0.40849626541203388 0 0.16864623336983819 -0.42205748017903449 0 0.14638679418839309 -0.40849626541203388 0 0.16864623336983819 -0.42205748017903449 0 0.16962733287145829 -0.41306172809692981 0 0.16864623336983819 -0.42205748017903449 0 0.17965678171287719 -0.41329759239238029 0 0.18989320103765239 -0.43500186253035911 0 0.17965678171287719 -0.41329759239238029 0 0.18667504034831339 -0.41041640739772162 0 0.16864623336983819 -0.42205748017903449 0 0.16962733287145829 -0.41306172809692981 0 0.17965678171287719 -0.41329759239238029 0 0.17103987791038719 -0.40450309618882169 0 0.16962733287145829 -0.41306172809692981 0 0.17965678171287719 -0.41329759239238029 0 0.17103987791038719 -0.40450309618882169 0 0.17965678171287719 -0.41329759239238029 0 0.1814131781600461 -0.40758752999736902 0 0.18306199361292941 -0.40184547908877583 0 0.1814131781600461 -0.40758752999736902 0 0.18667504034831339 -0.41041640739772162 0 0.17965678171287719 -0.41329759239238029 0 0.1814131781600461 -0.40758752999736902 0 0.18667504034831339 -0.41041640739772162 0 0.18989320103765239 -0.43500186253035911 0 0.16864623336983819 -0.42205748017903449 0 0.18989320103765239 -0.43500186253035911 0 0.16864623336983819 -0.42205748017903449 0 0.17965678171287719 -0.41329759239238029 0 0.18989320103765239 -0.43500186253035911 0 0.16864623336983819 -0.42205748017903449 0 0.17670256027174869 -0.43608133600128551 0 0.18989320103765239 -0.43500186253035911 0 0.17670256027174869 -0.43608133600128551 0 0.18208037526260021 -0.440172852945236 0 0.17851738694434799 -0.45081987712854771 0 0.17618275988476059 -0.44374183802639611 0 0.18401323307134959 -0.44581129240036288 0 0.17851738694434799 -0.45081987712854771 0 0.1776998484129505 -0.456552179461992 0 0.17120073938054131 -0.45123220200337888 0 0.17851738694434799 -0.45081987712854771 0 0.17618275988476059 -0.44374183802639611 0 0.17120073938054131 -0.45123220200337888 0 0.17670256027174869 -0.43608133600128551 0 0.17618275988476059 -0.44374183802639611 0 0.16573483381671769 -0.43911683261624462 0 0.17670256027174869 -0.43608133600128551 0 0.17618275988476059 -0.44374183802639611 0 0.18208037526260021 -0.440172852945236 0 0.18989320103765239 -0.43500186253035911 0 0.18208037526260021 -0.440172852945236 0 0.18401323307134959 -0.44581129240036288 0 0.18777566972406101 -0.44981142861604279 0 0.18989320103765239 -0.43500186253035911 0 0.18401323307134959 -0.44581129240036288 0 0.17618275988476059 -0.44374183802639611 0 0.18208037526260021 -0.440172852945236 0 0.18401323307134959 -0.44581129240036288 0 0.18777566972406101 -0.44981142861604279 0 0.18401323307134959 -0.44581129240036288 0 0.18385690407389799 -0.45446609953290928 0 0.17851738694434799 -0.45081987712854771 0 0.18401323307134959 -0.44581129240036288 0 0.18385690407389799 -0.45446609953290928 0 0.19047701204926121 -0.46094242075341862 0 0.1876592352144193 -0.45673372923780892 0 0.1806900259799068 -0.46227126151247672 0 0.1876592352144193 -0.45673372923780892 0 0.18777566972406101 -0.44981142861604279 0 0.18385690407389799 -0.45446609953290928 0 0.19047701204926121 -0.46094242075341862 0 0.1806900259799068 -0.46227126151247672 0 0.17298031468751371 -0.48047121037671059 0 0.1876592352144193 -0.45673372923780892 0 0.18385690407389799 -0.45446609953290928 0 0.1806900259799068 -0.46227126151247672 0 0.18385690407389799 -0.45446609953290928 0 0.1806900259799068 -0.46227126151247672 0 0.1776998484129505 -0.456552179461992 0 0.17851738694434799 -0.45081987712854771 0 0.18385690407389799 -0.45446609953290928 0 0.1776998484129505 -0.456552179461992 0 0.1806900259799068 -0.46227126151247672 0 0.1776998484129505 -0.456552179461992 0 0.17146684144139809 -0.46446192971202138 0 0.1776998484129505 -0.456552179461992 0 0.17146684144139809 -0.46446192971202138 0 0.17120073938054131 -0.45123220200337888 0 0.17146684144139809 -0.46446192971202138 0 0.15759213853868431 -0.45113306297151079 0 0.14900727366634989 -0.46501884712825781 0 0.17146684144139809 -0.46446192971202138 0 0.15759213853868431 -0.45113306297151079 0 0.17120073938054131 -0.45123220200337888 0 0.1521605439778134 -0.43517333823265708 0 0.15759213853868431 -0.45113306297151079 0 0.16573483381671769 -0.43911683261624462 0 0.15759213853868431 -0.45113306297151079 0 0.17120073938054131 -0.45123220200337888 0 0.16573483381671769 -0.43911683261624462 0 0.17618275988476059 -0.44374183802639611 0 0.17120073938054131 -0.45123220200337888 0 0.16573483381671769 -0.43911683261624462 0 0.1521605439778134 -0.43517333823265708 0 0.15759213853868431 -0.45113306297151079 0 0.13567485458578729 -0.448289196286278 0 0.1521605439778134 -0.43517333823265708 0 0.13567485458578729 -0.448289196286278 0 0.13567485458578729 -0.448289196286278 0 0.1191891651937612 -0.46140505433989892 0 0.12203304576274319 -0.43975504748265359 0 0.12945713117598301 -0.42527718494859718 0 0.13567485458578729 -0.448289196286278 0 0.12203304576274319 -0.43975504748265359 0 0.13567485458578729 -0.448289196286278 0 0.1191891651937612 -0.46140505433989892 0 0.13567485458578729 -0.448289196286278 0 0.13480127744719991 -0.46410976413563299 0 0.1191891651937612 -0.46140505433989892 0 0.13567485458578729 -0.448289196286278 0 0.13480127744719991 -0.46410976413563299 0 0.14900727366634989 -0.46501884712825781 0 0.15759213853868431 -0.45113306297151079 0 0.13567485458578729 -0.448289196286278 0 0.14900727366634989 -0.46501884712825781 0 0.14900727366634989 -0.46501884712825781 0 0.15577652408963519 -0.48266000469618581 0 0.13873200589539489 -0.47945912496791759 0 0.13480127744719991 -0.46410976413563299 0 0.14900727366634989 -0.46501884712825781 0 0.13873200589539489 -0.47945912496791759 0 0.13480127744719991 -0.46410976413563299 0 0.13873200589539489 -0.47945912496791759 0 0.11801755443736479 -0.48060781756800708 0 0.13873200589539489 -0.47945912496791759 0 0.13581988522262109 -0.50000000000000244 0 0.11801755443736479 -0.48060781756800708 0 0.13581988522262109 -0.50000000000000244 0 0.11801755443736479 -0.48060781756800708 0 0.15577652408963519 -0.48266000469618581 0 0.13873200589539489 -0.47945912496791759 0 0.13581988522262109 -0.50000000000000244 0 0.15577652408963519 -0.48266000469618581 0 0.13581988522262109 -0.50000000000000244 0 0.15548361732576529 -0.50000000000000178 0 0.15577652408963519 -0.48266000469618581 0 0.15548361732576529 -0.50000000000000178 0 0.17298031468751371 -0.48047121037671059 0 0.15548361732576529 -0.50000000000000178 0 0.17298031468751371 -0.48047121037671059 0 0.1769424376256932 -0.5 0 0.15548361732576529 -0.50000000000000178 0 0.17298031468751371 -0.48047121037671059 0 0.17146684144139809 -0.46446192971202138 0 0.15577652408963519 -0.48266000469618581 0 0.17298031468751371 -0.48047121037671059 0 0.17146684144139809 -0.46446192971202138 0 0.14900727366634989 -0.46501884712825781 0 0.15577652408963519 -0.48266000469618581 0 0.19047701204926121 -0.46094242075341862 0 0.17298031468751371 -0.48047121037671059 0 0.1806900259799068 -0.46227126151247672 0 0.17146684144139809 -0.46446192971202138 0 0.17298031468751371 -0.48047121037671059 0 0.1955652389629654 -0.47833395417678298 0 0.19047701204926121 -0.46094242075341862 0 0.17298031468751371 -0.48047121037671059 0 0.1955652389629654 -0.47833395417678298 0 0.17298031468751371 -0.48047121037671059 0 0.1857239970351309 -0.48926605560099218 0 0.19840125792562099 -0.499999999999995 0 0.1857239970351309 -0.48926605560099218 0 0.1769424376256932 -0.5 0 0.17298031468751371 -0.48047121037671059 0 0.1857239970351309 -0.48926605560099218 0 0.1769424376256932 -0.5 0 0.074737975103940479 -0.48487994098964171 0 0.071046826552429457 -0.50000000000000733 0 0.059434139084113012 -0.47963991399004141 0 0.071046826552429457 -0.50000000000000733 0 0.059434139084113012 -0.47963991399004141 0 0.074737975103940479 -0.48487994098964171 0 0.05802097188470097 -0.46975988197928431 0 0.059434139084113012 -0.47963991399004141 0 0.074737975103940479 -0.48487994098964171 0 0.071955909258469009 -0.46877079283141743 0 0.05802097188470097 -0.46975988197928431 0 0.074737975103940479 -0.48487994098964171 0 0.071955909258469009 -0.46877079283141743 0 0.082737354296077953 -0.47427357099325013 0 0.074737975103940479 -0.48487994098964171 0 0.05802097188470097 -0.46975988197928431 0 0.074737975103940479 -0.48487994098964171 0 0.082737354296077953 -0.47427357099325013 0 0.094811061721812542 -0.48112121468145302 0 0.082737354296077953 -0.47427357099325013 0 0.094811061721812542 -0.48112121468145302 0 0.1002152236521098 -0.46121563513601083 0 0.074737975103940479 -0.48487994098964171 0 0.091454978323179614 -0.49999999999999939 0 0.094811061721812542 -0.48112121468145302 0 0.074737975103940479 -0.48487994098964171 0 0.091454978323179614 -0.49999999999999939 0 0.074737975103940479 -0.48487994098964171 0 0.071046826552429457 -0.50000000000000733 0 0.091454978323179614 -0.49999999999999939 0 0.1136374317729003 -0.5 0 0.11801755443736479 -0.48060781756800708 0 0.094811061721812542 -0.48112121468145302 0 0.091454978323179614 -0.49999999999999939 0 0.1136374317729003 -0.5 0 0.094811061721812542 -0.48112121468145302 0 0.13581988522262109 -0.50000000000000244 0 0.1136374317729003 -0.5 0 0.11801755443736479 -0.48060781756800708 0 0.11801755443736479 -0.48060781756800708 0 0.094811061721812542 -0.48112121468145302 0 0.1002152236521098 -0.46121563513601083 0 0.11801755443736479 -0.48060781756800708 0 0.1002152236521098 -0.46121563513601083 0 0.1002152236521098 -0.46121563513601083 0 0.1191891651937612 -0.46140505433989892 0 0.1082504500781146 -0.44478934181291102 0 0.11801755443736479 -0.48060781756800708 0 0.1002152236521098 -0.46121563513601083 0 0.1191891651937612 -0.46140505433989892 0 0.13480127744719991 -0.46410976413563299 0 0.11801755443736479 -0.48060781756800708 0 0.1191891651937612 -0.46140505433989892 0 0.1191891651937612 -0.46140505433989892 0 0.12203304576274319 -0.43975504748265359 0 0.1082504500781146 -0.44478934181291102 0 0.1002152236521098 -0.46121563513601083 0 0.1082504500781146 -0.44478934181291102 0 0.082412892866854714 -0.44182345270401441 0 0.1002152236521098 -0.46121563513601083 0 0.082412892866854714 -0.44182345270401441 0 0.082737354296077953 -0.47427357099325013 0 0.1002152236521098 -0.46121563513601083 0 0.07989865607697158 -0.46093656822545309 0 0.1002152236521098 -0.46121563513601083 0 0.082412892866854714 -0.44182345270401441 0 0.07989865607697158 -0.46093656822545309 0 0.071955909258469009 -0.46877079283141743 0 0.082737354296077953 -0.47427357099325013 0 0.07989865607697158 -0.46093656822545309 0 0.071955909258469009 -0.46877079283141743 0 0.07989865607697158 -0.46093656822545309 0 0.064942869781788204 -0.45298741250561531 0 0.071955909258469009 -0.46877079283141743 0 0.064942869781788204 -0.45298741250561531 0 0.05802097188470097 -0.46975988197928431 0 0.082412892866854714 -0.44182345270401441 0 0.07989865607697158 -0.46093656822545309 0 0.064942869781788204 -0.45298741250561531 0 0.082412892866854714 -0.44182345270401441 0 0.064942869781788204 -0.45298741250561531 0 0.064610562081599654 -0.42243127027201799 0 0.082412892866854714 -0.44182345270401441 0 0.064610562081599654 -0.42243127027201799 0 0.085410796704641828 -0.41553833344022301 0 0.082412892866854714 -0.44182345270401441 0 0.064610562081599654 -0.42243127027201799 0 0.064610562081599654 -0.42243127027201799 0 0.085410796704641828 -0.41553833344022301 0 0.071260751408415451 -0.40583032332525898 0 0.082412892866854714 -0.44182345270401441 0 0.085410796704641828 -0.41553833344022301 0 0.10565257718969159 -0.42402980380391259 0 0.1082504500781146 -0.44478934181291102 0 0.10565257718969159 -0.42402980380391259 0 0.1082504500781146 -0.44478934181291102 0 0.082412892866854714 -0.44182345270401441 0 0.10565257718969159 -0.42402980380391259 0 0.12203304576274319 -0.43975504748265359 0 0.1082504500781146 -0.44478934181291102 0 0.10565257718969159 -0.42402980380391259 0 0.12945713117598301 -0.42527718494859718 0 0.12203304576274319 -0.43975504748265359 0 0.10565257718969159 -0.42402980380391259 0 0.12945713117598301 -0.42527718494859718 0 0.10565257718969159 -0.42402980380391259 0 0.1185943653130178 -0.41089393958744808 0 0.10565257718969159 -0.42402980380391259 0 0.10305470430126849 -0.40327026579491432 0 0.10565257718969159 -0.42402980380391259 0 0.1185943653130178 -0.41089393958744808 0 0.10305470430126849 -0.40327026579491432 0 0.085410796704641828 -0.41553833344022301 0 0.10565257718969159 -0.42402980380391259 0 0.10305470430126849 -0.40327026579491432 0 0.10305470430126849 -0.40327026579491432 0 0.1092296532162271 -0.39195520602732847 0 0.1018679158255022 -0.38137383587803358 0 0.10305470430126849 -0.40327026579491432 0 0.1018679158255022 -0.38137383587803358 0 0.084827885114816814 -0.39510276155480978 0 0.10305470430126849 -0.40327026579491432 0 0.1018679158255022 -0.38137383587803358 0 0.1185943653130178 -0.41089393958744808 0 0.10305470430126849 -0.40327026579491432 0 0.1092296532162271 -0.39195520602732847 0 0.1185943653130178 -0.41089393958744808 0 0.1092296532162271 -0.39195520602732847 0 0.12412735500694751 -0.39493505064503392 0 0.12412735500694751 -0.39493505064503392 0 0.1208593498238435 -0.38006314209191833 0 0.1018679158255022 -0.38137383587803358 0 0.1092296532162271 -0.39195520602732847 0 0.12412735500694751 -0.39493505064503392 0 0.1018679158255022 -0.38137383587803358 0 0.12412735500694751 -0.39493505064503392 0 0.1018679158255022 -0.38137383587803358 0 0.1208593498238435 -0.38006314209191833 0 0.1018679158255022 -0.38137383587803358 0 0.12334710111447229 -0.36406834251145731 0 0.1018679158255022 -0.38137383587803358 0 0.1001863568717406 -0.38034937241650962 0 0.10879209213087419 -0.36797725762153549 0 0.1018679158255022 -0.38137383587803358 0 0.1001863568717406 -0.38034937241650962 0 0.092680417082859706 -0.38189565836938699 0 0.1018679158255022 -0.38137383587803358 0 0.1001863568717406 -0.38034937241650962 0 0.1001863568717406 -0.38034937241650962 0 0.092680417082859706 -0.38189565836938699 0 0.078941289569781151 -0.36740614783332631 0 0.1018679158255022 -0.38137383587803358 0 0.084827885114816814 -0.39510276155480978 0 0.1018679158255022 -0.38137383587803358 0 0.092680417082859706 -0.38189565836938699 0 0.084827885114816814 -0.39510276155480978 0 0.083667078469080447 -0.3817485906143725 0 0.076461538166658155 -0.38231907318138902 0 0.078941289569781151 -0.36740614783332631 0 0.092680417082859706 -0.38189565836938699 0 0.083667078469080447 -0.3817485906143725 0 0.078941289569781151 -0.36740614783332631 0 0.084827885114816814 -0.39510276155480978 0 0.073546264855348126 -0.39398280964304111 0 0.076461538166658155 -0.38231907318138902 0 0.083667078469080447 -0.3817485906143725 0 0.084827885114816814 -0.39510276155480978 0 0.076461538166658155 -0.38231907318138902 0 0.092680417082859706 -0.38189565836938699 0 0.083667078469080447 -0.3817485906143725 0 0.084827885114816814 -0.39510276155480978 0 0.085410796704641828 -0.41553833344022301 0 0.10305470430126849 -0.40327026579491432 0 0.084827885114816814 -0.39510276155480978 0 0.085410796704641828 -0.41553833344022301 0 0.084827885114816814 -0.39510276155480978 0 0.071260751408415451 -0.40583032332525898 0 0.084827885114816814 -0.39510276155480978 0 0.073546264855348126 -0.39398280964304111 0 0.071260751408415451 -0.40583032332525898 0 0.073546264855348126 -0.39398280964304111 0 0.071260751408415451 -0.40583032332525898 0 0.061634884731502082 -0.39267908051070671 0 0.076461538166658155 -0.38231907318138902 0 0.061634884731502082 -0.39267908051070671 0 0.076461538166658155 -0.38231907318138902 0 0.061634884731502082 -0.39267908051070671 0 0.061904282875925747 -0.37237526148823941 0 0.073546264855348126 -0.39398280964304111 0 0.076461538166658155 -0.38231907318138902 0 0.061634884731502082 -0.39267908051070671 0 0.051370350477500881 -0.3764161884637201 0 0.045801185216693012 -0.38580832539780119 0 0.043663507306638913 -0.36868104746756258 0 0.051370350477500881 -0.3764161884637201 0 0.061634884731502082 -0.39267908051070671 0 0.045801185216693012 -0.38580832539780119 0 0.051370350477500881 -0.3764161884637201 0 0.061634884731502082 -0.39267908051070671 0 0.061904282875925747 -0.37237526148823941 0 0.071260751408415451 -0.40583032332525898 0 0.061634884731502082 -0.39267908051070671 0 0.04680823129634433 -0.40303908784002201 0 0.061634884731502082 -0.39267908051070671 0 0.04680823129634433 -0.40303908784002201 0 0.045801185216693012 -0.38580832539780119 0 0.061634884731502082 -0.39267908051070671 0 0.04680823129634433 -0.40303908784002201 0 0.04680823129634433 -0.40303908784002201 0 0.02837172461734 -0.38295609391969199 0 0.04680823129634433 -0.40303908784002201 0 0.02837172461734 -0.38295609391969199 0 0.028215565298714249 -0.40094151263492078 0 0.045801185216693012 -0.38580832539780119 0 0.02837172461734 -0.38295609391969199 0 0.043663507306638913 -0.36868104746756258 0 0.04680823129634433 -0.40303908784002201 0 0.045801185216693012 -0.38580832539780119 0 0.02837172461734 -0.38295609391969199 0 0.02837172461734 -0.38295609391969199 0 0.0122991559467155 -0.37891225603134221 0 0.011208636448502229 -0.39508796301279092 0 -0.002178803782163227 -0.37161627006544062 0 0.0122991559467155 -0.37891225603134221 0 0.011208636448502229 -0.39508796301279092 0 -0.002178803782163227 -0.37161627006544062 0 0.011208636448502229 -0.39508796301279092 0 -0.002178803782163227 -0.37161627006544062 0 -0.0066930742226519926 -0.39143820132839208 0 0.011208636448502229 -0.39508796301279092 0 -0.001728596279610697 -0.40597762003102339 0 0.011208636448502229 -0.39508796301279092 0 0.0082246319185010179 -0.41465428951275207 0 -0.0066930742226519926 -0.39143820132839208 0 -0.001728596279610697 -0.40597762003102339 0 0.011208636448502229 -0.39508796301279092 0 0.011208636448502229 -0.39508796301279092 0 0.028215565298714249 -0.40094151263492078 0 0.024596076679173799 -0.41855965596013778 0 0.02837172461734 -0.38295609391969199 0 0.011208636448502229 -0.39508796301279092 0 0.028215565298714249 -0.40094151263492078 0 0.011208636448502229 -0.39508796301279092 0 0.024596076679173799 -0.41855965596013778 0 0.011208636448502229 -0.39508796301279092 0 0.024596076679173799 -0.41855965596013778 0 0.0082246319185010179 -0.41465428951275207 0 0.024596076679173799 -0.41855965596013778 0 0.0082246319185010179 -0.41465428951275207 0 0.01039378864355619 -0.42848339288335913 0 -0.009537301248459449 -0.42510302968362512 0 0.0082246319185010179 -0.41465428951275207 0 0.01039378864355619 -0.42848339288335913 0 0.024596076679173799 -0.41855965596013778 0 0.036208764147486278 -0.43891974197010591 0 0.024596076679173799 -0.41855965596013778 0 0.036208764147486278 -0.43891974197010591 0 0.020713539006084219 -0.44010250100644183 0 0.024596076679173799 -0.41855965596013778 0 0.01039378864355619 -0.42848339288335913 0 0.020713539006084219 -0.44010250100644183 0 0.024596076679173799 -0.41855965596013778 0 0.01039378864355619 -0.42848339288335913 0 0.024596076679173799 -0.41855965596013778 0 0.043950702345966319 -0.42295947833088071 0 0.036208764147486278 -0.43891974197010591 0 0.043950702345966319 -0.42295947833088071 0 0.051347790295756007 -0.43901682978775403 0 0.036208764147486278 -0.43891974197010591 0 0.04680823129634433 -0.40303908784002201 0 0.024596076679173799 -0.41855965596013778 0 0.04680823129634433 -0.40303908784002201 0 0.028215565298714249 -0.40094151263492078 0 0.024596076679173799 -0.41855965596013778 0 0.04680823129634433 -0.40303908784002201 0 0.024596076679173799 -0.41855965596013778 0 0.043950702345966319 -0.42295947833088071 0 0.064610562081599654 -0.42243127027201799 0 0.071260751408415451 -0.40583032332525898 0 0.04680823129634433 -0.40303908784002201 0 0.064610562081599654 -0.42243127027201799 0 0.04680823129634433 -0.40303908784002201 0 0.064610562081599654 -0.42243127027201799 0 0.04680823129634433 -0.40303908784002201 0 0.043950702345966319 -0.42295947833088071 0 0.064610562081599654 -0.42243127027201799 0 0.043950702345966319 -0.42295947833088071 0 0.051347790295756007 -0.43901682978775403 0 0.064942869781788204 -0.45298741250561531 0 0.064610562081599654 -0.42243127027201799 0 0.051347790295756007 -0.43901682978775403 0 0.064942869781788204 -0.45298741250561531 0 0.051347790295756007 -0.43901682978775403 0 0.047821451615799627 -0.45927982798007361 0 0.064942869781788204 -0.45298741250561531 0 0.047821451615799627 -0.45927982798007361 0 0.05802097188470097 -0.46975988197928431 0 0.047821451615799627 -0.45927982798007361 0 0.023714967739582489 -0.4565662814222432 0 0.032020960621095843 -0.47777188036233098 0 0.047821451615799627 -0.45927982798007361 0 0.036208764147486278 -0.43891974197010591 0 0.051347790295756007 -0.43901682978775403 0 0.047821451615799627 -0.45927982798007361 0 0.036208764147486278 -0.43891974197010591 0 0.047821451615799627 -0.45927982798007361 0 0.036208764147486278 -0.43891974197010591 0 0.023714967739582489 -0.4565662814222432 0 0.036208764147486278 -0.43891974197010591 0 0.020713539006084219 -0.44010250100644183 0 0.023714967739582489 -0.4565662814222432 0 -0.0013374034004768371 -0.44947558896604423 0 0.01039378864355619 -0.42848339288335913 0 0.020713539006084219 -0.44010250100644183 0 -0.0013374034004768371 -0.44947558896604423 0 0.020713539006084219 -0.44010250100644183 0 0.023714967739582489 -0.4565662814222432 0 -0.0013374034004768371 -0.44947558896604423 0 0.0068624944475057766 -0.47384814824846327 0 -0.0013374034004768371 -0.44947558896604423 0 0.023714967739582489 -0.4565662814222432 0 0.0068624944475057766 -0.47384814824846327 0 0.023714967739582489 -0.4565662814222432 0 0.0068624944475057766 -0.47384814824846327 0 0.032020960621095843 -0.47777188036233098 0 0.0068624944475057766 -0.47384814824846327 0 0.0150623922954884 -0.49822070753088238 0 0.032020960621095843 -0.47777188036233098 0 -0.015217900669161011 -0.5 0 0.0024053695883212941 -0.48891336768777249 0 0.013537008404702511 -0.5 0 0.0068624944475057766 -0.47384814824846327 0 0.0024053695883212941 -0.48891336768777249 0 0.0150623922954884 -0.49822070753088238 0 0.0068624944475057766 -0.47384814824846327 0 0.0150623922954884 -0.49822070753088238 0 0.0024053695883212941 -0.48891336768777249 0 0.0150623922954884 -0.49822070753088238 0 0.013537008404702511 -0.5 0 0.0150623922954884 -0.49822070753088238 0 0.013537008404702511 -0.5 0 0.042291917478565873 -0.5 0 0.0150623922954884 -0.49822070753088238 0 0.042291917478565873 -0.5 0 0.032020960621095843 -0.47777188036233098 0 0.042291917478565873 -0.5 0 0.032020960621095843 -0.47777188036233098 0 0.059434139084113012 -0.47963991399004141 0 0.047821451615799627 -0.45927982798007361 0 0.032020960621095843 -0.47777188036233098 0 0.059434139084113012 -0.47963991399004141 0 0.047821451615799627 -0.45927982798007361 0 0.05802097188470097 -0.46975988197928431 0 0.059434139084113012 -0.47963991399004141 0 0.047821451615799627 -0.45927982798007361 0 0.059434139084113012 -0.47963991399004141 0 0.071046826552429457 -0.50000000000000733 0 0.042291917478565873 -0.5 0 0.059434139084113012 -0.47963991399004141 0 0.078456545354339768 -0.28525100698693651 0 0.075192778843485145 -0.3004755496101415 0 0.095899689397586599 -0.3008291305439913 0 0.078456545354339768 -0.28525100698693651 0 0.095711127176573443 -0.2751242682777974 0 0.095899689397586599 -0.3008291305439913 0 0.075192778843485145 -0.3004755496101415 0 0.095899689397586599 -0.3008291305439913 0 0.074188022781041252 -0.31649930169162399 0 0.095899689397586599 -0.3008291305439913 0 0.074188022781041252 -0.31649930169162399 0 0.075192778843485145 -0.3004755496101415 0 0.074188022781041252 -0.31649930169162399 0 0.058270312985904418 -0.30816514798469019 0 0.075192778843485145 -0.3004755496101415 0 0.068995976747761104 -0.2945131319279734 0 0.058270312985904418 -0.30816514798469019 0 0.068995976747761104 -0.2945131319279734 0 0.064064269807315097 -0.28416082313012542 0 0.058270312985904418 -0.30816514798469019 0 0.078456545354339768 -0.28525100698693651 0 0.075192778843485145 -0.3004755496101415 0 0.068995976747761104 -0.2945131319279734 0 0.078456545354339768 -0.28525100698693651 0 0.068995976747761104 -0.2945131319279734 0 0.064064269807315097 -0.28416082313012542 0 0.064064269807315097 -0.28416082313012542 0 0.069858226628725775 -0.26015649827556059 0 0.078456545354339768 -0.28525100698693651 0 0.064064269807315097 -0.28416082313012542 0 0.069858226628725775 -0.26015649827556059 0 0.069858226628725775 -0.26015649827556059 0 0.095711127176573443 -0.2751242682777974 0 0.096521476943682558 -0.25181800011133371 0 0.078456545354339768 -0.28525100698693651 0 0.069858226628725775 -0.26015649827556059 0 0.095711127176573443 -0.2751242682777974 0 0.095711127176573443 -0.2751242682777974 0 0.114720785939063 -0.26575264298982931 0 0.1176113560141319 -0.2851589593963586 0 0.095711127176573443 -0.2751242682777974 0 0.096521476943682558 -0.25181800011133371 0 0.114720785939063 -0.26575264298982931 0 0.1376178273856396 -0.2676878026278281 0 0.114720785939063 -0.26575264298982931 0 0.1200034520355143 -0.24749468667538321 0 0.096521476943682558 -0.25181800011133371 0 0.114720785939063 -0.26575264298982931 0 0.1200034520355143 -0.24749468667538321 0 0.1376178273856396 -0.2676878026278281 0 0.114720785939063 -0.26575264298982931 0 0.1176113560141319 -0.2851589593963586 0 0.13584279120622419 -0.29064916595208462 0 0.1176113560141319 -0.2851589593963586 0 0.1212075847983899 -0.30357596212866123 0 0.1176113560141319 -0.2851589593963586 0 0.095899689397586599 -0.3008291305439913 0 0.1212075847983899 -0.30357596212866123 0 0.1176113560141319 -0.2851589593963586 0 0.095899689397586599 -0.3008291305439913 0 0.095711127176573443 -0.2751242682777974 0 0.1176113560141319 -0.2851589593963586 0 0.095899689397586599 -0.3008291305439913 0 0.095899689397586599 -0.3008291305439913 0 0.1212075847983899 -0.30357596212866123 0 0.1047724191350739 -0.31963875894108951 0 0.1212075847983899 -0.30357596212866123 0 0.1249111379911398 -0.32186001205002218 0 0.1047724191350739 -0.31963875894108951 0 0.1249111379911398 -0.32186001205002218 0 0.1047724191350739 -0.31963875894108951 0 0.11573058637367541 -0.34380091622275832 0 0.094619564876377599 -0.33586527524184762 0 0.1047724191350739 -0.31963875894108951 0 0.11573058637367541 -0.34380091622275832 0 0.094619564876377599 -0.33586527524184762 0 0.1047724191350739 -0.31963875894108951 0 0.086339338786571823 -0.32698567366184278 0 0.095899689397586599 -0.3008291305439913 0 0.1047724191350739 -0.31963875894108951 0 0.086339338786571823 -0.32698567366184278 0 0.1018679158255022 -0.38137383587803358 0 0.12334710111447229 -0.36406834251145731 0 0.1018679158255022 -0.38137383587803358 0 0.12334710111447229 -0.36406834251145731 0 0.10879209213087419 -0.36797725762153549 0 0.12334710111447229 -0.36406834251145731 0 0.11573058637367541 -0.34380091622275832 0 0.10879209213087419 -0.36797725762153549 0 0.11573058637367541 -0.34380091622275832 0 0.097402960874061584 -0.35810732382917831 0 0.10879209213087419 -0.36797725762153549 0 0.094619564876377599 -0.33586527524184762 0 0.11573058637367541 -0.34380091622275832 0 0.097402960874061584 -0.35810732382917831 0 0.094619564876377599 -0.33586527524184762 0 0.097402960874061584 -0.35810732382917831 0 0.1001863568717406 -0.38034937241650962 0 0.097402960874061584 -0.35810732382917831 0 0.1001863568717406 -0.38034937241650962 0 0.097402960874061584 -0.35810732382917831 0 0.10879209213087419 -0.36797725762153549 0 0.1001863568717406 -0.38034937241650962 0 0.097402960874061584 -0.35810732382917831 0 0.078941289569781151 -0.36740614783332631 0 0.1001863568717406 -0.38034937241650962 0 0.078941289569781151 -0.36740614783332631 0 0.094619564876377599 -0.33586527524184762 0 0.097402960874061584 -0.35810732382917831 0 0.084740357312199394 -0.34701535865000288 0 0.078941289569781151 -0.36740614783332631 0 0.084740357312199394 -0.34701535865000288 0 0.072564810466095128 -0.35396504242622201 0 0.097402960874061584 -0.35810732382917831 0 0.078941289569781151 -0.36740614783332631 0 0.084740357312199394 -0.34701535865000288 0 0.078941289569781151 -0.36740614783332631 0 0.072564810466095128 -0.35396504242622201 0 0.057696222267823373 -0.35446292325014028 0 0.084740357312199394 -0.34701535865000288 0 0.072564810466095128 -0.35396504242622201 0 0.073102422775426085 -0.33909783780230318 0 0.064643683218506637 -0.34920539315333932 0 0.072564810466095128 -0.35396504242622201 0 0.073102422775426085 -0.33909783780230318 0 0.064643683218506637 -0.34920539315333932 0 0.072564810466095128 -0.35396504242622201 0 0.057696222267823373 -0.35446292325014028 0 0.078941289569781151 -0.36740614783332631 0 0.057696222267823373 -0.35446292325014028 0 0.076461538166658155 -0.38231907318138902 0 0.078941289569781151 -0.36740614783332631 0 0.061904282875925747 -0.37237526148823941 0 0.078941289569781151 -0.36740614783332631 0 0.061904282875925747 -0.37237526148823941 0 0.057696222267823373 -0.35446292325014028 0 0.095899689397586599 -0.3008291305439913 0 0.086339338786571823 -0.32698567366184278 0 0.074188022781041252 -0.31649930169162399 0 0.094619564876377599 -0.33586527524184762 0 0.084740357312199394 -0.34701535865000288 0 0.086339338786571823 -0.32698567366184278 0 0.084740357312199394 -0.34701535865000288 0 0.086339338786571823 -0.32698567366184278 0 0.073102422775426085 -0.33909783780230318 0 0.073102422775426085 -0.33909783780230318 0 0.074188022781041252 -0.31649930169162399 0 0.052476356164494947 -0.33216947283925541 0 0.064643683218506637 -0.34920539315333932 0 0.073102422775426085 -0.33909783780230318 0 0.060945063747813971 -0.34285112352430303 0 0.074188022781041252 -0.31649930169162399 0 0.052476356164494947 -0.33216947283925541 0 0.086339338786571823 -0.32698567366184278 0 0.073102422775426085 -0.33909783780230318 0 0.074188022781041252 -0.31649930169162399 0 0.052476356164494947 -0.33216947283925541 0 0.058270312985904418 -0.30816514798469019 0 0.052476356164494947 -0.33216947283925541 0 0.044648526871603783 -0.31770081170742831 0 0.058270312985904418 -0.30816514798469019 0 0.074188022781041252 -0.31649930169162399 0 0.052476356164494947 -0.33216947283925541 0 0.058270312985904418 -0.30816514798469019 0 0.052476356164494947 -0.33216947283925541 0 0.047583047975914103 -0.35244241635483559 0 0.073102422775426085 -0.33909783780230318 0 0.060945063747813971 -0.34285112352430303 0 0.052476356164494947 -0.33216947283925541 0 0.060945063747813971 -0.34285112352430303 0 0.052476356164494947 -0.33216947283925541 0 0.054181307711507642 -0.34983992205818981 0 0.052476356164494947 -0.33216947283925541 0 0.04071506683574927 -0.34065806194451792 0 0.047583047975914103 -0.35244241635483559 0 0.052476356164494947 -0.33216947283925541 0 0.04071506683574927 -0.34065806194451792 0 0.044648526871603783 -0.31770081170742831 0 0.04071506683574927 -0.34065806194451792 0 0.03015636661650286 -0.3225410253719756 0 0.04071506683574927 -0.34065806194451792 0 0.03015636661650286 -0.3225410253719756 0 0.02636863849756152 -0.33688388254537838 0 0.052476356164494947 -0.33216947283925541 0 0.04071506683574927 -0.34065806194451792 0 0.04071506683574927 -0.34065806194451792 0 0.044648526871603783 -0.31770081170742831 0 0.03015636661650286 -0.3225410253719756 0 0.044648526871603783 -0.31770081170742831 0 0.03015636661650286 -0.3225410253719756 0 0.034491627806478041 -0.30853974567073322 0 0.061904282875925747 -0.37237526148823941 0 0.053259535722039633 -0.3641180164926533 0 0.057696222267823373 -0.35446292325014028 0 0.051370350477500881 -0.3764161884637201 0 0.053259535722039633 -0.3641180164926533 0 0.043663507306638913 -0.36868104746756258 0 0.051370350477500881 -0.3764161884637201 0 0.061904282875925747 -0.37237526148823941 0 0.053259535722039633 -0.3641180164926533 0 0.053259535722039633 -0.3641180164926533 0 0.048773826387857627 -0.3544856011778737 0 0.043663507306638913 -0.36868104746756258 0 0.052476356164494947 -0.33216947283925541 0 0.047583047975914103 -0.35244241635483559 0 0.054181307711507642 -0.34983992205818981 0 0.053259535722039633 -0.3641180164926533 0 0.053244657324237762 -0.3582642649149802 0 0.048773826387857627 -0.3544856011778737 0 0.053244657324237762 -0.3582642649149802 0 0.048773826387857627 -0.3544856011778737 0 0.054181307711507642 -0.34983992205818981 0 0.048773826387857627 -0.3544856011778737 0 0.047583047975914103 -0.35244241635483559 0 0.054181307711507642 -0.34983992205818981 0 0.048773826387857627 -0.3544856011778737 0 0.047583047975914103 -0.35244241635483559 0 0.053259535722039633 -0.3641180164926533 0 0.053244657324237762 -0.3582642649149802 0 0.057696222267823373 -0.35446292325014028 0 0.053244657324237762 -0.3582642649149802 0 0.057696222267823373 -0.35446292325014028 0 0.054181307711507642 -0.34983992205818981 0 0.064643683218506637 -0.34920539315333932 0 0.057696222267823373 -0.35446292325014028 0 0.054181307711507642 -0.34983992205818981 0 0.064643683218506637 -0.34920539315333932 0 0.060945063747813971 -0.34285112352430303 0 0.054181307711507642 -0.34983992205818981 0 0.048773826387857627 -0.3544856011778737 0 0.047583047975914103 -0.35244241635483559 0 0.043663507306638913 -0.36868104746756258 0 0.04071506683574927 -0.34065806194451792 0 0.047583047975914103 -0.35244241635483559 0 0.04071506683574927 -0.34065806194451792 0 0.047583047975914103 -0.35244241635483559 0 0.03985573710467899 -0.35136837444597901 0 0.04071506683574927 -0.34065806194451792 0 0.03985573710467899 -0.35136837444597901 0 0.03205896378917665 -0.35434441690964041 0 0.04071506683574927 -0.34065806194451792 0 0.03205896378917665 -0.35434441690964041 0 0.025431496553892478 -0.35168882095041942 0 0.04071506683574927 -0.34065806194451792 0 0.025431496553892478 -0.35168882095041942 0 0.03985573710467899 -0.35136837444597901 0 0.03205896378917665 -0.35434441690964041 0 0.039065869817875902 -0.35802860257492208 0 0.047583047975914103 -0.35244241635483559 0 0.03985573710467899 -0.35136837444597901 0 0.039065869817875902 -0.35802860257492208 0 0.02837172461734 -0.38295609391969199 0 0.033371525452051833 -0.36592480980272157 0 0.043663507306638913 -0.36868104746756258 0 0.047583047975914103 -0.35244241635483559 0 0.039065869817875902 -0.35802860257492208 0 0.043663507306638913 -0.36868104746756258 0 0.047583047975914103 -0.35244241635483559 0 0.043663507306638913 -0.36868104746756258 0 0.039065869817875902 -0.35802860257492208 0 0.033371525452051833 -0.36592480980272157 0 0.043663507306638913 -0.36868104746756258 0 0.03205896378917665 -0.35434441690964041 0 0.039065869817875902 -0.35802860257492208 0 0.033371525452051833 -0.36592480980272157 0 0.02837172461734 -0.38295609391969199 0 0.0099352179383349771 -0.36287309999936251 0 0.02837172461734 -0.38295609391969199 0 0.023697561729227701 -0.3656138881417908 0 0.0099352179383349771 -0.36287309999936251 0 0.02837172461734 -0.38295609391969199 0 0.033371525452051833 -0.36592480980272157 0 0.023697561729227701 -0.3656138881417908 0 0.02837172461734 -0.38295609391969199 0 0.0122991559467155 -0.37891225603134221 0 0.0099352179383349771 -0.36287309999936251 0 0.03205896378917665 -0.35434441690964041 0 0.033371525452051833 -0.36592480980272157 0 0.023697561729227701 -0.3656138881417908 0 0.023697561729227701 -0.3656138881417908 0 0.025431496553892478 -0.35168882095041942 0 0.0099352179383349771 -0.36287309999936251 0 0.025431496553892478 -0.35168882095041942 0 0.0075807645751098419 -0.34453611388615663 0 0.025431496553892478 -0.35168882095041942 0 0.0075807645751098419 -0.34453611388615663 0 0.02636863849756152 -0.33688388254537838 0 0.025431496553892478 -0.35168882095041942 0 0.0099352179383349771 -0.36287309999936251 0 0.03205896378917665 -0.35434441690964041 0 0.023697561729227701 -0.3656138881417908 0 0.025431496553892478 -0.35168882095041942 0 0.03205896378917665 -0.35434441690964041 0 0.025431496553892478 -0.35168882095041942 0 -0.0096343958099064687 -0.34155580596031437 0 0.0099352179383349771 -0.36287309999936251 0 -0.0096343958099064687 -0.34155580596031437 0 0.0075807645751098419 -0.34453611388615663 0 0.0099352179383349771 -0.36287309999936251 0 0.025431496553892478 -0.35168882095041942 0 0.0075807645751098419 -0.34453611388615663 0 0.0099352179383349771 -0.36287309999936251 0 -0.002178803782163227 -0.37161627006544062 0 0.0122991559467155 -0.37891225603134221 0 0.0099352179383349771 -0.36287309999936251 0 -0.0070150904897389628 -0.35875101633193152 0 -0.002178803782163227 -0.37161627006544062 0 0.0099352179383349771 -0.36287309999936251 0 -0.002178803782163227 -0.37161627006544062 0 0.0099352179383349771 -0.36287309999936251 0 0.03015636661650286 -0.3225410253719756 0 0.019597666397256509 -0.30442398879943339 0 0.03015636661650286 -0.3225410253719756 0 0.014793392922354411 -0.31628120652474823 0 0.019597666397256509 -0.30442398879943339 0 0.03015636661650286 -0.3225410253719756 0 0.01453256369494863 -0.32953892791496292 0 0.014793392922354411 -0.31628120652474823 0 0.03015636661650286 -0.3225410253719756 0 0.02636863849756152 -0.33688388254537838 0 0.01453256369494863 -0.32953892791496292 0 0.0075807645751098419 -0.34453611388615663 0 0.02636863849756152 -0.33688388254537838 0 0.01453256369494863 -0.32953892791496292 0 0.04071506683574927 -0.34065806194451792 0 0.025431496553892478 -0.35168882095041942 0 0.02636863849756152 -0.33688388254537838 0 0.0075807645751098419 -0.34453611388615663 0 0.01453256369494863 -0.32953892791496292 0 0.0034794820758208261 -0.33361449123698089 0 -0.010269967403673339 -0.33738340682189533 0 0.0075807645751098419 -0.34453611388615663 0 0.0034794820758208261 -0.33361449123698089 0 0.01453256369494863 -0.32953892791496292 0 0.0034794820758208261 -0.33361449123698089 0 0.001904989571353899 -0.32214434476741449 0 0.001904989571353899 -0.32214434476741449 0 0.014793392922354411 -0.31628120652474823 0 0.0019518825097332619 -0.30029273945570772 0 0.01453256369494863 -0.32953892791496292 0 0.001904989571353899 -0.32214434476741449 0 0.014793392922354411 -0.31628120652474823 0 0.0019518825097332619 -0.30029273945570772 0 0.0090389661780101715 -0.28630695222689118 0 0.019597666397256509 -0.30442398879943339 0 0.014793392922354411 -0.31628120652474823 0 0.0019518825097332619 -0.30029273945570772 0 0.019597666397256509 -0.30442398879943339 0 -0.0020851015340006161 -0.28052611142458661 0 0.0019518825097332619 -0.30029273945570772 0 0.0090389661780101715 -0.28630695222689118 0 0.0090389661780101715 -0.28630695222689118 0 0.019597666397256509 -0.30442398879943339 0 0.0090389661780101715 -0.28630695222689118 0 0.019597666397256509 -0.30442398879943339 0 0.033821918158706138 -0.27707393290215671 0 0.03015636661650286 -0.3225410253719756 0 0.019597666397256509 -0.30442398879943339 0 0.034491627806478041 -0.30853974567073322 0 0.019597666397256509 -0.30442398879943339 0 0.034491627806478041 -0.30853974567073322 0 0.043330632548044458 -0.29475484461045087 0 0.044648526871603783 -0.31770081170742831 0 0.034491627806478041 -0.30853974567073322 0 0.043330632548044458 -0.29475484461045087 0 0.019597666397256509 -0.30442398879943339 0 0.043330632548044458 -0.29475484461045087 0 0.033821918158706138 -0.27707393290215671 0 0.043330632548044458 -0.29475484461045087 0 0.062049371387241412 -0.28749956346879602 0 0.033821918158706138 -0.27707393290215671 0 0.064064269807315097 -0.28416082313012542 0 0.058270312985904418 -0.30816514798469019 0 0.062049371387241412 -0.28749956346879602 0 0.033821918158706138 -0.27707393290215671 0 0.064064269807315097 -0.28416082313012542 0 0.062049371387241412 -0.28749956346879602 0 0.058270312985904418 -0.30816514798469019 0 0.043330632548044458 -0.29475484461045087 0 0.062049371387241412 -0.28749956346879602 0 0.058270312985904418 -0.30816514798469019 0 0.044648526871603783 -0.31770081170742831 0 0.043330632548044458 -0.29475484461045087 0 0.058270312985904418 -0.30816514798469019 0 0.069858226628725775 -0.26015649827556059 0 0.051624075113339378 -0.26919050519125598 0 0.046498349670861652 -0.24826912251879649 0 0.064064269807315097 -0.28416082313012542 0 0.069858226628725775 -0.26015649827556059 0 0.051624075113339378 -0.26919050519125598 0 0.062049371387241412 -0.28749956346879602 0 0.051624075113339378 -0.26919050519125598 0 0.033821918158706138 -0.27707393290215671 0 0.064064269807315097 -0.28416082313012542 0 0.062049371387241412 -0.28749956346879602 0 0.051624075113339378 -0.26919050519125598 0 0.051624075113339378 -0.26919050519125598 0 0.033821918158706138 -0.27707393290215671 0 0.034240698289148337 -0.25967273023798509 0 0.051624075113339378 -0.26919050519125598 0 0.034240698289148337 -0.25967273023798509 0 0.046498349670861652 -0.24826912251879649 0 0.034240698289148337 -0.25967273023798509 0 0.02296875629887114 -0.2464092256209898 0 0.046498349670861652 -0.24826912251879649 0 0.034240698289148337 -0.25967273023798509 0 0.0055944649301708496 -0.26664830233551728 0 0.02296875629887114 -0.2464092256209898 0 0.0090389661780101715 -0.28630695222689118 0 0.033821918158706138 -0.27707393290215671 0 0.0055944649301708496 -0.26664830233551728 0 0.033821918158706138 -0.27707393290215671 0 0.034240698289148337 -0.25967273023798509 0 0.0055944649301708496 -0.26664830233551728 0 0.033821918158706138 -0.27707393290215671 0 0.0055944649301708496 -0.26664830233551728 0 -0.0020851015340006161 -0.28052611142458661 0 0.0090389661780101715 -0.28630695222689118 0 0.0055944649301708496 -0.26664830233551728 0 0.0055944649301708496 -0.26664830233551728 0 0.0055632338660241776 -0.24332209518663511 0 0.02296875629887114 -0.2464092256209898 0 -0.0080727856436109482 -0.2481099565327444 0 0.0055944649301708496 -0.26664830233551728 0 0.0055632338660241776 -0.24332209518663511 0 0.0055632338660241776 -0.24332209518663511 0 0.0032521440618358652 -0.23009641691855939 0 0.019268989126464159 -0.2308348024940351 0 -0.0084819670471955304 -0.2367225590632196 0 0.0055632338660241776 -0.24332209518663511 0 0.0032521440618358652 -0.23009641691855939 0 -0.0075276580997289226 -0.21896018305478171 0 0.0032521440618358652 -0.23009641691855939 0 0.012041166441398349 -0.21677938876306921 0 0.0032521440618358652 -0.23009641691855939 0 0.019268989126464159 -0.2308348024940351 0 0.012041166441398349 -0.21677938876306921 0 0.019268989126464159 -0.2308348024940351 0 0.028464877365028059 -0.21915571909051779 0 0.012041166441398349 -0.21677938876306921 0 0.019268989126464159 -0.2308348024940351 0 0.028464877365028059 -0.21915571909051779 0 0.041174919052571327 -0.22964645066930789 0 0.0055632338660241776 -0.24332209518663511 0 0.019268989126464159 -0.2308348024940351 0 0.02296875629887114 -0.2464092256209898 0 0.019268989126464159 -0.2308348024940351 0 0.02296875629887114 -0.2464092256209898 0 0.041174919052571327 -0.22964645066930789 0 -0.0075276580997289226 -0.21896018305478171 0 0.003555539334036632 -0.19934620758084881 0 0.012041166441398349 -0.21677938876306921 0 0.003555539334036632 -0.19934620758084881 0 0.012041166441398349 -0.21677938876306921 0 0.02523310686075431 -0.20228300343967229 0 0.028464877365028059 -0.21915571909051779 0 0.012041166441398349 -0.21677938876306921 0 0.02523310686075431 -0.20228300343967229 0 0.02523310686075431 -0.20228300343967229 0 0.033125333554059701 -0.1865598477748947 0 0.018588522793563201 -0.18166153924030251 0 0.003555539334036632 -0.19934620758084881 0 0.02523310686075431 -0.20228300343967229 0 0.018588522793563201 -0.18166153924030251 0 0.048648578511840943 -0.20623258170594561 0 0.049880579816306267 -0.17970719815632741 0 0.033125333554059701 -0.1865598477748947 0 0.02523310686075431 -0.20228300343967229 0 0.048648578511840943 -0.20623258170594561 0 0.033125333554059701 -0.1865598477748947 0 0.028464877365028059 -0.21915571909051779 0 0.02523310686075431 -0.20228300343967229 0 0.048648578511840943 -0.20623258170594561 0 0.028464877365028059 -0.21915571909051779 0 0.048648578511840943 -0.20623258170594561 0 0.041174919052571327 -0.22964645066930789 0 0.048648578511840943 -0.20623258170594561 0 0.059757914812518881 -0.22869522271940709 0 0.066598585428591164 -0.21133354617687591 0 0.048648578511840943 -0.20623258170594561 0 0.067160325985138131 -0.18691533881804831 0 0.049880579816306267 -0.17970719815632741 0 0.048648578511840943 -0.20623258170594561 0 0.066598585428591164 -0.21133354617687591 0 0.067160325985138131 -0.18691533881804831 0 0.069858226628725775 -0.26015649827556059 0 0.046498349670861652 -0.24826912251879649 0 0.059757914812518881 -0.22869522271940709 0 0.02296875629887114 -0.2464092256209898 0 0.046498349670861652 -0.24826912251879649 0 0.041174919052571327 -0.22964645066930789 0 0.048648578511840943 -0.20623258170594561 0 0.041174919052571327 -0.22964645066930789 0 0.059757914812518881 -0.22869522271940709 0 0.046498349670861652 -0.24826912251879649 0 0.041174919052571327 -0.22964645066930789 0 0.059757914812518881 -0.22869522271940709 0 0.069858226628725775 -0.26015649827556059 0 0.059757914812518881 -0.22869522271940709 0 0.080941623453078815 -0.2334444244951252 0 0.069858226628725775 -0.26015649827556059 0 0.096521476943682558 -0.25181800011133371 0 0.080941623453078815 -0.2334444244951252 0 0.096521476943682558 -0.25181800011133371 0 0.080941623453078815 -0.2334444244951252 0 0.102389076685389 -0.22730157072293841 0 0.080941623453078815 -0.2334444244951252 0 0.084774701335263575 -0.20710845477049339 0 0.102389076685389 -0.22730157072293841 0 0.059757914812518881 -0.22869522271940709 0 0.080941623453078815 -0.2334444244951252 0 0.066598585428591164 -0.21133354617687591 0 0.080941623453078815 -0.2334444244951252 0 0.066598585428591164 -0.21133354617687591 0 0.084774701335263575 -0.20710845477049339 0 0.084774701335263575 -0.20710845477049339 0 0.067160325985138131 -0.18691533881804831 0 0.066598585428591164 -0.21133354617687591 0 0.084774701335263575 -0.20710845477049339 0 0.067160325985138131 -0.18691533881804831 0 0.092537347032927528 -0.18889969997864839 0 0.084774701335263575 -0.20710845477049339 0 0.067160325985138131 -0.18691533881804831 0 0.084774701335263575 -0.20710845477049339 0 0.102389076685389 -0.22730157072293841 0 0.084774701335263575 -0.20710845477049339 0 0.10575093398731179 -0.20517541990618701 0 0.102389076685389 -0.22730157072293841 0 0.092537347032927528 -0.18889969997864839 0 0.10575093398731179 -0.20517541990618701 0 0.11404320040195411 -0.17785048998131209 0 0.092537347032927528 -0.18889969997864839 0 0.084774701335263575 -0.20710845477049339 0 0.10575093398731179 -0.20517541990618701 0 0.10575093398731179 -0.20517541990618701 0 0.11404320040195411 -0.17785048998131209 0 0.12592289232087811 -0.19910656028939411 0 0.10575093398731179 -0.20517541990618701 0 0.1284413173888232 -0.22347585252773641 0 0.12592289232087811 -0.19910656028939411 0 0.10575093398731179 -0.20517541990618701 0 0.102389076685389 -0.22730157072293841 0 0.1284413173888232 -0.22347585252773641 0 0.1200034520355143 -0.24749468667538321 0 0.102389076685389 -0.22730157072293841 0 0.1284413173888232 -0.22347585252773641 0 0.1200034520355143 -0.24749468667538321 0 0.102389076685389 -0.22730157072293841 0 0.096521476943682558 -0.25181800011133371 0 0.1200034520355143 -0.24749468667538321 0 0.102389076685389 -0.22730157072293841 0 0.099885875260422058 -0.15149088269105351 0 0.1161887790728692 -0.1476769396888597 0 0.1105045846919957 -0.16013033574144619 0 0.099885875260422058 -0.15149088269105351 0 0.099597293261818404 -0.1347502866929414 0 0.1161887790728692 -0.1476769396888597 0 0.099597293261818404 -0.1347502866929414 0 0.1161887790728692 -0.1476769396888597 0 0.099597293261818404 -0.1347502866929414 0 0.1047785765018954 -0.13712350701568179 0 0.1161887790728692 -0.1476769396888597 0 0.099597293261818404 -0.1347502866929414 0 0.093527805260815264 -0.13002146576964491 0 0.104312872852085 -0.12243825994362539 0 0.099597293261818404 -0.1347502866929414 0 0.093527805260815264 -0.13002146576964491 0 0.099597293261818404 -0.1347502866929414 0 0.093527805260815264 -0.13002146576964491 0 0.092996203934319052 -0.1329056080468716 0 0.099597293261818404 -0.1347502866929414 0 0.1088944047617572 -0.13480079442927331 0 0.104312872852085 -0.12243825994362539 0 0.099597293261818404 -0.1347502866929414 0 0.1047785765018954 -0.13712350701568179 0 0.1088944047617572 -0.13480079442927331 0 0.099597293261818404 -0.1347502866929414 0 0.1088944047617572 -0.13480079442927331 0 0.1047785765018954 -0.13712350701568179 0 0.1088944047617572 -0.13480079442927331 0 0.1088944047617572 -0.13480079442927331 0 0.1161887790728692 -0.1476769396888597 0 0.13638976604354719 -0.13495016646355951 0 0.1088944047617572 -0.13480079442927331 0 0.12800820934211829 -0.12401417466047961 0 0.13638976604354719 -0.13495016646355951 0 0.1047785765018954 -0.13712350701568179 0 0.1088944047617572 -0.13480079442927331 0 0.1161887790728692 -0.1476769396888597 0 0.1088944047617572 -0.13480079442927331 0 0.104312872852085 -0.12243825994362539 0 0.12800820934211829 -0.12401417466047961 0 0.1088944047617572 -0.13480079442927331 0 0.12800820934211829 -0.12401417466047961 0 0.1088944047617572 -0.13480079442927331 0 0.13638976604354719 -0.13495016646355951 0 0.1161887790728692 -0.1476769396888597 0 0.1105045846919957 -0.16013033574144619 0 0.1305387904294309 -0.15561497697083931 0 0.1105045846919957 -0.16013033574144619 0 0.11404320040195411 -0.17785048998131209 0 0.1305387904294309 -0.15561497697083931 0 0.092537347032927528 -0.18889969997864839 0 0.11404320040195411 -0.17785048998131209 0 0.090957573454969964 -0.1674487964172009 0 0.1105045846919957 -0.16013033574144619 0 0.11404320040195411 -0.17785048998131209 0 0.090957573454969964 -0.1674487964172009 0 0.099885875260422058 -0.15149088269105351 0 0.1105045846919957 -0.16013033574144619 0 0.090957573454969964 -0.1674487964172009 0 0.099885875260422058 -0.15149088269105351 0 0.090957573454969964 -0.1674487964172009 0 0.080257725164813276 -0.1505404030764457 0 0.090957573454969964 -0.1674487964172009 0 0.065342325237630991 -0.1650228072456788 0 0.080257725164813276 -0.1505404030764457 0 0.092537347032927528 -0.18889969997864839 0 0.090957573454969964 -0.1674487964172009 0 0.067160325985138131 -0.18691533881804831 0 0.090957573454969964 -0.1674487964172009 0 0.067160325985138131 -0.18691533881804831 0 0.065342325237630991 -0.1650228072456788 0 0.065342325237630991 -0.1650228072456788 0 0.080257725164813276 -0.1505404030764457 0 0.056224073158944461 -0.14994265306170279 0 0.080257725164813276 -0.1505404030764457 0 0.069539210615093855 -0.1345869923500955 0 0.056224073158944461 -0.14994265306170279 0 0.099885875260422058 -0.15149088269105351 0 0.099597293261818404 -0.1347502866929414 0 0.080257725164813276 -0.1505404030764457 0 0.099597293261818404 -0.1347502866929414 0 0.080257725164813276 -0.1505404030764457 0 0.069539210615093855 -0.1345869923500955 0 0.099597293261818404 -0.1347502866929414 0 0.092996203934319052 -0.1329056080468716 0 0.069539210615093855 -0.1345869923500955 0 0.099597293261818404 -0.1347502866929414 0 0.069539210615093855 -0.1345869923500955 0 0.092996203934319052 -0.1329056080468716 0 0.069539210615093855 -0.1345869923500955 0 0.079322302472514483 -0.11895376470488229 0 0.093527805260815264 -0.13002146576964491 0 0.092996203934319052 -0.1329056080468716 0 0.079322302472514483 -0.11895376470488229 0 0.093527805260815264 -0.13002146576964491 0 0.092996203934319052 -0.1329056080468716 0 0.069539210615093855 -0.1345869923500955 0 0.052298963826290519 -0.1211548808236817 0 0.066569319149528045 -0.1206454253796948 0 0.069539210615093855 -0.1345869923500955 0 0.039481127968369292 -0.1344236980072451 0 0.052298963826290519 -0.1211548808236817 0 0.069539210615093855 -0.1345869923500955 0 0.056224073158944461 -0.14994265306170279 0 0.039481127968369292 -0.1344236980072451 0 0.069539210615093855 -0.1345869923500955 0 0.039481127968369292 -0.1344236980072451 0 0.056224073158944461 -0.14994265306170279 0 0.038811693183881758 -0.15444647348478721 0 0.047368807546727579 -0.16279517251764489 0 0.056224073158944461 -0.14994265306170279 0 0.038811693183881758 -0.15444647348478721 0 0.039481127968369292 -0.1344236980072451 0 0.038811693183881758 -0.15444647348478721 0 0.039481127968369292 -0.1344236980072451 0 0.019056913867763529 -0.155566515408149 0 0.034777770017858589 -0.1343981464191871 0 0.039481127968369292 -0.1344236980072451 0 0.022320289212787989 -0.1422177528203018 0 0.034777770017858589 -0.1343981464191871 0 0.039481127968369292 -0.1344236980072451 0 0.034777770017858589 -0.1343981464191871 0 0.029299678594365521 -0.12697140115214181 0 0.037800108132664212 -0.12348471533883321 0 0.034777770017858589 -0.1343981464191871 0 0.039481127968369292 -0.1344236980072451 0 0.037800108132664212 -0.12348471533883321 0 0.039481127968369292 -0.1344236980072451 0 0.052298963826290519 -0.1211548808236817 0 0.039481127968369292 -0.1344236980072451 0 0.052298963826290519 -0.1211548808236817 0 0.037800108132664212 -0.12348471533883321 0 0.067160325985138131 -0.18691533881804831 0 0.065342325237630991 -0.1650228072456788 0 0.049880579816306267 -0.17970719815632741 0 0.065342325237630991 -0.1650228072456788 0 0.049880579816306267 -0.17970719815632741 0 0.047368807546727579 -0.16279517251764489 0 0.065342325237630991 -0.1650228072456788 0 0.056224073158944461 -0.14994265306170279 0 0.047368807546727579 -0.16279517251764489 0 0.049880579816306267 -0.17970719815632741 0 0.047368807546727579 -0.16279517251764489 0 0.031927543377605602 -0.16950432842919569 0 0.038811693183881758 -0.15444647348478721 0 0.047368807546727579 -0.16279517251764489 0 0.031927543377605602 -0.16950432842919569 0 0.049880579816306267 -0.17970719815632741 0 0.031927543377605602 -0.16950432842919569 0 0.033125333554059701 -0.1865598477748947 0 0.031927543377605602 -0.16950432842919569 0 0.033125333554059701 -0.1865598477748947 0 0.018588522793563201 -0.18166153924030251 0 0.031927543377605602 -0.16950432842919569 0 0.018588522793563201 -0.18166153924030251 0 0.019056913867763529 -0.155566515408149 0 0.038811693183881758 -0.15444647348478721 0 0.031927543377605602 -0.16950432842919569 0 0.019056913867763529 -0.155566515408149 0 -0.0013673002328405961 -0.1767093328090546 0 0.018588522793563201 -0.18166153924030251 0 0.019056913867763529 -0.155566515408149 0 -0.0013673002328405961 -0.1767093328090546 0 0.019056913867763529 -0.155566515408149 0 -0.0013673002328405961 -0.1767093328090546 0 0.019056913867763529 -0.155566515408149 0 0.0027310736070901482 -0.15493719994590471 0 -0.0013673002328405961 -0.1767093328090546 0 0.003555539334036632 -0.19934620758084881 0 0.018588522793563201 -0.18166153924030251 0 0.020222670022858619 -0.12863691797839069 0 0.022320289212787989 -0.1422177528203018 0 0.0088678229424013627 -0.13941235935176011 0 0.020222670022858619 -0.12863691797839069 0 0.02665510196196769 -0.1330560545925053 0 0.022320289212787989 -0.1422177528203018 0 0.034777770017858589 -0.1343981464191871 0 0.029299678594365521 -0.12697140115214181 0 0.02665510196196769 -0.1330560545925053 0 0.020222670022858619 -0.12863691797839069 0 0.029299678594365521 -0.12697140115214181 0 0.02665510196196769 -0.1330560545925053 0 0.034777770017858589 -0.1343981464191871 0 0.02665510196196769 -0.1330560545925053 0 0.022320289212787989 -0.1422177528203018 0 0.039481127968369292 -0.1344236980072451 0 0.019056913867763529 -0.155566515408149 0 0.019056913867763529 -0.155566515408149 0 0.022320289212787989 -0.1422177528203018 0 0.0088678229424013627 -0.13941235935176011 0 0.039481127968369292 -0.1344236980072451 0 0.019056913867763529 -0.155566515408149 0 0.022320289212787989 -0.1422177528203018 0 0.019056913867763529 -0.155566515408149 0 0.0027310736070901482 -0.15493719994590471 0 0.0088678229424013627 -0.13941235935176011 0 0.020222670022858619 -0.12863691797839069 0 0.0088678229424013627 -0.13941235935176011 0 0.0015243557028834459 -0.11711868301268021 0 0.020222670022858619 -0.12863691797839069 0 0.0015243557028834459 -0.11711868301268021 0 0.0144479962461943 -0.1082343501681014 0 0.020222670022858619 -0.12863691797839069 0 0.02728947708542654 -0.1146689930447462 0 0.0144479962461943 -0.1082343501681014 0 0.020222670022858619 -0.12863691797839069 0 0.029299678594365521 -0.12697140115214181 0 0.02728947708542654 -0.1146689930447462 0 0.0144479962461943 -0.1082343501681014 0 0.01674231050701382 -0.093658367309864349 0 0.03170108987002046 -0.10050694789866579 0 0.02728947708542654 -0.1146689930447462 0 0.0144479962461943 -0.1082343501681014 0 0.03170108987002046 -0.10050694789866579 0 0.01674231050701382 -0.093658367309864349 0 0.02745527456064175 -0.089089442263575569 0 0.03170108987002046 -0.10050694789866579 0 0.0144479962461943 -0.1082343501681014 0 0.001856719827670471 -0.098182337095309047 0 0.01674231050701382 -0.093658367309864349 0 0.0015243557028834459 -0.11711868301268021 0 0.0144479962461943 -0.1082343501681014 0 0.001856719827670471 -0.098182337095309047 0 0.001856719827670471 -0.098182337095309047 0 0.0065051428120863272 -0.082127796022149757 0 0.01674231050701382 -0.093658367309864349 0 0.0065051428120863272 -0.082127796022149757 0 0.018539693253586439 -0.071597204448153262 0 0.01731060528333208 -0.084118202510935727 0 0.0065051428120863272 -0.082127796022149757 0 0.01674231050701382 -0.093658367309864349 0 0.01731060528333208 -0.084118202510935727 0 0.0065051428120863272 -0.082127796022149757 0 0.018539693253586439 -0.071597204448153262 0 0.00035237720396625368 -0.061086817302918282 0 0.018539693253586439 -0.071597204448153262 0 0.00035237720396625368 -0.061086817302918282 0 0.029337839486141829 -0.062098975348790997 0 0.018539693253586439 -0.071597204448153262 0 0.036998616429076953 -0.080413518666692163 0 0.029337839486141829 -0.062098975348790997 0 0.018539693253586439 -0.071597204448153262 0 0.039278739387756327 -0.087755278287702396 0 0.018539693253586439 -0.071597204448153262 0 0.02745527456064175 -0.089089442263575569 0 0.039278739387756327 -0.087755278287702396 0 0.018539693253586439 -0.071597204448153262 0 0.01731060528333208 -0.084118202510935727 0 0.02745527456064175 -0.089089442263575569 0 0.01674231050701382 -0.093658367309864349 0 0.01731060528333208 -0.084118202510935727 0 0.02745527456064175 -0.089089442263575569 0 0.018539693253586439 -0.071597204448153262 0 0.036998616429076953 -0.080413518666692163 0 0.039278739387756327 -0.087755278287702396 0 0.02745527456064175 -0.089089442263575569 0 0.039278739387756327 -0.087755278287702396 0 0.036114206476440321 -0.094502097047588079 0 0.036998616429076953 -0.080413518666692163 0 0.039278739387756327 -0.087755278287702396 0 0.050747139898636717 -0.081209848062237813 0 0.058323301768317432 -0.063111133394663815 0 0.029337839486141829 -0.062098975348790997 0 0.036998616429076953 -0.080413518666692163 0 0.058323301768317432 -0.063111133394663815 0 0.029337839486141829 -0.062098975348790997 0 0.036998616429076953 -0.080413518666692163 0 0.058323301768317432 -0.063111133394663815 0 0.058323301768317432 -0.063111133394663815 0 0.050747139898636717 -0.081209848062237813 0 0.060228637404373828 -0.081759239016750626 0 0.036998616429076953 -0.080413518666692163 0 0.058323301768317432 -0.063111133394663815 0 0.050747139898636717 -0.081209848062237813 0 0.039278739387756327 -0.087755278287702396 0 0.050747139898636717 -0.081209848062237813 0 0.060818353003097771 -0.090653503469919336 0 0.050747139898636717 -0.081209848062237813 0 0.060228637404373828 -0.081759239016750626 0 0.060818353003097771 -0.090653503469919336 0 0.060017785521926562 -0.10391335212725129 0 0.042153090511964017 -0.099193769589441219 0 0.043653631303676513 -0.1092911725859987 0 0.060017785521926562 -0.10391335212725129 0 0.043653631303676513 -0.1092911725859987 0 0.039278739387756327 -0.087755278287702396 0 0.060818353003097771 -0.090653503469919336 0 0.060017785521926562 -0.10391335212725129 0 0.060017785521926562 -0.10391335212725129 0 0.053375718786791107 -0.1112883554404277 0 0.043653631303676513 -0.1092911725859987 0 0.039278739387756327 -0.087755278287702396 0 0.060017785521926562 -0.10391335212725129 0 0.039278739387756327 -0.087755278287702396 0 0.060017785521926562 -0.10391335212725129 0 0.042153090511964017 -0.099193769589441219 0 0.060017785521926562 -0.10391335212725129 0 0.053375718786791107 -0.1112883554404277 0 0.065116799684213397 -0.10788606364011991 0 0.052298963826290519 -0.1211548808236817 0 0.066569319149528045 -0.1206454253796948 0 0.065116799684213397 -0.10788606364011991 0 0.052298963826290519 -0.1211548808236817 0 0.065116799684213397 -0.10788606364011991 0 0.052298963826290519 -0.1211548808236817 0 0.053375718786791107 -0.1112883554404277 0 0.065116799684213397 -0.10788606364011991 0 0.052298963826290519 -0.1211548808236817 0 0.053375718786791107 -0.1112883554404277 0 0.043653631303676513 -0.1092911725859987 0 0.02728947708542654 -0.1146689930447462 0 0.037800108132664212 -0.12348471533883321 0 0.043653631303676513 -0.1092911725859987 0 0.02728947708542654 -0.1146689930447462 0 0.043653631303676513 -0.1092911725859987 0 0.052298963826290519 -0.1211548808236817 0 0.037800108132664212 -0.12348471533883321 0 0.043653631303676513 -0.1092911725859987 0 0.029299678594365521 -0.12697140115214181 0 0.02728947708542654 -0.1146689930447462 0 0.037800108132664212 -0.12348471533883321 0 0.02728947708542654 -0.1146689930447462 0 0.03170108987002046 -0.10050694789866579 0 0.043653631303676513 -0.1092911725859987 0 0.036114206476440321 -0.094502097047588079 0 0.03170108987002046 -0.10050694789866579 0 0.042153090511964017 -0.099193769589441219 0 0.02745527456064175 -0.089089442263575569 0 0.036114206476440321 -0.094502097047588079 0 0.03170108987002046 -0.10050694789866579 0 0.039278739387756327 -0.087755278287702396 0 0.036114206476440321 -0.094502097047588079 0 0.042153090511964017 -0.099193769589441219 0 0.03170108987002046 -0.10050694789866579 0 0.042153090511964017 -0.099193769589441219 0 0.043653631303676513 -0.1092911725859987 0 0.025695344612614111 0.0095801541182225364 0 0.02812452509478746 -0.0099579005571815878 0 0.006935528729737548 -0.0054826371559186567 0 0.02812452509478746 -0.0099579005571815878 0 0.006935528729737548 -0.0054826371559186567 0 0.01889941714368459 -0.025130787452367569 0 0.006935528729737548 -0.0054826371559186567 0 0.0027408304473846411 -0.028176541972939319 0 0.01889941714368459 -0.025130787452367569 0 0.02812452509478746 -0.0099579005571815878 0 0.01889941714368459 -0.025130787452367569 0 0.035567370731091272 -0.02454493013615917 0 0.01889941714368459 -0.025130787452367569 0 0.02846567832778216 -0.042756626880165419 0 0.035567370731091272 -0.02454493013615917 0 0.01889941714368459 -0.025130787452367569 0 0.02846567832778216 -0.042756626880165419 0 0.0096258971738255473 -0.043108802377643002 0 0.02846567832778216 -0.042756626880165419 0 0.0096258971738255473 -0.043108802377643002 0 0.016945448047928951 -0.052262805477379423 0 0.01889941714368459 -0.025130787452367569 0 0.0096258971738255473 -0.043108802377643002 0 -0.01026660782967455 -0.041229232136501717 0 0.0027408304473846411 -0.028176541972939319 0 0.0096258971738255473 -0.043108802377643002 0 0.0027408304473846411 -0.028176541972939319 0 0.01889941714368459 -0.025130787452367569 0 0.0096258971738255473 -0.043108802377643002 0 0.0096258971738255473 -0.043108802377643002 0 0.00035237720396625368 -0.061086817302918282 0 0.016945448047928951 -0.052262805477379423 0 0.00035237720396625368 -0.061086817302918282 0 0.016945448047928951 -0.052262805477379423 0 0.029337839486141829 -0.062098975348790997 0 0.0096258971738255473 -0.043108802377643002 0 0.00035237720396625368 -0.061086817302918282 0 0.00035237720396625368 -0.061086817302918282 0 0.029337839486141829 -0.062098975348790997 0 0.02846567832778216 -0.042756626880165419 0 0.016945448047928951 -0.052262805477379423 0 0.029337839486141829 -0.062098975348790997 0 0.02846567832778216 -0.042756626880165419 0 0.029337839486141829 -0.062098975348790997 0 0.044041605111135473 -0.049431168693685697 0 0.058323301768317432 -0.063111133394663815 0 0.029337839486141829 -0.062098975348790997 0 0.044041605111135473 -0.049431168693685697 0 0.058323301768317432 -0.063111133394663815 0 0.044041605111135473 -0.049431168693685697 0 0.059903341899081253 -0.040049795258846832 0 0.059903341899081253 -0.040049795258846832 0 0.045154502468205723 -0.035444412579530127 0 0.052999286202529479 -0.022291816621987929 0 0.044041605111135473 -0.049431168693685697 0 0.059903341899081253 -0.040049795258846832 0 0.045154502468205723 -0.035444412579530127 0 0.02846567832778216 -0.042756626880165419 0 0.044041605111135473 -0.049431168693685697 0 0.045154502468205723 -0.035444412579530127 0 0.02846567832778216 -0.042756626880165419 0 0.045154502468205723 -0.035444412579530127 0 0.035567370731091272 -0.02454493013615917 0 0.045154502468205723 -0.035444412579530127 0 0.035567370731091272 -0.02454493013615917 0 0.052999286202529479 -0.022291816621987929 0 0.035567370731091272 -0.02454493013615917 0 0.052999286202529479 -0.022291816621987929 0 0.04138045704507981 -0.013293391242584921 0 0.02812452509478746 -0.0099579005571815878 0 0.035567370731091272 -0.02454493013615917 0 0.04138045704507981 -0.013293391242584921 0 0.059903341899081253 -0.040049795258846832 0 0.052999286202529479 -0.022291816621987929 0 0.073093181043766914 -0.026775388104941698 0 0.052999286202529479 -0.022291816621987929 0 0.049896637954744763 -0.0073960790217490677 0 0.04138045704507981 -0.013293391242584921 0 0.052999286202529479 -0.022291816621987929 0 0.049896637954744763 -0.0073960790217490677 0 0.066530330394949447 -0.012320269852860621 0 0.049896637954744763 -0.0073960790217490677 0 0.040314465242246092 -0.002276229875846851 0 0.04138045704507981 -0.013293391242584921 0 0.025695344612614111 0.0095801541182225364 0 0.02812452509478746 -0.0099579005571815878 0 0.040314465242246092 -0.002276229875846851 0 0.046640351189982193 0.001482106492276504 0 0.049896637954744763 -0.0073960790217490677 0 0.040314465242246092 -0.002276229875846851 0 0.02812452509478746 -0.0099579005571815878 0 0.040314465242246092 -0.002276229875846851 0 0.04138045704507981 -0.013293391242584921 0 0.075461568133428525 0.0044331687040122013 0 0.081703970602104437 -0.011974759962048749 0 0.098011391193308373 -0.0056982583262641584 0 0.075461568133428525 0.0044331687040122013 0 0.049896637954744763 -0.0073960790217490677 0 0.075461568133428525 0.0044331687040122013 0 0.049896637954744763 -0.0073960790217490677 0 0.066530330394949447 -0.012320269852860621 0 0.075461568133428525 0.0044331687040122013 0 0.081703970602104437 -0.011974759962048749 0 0.066530330394949447 -0.012320269852860621 0 0.081703970602104437 -0.011974759962048749 0 0.066530330394949447 -0.012320269852860621 0 0.073093181043766914 -0.026775388104941698 0 0.052999286202529479 -0.022291816621987929 0 0.066530330394949447 -0.012320269852860621 0 0.073093181043766914 -0.026775388104941698 0 0.081703970602104437 -0.011974759962048749 0 0.097837743661838034 -0.031049975793767819 0 0.098011391193308373 -0.0056982583262641584 0 0.081703970602104437 -0.011974759962048749 0 0.073093181043766914 -0.026775388104941698 0 0.097837743661838034 -0.031049975793767819 0 0.078080522715077566 -0.047080554594215653 0 0.097861902682226248 -0.045151270938537998 0 0.097837743661838034 -0.031049975793767819 0 0.073093181043766914 -0.026775388104941698 0 0.078080522715077566 -0.047080554594215653 0 0.097837743661838034 -0.031049975793767819 0 0.078080522715077566 -0.047080554594215653 0 0.097837743661838034 -0.031049975793767819 0 0.059903341899081253 -0.040049795258846832 0 0.073093181043766914 -0.026775388104941698 0 0.078080522715077566 -0.047080554594215653 0 0.058323301768317432 -0.063111133394663815 0 0.078080522715077566 -0.047080554594215653 0 0.058323301768317432 -0.063111133394663815 0 0.059903341899081253 -0.040049795258846832 0 0.078080522715077566 -0.047080554594215653 0 0.058323301768317432 -0.063111133394663815 0 0.078080522715077566 -0.047080554594215653 0 0.081939961595450139 -0.063935815506958552 0 0.078080522715077566 -0.047080554594215653 0 0.094142039140793971 -0.055881476276546937 0 0.081939961595450139 -0.063935815506958552 0 0.078080522715077566 -0.047080554594215653 0 0.094142039140793971 -0.055881476276546937 0 0.097861902682226248 -0.045151270938537998 0 0.094142039140793971 -0.055881476276546937 0 0.081939961595450139 -0.063935815506958552 0 0.1067368008806147 -0.064801708903802782 0 0.094142039140793971 -0.055881476276546937 0 0.1075629424949773 -0.053875431803618333 0 0.097861902682226248 -0.045151270938537998 0 0.094142039140793971 -0.055881476276546937 0 0.1075629424949773 -0.053875431803618333 0 0.1067368008806147 -0.064801708903802782 0 0.1075629424949773 -0.053875431803618333 0 0.1067368008806147 -0.064801708903802782 0 0.1075629424949773 -0.053875431803618333 0 0.1232921759667842 -0.047663851323270827 0 0.1067368008806147 -0.064801708903802782 0 0.1232921759667842 -0.047663851323270827 0 0.1067368008806147 -0.064801708903802782 0 0.1075629424949773 -0.053875431803618333 0 0.1232921759667842 -0.047663851323270827 0 0.1109518143893137 -0.039435966374661548 0 0.1232921759667842 -0.047663851323270827 0 0.1067368008806147 -0.064801708903802782 0 0.13548767730717889 -0.06580567532731052 0 0.1232921759667842 -0.047663851323270827 0 0.1109518143893137 -0.039435966374661548 0 0.124582941869709 -0.030507807285028901 0 0.1109518143893137 -0.039435966374661548 0 0.097861902682226248 -0.045151270938537998 0 0.097837743661838034 -0.031049975793767819 0 0.1075629424949773 -0.053875431803618333 0 0.1109518143893137 -0.039435966374661548 0 0.097861902682226248 -0.045151270938537998 0 0.097837743661838034 -0.031049975793767819 0 0.1175949646085984 -0.015019396993320021 0 0.097837743661838034 -0.031049975793767819 0 0.1175949646085984 -0.015019396993320021 0 0.098011391193308373 -0.0056982583262641584 0 0.1109518143893137 -0.039435966374661548 0 0.097837743661838034 -0.031049975793767819 0 0.1175949646085984 -0.015019396993320021 0 0.1109518143893137 -0.039435966374661548 0 0.124582941869709 -0.030507807285028901 0 0.1175949646085984 -0.015019396993320021 0 0.124582941869709 -0.030507807285028901 0 0.1175949646085984 -0.015019396993320021 0 0.13165260102391191 -0.019660205177744808 0 0.11882011836095251 0.0065886106746579649 0 0.1175949646085984 -0.015019396993320021 0 0.098011391193308373 -0.0056982583262641584 0 0.11882011836095251 0.0065886106746579649 0 0.13735218555535891 0.001011181807127467 0 0.1175949646085984 -0.015019396993320021 0 0.073111172643960082 -0.099610417542301155 0 0.10058413041743761 -0.090581864498492995 0 0.088608598291174498 -0.101420796185217 0 0.073111172643960082 -0.099610417542301155 0 0.10058413041743761 -0.090581864498492995 0 0.083297568291202648 -0.10670285905343881 0 0.088608598291174498 -0.101420796185217 0 0.073111172643960082 -0.099610417542301155 0 0.083297568291202648 -0.10670285905343881 0 0.088608598291174498 -0.101420796185217 0 0.097441521812097198 -0.10878804364663471 0 0.093527805260815264 -0.13002146576964491 0 0.079322302472514483 -0.11895376470488229 0 0.097441521812097198 -0.10878804364663471 0 0.083297568291202648 -0.10670285905343881 0 0.079322302472514483 -0.11895376470488229 0 0.097441521812097198 -0.10878804364663471 0 0.093527805260815264 -0.13002146576964491 0 0.079322302472514483 -0.11895376470488229 0 0.079322302472514483 -0.11895376470488229 0 0.065116799684213397 -0.10788606364011991 0 0.083297568291202648 -0.10670285905343881 0 0.079322302472514483 -0.11895376470488229 0 0.065116799684213397 -0.10788606364011991 0 0.079322302472514483 -0.11895376470488229 0 0.066569319149528045 -0.1206454253796948 0 0.065116799684213397 -0.10788606364011991 0 0.069539210615093855 -0.1345869923500955 0 0.079322302472514483 -0.11895376470488229 0 0.066569319149528045 -0.1206454253796948 0 0.060017785521926562 -0.10391335212725129 0 0.065116799684213397 -0.10788606364011991 0 0.060017785521926562 -0.10391335212725129 0 0.073111172643960082 -0.099610417542301155 0 0.065116799684213397 -0.10788606364011991 0 0.073111172643960082 -0.099610417542301155 0 0.083297568291202648 -0.10670285905343881 0 0.065116799684213397 -0.10788606364011991 0 0.073111172643960082 -0.099610417542301155 0 0.060017785521926562 -0.10391335212725129 0 0.065116799684213397 -0.10788606364011991 0 0.073111172643960082 -0.099610417542301155 0 0.060818353003097771 -0.090653503469919336 0 0.060017785521926562 -0.10391335212725129 0 0.073111172643960082 -0.099610417542301155 0 0.060818353003097771 -0.090653503469919336 0 0.073111172643960082 -0.099610417542301155 0 0.074211161232423301 -0.082716200610011378 0 0.060228637404373828 -0.081759239016750626 0 0.060818353003097771 -0.090653503469919336 0 0.074211161232423301 -0.082716200610011378 0 0.058323301768317432 -0.063111133394663815 0 0.081939961595450139 -0.063935815506958552 0 0.058323301768317432 -0.063111133394663815 0 0.074211161232423301 -0.082716200610011378 0 0.081939961595450139 -0.063935815506958552 0 0.058323301768317432 -0.063111133394663815 0 0.060228637404373828 -0.081759239016750626 0 0.074211161232423301 -0.082716200610011378 0 0.074211161232423301 -0.082716200610011378 0 0.081939961595450139 -0.063935815506958552 0 0.089190063779311518 -0.082965808471458069 0 0.081939961595450139 -0.063935815506958552 0 0.089190063779311518 -0.082965808471458069 0 0.1052689549146623 -0.0663211994006144 0 0.073111172643960082 -0.099610417542301155 0 0.074211161232423301 -0.082716200610011378 0 0.089190063779311518 -0.082965808471458069 0 0.073111172643960082 -0.099610417542301155 0 0.089190063779311518 -0.082965808471458069 0 0.073111172643960082 -0.099610417542301155 0 0.089190063779311518 -0.082965808471458069 0 0.10058413041743761 -0.090581864498492995 0 0.089190063779311518 -0.082965808471458069 0 0.1017080788123951 -0.087804556385465471 0 0.1052689549146623 -0.0663211994006144 0 0.089190063779311518 -0.082965808471458069 0 0.10058413041743761 -0.090581864498492995 0 0.1017080788123951 -0.087804556385465471 0 0.1017080788123951 -0.087804556385465471 0 0.1084674426683357 -0.077888137089068013 0 0.1052689549146623 -0.0663211994006144 0 0.089190063779311518 -0.082965808471458069 0 0.1052689549146623 -0.0663211994006144 0 0.081939961595450139 -0.063935815506958552 0 0.1067368008806147 -0.064801708903802782 0 0.1052689549146623 -0.0663211994006144 0 0.081939961595450139 -0.063935815506958552 0 0.1067368008806147 -0.064801708903802782 0 0.1017080788123951 -0.087804556385465471 0 0.1052689549146623 -0.0663211994006144 0 0.1084674426683357 -0.077888137089068013 0 0.1067368008806147 -0.064801708903802782 0 0.1052689549146623 -0.0663211994006144 0 0.1067368008806147 -0.064801708903802782 0 0.1052689549146623 -0.0663211994006144 0 0.1067368008806147 -0.064801708903802782 0 0.13548767730717889 -0.06580567532731052 0 0.1084674426683357 -0.077888137089068013 0 0.1067368008806147 -0.064801708903802782 0 0.1232061248222129 -0.075206297362028066 0 0.1067368008806147 -0.064801708903802782 0 0.1232061248222129 -0.075206297362028066 0 0.13548767730717889 -0.06580567532731052 0 0.1017080788123951 -0.087804556385465471 0 0.1084674426683357 -0.077888137089068013 0 0.1272797878356694 -0.088593758706814907 0 0.1017080788123951 -0.087804556385465471 0 0.1272797878356694 -0.088593758706814907 0 0.1084674426683357 -0.077888137089068013 0 0.1232061248222129 -0.075206297362028066 0 0.1272797878356694 -0.088593758706814907 0 0.1017080788123951 -0.087804556385465471 0 0.11567178204704499 -0.10568275569041199 0 0.1272797878356694 -0.088593758706814907 0 0.1017080788123951 -0.087804556385465471 0 0.11567178204704499 -0.10568275569041199 0 0.097441521812097198 -0.10878804364663471 0 0.1017080788123951 -0.087804556385465471 0 0.097441521812097198 -0.10878804364663471 0 0.088608598291174498 -0.101420796185217 0 0.10058413041743761 -0.090581864498492995 0 0.097441521812097198 -0.10878804364663471 0 0.10058413041743761 -0.090581864498492995 0 0.1017080788123951 -0.087804556385465471 0 0.097441521812097198 -0.10878804364663471 0 0.093527805260815264 -0.13002146576964491 0 0.097441521812097198 -0.10878804364663471 0 0.104312872852085 -0.12243825994362539 0 0.093527805260815264 -0.13002146576964491 0 0.097441521812097198 -0.10878804364663471 0 0.11567178204704499 -0.10568275569041199 0 0.097441521812097198 -0.10878804364663471 0 0.104312872852085 -0.12243825994362539 0 0.11567178204704499 -0.10568275569041199 0 0.104312872852085 -0.12243825994362539 0 0.12800820934211829 -0.12401417466047961 0 0.12800820934211829 -0.12401417466047961 0 0.14712201392247631 -0.1132275548916801 0 0.13655559816636781 -0.1031347463460832 0 0.12800820934211829 -0.12401417466047961 0 0.14712201392247631 -0.1132275548916801 0 0.11567178204704499 -0.10568275569041199 0 0.12800820934211829 -0.12401417466047961 0 0.13655559816636781 -0.1031347463460832 0 0.12800820934211829 -0.12401417466047961 0 0.14712201392247631 -0.1132275548916801 0 0.1486045981545247 -0.12747252536747111 0 0.14712201392247631 -0.1132275548916801 0 0.16095359288685571 -0.1184472051676727 0 0.1486045981545247 -0.12747252536747111 0 0.15146120268426411 -0.099532086410862586 0 0.13655559816636781 -0.1031347463460832 0 0.1528514968589437 -0.089382961028164357 0 0.14712201392247631 -0.1132275548916801 0 0.15146120268426411 -0.099532086410862586 0 0.16623581850283431 -0.10244093512288061 0 0.14712201392247631 -0.1132275548916801 0 0.15146120268426411 -0.099532086410862586 0 0.13655559816636781 -0.1031347463460832 0 0.11567178204704499 -0.10568275569041199 0 0.13655559816636781 -0.1031347463460832 0 0.1272797878356694 -0.088593758706814907 0 0.1272797878356694 -0.088593758706814907 0 0.13805891541926751 -0.078942206783145619 0 0.1528514968589437 -0.089382961028164357 0 0.1272797878356694 -0.088593758706814907 0 0.1528514968589437 -0.089382961028164357 0 0.13655559816636781 -0.1031347463460832 0 0.1272797878356694 -0.088593758706814907 0 0.1528514968589437 -0.089382961028164357 0 0.1232061248222129 -0.075206297362028066 0 0.1272797878356694 -0.088593758706814907 0 0.13805891541926751 -0.078942206783145619 0 0.1232061248222129 -0.075206297362028066 0 0.13805891541926751 -0.078942206783145619 0 0.13548767730717889 -0.06580567532731052 0 0.13548767730717889 -0.06580567532731052 0 0.16423855373374319 -0.066809641750814969 0 0.13548767730717889 -0.06580567532731052 0 0.1516507619880918 -0.076739651506421189 0 0.16423855373374319 -0.066809641750814969 0 0.13548767730717889 -0.06580567532731052 0 0.16423855373374319 -0.066809641750814969 0 0.16004124225532049 -0.061841453839887157 0 0.13805891541926751 -0.078942206783145619 0 0.13548767730717889 -0.06580567532731052 0 0.1516507619880918 -0.076739651506421189 0 0.13805891541926751 -0.078942206783145619 0 0.1516507619880918 -0.076739651506421189 0 0.1528514968589437 -0.089382961028164357 0 0.15146120268426411 -0.099532086410862586 0 0.1528514968589437 -0.089382961028164357 0 0.15581646250916109 -0.090151240212135456 0 0.1528514968589437 -0.089382961028164357 0 0.15581646250916109 -0.090151240212135456 0 0.17842320588221819 -0.090172163349513806 0 0.1528514968589437 -0.089382961028164357 0 0.17842320588221819 -0.090172163349513806 0 0.15581646250916109 -0.090151240212135456 0 0.16859491992305889 -0.093070393687126218 0 0.17842320588221819 -0.090172163349513806 0 0.1528514968589437 -0.089382961028164357 0 0.1653897445003264 -0.079862578323319361 0 0.17842320588221819 -0.090172163349513806 0 0.1516507619880918 -0.076739651506421189 0 0.1528514968589437 -0.089382961028164357 0 0.1653897445003264 -0.079862578323319361 0 0.1516507619880918 -0.076739651506421189 0 0.1653897445003264 -0.079862578323319361 0 0.16423855373374319 -0.066809641750814969 0 0.1653897445003264 -0.079862578323319361 0 0.16423855373374319 -0.066809641750814969 0 0.17833356117891219 -0.077628002067558224 0 0.16423855373374319 -0.066809641750814969 0 0.1727598808088672 -0.056322389892066158 0 0.1929894301603077 -0.067813608174319001 0 0.16423855373374319 -0.066809641750814969 0 0.1929894301603077 -0.067813608174319001 0 0.16423855373374319 -0.066809641750814969 0 0.17833356117891219 -0.077628002067558224 0 0.1929894301603077 -0.067813608174319001 0 0.17833356117891219 -0.077628002067558224 0 0.19040307974074269 -0.080139672987034255 0 0.1929894301603077 -0.067813608174319001 0 0.16859491992305889 -0.093070393687126218 0 0.17842320588221819 -0.090172163349513806 0 0.17335524666804841 -0.094081054567607611 0 0.17842320588221819 -0.090172163349513806 0 0.17824607109877541 -0.095663109832525739 0 0.17335524666804841 -0.094081054567607611 0 0.1653897445003264 -0.079862578323319361 0 0.17833356117891219 -0.077628002067558224 0 0.17842320588221819 -0.090172163349513806 0 0.17833356117891219 -0.077628002067558224 0 0.1854866420256687 -0.084161575248007242 0 0.19040307974074269 -0.080139672987034255 0 0.17833356117891219 -0.077628002067558224 0 0.17842320588221819 -0.090172163349513806 0 0.1854866420256687 -0.084161575248007242 0 0.18404025852736719 -0.096743595743047278 0 0.18504385230606449 -0.10434071571553651 0 0.19243594079672521 -0.096163448387799222 0 0.17824607109877541 -0.095663109832525739 0 0.18504385230606449 -0.10434071571553651 0 0.16623581850283431 -0.10244093512288061 0 0.18504385230606449 -0.10434071571553651 0 0.18014950107347269 -0.1188522098678762 0 0.16623581850283431 -0.10244093512288061 0 0.18404025852736719 -0.096743595743047278 0 0.17824607109877541 -0.095663109832525739 0 0.18504385230606449 -0.10434071571553651 0 0.17842320588221819 -0.090172163349513806 0 0.18404025852736719 -0.096743595743047278 0 0.19243594079672521 -0.096163448387799222 0 0.17842320588221819 -0.090172163349513806 0 0.18404025852736719 -0.096743595743047278 0 0.17824607109877541 -0.095663109832525739 0 0.17824607109877541 -0.095663109832525739 0 0.17335524666804841 -0.094081054567607611 0 0.16623581850283431 -0.10244093512288061 0 0.17824607109877541 -0.095663109832525739 0 0.16623581850283431 -0.10244093512288061 0 0.18504385230606449 -0.10434071571553651 0 0.18014950107347269 -0.1188522098678762 0 0.1922879604253335 -0.1099500278873989 0 0.18014950107347269 -0.1188522098678762 0 0.16623581850283431 -0.10244093512288061 0 0.18014950107347269 -0.1188522098678762 0 0.16095359288685571 -0.1184472051676727 0 0.16623581850283431 -0.10244093512288061 0 0.14712201392247631 -0.1132275548916801 0 0.16095359288685571 -0.1184472051676727 0 0.16623581850283431 -0.10244093512288061 0 0.18014950107347269 -0.1188522098678762 0 0.16095359288685571 -0.1184472051676727 0 0.16265603278097029 -0.1302428005884553 0 0.14712201392247631 -0.1132275548916801 0 0.16623581850283431 -0.10244093512288061 0 0.15581646250916109 -0.090151240212135456 0 0.16859491992305889 -0.093070393687126218 0 0.16623581850283431 -0.10244093512288061 0 0.15146120268426411 -0.099532086410862586 0 0.15581646250916109 -0.090151240212135456 0 0.16623581850283431 -0.10244093512288061 0 0.15581646250916109 -0.090151240212135456 0 0.16623581850283431 -0.10244093512288061 0 0.16859491992305889 -0.093070393687126218 0 0.17335524666804841 -0.094081054567607611 0 0.16623581850283431 -0.10244093512288061 0 0.13735218555535891 0.001011181807127467 0 0.1449152044553462 -0.019939696741877431 0 0.14216046477152491 0.0049125148476896544 0 0.15727218843160701 -0.01758578836774349 0 0.15849764294065671 -0.0060544572746906826 0 0.14216046477152491 0.0049125148476896544 0 0.15727218843160701 -0.01758578836774349 0 0.14216046477152491 0.0049125148476896544 0 0.1449152044553462 -0.019939696741877431 0 0.15727218843160701 -0.01758578836774349 0 0.14216046477152491 0.0049125148476896544 0 0.13735218555535891 0.001011181807127467 0 0.1449152044553462 -0.019939696741877431 0 0.13735218555535891 0.001011181807127467 0 0.1175949646085984 -0.015019396993320021 0 0.13735218555535891 0.001011181807127467 0 0.1175949646085984 -0.015019396993320021 0 0.13165260102391191 -0.019660205177744808 0 0.13735218555535891 0.001011181807127467 0 0.13165260102391191 -0.019660205177744808 0 0.1449152044553462 -0.019939696741877431 0 0.13165260102391191 -0.019660205177744808 0 0.13984755105295521 -0.030525993742740402 0 0.1449152044553462 -0.019939696741877431 0 0.124582941869709 -0.030507807285028901 0 0.13165260102391191 -0.019660205177744808 0 0.13984755105295521 -0.030525993742740402 0 0.1449152044553462 -0.019939696741877431 0 0.15247822335533329 -0.040890575290882317 0 0.15727218843160701 -0.01758578836774349 0 0.13984755105295521 -0.030525993742740402 0 0.1449152044553462 -0.019939696741877431 0 0.15247822335533329 -0.040890575290882317 0 0.1449152044553462 -0.019939696741877431 0 0.15247822335533329 -0.040890575290882317 0 0.15247822335533329 -0.040890575290882317 0 0.1379109625223634 -0.045605004272587249 0 0.14629243763992239 -0.054068479542427092 0 0.13984755105295521 -0.030525993742740402 0 0.15247822335533329 -0.040890575290882317 0 0.1379109625223634 -0.045605004272587249 0 0.1232921759667842 -0.047663851323270827 0 0.13984755105295521 -0.030525993742740402 0 0.1379109625223634 -0.045605004272587249 0 0.1232921759667842 -0.047663851323270827 0 0.124582941869709 -0.030507807285028901 0 0.13984755105295521 -0.030525993742740402 0 0.1232921759667842 -0.047663851323270827 0 0.13984755105295521 -0.030525993742740402 0 0.1232921759667842 -0.047663851323270827 0 0.13548767730717889 -0.06580567532731052 0 0.1379109625223634 -0.045605004272587249 0 0.13548767730717889 -0.06580567532731052 0 0.1379109625223634 -0.045605004272587249 0 0.14629243763992239 -0.054068479542427092 0 0.13548767730717889 -0.06580567532731052 0 0.14629243763992239 -0.054068479542427092 0 0.16004124225532049 -0.061841453839887157 0 0.15247822335533329 -0.040890575290882317 0 0.14629243763992239 -0.054068479542427092 0 0.16004124225532049 -0.061841453839887157 0 0.15247822335533329 -0.040890575290882317 0 0.16004124225532049 -0.061841453839887157 0 0.1644158146278025 -0.049784627651503079 0 0.1644158146278025 -0.049784627651503079 0 0.1727598808088672 -0.056322389892066158 0 0.1723839120916891 -0.040084091583176683 0 0.15247822335533329 -0.040890575290882317 0 0.16004124225532049 -0.061841453839887157 0 0.16423855373374319 -0.066809641750814969 0 0.16004124225532049 -0.061841453839887157 0 0.1727598808088672 -0.056322389892066158 0 0.16004124225532049 -0.061841453839887157 0 0.1644158146278025 -0.049784627651503079 0 0.1727598808088672 -0.056322389892066158 0 0.1727598808088672 -0.056322389892066158 0 0.18434240851125541 -0.050289724698312777 0 0.1723839120916891 -0.040084091583176683 0 0.1727598808088672 -0.056322389892066158 0 0.18434240851125541 -0.050289724698312777 0 0.1929894301603077 -0.067813608174319001 0 0.1723839120916891 -0.040084091583176683 0 0.18077822909658589 -0.032018797610549231 0 0.17598651952492231 -0.0227560541305885 0 0.18434240851125541 -0.050289724698312777 0 0.1723839120916891 -0.040084091583176683 0 0.18674227588606429 -0.037749552466939278 0 0.1723839120916891 -0.040084091583176683 0 0.18674227588606429 -0.037749552466939278 0 0.18077822909658589 -0.032018797610549231 0 0.18674227588606429 -0.037749552466939278 0 0.18077822909658589 -0.032018797610549231 0 0.18610830639217099 -0.030062433202775862 0 0.15247822335533329 -0.040890575290882317 0 0.1723839120916891 -0.040084091583176683 0 0.15727218843160701 -0.01758578836774349 0 0.15247822335533329 -0.040890575290882317 0 0.1644158146278025 -0.049784627651503079 0 0.1723839120916891 -0.040084091583176683 0 0.1723839120916891 -0.040084091583176683 0 0.15727218843160701 -0.01758578836774349 0 0.1723839120916891 -0.040084091583176683 0 0.1668946229318731 -0.019675061199070819 0 0.17598651952492231 -0.0227560541305885 0 0.1723839120916891 -0.040084091583176683 0 0.15727218843160701 -0.01758578836774349 0 0.1668946229318731 -0.019675061199070819 0 0.1668946229318731 -0.019675061199070819 0 0.17598651952492231 -0.0227560541305885 0 0.16985348277487761 -0.0099868764823510571 0 0.18077822909658589 -0.032018797610549231 0 0.18438258456793261 -0.021379302004443181 0 0.17598651952492231 -0.0227560541305885 0 0.18077822909658589 -0.032018797610549231 0 0.18610830639217099 -0.030062433202775862 0 0.18438258456793261 -0.021379302004443181 0 0.18438258456793261 -0.021379302004443181 0 0.17598651952492231 -0.0227560541305885 0 0.17878486519392331 -0.011645355321630489 0 0.17598651952492231 -0.0227560541305885 0 0.17878486519392331 -0.011645355321630489 0 0.16985348277487761 -0.0099868764823510571 0 0.17878486519392331 -0.011645355321630489 0 0.17506184651935949 -0.0021247232161890161 0 0.16985348277487761 -0.0099868764823510571 0 0.18438258456793261 -0.021379302004443181 0 0.17878486519392331 -0.011645355321630489 0 0.18863989258252481 -0.001979820774580698 0 0.17878486519392331 -0.011645355321630489 0 0.17506184651935949 -0.0021247232161890161 0 0.18863989258252481 -0.001979820774580698 0 0.1628037813635097 0.0015330777282007481 0 0.17506184651935949 -0.0021247232161890161 0 0.16985348277487761 -0.0099868764823510571 0 0.1668946229318731 -0.019675061199070819 0 0.16985348277487761 -0.0099868764823510571 0 0.15849764294065671 -0.0060544572746906826 0 0.15727218843160701 -0.01758578836774349 0 0.1668946229318731 -0.019675061199070819 0 0.15849764294065671 -0.0060544572746906826 0 0.1628037813635097 0.0015330777282007481 0 0.16985348277487761 -0.0099868764823510571 0 0.15849764294065671 -0.0060544572746906826 0 0.1628037813635097 0.0015330777282007481 0 0.15453230216132671 0.0032055715019124438 0 0.15849764294065671 -0.0060544572746906826 0 0.21174544862736719 0.0096628206364345465 0 0.20589386385567829 -0.0063134785331596111 0 0.2185782736923042 -0.0038367730406402641 0 0.20589386385567829 -0.0063134785331596111 0 0.2185782736923042 -0.0038367730406402641 0 0.2199828155312514 -0.0225516893132638 0 0.20589386385567829 -0.0063134785331596111 0 0.18863989258252481 -0.001979820774580698 0 0.1936475112771239 -0.030998707124919651 0 0.20589386385567829 -0.0063134785331596111 0 0.1936475112771239 -0.030998707124919651 0 0.20001428446098229 -0.034334459813343092 0 0.18863989258252481 -0.001979820774580698 0 0.1936475112771239 -0.030998707124919651 0 0.20589386385567829 -0.0063134785331596111 0 0.20001428446098229 -0.034334459813343092 0 0.18438258456793261 -0.021379302004443181 0 0.18863989258252481 -0.001979820774580698 0 0.1936475112771239 -0.030998707124919651 0 0.18610830639217099 -0.030062433202775862 0 0.18438258456793261 -0.021379302004443181 0 0.1936475112771239 -0.030998707124919651 0 0.20589386385567829 -0.0063134785331596111 0 0.20001428446098229 -0.034334459813343092 0 0.2199828155312514 -0.0225516893132638 0 0.20001428446098229 -0.034334459813343092 0 0.22061008072662569 -0.045125245157715169 0 0.20001428446098229 -0.034334459813343092 0 0.22061008072662569 -0.045125245157715169 0 0.2199828155312514 -0.0225516893132638 0 0.20001428446098229 -0.034334459813343092 0 0.19683654360934791 -0.049478981375062181 0 0.22061008072662569 -0.045125245157715169 0 0.1936475112771239 -0.030998707124919651 0 0.19683654360934791 -0.049478981375062181 0 0.18674227588606429 -0.037749552466939278 0 0.1936475112771239 -0.030998707124919651 0 0.19683654360934791 -0.049478981375062181 0 0.1936475112771239 -0.030998707124919651 0 0.20001428446098229 -0.034334459813343092 0 0.19683654360934791 -0.049478981375062181 0 0.1936475112771239 -0.030998707124919651 0 0.20001428446098229 -0.034334459813343092 0 0.18674227588606429 -0.037749552466939278 0 0.18610830639217099 -0.030062433202775862 0 0.1936475112771239 -0.030998707124919651 0 0.18434240851125541 -0.050289724698312777 0 0.18674227588606429 -0.037749552466939278 0 0.19683654360934791 -0.049478981375062181 0 0.20001428446098229 -0.034334459813343092 0 0.19683654360934791 -0.049478981375062181 0 0.19683654360934791 -0.049478981375062181 0 0.1929894301603077 -0.067813608174319001 0 0.2000429458732931 -0.068059913463883598 0 0.19683654360934791 -0.049478981375062181 0 0.21158346953455981 -0.057932445704329483 0 0.2000429458732931 -0.068059913463883598 0 0.19683654360934791 -0.049478981375062181 0 0.2000429458732931 -0.068059913463883598 0 0.19683654360934791 -0.049478981375062181 0 0.1929894301603077 -0.067813608174319001 0 0.18434240851125541 -0.050289724698312777 0 0.19683654360934791 -0.049478981375062181 0 0.1929894301603077 -0.067813608174319001 0 0.19683654360934791 -0.049478981375062181 0 0.21158346953455981 -0.057932445704329483 0 0.22061008072662569 -0.045125245157715169 0 0.24120587699226881 -0.055916030502087773 0 0.22061008072662569 -0.045125245157715169 0 0.2288443079289719 -0.069065642820655804 0 0.21158346953455981 -0.057932445704329483 0 0.22061008072662569 -0.045125245157715169 0 0.2288443079289719 -0.069065642820655804 0 0.24120587699226881 -0.055916030502087773 0 0.22061008072662569 -0.045125245157715169 0 0.25030159180115191 -0.034143426788088307 0 0.24120587699226881 -0.055916030502087773 0 0.23430517811137791 -0.037629801295311363 0 0.25030159180115191 -0.034143426788088307 0 0.23430517811137791 -0.037629801295311363 0 0.23651070060392609 -0.023431292744830981 0 0.22061008072662569 -0.045125245157715169 0 0.23430517811137791 -0.037629801295311363 0 0.2199828155312514 -0.0225516893132638 0 0.24120587699226881 -0.055916030502087773 0 0.22061008072662569 -0.045125245157715169 0 0.23430517811137791 -0.037629801295311363 0 0.2199828155312514 -0.0225516893132638 0 0.23651070060392609 -0.023431292744830981 0 0.2300866381754704 -0.0072438550720441714 0 0.23430517811137791 -0.037629801295311363 0 0.2199828155312514 -0.0225516893132638 0 0.23651070060392609 -0.023431292744830981 0 0.25030159180115191 -0.034143426788088307 0 0.23651070060392609 -0.023431292744830981 0 0.2464198669495459 -0.012097030270161889 0 0.23790413247208811 0.0091049515404343275 0 0.2464198669495459 -0.012097030270161889 0 0.2300866381754704 -0.0072438550720441714 0 0.23651070060392609 -0.023431292744830981 0 0.2464198669495459 -0.012097030270161889 0 0.2300866381754704 -0.0072438550720441714 0 0.2185782736923042 -0.0038367730406402641 0 0.2199828155312514 -0.0225516893132638 0 0.2300866381754704 -0.0072438550720441714 0 0.22518260227175371 0.0072623370788317187 0 0.2185782736923042 -0.0038367730406402641 0 0.2300866381754704 -0.0072438550720441714 0 0.20666963866093291 -0.1113398018781358 0 0.20399491490549271 -0.090961365670864353 0 0.20666963866093291 -0.1113398018781358 0 0.23081911420975029 -0.091789222750733895 0 0.20666963866093291 -0.1113398018781358 0 0.20399491490549271 -0.090961365670864353 0 0.23081911420975029 -0.091789222750733895 0 0.2184940671700534 -0.12394732724419751 0 0.20666963866093291 -0.1113398018781358 0 0.22056261316880149 -0.1108234873110058 0 0.2184940671700534 -0.12394732724419751 0 0.20975191972323501 -0.12432290509972491 0 0.20666963866093291 -0.1113398018781358 0 0.2184940671700534 -0.12394732724419751 0 0.20666963866093291 -0.1113398018781358 0 0.20975191972323501 -0.12432290509972491 0 0.20666963866093291 -0.1113398018781358 0 0.1971408692894723 -0.1190539635876471 0 0.20975191972323501 -0.12432290509972491 0 0.20666963866093291 -0.1113398018781358 0 0.18014950107347269 -0.1188522098678762 0 0.1971408692894723 -0.1190539635876471 0 0.19406318364410949 -0.13526348461287321 0 0.20666963866093291 -0.1113398018781358 0 0.1971408692894723 -0.1190539635876471 0 0.18014950107347269 -0.1188522098678762 0 0.1971408692894723 -0.1190539635876471 0 0.1922879604253335 -0.1099500278873989 0 0.20666963866093291 -0.1113398018781358 0 0.1971408692894723 -0.1190539635876471 0 0.1922879604253335 -0.1099500278873989 0 0.20666963866093291 -0.1113398018781358 0 0.19243594079672521 -0.096163448387799222 0 0.20399491490549271 -0.090961365670864353 0 0.18504385230606449 -0.10434071571553651 0 0.1922879604253335 -0.1099500278873989 0 0.19243594079672521 -0.096163448387799222 0 0.20666963866093291 -0.1113398018781358 0 0.1922879604253335 -0.1099500278873989 0 0.19243594079672521 -0.096163448387799222 0 0.20666963866093291 -0.1113398018781358 0 0.19243594079672521 -0.096163448387799222 0 0.1854866420256687 -0.084161575248007242 0 0.19040307974074269 -0.080139672987034255 0 0.20399491490549271 -0.090961365670864353 0 0.17842320588221819 -0.090172163349513806 0 0.19243594079672521 -0.096163448387799222 0 0.20399491490549271 -0.090961365670864353 0 0.17842320588221819 -0.090172163349513806 0 0.20399491490549271 -0.090961365670864353 0 0.17842320588221819 -0.090172163349513806 0 0.1854866420256687 -0.084161575248007242 0 0.20399491490549271 -0.090961365670864353 0 0.2000429458732931 -0.068059913463883598 0 0.20399491490549271 -0.090961365670864353 0 0.19040307974074269 -0.080139672987034255 0 0.2000429458732931 -0.068059913463883598 0 0.20399491490549271 -0.090961365670864353 0 0.19040307974074269 -0.080139672987034255 0 0.1929894301603077 -0.067813608174319001 0 0.2000429458732931 -0.068059913463883598 0 0.19040307974074269 -0.080139672987034255 0 0.1929894301603077 -0.067813608174319001 0 0.1929894301603077 -0.067813608174319001 0 0.2000429458732931 -0.068059913463883598 0 0.2000429458732931 -0.068059913463883598 0 0.2288443079289719 -0.069065642820655804 0 0.2000429458732931 -0.068059913463883598 0 0.21771238563745279 -0.081480669998114597 0 0.2288443079289719 -0.069065642820655804 0 0.21158346953455981 -0.057932445704329483 0 0.2000429458732931 -0.068059913463883598 0 0.2288443079289719 -0.069065642820655804 0 0.2000429458732931 -0.068059913463883598 0 0.20399491490549271 -0.090961365670864353 0 0.21771238563745279 -0.081480669998114597 0 0.20399491490549271 -0.090961365670864353 0 0.21771238563745279 -0.081480669998114597 0 0.23081911420975029 -0.091789222750733895 0 0.20399491490549271 -0.090961365670864353 0 0.23081911420975029 -0.091789222750733895 0 0.21771238563745279 -0.081480669998114597 0 0.23081911420975029 -0.091789222750733895 0 0.2288443079289719 -0.069065642820655804 0 0.25764566998465072 -0.070071372177431313 0 0.24120587699226881 -0.055916030502087773 0 0.2288443079289719 -0.069065642820655804 0 0.25764566998465072 -0.070071372177431313 0 0.2288443079289719 -0.069065642820655804 0 0.25764566998465072 -0.070071372177431313 0 0.2288443079289719 -0.069065642820655804 0 0.24423239209720191 -0.080930297464084477 0 0.25666672159796139 -0.092586939936295867 0 0.23081911420975029 -0.091789222750733895 0 0.23081911420975029 -0.091789222750733895 0 0.2288443079289719 -0.069065642820655804 0 0.24423239209720191 -0.080930297464084477 0 0.25666672159796139 -0.092586939936295867 0 0.23081911420975029 -0.091789222750733895 0 0.24423239209720191 -0.080930297464084477 0 0.23081911420975029 -0.091789222750733895 0 0.24423239209720191 -0.080930297464084477 0 0.25666672159796139 -0.092586939936295867 0 0.23081911420975029 -0.091789222750733895 0 0.23839025179526999 -0.1151992729885977 0 0.20666963866093291 -0.1113398018781358 0 0.23081911420975029 -0.091789222750733895 0 0.22056261316880149 -0.1108234873110058 0 0.23081911420975029 -0.091789222750733895 0 0.22056261316880149 -0.1108234873110058 0 0.23839025179526999 -0.1151992729885977 0 0.2184940671700534 -0.12394732724419751 0 0.22056261316880149 -0.1108234873110058 0 0.23839025179526999 -0.1151992729885977 0 0.2184940671700534 -0.12394732724419751 0 0.23839025179526999 -0.1151992729885977 0 0.22928680998153819 -0.13545484142638689 0 0.25915390151091949 -0.11811210275817149 0 0.25133622254172122 -0.13557462765415079 0 0.23839025179526999 -0.1151992729885977 0 0.25133622254172122 -0.13557462765415079 0 0.25208407187516418 -0.1419613505697605 0 0.23274332603383319 -0.13914027229300069 0 0.25133622254172122 -0.13557462765415079 0 0.23839025179526999 -0.1151992729885977 0 0.22928680998153819 -0.13545484142638689 0 0.25133622254172122 -0.13557462765415079 0 0.22928680998153819 -0.13545484142638689 0 0.25133622254172122 -0.13557462765415079 0 0.23274332603383319 -0.13914027229300069 0 0.22928680998153819 -0.13545484142638689 0 0.25208407187516418 -0.1419613505697605 0 0.23274332603383319 -0.13914027229300069 0 0.2530488896403309 -0.16079061319898569 0 0.23274332603383319 -0.13914027229300069 0 0.2530488896403309 -0.16079061319898569 0 0.23274332603383319 -0.13914027229300069 0 0.2334622085995452 -0.15779257262933219 0 0.2530488896403309 -0.16079061319898569 0 0.25208407187516418 -0.1419613505697605 0 0.23274332603383319 -0.13914027229300069 0 0.22694604844669111 -0.15137512496012309 0 0.2202725953444182 -0.1456731206256075 0 0.22100128495381829 -0.16152072110389429 0 0.22694604844669111 -0.15137512496012309 0 0.23274332603383319 -0.13914027229300069 0 0.2334622085995452 -0.15779257262933219 0 0.22694604844669111 -0.15137512496012309 0 0.2202725953444182 -0.1456731206256075 0 0.23274332603383319 -0.13914027229300069 0 0.23274332603383319 -0.13914027229300069 0 0.20959101376118139 -0.13576323162740581 0 0.22928680998153819 -0.13545484142638689 0 0.2116749968128239 -0.1353591630196288 0 0.23274332603383319 -0.13914027229300069 0 0.22928680998153819 -0.13545484142638689 0 0.2116749968128239 -0.1353591630196288 0 0.2184940671700534 -0.12394732724419751 0 0.22928680998153819 -0.13545484142638689 0 0.2116749968128239 -0.1353591630196288 0 0.2202725953444182 -0.1456731206256075 0 0.23274332603383319 -0.13914027229300069 0 0.20959101376118139 -0.13576323162740581 0 0.23274332603383319 -0.13914027229300069 0 0.22928680998153819 -0.13545484142638689 0 0.2184940671700534 -0.12394732724419751 0 0.22928680998153819 -0.13545484142638689 0 0.23274332603383319 -0.13914027229300069 0 0.20959101376118139 -0.13576323162740581 0 0.2116749968128239 -0.1353591630196288 0 0.20975191972323501 -0.12432290509972491 0 0.2116749968128239 -0.1353591630196288 0 0.19406318364410949 -0.13526348461287321 0 0.2184940671700534 -0.12394732724419751 0 0.20975191972323501 -0.12432290509972491 0 0.2116749968128239 -0.1353591630196288 0 0.20959101376118139 -0.13576323162740581 0 0.2116749968128239 -0.1353591630196288 0 0.19406318364410949 -0.13526348461287321 0 0.2202725953444182 -0.1456731206256075 0 0.21077041390333781 -0.15496976615408631 0 0.22100128495381829 -0.16152072110389429 0 0.2202725953444182 -0.1456731206256075 0 0.20959101376118139 -0.13576323162740581 0 0.21077041390333781 -0.15496976615408631 0 0.20959101376118139 -0.13576323162740581 0 0.21077041390333781 -0.15496976615408631 0 0.19406318364410949 -0.13526348461287321 0 0.21077041390333781 -0.15496976615408631 0 0.19019323353294471 -0.15547991582157239 0 0.19406318364410949 -0.13526348461287321 0 0.21077041390333781 -0.15496976615408631 0 0.19406318364410949 -0.13526348461287321 0 0.20975191972323501 -0.12432290509972491 0 0.1971408692894723 -0.1190539635876471 0 0.19406318364410949 -0.13526348461287321 0 0.2116749968128239 -0.1353591630196288 0 0.19406318364410949 -0.13526348461287321 0 0.2064216300685435 -0.1763378775815001 0 0.19333004299069351 -0.19482382871724169 0 0.185888281266576 -0.1738959907954824 0 0.21077041390333781 -0.15496976615408631 0 0.19019323353294471 -0.15547991582157239 0 0.2064216300685435 -0.1763378775815001 0 0.19019323353294471 -0.15547991582157239 0 0.2064216300685435 -0.1763378775815001 0 0.185888281266576 -0.1738959907954824 0 0.21077041390333781 -0.15496976615408631 0 0.2064216300685435 -0.1763378775815001 0 0.22100128495381829 -0.16152072110389429 0 0.2064216300685435 -0.1763378775815001 0 0.22637928715471201 -0.1750627007060517 0 0.22100128495381829 -0.16152072110389429 0 0.2064216300685435 -0.1763378775815001 0 0.22637928715471201 -0.1750627007060517 0 0.2213864998634191 -0.19074186604973761 0 0.22637928715471201 -0.1750627007060517 0 0.2363010186387848 -0.18586727398715949 0 0.2213864998634191 -0.19074186604973761 0 0.22637928715471201 -0.1750627007060517 0 0.22100128495381829 -0.16152072110389429 0 0.2334622085995452 -0.15779257262933219 0 0.22637928715471201 -0.1750627007060517 0 0.2334622085995452 -0.15779257262933219 0 0.24133419147104179 -0.17110858194103351 0 0.22694604844669111 -0.15137512496012309 0 0.22100128495381829 -0.16152072110389429 0 0.2334622085995452 -0.15779257262933219 0 0.2530488896403309 -0.16079061319898569 0 0.2334622085995452 -0.15779257262933219 0 0.24133419147104179 -0.17110858194103351 0 0.2550208565069661 -0.17514012483034949 0 0.2530488896403309 -0.16079061319898569 0 0.24133419147104179 -0.17110858194103351 0 0.22637928715471201 -0.1750627007060517 0 0.24133419147104179 -0.17110858194103351 0 0.2363010186387848 -0.18586727398715949 0 0.25030889548151403 -0.1837077448593728 0 0.2550208565069661 -0.17514012483034949 0 0.24133419147104179 -0.17110858194103351 0 0.25030889548151403 -0.1837077448593728 0 0.24133419147104179 -0.17110858194103351 0 0.2363010186387848 -0.18586727398715949 0 0.25030889548151403 -0.1837077448593728 0 0.2363010186387848 -0.18586727398715949 0 0.24624710011957149 -0.19756578472926509 0 0.2363010186387848 -0.18586727398715949 0 0.24624710011957149 -0.19756578472926509 0 0.23232272155890341 -0.19906227567560569 0 0.24624710011957149 -0.19756578472926509 0 0.2390873575194972 -0.2119906927462733 0 0.23232272155890341 -0.19906227567560569 0 0.25806059678156651 -0.21160485628964759 0 0.24624710011957149 -0.19756578472926509 0 0.2390873575194972 -0.2119906927462733 0 0.25806059678156651 -0.21160485628964759 0 0.2390873575194972 -0.2119906927462733 0 0.2485278721491469 -0.22983386195931649 0 0.22156570902884701 -0.2081716276760221 0 0.2275965143199381 -0.22680811778712909 0 0.21130945108473639 -0.22000441216527869 0 0.2390873575194972 -0.2119906927462733 0 0.22156570902884701 -0.2081716276760221 0 0.23232272155890341 -0.19906227567560569 0 0.2390873575194972 -0.2119906927462733 0 0.22156570902884701 -0.2081716276760221 0 0.2275965143199381 -0.22680811778712909 0 0.22156570902884701 -0.2081716276760221 0 0.2213864998634191 -0.19074186604973761 0 0.23232272155890341 -0.19906227567560569 0 0.2363010186387848 -0.18586727398715949 0 0.2213864998634191 -0.19074186604973761 0 0.23232272155890341 -0.19906227567560569 0 0.2410490216361528 -0.25300372010805161 0 0.2485278721491469 -0.22983386195931649 0 0.2275965143199381 -0.22680811778712909 0 0.25787859859726192 -0.24372773219337371 0 0.2410490216361528 -0.25300372010805161 0 0.2485278721491469 -0.22983386195931649 0 0.2390873575194972 -0.2119906927462733 0 0.2485278721491469 -0.22983386195931649 0 0.2275965143199381 -0.22680811778712909 0 0.2410490216361528 -0.25300372010805161 0 0.2275965143199381 -0.22680811778712909 0 0.2136455624920251 -0.24586339942155419 0 0.2410490216361528 -0.25300372010805161 0 0.2136455624920251 -0.24586339942155419 0 0.2136455624920251 -0.24586339942155419 0 0.1995187067769538 -0.22648505830905971 0 0.1970165427207646 -0.2431475676051908 0 0.2275965143199381 -0.22680811778712909 0 0.2136455624920251 -0.24586339942155419 0 0.21130945108473639 -0.22000441216527869 0 0.2136455624920251 -0.24586339942155419 0 0.21130945108473639 -0.22000441216527869 0 0.1995187067769538 -0.22648505830905971 0 0.1995187067769538 -0.22648505830905971 0 0.1970165427207646 -0.2431475676051908 0 0.1843931124890181 -0.23269732176232691 0 0.21130945108473639 -0.22000441216527869 0 0.1995187067769538 -0.22648505830905971 0 0.19847161958806309 -0.21206345826637629 0 0.2064216300685435 -0.1763378775815001 0 0.2213864998634191 -0.19074186604973761 0 0.20705859430259141 -0.20063481153153051 0 0.22156570902884701 -0.2081716276760221 0 0.2213864998634191 -0.19074186604973761 0 0.20705859430259141 -0.20063481153153051 0 0.22156570902884701 -0.2081716276760221 0 0.21130945108473639 -0.22000441216527869 0 0.20705859430259141 -0.20063481153153051 0 0.21130945108473639 -0.22000441216527869 0 0.20705859430259141 -0.20063481153153051 0 0.19847161958806309 -0.21206345826637629 0 0.19847161958806309 -0.21206345826637629 0 0.19333004299069351 -0.19482382871724169 0 0.184507054165965 -0.21658659277756609 0 0.1995187067769538 -0.22648505830905971 0 0.19847161958806309 -0.21206345826637629 0 0.184507054165965 -0.21658659277756609 0 0.20705859430259141 -0.20063481153153051 0 0.19847161958806309 -0.21206345826637629 0 0.19333004299069351 -0.19482382871724169 0 0.2064216300685435 -0.1763378775815001 0 0.20705859430259141 -0.20063481153153051 0 0.19333004299069351 -0.19482382871724169 0 0.1776330785524223 -0.18942424135099509 0 0.184507054165965 -0.21658659277756609 0 0.16837846483810831 -0.20319749351435479 0 0.19333004299069351 -0.19482382871724169 0 0.1776330785524223 -0.18942424135099509 0 0.184507054165965 -0.21658659277756609 0 0.1776330785524223 -0.18942424135099509 0 0.184507054165965 -0.21658659277756609 0 0.184507054165965 -0.21658659277756609 0 0.1749867686249286 -0.21735889230250449 0 0.16837846483810831 -0.20319749351435479 0 0.1749867686249286 -0.21735889230250449 0 0.16837846483810831 -0.20319749351435479 0 0.15045483047290331 -0.2082327262959493 0 0.1749867686249286 -0.21735889230250449 0 0.15045483047290331 -0.2082327262959493 0 0.1749867686249286 -0.21735889230250449 0 0.16226861639455931 -0.22172210758959859 0 0.15045483047290331 -0.2082327262959493 0 0.16837846483810831 -0.20319749351435479 0 0.15045483047290331 -0.2082327262959493 0 0.15431059237432221 -0.18438501484475869 0 0.1776330785524223 -0.18942424135099509 0 0.16837846483810831 -0.20319749351435479 0 0.15431059237432221 -0.18438501484475869 0 0.1970165427207646 -0.2431475676051908 0 0.18013525364959199 -0.24590787480667409 0 0.1843931124890181 -0.23269732176232691 0 0.18013525364959199 -0.24590787480667409 0 0.1843931124890181 -0.23269732176232691 0 0.17030829067285161 -0.2305872157882054 0 0.1995187067769538 -0.22648505830905971 0 0.1749867686249286 -0.21735889230250449 0 0.1995187067769538 -0.22648505830905971 0 0.1749867686249286 -0.21735889230250449 0 0.1843931124890181 -0.23269732176232691 0 0.1995187067769538 -0.22648505830905971 0 0.184507054165965 -0.21658659277756609 0 0.1749867686249286 -0.21735889230250449 0 0.1749867686249286 -0.21735889230250449 0 0.1843931124890181 -0.23269732176232691 0 0.17030829067285161 -0.2305872157882054 0 0.16226861639455931 -0.22172210758959859 0 0.17030829067285161 -0.2305872157882054 0 0.15332457580755371 -0.23070959597173549 0 0.1749867686249286 -0.21735889230250449 0 0.16226861639455931 -0.22172210758959859 0 0.17030829067285161 -0.2305872157882054 0 0.16103468924722281 -0.25381861710109321 0 0.18013525364959199 -0.24590787480667409 0 0.17030829067285161 -0.2305872157882054 0 0.16103468924722281 -0.25381861710109321 0 0.17030829067285161 -0.2305872157882054 0 0.15332457580755371 -0.23070959597173549 0 0.16103468924722281 -0.25381861710109321 0 0.1412434604122122 -0.24631040783256791 0 0.15332457580755371 -0.23070959597173549 0 0.1412434604122122 -0.24631040783256791 0 0.15332457580755371 -0.23070959597173549 0 0.1284413173888232 -0.22347585252773641 0 0.15332457580755371 -0.23070959597173549 0 0.1284413173888232 -0.22347585252773641 0 0.15045483047290331 -0.2082327262959493 0 0.16226861639455931 -0.22172210758959859 0 0.15332457580755371 -0.23070959597173549 0 0.15045483047290331 -0.2082327262959493 0 0.1200034520355143 -0.24749468667538321 0 0.1412434604122122 -0.24631040783256791 0 0.1284413173888232 -0.22347585252773641 0 0.15045483047290331 -0.2082327262959493 0 0.12592289232087811 -0.19910656028939411 0 0.15431059237432221 -0.18438501484475869 0 0.15045483047290331 -0.2082327262959493 0 0.12592289232087811 -0.19910656028939411 0 0.1284413173888232 -0.22347585252773641 0 0.15045483047290331 -0.2082327262959493 0 0.12592289232087811 -0.19910656028939411 0 0.11404320040195411 -0.17785048998131209 0 0.12592289232087811 -0.19910656028939411 0 0.1362427207560932 -0.1734399905344442 0 0.12592289232087811 -0.19910656028939411 0 0.1362427207560932 -0.1734399905344442 0 0.15431059237432221 -0.18438501484475869 0 0.1362427207560932 -0.1734399905344442 0 0.15431059237432221 -0.18438501484475869 0 0.1498051255961938 -0.157092757972084 0 0.11404320040195411 -0.17785048998131209 0 0.1362427207560932 -0.1734399905344442 0 0.1305387904294309 -0.15561497697083931 0 0.1362427207560932 -0.1734399905344442 0 0.1498051255961938 -0.157092757972084 0 0.1305387904294309 -0.15561497697083931 0 0.1498051255961938 -0.157092757972084 0 0.1305387904294309 -0.15561497697083931 0 0.13638976604354719 -0.13495016646355951 0 0.1161887790728692 -0.1476769396888597 0 0.1305387904294309 -0.15561497697083931 0 0.13638976604354719 -0.13495016646355951 0 0.12800820934211829 -0.12401417466047961 0 0.13638976604354719 -0.13495016646355951 0 0.1486045981545247 -0.12747252536747111 0 0.13638976604354719 -0.13495016646355951 0 0.16388512732533739 -0.13509953849785281 0 0.13638976604354719 -0.13495016646355951 0 0.1486045981545247 -0.12747252536747111 0 0.16388512732533739 -0.13509953849785281 0 0.1498051255961938 -0.157092757972084 0 0.13638976604354719 -0.13495016646355951 0 0.16388512732533739 -0.13509953849785281 0 0.16388512732533739 -0.13509953849785281 0 0.17075910293887969 -0.16226188992442411 0 0.1498051255961938 -0.157092757972084 0 0.16388512732533739 -0.13509953849785281 0 0.17075910293887969 -0.16226188992442411 0 0.18014950107347269 -0.1188522098678762 0 0.16265603278097029 -0.1302428005884553 0 0.16388512732533739 -0.13509953849785281 0 0.16095359288685571 -0.1184472051676727 0 0.1486045981545247 -0.12747252536747111 0 0.16265603278097029 -0.1302428005884553 0 0.1486045981545247 -0.12747252536747111 0 0.16265603278097029 -0.1302428005884553 0 0.16388512732533739 -0.13509953849785281 0 0.16265603278097029 -0.1302428005884553 0 0.16388512732533739 -0.13509953849785281 0 0.19406318364410949 -0.13526348461287321 0 0.16388512732533739 -0.13509953849785281 0 0.18014950107347269 -0.1188522098678762 0 0.19406318364410949 -0.13526348461287321 0 0.18014950107347269 -0.1188522098678762 0 0.19406318364410949 -0.13526348461287321 0 0.16388512732533739 -0.13509953849785281 0 0.19019323353294471 -0.15547991582157239 0 0.16388512732533739 -0.13509953849785281 0 0.17075910293887969 -0.16226188992442411 0 0.19019323353294471 -0.15547991582157239 0 0.19406318364410949 -0.13526348461287321 0 0.16388512732533739 -0.13509953849785281 0 0.19019323353294471 -0.15547991582157239 0 0.185888281266576 -0.1738959907954824 0 0.17075910293887969 -0.16226188992442411 0 0.1776330785524223 -0.18942424135099509 0 0.185888281266576 -0.1738959907954824 0 0.17075910293887969 -0.16226188992442411 0 0.1776330785524223 -0.18942424135099509 0 0.17075910293887969 -0.16226188992442411 0 0.19333004299069351 -0.19482382871724169 0 0.1776330785524223 -0.18942424135099509 0 0.185888281266576 -0.1738959907954824 0 0.1776330785524223 -0.18942424135099509 0 0.15431059237432221 -0.18438501484475869 0 0.17075910293887969 -0.16226188992442411 0 0.15431059237432221 -0.18438501484475869 0 0.1498051255961938 -0.157092757972084 0 0.17075910293887969 -0.16226188992442411 0 
</DataArray>
</Points>
<Cells>
<DataArray type="UInt32" Name="connectivity" format="ascii">
0 1 2 3 4 5 6 7 8 9 10 11 12 13 14 15 16 17 18 19 20 21 22 23 24 25 26 27 28 29 30 31 32 33 34 35 36 37 38 39 40 41 42 43 44 45 46 47 48 49 50 51 52 53 54 55 56 57 58 59 60 61 62 63 64 65 66 67 68 69 70 71 72 73 74 75 76 77 78 79 80 81 82 83 84 85 86 87 88 89 90 91 92 93 94 95 96 97 98 99 100 101 102 103 104 105 106 107 108 109 110 111 112 113 114 115 116 117 118 119 120 121 122 123 124 125 126 127 128 129 130 131 132 133 134 135 136 137 138 139 140 141 142 143 144 145 146 147 148 149 150 151 152 153 154 155 156 157 158 159 160 161 162 163 164 165 166 167 168 169 170 171 172 173 174 175 176 177 178 179 180 181 182 183 184 185 186 187 188 189 190 191 192 193 194 195 196 197 198 199 200 201 202 203 204 205 206 207 208 209 210 211 212 213 214 215 216 217 218 219 220 221 222 223 224 225 226 227 228 229 230 231 232 233 234 235 236 237 238 239 240 241 242 243 244 245 246 247 248 249 250 251 252 253 254 255 256 257 258 259 260 261 262 263 264 265 266 267 268 269 270 271 272 273 274 275 276 277 278 279 280 281 282 283 284 285 286 287 288 289 290 291 292 293 294 295 296 297 298 299 300 301 302 303 304 305 306 307 308 309 310 311 312 313 314 315 316 317 318 319 320 321 322 323 324 325 326 327 328 329 330 331 332 333 334 335 336 337 338 339 340 341 342 343 344 345 346 347 348 349 350 351 352 353 354 355 356 357 358 359 360 361 362 363 364 365 366 367 368 369 370 371 372 373 374 375 376 377 378 379 380 381 382 383 384 385 386 387 388 389 390 391 392 393 394 395 396 397 398 399 400 401 402 403 404 405 406 407 408 409 410 411 412 413 414 415 416 417 418 419 420 421 422 423 424 425 426 427 428 429 430 431 432 433 434 435 436 437 438 439 440 441 442 443 444 445 446 447 448 449 450 451 452 453 454 455 456 457 458 459 460 461 462 463 464 465 466 467 468 469 470 471 472 473 474 475 476 477 478 479 480 481 482 483 484 485 486 487 488 489 490 491 492 493 494 495 496 497 498 499 500 501 502 503 504 505 506 507 508 509 510 511 512 513 514 515 516 517 518 519 520 521 522 523 524 525 526 527 528 529 530 531 532 533 534 535 536 537 538 539 540 541 542 543 544 545 546 547 548 549 550 551 552 553 554 555 556 557 558 559 560 561 562 563 564 565 566 567 568 569 570 571 572 573 574 575 576 577 578 579 580 581 582 583 584 585 586 587 588 589 590 591 592 593 594 595 596 597 598 599 600 601 602 603 604 605 606 607 608 609 610 611 612 613 614 615 616 617 618 619 620 621 622 623 624 625 626 627 628 629 630 631 632 633 634 635 636 637 638 639 640 641 642 643 644 645 646 647 648 649 650 651 652 653 654 655 656 657 658 659 660 661 662 663 664 665 666 667 668 669 670 671 672 673 674 675 676 677 678 679 680 681 682 683 684 685 686 687 688 689 690 691 692 693 694 695 696 697 698 699 700 701 702 703 704 705 706 707 708 709 710 711 712 713 714 715 716 717 718 719 720 721 722 723 724 725 726 727 728 729 730 731 732 733 734 735 736 737 738 739 740 741 742 743 744 745 746 747 748 749 750 751 752 753 754 755 756 757 758 759 760 761 762 763 764 765 766 767 768 769 770 771 772 773 774 775 776 777 778 779 780 781 782 783 784 785 786 787 788 789 790 791 792 793 794 795 796 797 798 799 800 801 802 803 804 805 806 807 808 809 810 811 812 813 814 815 816 817 818 819 820 821 822 823 824 825 826 827 828 829 830 831 832 833 834 835 836 837 838 839 840 841 842 843 844 845 846 847 848 849 850 851 852 853 854 855 856 857 858 859 860 861 862 863 864 865 866 867 868 869 870 871 872 873 874 875 876 877 878 879 880 881 882 883 884 885 886 887 888 889 890 891 892 893 894 895 896 897 898 899 900 901 902 903 904 905 906 907 908 909 910 911 912 913 914 915 916 917 918 919 920 921 922 923 924 925 926 927 928 929 930 931 932 933 934 935 936 937 938 939 940 941 942 943 944 945 946 947 948 949 950 951 952 953 954 955 956 957 958 959 960 961 962 963 964 965 966 967 968 969 970 971 972 973 974 975 976 977 978 979 980 981 982 983 984 985 986 987 988 989 990 991 992 993 994 995 996 997 998 999 1000 1001 1002 1003 1004 1005 1006 1007 1008 1009 1010 1011 1012 1013 1014 1015 1016 1017 1018 1019 1020 1021 1022 1023 1024 1025 1026 1027 1028 1029 1030 1031 1032 1033 1034 1035 1036 1037 1038 1039 1040 1041 1042 1043 1044 1045 1046 1047 1048 1049 1050 1051 1052 1053 1054 1055 1056 1057 1058 1059 1060 1061 1062 1063 1064 1065 1066 1067 1068 1069 1070 1071 1072 1073 1074 1075 1076 1077 1078 1079 1080 1081 1082 1083 1084 1085 1086 1087 1088 1089 1090 1091 1092 1093 1094 1095 1096 1097 1098 1099 1100 1101 1102 1103 1104 1105 1106 1107 1108 1109 1110 1111 1112 1113 1114 1115 1116 1117 1118 1119 1120 1121 1122 1123 1124 1125 1126 1127 1128 1129 1130 1131 1132 1133 1134 1135 1136 1137 1138 1139 1140 1141 1142 1143 1144 1145 1146 1147 1148 1149 1150 1151 1152 1153 1154 1155 1156 1157 1158 1159 1160 1161 1162 1163 1164 1165 1166 1167 1168 1169 1170 1171 1172 1173 1174 1175 1176 1177 1178 1179 1180 1181 1182 1183 1184 1185 1186 1187 1188 1189 1190 1191 1192 1193 1194 1195 1196 1197 1198 1199 1200 1201 1202 1203 1204 1205 1206 1207 1208 1209 1210 1211 1212 1213 1214 1215 1216 1217 1218 1219 1220 1221 1222 1223 1224 1225 1226 1227 1228 1229 1230 1231 1232 1233 1234 1235 1236 1237 1238 1239 1240 1241 1242 1243 1244 1245 1246 1247 1248 1249 1250 1251 1252 1253 1254 1255 1256 1257 1258 1259 1260 1261 1262 1263 1264 1265 1266 1267 1268 1269 1270 1271 1272 1273 1274 1275 1276 1277 1278 1279 1280 1281 1282 1283 1284 1285 1286 1287 1288 1289 1290 1291 1292 1293 1294 1295 1296 1297 1298 1299 1300 1301 1302 1303 1304 1305 1306 1307 1308 1309 1310 1311 1312 1313 1314 1315 1316 1317 1318 1319 1320 1321 1322 1323 1324 1325 1326 1327 1328 1329 1330 1331 1332 1333 1334 1335 1336 1337 1338 1339 1340 1341 1342 1343 1344 1345 1346 1347 1348 1349 1350 1351 1352 1353 1354 1355 1356 1357 1358 1359 1360 1361 1362 1363 1364 1365 1366 1367 1368 1369 1370 1371 1372 1373 1374 1375 1376 1377 1378 1379 1380 1381 1382 1383 1384 1385 1386 1387 1388 1389 1390 1391 1392 1393 1394 1395 1396 1397 1398 1399 1400 1401 1402 1403 1404 1405 1406 1407 1408 1409 1410 1411 1412 1413 1414 1415 1416 1417 1418 1419 1420 1421 1422 1423 1424 1425 1426 1427 1428 1429 1430 1431 1432 1433 1434 1435 1436 1437 1438 1439 1440 1441 1442 1443 1444 1445 1446 1447 1448 1449 1450 1451 1452 1453 1454 1455 1456 1457 1458 1459 1460 1461 1462 1463 1464 1465 1466 1467 1468 1469 1470 1471 1472 1473 1474 1475 1476 1477 1478 1479 1480 1481 1482 1483 1484 1485 1486 1487 1488 1489 1490 1491 1492 1493 1494 1495 1496 1497 1498 1499 1500 1501 1502 1503 1504 1505 1506 1507 1508 1509 1510 1511 1512 1513 1514 1515 1516 1517 1518 1519 1520 1521 1522 1523 1524 1525 1526 1527 1528 1529 1530 1531 1532 1533 1534 1535 1536 1537 1538 1539 1540 1541 1542 1543 1544 1545 1546 1547 1548 1549 1550 1551 1552 1553 1554 1555 1556 1557 1558 1559 1560 1561 1562 1563 1564 1565 1566 1567 1568 1569 1570 1571 1572 1573 1574 1575 1576 1577 1578 1579 1580 1581 1582 1583 1584 1585 1586 1587 1588 1589 1590 1591 1592 1593 1594 1595 1596 1597 1598 1599 1600 1601 1602 1603 1604 1605 1606 1607 1608 1609 1610 1611 1612 1613 1614 1615 1616 1617 1618 1619 1620 1621 1622 1623 1624 1625 1626 1627 1628 1629 1630 1631 1632 1633 1634 1635 1636 1637 1638 1639 1640 1641 1642 1643 1644 1645 1646 1647 1648 1649 1650 1651 1652 1653 1654 1655 1656 1657 1658 1659 1660 1661 1662 1663 1664 1665 1666 1667 1668 1669 1670 1671 1672 1673 1674 1675 1676 1677 1678 1679 1680 1681 1682 1683 1684 1685 1686 1687 1688 1689 1690 1691 1692 1693 1694 1695 1696 1697 1698 1699 1700 1701 1702 1703 1704 1705 1706 1707 1708 1709 1710 1711 1712 1713 1714 1715 1716 1717 1718 1719 1720 1721 1722 1723 1724 1725 1726 1727 1728 1729 1730 1731 1732 1733 1734 1735 1736 1737 1738 1739 1740 1741 1742 1743 1744 1745 1746 1747 1748 1749 1750 1751 1752 1753 1754 1755 1756 1757 1758 1759 1760 1761 1762 1763 1764 1765 1766 1767 1768 1769 1770 1771 1772 1773 1774 1775 1776 1777 1778 1779 1780 1781 1782 1783 1784 1785 1786 1787 1788 1789 1790 1791 1792 1793 1794 1795 1796 1797 1798 1799 1800 1801 1802 1803 1804 1805 1806 1807 1808 1809 1810 1811 1812 1813 1814 1815 1816 1817 1818 1819 1820 1821 1822 1823 1824 1825 1826 1827 1828 1829 1830 1831 1832 1833 1834 1835 1836 1837 1838 1839 1840 1841 1842 1843 1844 1845 1846 1847 1848 1849 1850 1851 1852 1853 1854 1855 1856 1857 1858 1859 1860 1861 1862 1863 1864 1865 1866 1867 1868 1869 1870 1871 1872 1873 1874 1875 1876 1877 1878 1879 1880 1881 1882 1883 1884 1885 1886 1887 1888 1889 1890 1891 1892 1893 1894 1895 1896 1897 1898 1899 1900 1901 1902 1903 1904 1905 1906 1907 1908 1909 1910 1911 1912 1913 1914 1915 1916 1917 1918 1919 1920 1921 1922 1923 1924 1925 1926 1927 1928 1929 1930 1931 1932 1933 1934 1935 1936 1937 1938 1939 1940 1941 1942 1943 1944 1945 1946 1947 1948 1949 1950 1951 1952 1953 1954 1955 1956 1957 1958 1959 1960 1961 1962 1963 1964 1965 1966 1967 1968 1969 1970 1971 1972 1973 1974 1975 1976 1977 1978 1979 1980 1981 1982 1983 1984 1985 1986 1987 1988 1989 1990 1991 1992 1993 1994 1995 1996 1997 1998 1999 2000 2001 2002 2003 2004 2005 2006 2007 2008 2009 2010 2011 2012 2013 2014 2015 2016 2017 2018 2019 2020 2021 2022 2023 2024 2025 2026 2027 2028 2029 2030 2031 2032 2033 2034 2035 2036 2037 2038 2039 2040 2041 2042 2043 2044 2045 2046 2047 2048 2049 2050 2051 2052 2053 2054 2055 2056 2057 2058 2059 2060 2061 2062 2063 2064 2065 2066 2067 2068 2069 2070 2071 2072 2073 2074 2075 2076 2077 2078 2079 2080 2081 2082 2083 2084 2085 2086 2087 2088 2089 2090 2091 2092 2093 2094 2095 2096 2097 2098 2099 2100 2101 2102 2103 2104 2105 2106 2107 2108 2109 2110 2111 2112 2113 2114 2115 2116 2117 2118 2119 2120 2121 2122 2123 2124 2125 2126 2127 2128 2129 2130 2131 2132 2133 2134 2135 2136 2137 2138 2139 2140 2141 2142 2143 2144 2145 2146 2147 2148 2149 2150 2151 2152 2153 2154 2155 2156 2157 2158 2159 2160 2161 2162 2163 2164 2165 2166 2167 2168 2169 2170 2171 2172 2173 2174 2175 2176 2177 2178 2179 2180 2181 2182 2183 2184 2185 2186 2187 2188 2189 2190 2191 2192 2193 2194 2195 2196 2197 2198 2199 2200 2201 2202 2203 2204 2205 2206 2207 2208 2209 2210 2211 2212 2213 2214 2215 2216 2217 2218 2219 2220 2221 2222 2223 2224 2225 2226 2227 2228 2229 2230 2231 2232 2233 2234 2235 2236 2237 2238 2239 2240 2241 2242 2243 2244 2245 2246 2247 2248 2249 2250 2251 2252 2253 2254 2255 2256 2257 2258 2259 2260 2261 2262 2263 2264 2265 2266 2267 2268 2269 2270 2271 2272 2273 2274 2275 2276 2277 2278 2279 2280 2281 2282 2283 2284 2285 2286 2287 2288 2289 2290 2291 2292 2293 2294 2295 2296 2297 2298 2299 2300 2301 2302 2303 2304 2305 2306 2307 2308 2309 2310 2311 2312 2313 2314 2315 2316 2317 2318 2319 2320 2321 2322 2323 2324 2325 2326 2327 2328 2329 2330 2331 2332 2333 2334 2335 2336 2337 2338 2339 2340 2341 2342 2343 2344 2345 2346 2347 2348 2349 2350 2351 2352 2353 2354 2355 2356 2357 2358 2359 2360 2361 2362 2363 2364 2365 2366 2367 2368 2369 2370 2371 2372 2373 2374 2375 2376 2377 2378 2379 2380 2381 2382 2383 2384 2385 2386 2387 2388 2389 2390 2391 2392 2393 2394 2395 2396 2397 2398 2399 2400 2401 2402 2403 2404 2405 2406 2407 2408 2409 2410 2411 2412 2413 2414 2415 2416 2417 2418 2419 2420 2421 2422 2423 2424 2425 2426 2427 2428 2429 2430 2431 2432 2433 2434 2435 2436 2437 2438 2439 2440 2441 2442 2443 2444 2445 2446 2447 2448 2449 2450 2451 2452 2453 2454 2455 2456 2457 2458 2459 2460 2461 2462 2463 2464 2465 2466 2467 2468 2469 2470 2471 2472 2473 2474 2475 2476 2477 2478 2479 2480 2481 2482 2483 2484 2485 2486 2487 2488 2489 2490 2491 2492 2493 2494 2495 2496 2497 2498 2499 2500 2501 2502 2503 2504 2505 2506 2507 2508 2509 2510 2511 2512 2513 2514 2515 2516 2517 2518 2519 2520 2521 2522 2523 2524 2525 2526 2527 2528 2529 2530 2531 2532 2533 2534 2535 2536 2537 2538 2539 2540 2541 2542 2543 2544 2545 2546 2547 2548 2549 2550 2551 2552 2553 2554 2555 2556 2557 2558 2559 2560 2561 2562 2563 2564 2565 2566 2567 2568 2569 2570 2571 2572 2573 2574 2575 2576 2577 2578 2579 2580 2581 2582 2583 2584 2585 2586 2587 2588 2589 2590 2591 2592 2593 2594 2595 2596 2597 2598 2599 2600 2601 2602 2603 2604 2605 2606 2607 2608 2609 2610 2611 2612 2613 2614 2615 2616 2617 2618 2619 2620 2621 2622 2623 2624 2625 2626 2627 2628 2629 2630 2631 2632 2633 2634 2635 2636 2637 2638 2639 2640 2641 2642 2643 2644 2645 2646 2647 2648 2649 2650 2651 2652 2653 2654 2655 2656 2657 2658 2659 2660 2661 2662 2663 2664 2665 2666 2667 2668 2669 2670 2671 2672 2673 2674 2675 2676 2677 2678 2679 2680 2681 2682 2683 2684 2685 2686 2687 2688 2689 2690 2691 2692 2693 2694 2695 2696 2697 2698 2699 2700 2701 2702 2703 2704 2705 2706 2707 2708 2709 2710 2711 2712 2713 2714 2715 2716 2717 2718 2719 2720 2721 2722 2723 2724 2725 2726 2727 2728 2729 2730 2731 2732 2733 2734 2735 2736 2737 2738 2739 2740 2741 2742 2743 2744 2745 2746 2747 2748 2749 2750 2751 2752 2753 2754 2755 2756 2757 2758 2759 2760 2761 2762 2763 2764 2765 2766 2767 2768 2769 2770 2771 2772 2773 2774 2775 2776 2777 2778 2779 2780 2781 2782 2783 2784 2785 2786 2787 2788 2789 2790 2791 2792 2793 2794 2795 2796 2797 2798 2799 2800 2801 2802 2803 2804 2805 2806 2807 2808 2809 2810 2811 2812 2813 2814 2815 2816 2817 2818 2819 2820 2821 2822 2823 2824 2825 2826 2827 2828 2829 2830 2831 2832 2833 2834 2835 2836 2837 2838 2839 2840 2841 2842 2843 2844 2845 2846 2847 2848 2849 2850 2851 2852 2853 2854 2855 2856 2857 2858 2859 2860 2861 2862 2863 2864 2865 2866 2867 2868 2869 2870 2871 2872 2873 2874 2875 2876 2877 2878 2879 2880 2881 2882 2883 2884 2885 2886 2887 2888 2889 2890 2891 2892 2893 2894 2895 2896 2897 2898 2899 2900 2901 2902 2903 2904 2905 2906 2907 2908 2909 2910 2911 2912 2913 2914 2915 2916 2917 2918 2919 2920 2921 2922 2923 2924 2925 2926 2927 2928 2929 2930 2931 2932 2933 2934 2935 2936 2937 2938 2939 2940 2941 2942 2943 2944 2945 2946 2947 2948 2949 2950 2951 2952 2953 2954 2955 2956 2957 2958 2959 2960 2961 2962 2963 2964 2965 2966 2967 2968 2969 2970 2971 2972 2973 2974 2975 2976 2977 2978 2979 2980 2981 2982 2983 2984 2985 2986 2987 2988 2989 2990 2991 2992 2993 2994 2995 2996 2997 2998 2999 3000 3001 3002 3003 3004 3005 3006 3007 3008 3009 3010 3011 3012 3013 3014 3015 3016 3017 3018 3019 3020 3021 3022 3023 3024 3025 3026 3027 3028 3029 3030 3031 3032 3033 3034 3035 3036 3037 3038 3039 3040 3041 3042 3043 3044 3045 3046 3047 3048 3049 3050 3051 3052 3053 3054 3055 3056 3057 3058 3059 3060 3061 3062 3063 3064 3065 3066 3067 3068 3069 3070 3071 3072 3073 3074 3075 3076 3077 3078 3079 3080 3081 3082 3083 3084 3085 3086 3087 3088 3089 3090 3091 3092 3093 3094 3095 3096 3097 3098 3099 3100 3101 3102 3103 3104 3105 3106 3107 3108 3109 3110 3111 3112 3113 3114 3115 3116 3117 3118 3119 3120 3121 3122 3123 3124 3125 3126 3127 3128 3129 3130 3131 3132 3133 3134 3135 3136 3137 3138 3139 3140 3141 3142 3143 3144 3145 3146 3147 3148 3149 3150 3151 3152 3153 3154 3155 3156 3157 3158 3159 3160 3161 3162 3163 3164 3165 3166 3167 3168 3169 3170 3171 3172 3173 3174 3175 3176 3177 3178 3179 3180 3181 3182 3183 3184 3185 3186 3187 3188 3189 3190 3191 3192 3193 3194 3195 3196 3197 3198 3199 3200 3201 3202 3203 3204 3205 3206 3207 3208 3209 3210 3211 3212 3213 3214 3215 3216 3217 3218 3219 3220 3221 3222 3223 3224 3225 3226 3227 3228 3229 3230 3231 3232 3233 3234 3235 3236 3237 3238 3239 3240 3241 3242 3243 3244 3245 3246 3247 3248 3249 3250 3251 3252 3253 3254 3255 3256 3257 3258 3259 3260 3261 3262 3263 3264 3265 3266 3267 3268 3269 3270 3271 3272 3273 3274 3275 3276 3277 3278 3279 3280 3281 3282 3283 3284 3285 3286 3287 3288 3289 3290 3291 3292 3293 3294 3295 3296 3297 3298 3299 3300 3301 3302 3303 3304 3305 3306 3307 3308 3309 3310 3311 3312 3313 3314 3315 3316 3317 3318 3319 3320 3321 3322 3323 3324 3325 3326 3327 3328 3329 3330 3331 3332 3333 3334 3335 3336 3337 3338 3339 3340 3341 3342 3343 3344 3345 3346 3347 3348 3349 3350 3351 3352 3353 3354 3355 3356 3357 3358 3359 3360 3361 3362 3363 3364 3365 3366 3367 3368 3369 3370 3371 3372 3373 3374 3375 3376 3377 3378 3379 3380 3381 3382 3383 3384 3385 3386 3387 3388 3389 3390 3391 3392 3393 3394 3395 3396 3397 3398 3399 3400 3401 3402 3403 3404 3405 3406 3407 3408 3409 3410 3411 3412 3413 3414 3415 3416 3417 3418 3419 3420 3421 3422 3423 3424 3425 3426 3427 3428 3429 3430 3431 3432 3433 3434 3435 3436 3437 3438 3439 3440 3441 3442 3443 3444 3445 3446 3447 3448 3449 3450 3451 3452 3453 3454 3455 3456 3457 3458 3459 3460 3461 3462 3463 3464 3465 3466 3467 3468 3469 3470 3471 3472 3473 3474 3475 3476 3477 3478 3479 3480 3481 3482 3483 3484 3485 3486 3487 3488 3489 3490 3491 3492 3493 3494 3495 3496 3497 3498 3499 3500 3501 3502 3503 3504 3505 3506 3507 3508 3509 3510 3511 3512 3513 3514 3515 3516 3517 3518 3519 3520 3521 3522 3523 3524 3525 3526 3527 3528 3529 3530 3531 3532 3533 3534 3535 3536 3537 3538 3539 3540 3541 3542 3543 3544 3545 3546 3547 3548 3549 3550 3551 3552 3553 3554 3555 3556 3557 3558 3559 3560 3561 3562 3563 3564 3565 3566 3567 3568 3569 3570 3571 3572 3573 3574 3575 3576 3577 3578 3579 3580 3581 3582 3583 3584 3585 3586 3587 3588 3589 3590 3591 3592 3593 3594 3595 3596 3597 3598 3599 3600 3601 3602 3603 3604 3605 3606 3607 3608 3609 3610 3611 3612 3613 3614 3615 3616 3617 3618 3619 3620 3621 3622 3623 3624 3625 3626 3627 3628 3629 3630 3631 3632 3633 3634 3635 3636 3637 3638 3639 3640 3641 3642 3643 3644 3645 3646 3647 3648 3649 3650 3651 3652 3653 3654 3655 3656 3657 3658 3659 3660 3661 3662 3663 3664 3665 3666 3667 3668 3669 3670 3671 3672 3673 3674 3675 3676 3677 3678 3679 3680 3681 3682 3683 3684 3685 3686 3687 3688 3689 3690 3691 3692 3693 3694 3695 3696 3697 3698 3699 3700 3701 3702 3703 3704 3705 3706 3707 3708 3709 3710 3711 3712 3713 3714 3715 3716 3717 3718 3719 3720 3721 3722 3723 3724 3725 3726 3727 3728 3729 3730 3731 3732 3733 3734 3735 3736 3737 3738 3739 3740 3741 3742 3743 3744 3745 3746 3747 3748 3749 3750 3751 3752 3753 3754 3755 3756 3757 3758 3759 3760 3761 3762 3763 3764 3765 3766 3767 3768 3769 3770 3771 3772 3773 3774 3775 3776 3777 3778 3779 3780 3781 3782 3783 3784 3785 3786 3787 3788 3789 3790 3791 3792 3793 3794 3795 3796 3797 3798 3799 3800 3801 3802 3803 3804 3805 3806 3807 3808 3809 3810 3811 3812 3813 3814 3815 3816 3817 3818 3819 3820 3821 3822 3823 3824 3825 3826 3827 3828 3829 3830 3831 3832 3833 3834 3835 3836 3837 3838 3839 3840 3841 3842 3843 3844 3845 3846 3847 3848 3849 3850 3851 3852 3853 3854 3855 3856 3857 3858 3859 3860 3861 3862 3863 3864 3865 3866 3867 3868 3869 3870 3871 3872 3873 3874 3875 3876 3877 3878 3879 3880 3881 3882 3883 3884 3885 3886 3887 3888 3889 3890 3891 3892 3893 3894 3895 3896 3897 3898 3899 3900 3901 3902 3903 3904 3905 3906 3907 3908 3909 3910 3911 3912 3913 3914 3915 3916 3917 3918 3919 3920 3921 3922 3923 3924 3925 3926 3927 3928 3929 3930 3931 3932 3933 3934 3935 3936 3937 3938 3939 3940 3941 3942 3943 3944 3945 3946 3947 3948 3949 3950 3951 3952 3953 3954 3955 3956 3957 3958 3959 3960 3961 3962 3963 3964 3965 3966 3967 3968 3969 3970 3971 3972 3973 3974 3975 3976 3977 3978 3979 3980 3981 3982 3983 3984 3985 3986 3987 3988 3989 3990 3991 3992 3993 3994 3995 3996 3997 3998 3999 4000 4001 4002 4003 4004 4005 4006 4007 4008 4009 4010 4011 4012 4013 4014 4015 4016 4017 4018 4019 4020 4021 4022 4023 4024 4025 4026 4027 4028 4029 4030 4031 4032 4033 4034 4035 4036 4037 4038 4039 4040 4041 4042 4043 4044 4045 4046 4047 4048 4049 4050 4051 4052 4053 4054 4055 4056 4057 4058 4059 4060 4061 4062 4063 4064 4065 4066 4067 4068 4069 4070 4071 4072 4073 4074 4075 4076 4077 4078 4079 4080 4081 4082 4083 4084 4085 4086 4087 4088 4089 4090 4091 4092 4093 4094 4095 4096 4097 4098 4099 4100 4101 4102 4103 4104 4105 4106 4107 4108 4109 4110 4111 4112 4113 4114 4115 4116 4117 4118 4119 4120 4121 4122 4123 4124 4125 4126 4127 4128 4129 4130 4131 4132 4133 4134 4135 4136 4137 4138 4139 4140 4141 4142 4143 4144 4145 4146 4147 4148 4149 4150 4151 4152 4153 4154 4155 4156 4157 4158 4159 4160 4161 4162 4163 4164 4165 4166 4167 4168 4169 4170 4171 4172 4173 4174 4175 4176 4177 4178 4179 4180 4181 4182 4183 4184 4185 4186 4187 4188 4189 4190 4191 4192 4193 4194 4195 4196 4197 4198 4199 4200 4201 4202 4203 4204 4205 4206 4207 4208 4209 4210 4211 4212 4213 4214 4215 4216 4217 4218 4219 4220 4221 4222 4223 4224 4225 4226 4227 4228 4229 4230 4231 4232 4233 4234 4235 4236 4237 4238 4239 4240 4241 4242 4243 4244 4245 4246 4247 4248 4249 4250 4251 4252 4253 4254 4255 4256 4257 4258 4259 4260 4261 4262 4263 4264 4265 4266 4267 4268 4269 4270 4271 4272 4273 4274 4275 4276 4277 4278 4279 4280 4281 4282 4283 4284 4285 4286 4287 4288 4289 4290 4291 4292 4293 4294 4295 4296 4297 4298 4299 4300 4301 4302 4303 4304 4305 4306 4307 4308 4309 4310 4311 4312 4313 4314 4315 4316 4317 4318 4319 4320 4321 4322 4323 4324 4325 4326 4327 4328 4329 4330 4331 4332 4333 4334 4335 4336 4337 4338 4339 4340 4341 4342 4343 4344 4345 4346 4347 4348 4349 4350 4351 4352 4353 4354 4355 4356 4357 4358 4359 4360 4361 4362 4363 4364 4365 4366 4367 4368 4369 4370 4371 4372 4373 4374 4375 4376 4377 4378 4379 4380 4381 4382 4383 4384 4385 4386 4387 4388 4389 4390 4391 4392 4393 4394 4395 4396 4397 4398 4399 4400 4401 4402 4403 4404 4405 4406 4407 4408 4409 4410 4411 4412 4413 4414 4415 4416 4417 4418 4419 4420 4421 4422 4423 4424 4425 4426 4427 4428 4429 4430 4431 4432 4433 4434 4435 4436 4437 4438 4439 4440 4441 4442 4443 4444 4445 4446 4447 4448 4449 4450 4451 4452 4453 4454 4455 4456 4457 4458 4459 4460 4461 4462 4463 4464 4465 4466 4467 4468 4469 4470 4471 4472 4473 4474 4475 4476 4477 4478 4479 4480 4481 4482 4483 4484 4485 4486 4487 4488 4489 4490 4491 4492 4493 4494 4495 4496 4497 4498 4499 4500 4501 4502 4503 4504 4505 4506 4507 4508 4509 4510 4511 4512 4513 4514 4515 4516 4517 4518 4519 4520 4521 4522 4523 4524 4525 4526 4527 4528 4529 4530 4531 4532 4533 4534 4535 4536 4537 4538 4539 4540 4541 4542 4543 4544 4545 4546 4547 4548 4549 4550 4551 4552 4553 4554 4555 4556 4557 4558 4559 4560 4561 4562 4563 4564 4565 4566 4567 4568 4569 4570 4571 4572 4573 4574 4575 4576 4577 4578 4579 4580 4581 4582 4583 4584 4585 4586 4587 4588 4589 4590 4591 4592 4593 4594 4595 4596 4597 4598 4599 4600 4601 4602 4603 4604 4605 4606 4607 4608 4609 4610 4611 4612 4613 4614 4615 4616 4617 4618 4619 4620 4621 4622 4623 4624 4625 4626 4627 4628 4629 4630 4631 4632 4633 4634 4635 4636 4637 4638 4639 4640 4641 4642 4643 4644 4645 4646 4647 4648 4649 4650 4651 4652 4653 4654 4655 4656 4657 4658 4659 4660 4661 4662 4663 4664 4665 4666 4667 4668 4669 4670 4671 4672 4673 4674 4675 4676 4677 4678 4679 4680 4681 4682 4683 4684 4685 4686 4687 4688 4689 4690 4691 4692 4693 4694 4695 4696 4697 4698 4699 4700 4701 4702 4703 4704 4705 4706 4707 4708 4709 4710 4711 4712 4713 4714 4715 4716 4717 4718 4719 4720 4721 4722 4723 4724 4725 4726 4727 4728 4729 4730 4731 4732 4733 4734 4735 4736 4737 4738 4739 4740 4741 4742 4743 4744 4745 4746 4747 4748 4749 4750 4751 4752 4753 4754 4755 4756 4757 4758 4759 4760 4761 4762 4763 4764 4765 4766 4767 4768 4769 4770 4771 4772 4773 4774 4775 4776 4777 4778 4779 4780 4781 4782 4783 4784 4785 4786 4787 4788 4789 4790 4791 4792 4793 4794 4795 4796 4797 4798 4799 4800 4801 4802 4803 4804 4805 4806 4807 4808 4809 4810 4811 4812 4813 4814 4815 4816 4817 4818 4819 4820 4821 4822 4823 4824 4825 4826 4827 4828 4829 4830 4831 4832 4833 4834 4835 4836 4837 4838 4839 4840 4841 4842 4843 4844 4845 4846 4847 4848 4849 4850 4851 4852 4853 4854 4855 4856 4857 4858 4859 4860 4861 4862 4863 4864 4865 4866 4867 4868 4869 4870 4871 4872 4873 4874 4875 4876 4877 4878 4879 4880 4881 4882 4883 4884 4885 4886 4887 4888 4889 4890 4891 4892 4893 4894 4895 4896 4897 4898 4899 4900 4901 4902 4903 4904 4905 4906 4907 4908 4909 4910 4911 4912 4913 4914 4915 4916 4917 4918 4919 4920 4921 4922 4923 4924 4925 4926 4927 4928 4929 4930 4931 4932 4933 4934 4935 4936 4937 4938 4939 4940 4941 4942 4943 4944 4945 4946 4947 4948 4949 4950 4951 4952 4953 4954 4955 4956 4957 4958 4959 4960 4961 4962 4963 4964 4965 4966 4967 4968 4969 4970 4971 4972 4973 4974 4975 4976 4977 4978 4979 4980 4981 4982 4983 4984 4985 4986 4987 4988 4989 4990 4991 4992 4993 4994 4995 4996 4997 4998 4999 5000 5001 5002 5003 5004 5005 5006 5007 5008 5009 5010 5011 5012 5013 5014 5015 5016 5017 5018 5019 5020 5021 5022 5023 5024 5025 5026 5027 5028 5029 5030 5031 5032 5033 5034 5035 5036 5037 5038 5039 5040 5041 5042 5043 5044 5045 5046 5047 5048 5049 5050 5051 5052 5053 5054 5055 5056 5057 5058 5059 5060 5061 5062 5063 5064 5065 5066 5067 5068 5069 5070 5071 5072 5073 5074 5075 5076 5077 5078 5079 5080 5081 5082 5083 5084 5085 5086 5087 5088 5089 5090 5091 5092 5093 5094 5095 5096 5097 5098 5099 5100 5101 5102 5103 5104 5105 5106 5107 5108 5109 5110 5111 5112 5113 5114 5115 5116 5117 5118 5119 5120 5121 5122 5123 5124 5125 5126 5127 5128 5129 5130 5131 5132 5133 5134 5135 5136 5137 5138 5139 5140 5141 5142 5143 5144 5145 5146 5147 5148 5149 5150 5151 5152 5153 5154 5155 5156 5157 5158 5159 5160 5161 5162 5163 5164 5165 5166 5167 5168 5169 5170 5171 5172 5173 5174 5175 5176 5177 5178 5179 5180 5181 5182 5183 5184 5185 5186 5187 5188 5189 5190 5191 5192 5193 5194 5195 5196 5197 5198 5199 5200 5201 5202 5203 5204 5205 5206 5207 5208 5209 5210 5211 5212 5213 5214 5215 5216 5217 5218 5219 5220 5221 5222 5223 5224 5225 5226 5227 5228 5229 5230 5231 5232 5233 5234 5235 5236 5237 5238 5239 5240 5241 5242 5243 5244 5245 5246 5247 5248 5249 5250 5251 5252 5253 5254 5255 5256 5257 5258 5259 5260 5261 5262 5263 5264 5265 5266 5267 5268 5269 5270 5271 5272 5273 5274 5275 5276 5277 5278 5279 5280 5281 5282 5283 5284 5285 5286 5287 5288 5289 5290 5291 5292 5293 5294 5295 5296 5297 5298 5299 5300 5301 5302 5303 5304 5305 5306 5307 5308 5309 5310 5311 5312 5313 5314 5315 5316 5317 5318 5319 5320 5321 5322 5323 5324 5325 5326 5327 5328 5329 5330 5331 5332 5333 5334 5335 5336 5337 5338 5339 5340 5341 5342 5343 5344 5345 5346 5347 5348 5349 5350 5351 5352 5353 5354 5355 5356 5357 5358 5359 5360 5361 5362 5363 5364 5365 5366 5367 5368 5369 5370 5371 5372 5373 5374 5375 5376 5377 5378 5379 5380 5381 5382 5383 5384 5385 5386 5387 5388 5389 5390 5391 5392 5393 5394 5395 5396 5397 5398 5399 5400 5401 5402 5403 5404 5405 5406 5407 5408 5409 5410 5411 5412 5413 5414 5415 5416 5417 5418 5419 5420 5421 5422 5423 5424 5425 5426 5427 5428 5429 5430 5431 5432 5433 5434 5435 5436 5437 5438 5439 5440 5441 5442 5443 5444 5445 5446 5447 5448 5449 5450 5451 5452 5453 5454 5455 5456 5457 5458 5459 5460 5461 5462 5463 5464 5465 5466 5467 5468 5469 5470 5471 5472 5473 5474 5475 5476 5477 5478 5479 5480 5481 5482 5483 5484 5485 5486 5487 5488 5489 5490 5491 5492 5493 5494 5495 5496 5497 5498 5499 5500 5501 5502 5503 5504 5505 5506 5507 5508 5509 5510 5511 5512 5513 5514 5515 5516 5517 5518 5519 5520 5521 5522 5523 5524 5525 5526 5527 5528 5529 5530 5531 5532 5533 5534 5535 5536 5537 5538 5539 5540 5541 5542 5543 5544 5545 5546 5547 5548 5549 5550 5551 5552 5553 5554 5555 5556 5557 5558 5559 5560 5561 5562 5563 5564 5565 5566 5567 5568 5569 5570 5571 5572 5573 5574 5575 5576 5577 5578 5579 5580 5581 5582 5583 5584 5585 5586 5587 5588 5589 5590 5591 5592 5593 5594 5595 5596 5597 5598 5599 5600 5601 5602 5603 5604 5605 5606 5607 5608 5609 5610 5611 5612 5613 5614 5615 5616 5617 5618 5619 5620 5621 5622 5623 5624 5625 5626 5627 5628 5629 5630 5631 5632 5633 5634 5635 5636 5637 5638 5639 5640 5641 5642 5643 5644 5645 5646 5647 5648 5649 5650 5651 5652 5653 5654 5655 5656 5657 5658 5659 5660 5661 5662 5663 5664 5665 5666 5667 5668 5669 5670 5671 5672 5673 5674 5675 5676 5677 5678 5679 5680 5681 5682 5683 5684 5685 5686 5687 5688 5689 5690 5691 5692 5693 5694 5695 5696 5697 5698 5699 5700 5701 5702 5703 5704 5705 5706 5707 5708 5709 5710 5711 5712 5713 5714 5715 5716 5717 5718 5719 5720 5721 5722 5723 5724 5725 5726 5727 5728 5729 5730 5731 5732 5733 5734 5735 5736 5737 5738 5739 5740 5741 5742 5743 5744 5745 5746 5747 5748 5749 5750 5751 5752 5753 5754 5755 5756 5757 5758 5759 5760 5761 5762 5763 5764 5765 5766 5767 5768 5769 5770 5771 5772 5773 5774 5775 5776 5777 5778 5779 5780 5781 5782 5783 5784 5785 5786 5787 5788 5789 5790 5791 5792 5793 5794 5795 5796 5797 5798 5799 5800 5801 5802 5803 5804 5805 5806 5807 5808 5809 5810 5811 5812 5813 5814 5815 5816 5817 5818 5819 5820 5821 5822 5823 5824 5825 5826 5827 5828 5829 5830 5831 5832 5833 5834 5835 5836 5837 5838 5839 5840 5841 5842 5843 5844 5845 5846 5847 5848 5849 5850 5851 5852 5853 5854 5855 5856 5857 5858 5859 5860 5861 5862 5863 5864 5865 5866 5867 5868 5869 5870 5871 5872 5873 5874 5875 5876 5877 5878 5879 5880 5881 5882 5883 5884 5885 5886 5887 5888 5889 5890 5891 5892 5893 5894 5895 5896 5897 5898 5899 5900 5901 5902 5903 5904 5905 5906 5907 5908 5909 5910 5911 5912 5913 5914 5915 5916 5917 5918 5919 5920 5921 5922 5923 5924 5925 5926 5927 5928 5929 5930 5931 5932 5933 5934 5935 5936 5937 5938 5939 5940 5941 5942 5943 5944 5945 5946 5947 5948 5949 5950 5951 5952 5953 5954 5955 5956 5957 5958 5959 5960 5961 5962 5963 5964 5965 5966 5967 5968 5969 5970 5971 5972 5973 5974 5975 5976 5977 5978 5979 5980 5981 5982 5983 5984 5985 5986 5987 5988 5989 5990 5991 5992 5993 5994 5995 5996 5997 5998 5999 6000 6001 6002 6003 6004 6005 6006 6007 6008 6009 6010 6011 6012 6013 6014 6015 6016 6017 6018 6019 6020 6021 6022 6023 6024 6025 6026 6027 6028 6029 6030 6031 6032 6033 6034 6035 6036 6037 6038 6039 6040 6041 6042 6043 6044 6045 6046 6047 6048 6049 6050 6051 6052 6053 6054 6055 6056 6057 6058 6059 6060 6061 6062 6063 6064 6065 6066 6067 6068 6069 6070 6071 6072 6073 6074 6075 6076 6077 6078 6079 6080 6081 6082 6083 6084 6085 6086 6087 6088 6089 6090 6091 6092 6093 6094 6095 6096 6097 6098 6099 6100 6101 6102 6103 6104 6105 6106 6107 6108 6109 6110 6111 6112 6113 6114 6115 6116 6117 6118 6119 6120 6121 6122 6123 6124 6125 6126 6127 6128 6129 6130 6131 6132 6133 6134 6135 6136 6137 6138 6139 6140 6141 6142 6143 6144 6145 6146 6147 6148 6149 6150 6151 6152 6153 6154 6155 6156 6157 6158 6159 6160 6161 6162 6163 6164 6165 6166 6167 6168 6169 6170 6171 6172 6173 6174 6175 6176 6177 6178 6179 6180 6181 6182 6183 6184 6185 6186 6187 6188 6189 6190 6191 6192 6193 6194 6195 6196 6197 6198 6199 6200 6201 6202 6203 6204 6205 6206 6207 6208 6209 6210 6211 6212 6213 6214 6215 6216 6217 6218 6219 6220 6221 6222 6223 6224 6225 6226 6227 6228 6229 6230 6231 6232 6233 6234 6235 6236 6237 6238 6239 6240 6241 6242 6243 6244 6245 6246 6247 6248 6249 6250 6251 6252 6253 6254 6255 6256 6257 6258 6259 6260 6261 6262 6263 6264 6265 6266 6267 6268 6269 6270 6271 6272 6273 6274 6275 6276 6277 6278 6279 6280 6281 6282 6283 6284 6285 6286 6287 6288 6289 6290 6291 6292 6293 6294 6295 6296 6297 6298 6299 6300 6301 6302 6303 6304 6305 6306 6307 6308 6309 6310 6311 6312 6313 6314 6315 6316 6317 6318 6319 6320 6321 6322 6323 6324 6325 6326 6327 6328 6329 6330 6331 6332 6333 6334 6335 6336 6337 6338 6339 6340 6341 6342 6343 6344 6345 6346 6347 6348 6349 6350 6351 6352 6353 6354 6355 6356 6357 6358 6359 6360 6361 6362 6363 6364 6365 6366 6367 6368 6369 6370 6371 6372 6373 6374 6375 6376 6377 6378 6379 6380 6381 6382 6383 6384 6385 6386 6387 6388 6389 6390 6391 6392 6393 6394 6395 6396 6397 6398 6399 6400 6401 6402 6403 6404 6405 6406 6407 6408 6409 6410 6411 6412 6413 6414 6415 6416 6417 6418 6419 6420 6421 6422 6423 6424 6425 6426 6427 6428 6429 6430 6431 6432 6433 6434 6435 6436 6437 6438 6439 6440 6441 6442 6443 6444 6445 6446 6447 6448 6449 6450 6451 6452 6453 6454 6455 6456 6457 6458 6459 6460 6461 6462 6463 6464 6465 6466 6467 6468 6469 6470 6471 6472 6473 6474 6475 6476 6477 6478 6479 6480 6481 6482 6483 6484 6485 6486 6487 6488 6489 6490 6491 6492 6493 6494 6495 6496 6497 6498 6499 6500 6501 6502 6503 6504 6505 6506 6507 6508 6509 6510 6511 6512 6513 6514 6515 6516 6517 6518 6519 6520 6521 6522 6523 6524 6525 6526 6527 6528 6529 6530 6531 6532 6533 6534 6535 6536 6537 6538 6539 6540 6541 6542 6543 6544 6545 6546 6547 6548 6549 6550 6551 6552 6553 6554 6555 6556 6557 6558 6559 6560 6561 6562 6563 6564 6565 6566 6567 6568 6569 6570 6571 6572 6573 6574 6575 6576 6577 6578 6579 6580 6581 6582 6583 6584 6585 6586 6587 6588 6589 6590 6591 6592 6593 6594 6595 6596 6597 6598 6599 6600 6601 6602 6603 6604 6605 6606 6607 6608 6609 6610 6611 6612 6613 6614 6615 6616 6617 6618 6619 6620 6621 6622 6623 6624 6625 6626 6627 6628 6629 6630 6631 6632 6633 6634 6635 6636 6637 6638 6639 6640 6641 6642 6643 6644 6645 6646 6647 6648 6649 6650 6651 6652 6653 6654 6655 6656 6657 6658 6659 6660 6661 6662 6663 6664 6665 6666 6667 6668 6669 6670 6671 6672 6673 6674 6675 6676 6677 6678 6679 6680 6681 6682 6683 6684 6685 6686 6687 6688 6689 6690 6691 6692 6693 6694 6695 6696 6697 6698 6699 6700 6701 6702 6703 6704 6705 6706 6707 6708 6709 6710 6711 6712 6713 6714 6715 6716 6717 6718 6719 6720 6721 6722 6723 6724 6725 6726 6727 6728 6729 6730 6731 6732 6733 6734 6735 6736 6737 6738 6739 6740 6741 6742 6743 6744 6745 6746 6747 6748 6749 6750 6751 6752 6753 6754 6755 6756 6757 6758 6759 6760 6761 6762 6763 6764 6765 6766 6767 6768 6769 6770 6771 6772 6773 6774 6775 6776 6777 6778 6779 6780 6781 6782 6783 6784 6785 6786 6787 6788 6789 6790 6791 6792 6793 6794 6795 6796 6797 6798 6799 6800 6801 6802 6803 6804 6805 6806 6807 6808 6809 6810 6811 6812 6813 6814 6815 6816 6817 6818 6819 6820 6821 6822 6823 6824 6825 6826 6827 6828 6829 6830 6831 6832 6833 6834 6835 6836 6837 6838 6839 6840 6841 6842 6843 6844 6845 6846 6847 6848 6849 6850 6851 6852 6853 6854 6855 6856 6857 6858 6859 6860 6861 6862 6863 6864 6865 6866 6867 6868 6869 6870 6871 6872 6873 6874 6875 6876 6877 6878 6879 6880 6881 6882 6883 6884 6885 6886 6887 6888 6889 6890 6891 6892 6893 6894 6895 6896 6897 6898 6899 6900 6901 6902 6903 6904 6905 6906 6907 6908 6909 6910 6911 6912 6913 6914 6915 6916 6917 6918 6919 6920 6921 6922 6923 6924 6925 6926 6927 6928 6929 6930 6931 6932 6933 6934 6935 6936 6937 6938 6939 6940 6941 6942 6943 6944 6945 6946 6947 6948 6949 6950 6951 6952 6953 6954 6955 6956 6957 6958 6959 6960 6961 6962 6963 6964 6965 6966 6967 6968 6969 6970 6971 6972 6973 6974 6975 6976 6977 6978 6979 6980 6981 6982 6983 6984 6985 6986 6987 6988 6989 6990 6991 6992 6993 6994 6995 6996 6997 6998 6999 7000 7001 7002 7003 7004 7005 7006 7007 7008 7009 7010 7011 7012 7013 7014 7015 7016 7017 7018 7019 7020 7021 7022 7023 7024 7025 7026 7027 7028 7029 7030 7031 7032 7033 7034 7035 7036 7037 7038 7039 7040 7041 7042 7043 7044 7045 7046 7047 7048 7049 7050 7051 7052 7053 7054 7055 7056 7057 7058 7059 7060 7061 7062 7063 7064 7065 7066 7067 7068 7069 7070 7071 7072 7073 7074 7075 7076 7077 7078 7079 7080 7081 7082 7083 7084 7085 7086 7087 7088 7089 7090 7091 7092 7093 7094 7095 7096 7097 7098 7099 7100 7101 7102 7103 7104 7105 7106 7107 7108 7109 7110 7111 7112 7113 7114 7115 7116 7117 7118 7119 7120 7121 7122 7123 7124 7125 7126 7127 7128 7129 7130 7131 7132 7133 7134 7135 7136 7137 7138 7139 7140 7141 7142 7143 7144 7145 7146 7147 7148 7149 7150 7151 7152 7153 7154 7155 7156 7157 7158 7159 7160 7161 7162 7163 7164 7165 7166 7167 7168 7169 7170 7171 7172 7173 7174 7175 7176 7177 7178 7179 7180 7181 7182 7183 7184 7185 7186 7187 7188 7189 7190 7191 7192 7193 7194 7195 7196 7197 7198 7199 7200 7201 7202 7203 7204 7205 7206 7207 7208 7209 7210 7211 7212 7213 7214 7215 7216 7217 7218 7219 7220 7221 7222 7223 7224 7225 7226 7227 7228 7229 7230 7231 7232 7233 7234 7235 7236 7237 7238 7239 7240 7241 7242 7243 7244 7245 7246 7247 7248 7249 7250 7251 7252 7253 7254 7255 7256 7257 7258 7259 7260 7261 7262 7263 7264 7265 7266 7267 7268 7269 7270 7271 7272 7273 7274 7275 7276 7277 7278 7279 7280 7281 7282 7283 7284 7285 7286 7287 7288 7289 7290 7291 7292 7293 7294 7295 7296 7297 7298 7299 7300 7301 7302 7303 7304 7305 7306 7307 7308 7309 7310 7311 7312 7313 7314 7315 7316 7317 7318 7319 7320 7321 7322 7323 7324 7325 7326 7327 7328 7329 7330 7331 7332 7333 7334 7335 7336 7337 7338 7339 7340 7341 7342 7343 7344 7345 7346 7347 7348 7349 7350 7351 7352 7353 7354 7355 7356 7357 7358 7359 7360 7361 7362 7363 7364 7365 7366 7367 7368 7369 7370 7371 7372 7373 7374 7375 7376 7377 7378 7379 7380 7381 7382 7383 7384 7385 7386 7387 7388 7389 7390 7391 7392 7393 7394 7395 7396 7397 7398 7399 7400 7401 7402 7403 7404 7405 7406 7407 7408 7409 7410 7411 7412 7413 7414 7415 7416 7417 7418 7419 7420 7421 7422 7423 7424 7425 7426 7427 7428 7429 7430 7431 7432 7433 7434 7435 7436 7437 7438 7439 7440 7441 7442 7443 7444 7445 7446 7447 7448 7449 7450 7451 7452 7453 7454 7455 7456 7457 7458 7459 7460 7461 7462 7463 7464 7465 7466 7467 7468 7469 7470 7471 7472 7473 7474 7475 7476 7477 7478 7479 7480 7481 7482 7483 7484 7485 7486 7487 7488 7489 7490 7491 7492 7493 7494 7495 7496 7497 7498 7499 7500 7501 7502 7503 7504 7505 7506 7507 7508 7509 7510 7511 7512 7513 7514 7515 7516 7517 7518 7519 7520 7521 7522 7523 7524 7525 7526 7527 7528 7529 7530 7531 7532 7533 7534 7535 7536 7537 7538 7539 7540 7541 7542 7543 7544 7545 7546 7547 7548 7549 7550 7551 7552 7553 7554 7555 7556 7557 7558 7559 7560 7561 7562 7563 7564 7565 7566 7567 7568 7569 7570 7571 7572 7573 7574 7575 7576 7577 7578 7579 7580 7581 7582 7583 7584 7585 7586 7587 7588 7589 7590 7591 7592 7593 7594 7595 7596 7597 7598 7599 7600 7601 7602 7603 7604 7605 7606 7607 7608 7609 7610 7611 7612 7613 7614 7615 7616 7617 7618 7619 7620 7621 7622 7623 7624 7625 7626 7627 7628 7629 7630 7631 7632 7633 7634 7635 7636 7637 7638 7639 7640 7641 7642 7643 7644 7645 7646 7647 7648 7649 7650 7651 7652 7653 7654 7655 7656 7657 7658 7659 7660 7661 7662 7663 7664 7665 7666 7667 7668 7669 7670 7671 7672 7673 7674 7675 7676 7677 7678 7679 7680 7681 7682 7683 7684 7685 7686 7687 7688 7689 7690 7691 7692 7693 7694 7695 7696 7697 7698 7699 7700 7701 7702 7703 7704 7705 7706 7707 7708 7709 7710 7711 7712 7713 7714 7715 7716 7717 7718 7719 7720 7721 7722 7723 7724 7725 7726 7727 7728 7729 7730 7731 7732 7733 7734 7735 7736 7737 7738 7739 7740 7741 7742 7743 7744 7745 7746 7747 7748 7749 7750 7751 7752 7753 7754 7755 7756 7757 7758 7759 7760 7761 7762 7763 7764 7765 7766 7767 7768 7769 7770 7771 7772 7773 7774 7775 7776 7777 7778 7779 7780 7781 7782 7783 7784 7785 7786 7787 7788 7789 7790 7791 7792 7793 7794 7795 7796 7797 7798 7799 7800 7801 7802 7803 7804 7805 7806 7807 7808 7809 7810 7811 7812 7813 7814 7815 7816 7817 7818 7819 7820 7821 7822 7823 7824 7825 7826 7827 7828 7829 7830 7831 7832 7833 7834 7835 7836 7837 7838 7839 7840 7841 7842 7843 7844 7845 7846 7847 7848 7849 7850 7851 7852 7853 7854 7855 7856 7857 7858 7859 7860 7861 7862 7863 7864 7865 7866 7867 7868 7869 7870 7871 7872 7873 7874 7875 7876 7877 7878 7879 7880 7881 7882 7883 7884 7885 7886 7887 7888 7889 7890 7891 7892 7893 7894 7895 7896 7897 7898 7899 7900 7901 7902 7903 7904 7905 7906 7907 7908 7909 7910 7911 7912 7913 7914 7915 7916 7917 7918 7919 7920 7921 7922 7923 7924 7925 7926 7927 7928 7929 7930 7931 7932 7933 7934 7935 7936 7937 7938 7939 7940 7941 7942 7943 7944 7945 7946 7947 7948 7949 7950 7951 7952 7953 7954 7955 7956 7957 7958 7959 7960 7961 7962 7963 7964 7965 7966 7967 7968 7969 7970 7971 7972 7973 7974 7975 7976 7977 7978 7979 7980 7981 7982 7983 7984 7985 7986 7987 7988 7989 7990 7991 7992 7993 7994 7995 7996 7997 7998 7999 8000 8001 8002 8003 8004 8005 8006 8007 8008 8009 8010 8011 8012 8013 8014 8015 8016 8017 8018 8019 8020 8021 8022 8023 8024 8025 8026 8027 8028 8029 8030 8031 8032 8033 8034 8035 8036 8037 8038 8039 8040 8041 8042 8043 8044 8045 8046 8047 8048 8049 8050 8051 8052 8053 8054 8055 8056 8057 8058 8059 8060 8061 8062 8063 8064 8065 8066 8067 8068 8069 8070 8071 8072 8073 8074 8075 8076 8077 8078 8079 8080 8081 8082 8083 8084 8085 8086 8087 8088 8089 8090 8091 8092 8093 8094 8095 8096 8097 8098 8099 8100 8101 8102 8103 8104 8105 8106 8107 8108 8109 8110 8111 8112 8113 8114 8115 8116 8117 8118 8119 8120 8121 8122 8123 8124 8125 8126 8127 8128 8129 8130 8131 8132 8133 8134 8135 8136 8137 8138 8139 8140 8141 8142 8143 8144 8145 8146 8147 8148 8149 8150 8151 8152 8153 8154 8155 8156 8157 8158 8159 8160 8161 8162 8163 8164 8165 8166 8167 8168 8169 8170 8171 8172 8173 8174 8175 8176 8177 8178 8179 8180 8181 8182 8183 8184 8185 8186 8187 8188 8189 8190 8191 8192 8193 8194 8195 8196 8197 8198 8199 8200 8201 8202 8203 8204 8205 8206 8207 8208 8209 8210 8211 8212 8213 8214 8215 8216 8217 8218 8219 8220 8221 8222 8223 8224 8225 8226 8227 8228 8229 8230 8231 8232 8233 8234 8235 8236 8237 8238 8239 8240 8241 8242 8243 8244 8245 8246 8247 8248 8249 8250 8251 8252 8253 8254 8255 8256 8257 8258 8259 8260 8261 8262 8263 8264 8265 8266 8267 8268 8269 8270 8271 8272 8273 8274 8275 8276 8277 8278 8279 8280 8281 8282 8283 8284 8285 8286 8287 8288 8289 8290 8291 8292 8293 8294 8295 8296 8297 8298 8299 8300 8301 8302 8303 8304 8305 8306 8307 8308 8309 8310 8311 8312 8313 8314 8315 8316 8317 8318 8319 8320 8321 8322 8323 8324 8325 8326 8327 8328 8329 8330 8331 8332 8333 8334 8335 8336 8337 8338 8339 8340 8341 8342 8343 8344 8345 8346 8347 8348 8349 8350 8351 8352 8353 8354 8355 8356 8357 8358 8359 8360 8361 8362 8363 8364 8365 8366 8367 8368 8369 8370 8371 8372 8373 8374 8375 8376 8377 8378 8379 8380 8381 8382 8383 8384 8385 8386 8387 8388 8389 8390 8391 8392 8393 8394 8395 8396 8397 8398 8399 8400 8401 8402 8403 8404 8405 8406 8407 8408 8409 8410 8411 8412 8413 8414 8415 8416 8417 8418 8419 8420 8421 8422 8423 8424 8425 8426 8427 8428 8429 8430 8431 8432 8433 8434 8435 8436 8437 8438 8439 8440 8441 8442 8443 8444 8445 8446 8447 8448 8449 8450 8451 8452 8453 8454 8455 8456 8457 8458 8459 8460 8461 8462 8463 8464 8465 8466 8467 8468 8469 8470 8471 8472 8473 8474 8475 8476 8477 8478 8479 8480 8481 8482 8483 8484 8485 8486 8487 8488 8489 8490 8491 8492 8493 8494 8495 8496 8497 8498 8499 8500 8501 8502 8503 8504 8505 8506 8507 8508 8509 8510 8511 8512 8513 8514 8515 8516 8517 8518 8519 8520 8521 8522 8523 8524 8525 8526 8527 8528 8529 8530 8531 8532 8533 8534 8535 8536 8537 8538 8539 8540 8541 8542 8543 8544 8545 8546 8547 8548 8549 8550 8551 8552 8553 8554 8555 8556 8557 8558 8559 8560 8561 8562 8563 8564 8565 8566 8567 8568 8569 8570 8571 8572 8573 8574 8575 8576 8577 8578 8579 8580 8581 8582 8583 8584 8585 8586 8587 8588 8589 8590 8591 8592 8593 8594 8595 8596 8597 8598 8599 8600 8601 8602 8603 8604 8605 8606 8607 8608 8609 8610 8611 8612 8613 8614 8615 8616 8617 8618 8619 8620 8621 8622 8623 8624 8625 8626 8627 8628 8629 8630 8631 8632 8633 8634 8635 8636 8637 8638 8639 8640 8641 8642 8643 8644 8645 8646 8647 8648 8649 8650 8651 8652 8653 8654 8655 8656 8657 8658 8659 8660 8661 8662 8663 8664 8665 8666 8667 8668 8669 8670 8671 8672 8673 8674 8675 8676 8677 8678 8679 8680 8681 8682 8683 8684 8685 8686 8687 8688 8689 8690 8691 8692 8693 8694 8695 8696 8697 8698 8699 8700 8701 8702 8703 8704 8705 8706 8707 8708 8709 8710 8711 8712 8713 8714 8715 8716 8717 8718 8719 8720 8721 8722 8723 8724 8725 8726 8727 8728 8729 8730 8731 8732 8733 8734 8735 8736 8737 8738 8739 8740 8741 8742 8743 8744 8745 8746 8747 8748 8749 8750 8751 8752 8753 8754 8755 8756 8757 8758 8759 8760 8761 8762 8763 8764 8765 8766 8767 8768 8769 8770 8771 8772 8773 8774 8775 8776 8777 8778 8779 8780 8781 8782 8783 8784 8785 8786 8787 8788 8789 8790 8791 8792 8793 8794 8795 8796 8797 8798 8799 8800 8801 8802 8803 8804 8805 8806 8807 8808 8809 8810 8811 8812 8813 8814 8815 8816 8817 8818 8819 8820 8821 8822 8823 8824 8825 8826 8827 8828 8829 8830 8831 8832 8833 8834 8835 8836 8837 8838 8839 8840 8841 8842 8843 8844 8845 8846 8847 8848 8849 8850 8851 8852 8853 8854 8855 8856 8857 8858 8859 8860 8861 8862 8863 8864 8865 8866 8867 8868 8869 8870 8871 8872 8873 8874 8875 8876 8877 8878 8879 8880 8881 8882 8883 8884 8885 8886 8887 8888 8889 8890 8891 8892 8893 8894 8895 8896 8897 8898 8899 8900 8901 8902 8903 8904 8905 8906 8907 8908 8909 8910 8911 8912 8913 8914 8915 8916 8917 8918 8919 8920 8921 8922 8923 8924 8925 8926 8927 8928 8929 8930 8931 8932 8933 8934 8935 8936 8937 8938 8939 8940 8941 8942 8943 8944 8945 8946 8947 8948 8949 8950 8951 8952 8953 8954 8955 8956 8957 8958 8959 8960 8961 8962 8963 8964 8965 8966 8967 8968 8969 8970 8971 8972 8973 8974 8975 8976 8977 8978 8979 8980 8981 8982 8983 8984 8985 8986 8987 8988 8989 8990 8991 8992 8993 8994 8995 8996 8997 8998 8999 9000 9001 9002 9003 9004 9005 9006 9007 9008 9009 9010 9011 9012 9013 9014 9015 9016 9017 9018 9019 9020 9021 9022 9023 9024 9025 9026 9027 9028 9029 9030 9031 9032 9033 9034 9035 9036 9037 9038 9039 9040 9041 9042 9043 9044 9045 9046 9047 9048 9049 9050 9051 9052 9053 9054 9055 9056 9057 9058 9059 9060 9061 9062 9063 9064 9065 9066 9067 9068 9069 9070 9071 9072 9073 9074 9075 9076 9077 9078 9079 9080 9081 9082 9083 9084 9085 9086 9087 9088 9089 9090 9091 9092 9093 9094 9095 9096 9097 9098 9099 9100 9101 9102 9103 9104 9105 9106 9107 9108 9109 9110 9111 9112 9113 9114 9115 9116 9117 9118 9119 9120 9121 9122 9123 9124 9125 9126 9127 9128 9129 9130 9131 9132 9133 9134 9135 9136 9137 9138 9139 9140 9141 9142 9143 9144 9145 9146 9147 9148 9149 9150 9151 9152 9153 9154 9155 9156 9157 9158 9159 9160 9161 9162 9163 9164 9165 9166 9167 9168 9169 9170 9171 9172 9173 9174 9175 9176 9177 9178 9179 9180 9181 9182 9183 9184 9185 9186 9187 9188 9189 9190 9191 9192 9193 9194 9195 9196 9197 9198 9199 9200 9201 9202 9203 9204 9205 9206 9207 9208 9209 9210 9211 9212 9213 9214 9215 9216 9217 9218 9219 9220 9221 9222 9223 9224 9225 9226 9227 9228 9229 9230 9231 9232 9233 9234 9235 9236 9237 9238 9239 9240 9241 9242 9243 9244 9245 9246 9247 9248 9249 9250 9251 9252 9253 9254 9255 9256 9257 9258 9259 9260 9261 9262 9263 9264 9265 9266 9267 9268 9269 9270 9271 9272 9273 9274 9275 9276 9277 9278 9279 9280 9281 9282 9283 9284 9285 9286 9287 9288 9289 9290 9291 9292 9293 9294 9295 9296 9297 9298 9299 9300 9301 9302 9303 9304 9305 9306 9307 9308 9309 9310 9311 9312 9313 9314 9315 9316 9317 9318 9319 9320 9321 9322 9323 9324 9325 9326 9327 9328 9329 9330 9331 9332 9333 9334 9335 9336 9337 9338 9339 9340 9341 9342 9343 9344 9345 9346 9347 9348 9349 9350 9351 9352 9353 9354 9355 9356 9357 9358 9359 9360 9361 9362 9363 9364 9365 9366 9367 9368 9369 9370 9371 9372 9373 9374 9375 9376 9377 9378 9379 9380 9381 9382 9383 9384 9385 9386 9387 9388 9389 9390 9391 9392 9393 9394 9395 9396 9397 9398 9399 9400 9401 9402 9403 9404 9405 9406 9407 9408 9409 9410 9411 9412 9413 9414 9415 9416 9417 9418 9419 9420 9421 9422 9423 9424 9425 9426 9427 9428 9429 9430 9431 9432 9433 9434 9435 9436 9437 9438 9439 9440 9441 9442 9443 9444 9445 9446 9447 9448 9449 9450 9451 9452 9453 9454 9455 9456 9457 9458 9459 9460 9461 9462 9463 9464 9465 9466 9467 9468 9469 9470 9471 9472 9473 9474 9475 9476 9477 9478 9479 9480 9481 9482 9483 9484 9485 9486 9487 9488 9489 9490 9491 9492 9493 9494 9495 9496 9497 9498 9499 9500 9501 9502 9503 9504 9505 9506 9507 9508 9509 9510 9511 9512 9513 9514 9515 9516 9517 9518 9519 9520 9521 9522 9523 9524 9525 9526 9527 9528 9529 9530 9531 9532 9533 9534 9535 9536 9537 9538 9539 9540 9541 9542 9543 9544 9545 9546 9547 9548 9549 9550 9551 9552 9553 9554 9555 9556 9557 9558 9559 9560 9561 9562 9563 9564 9565 9566 9567 9568 9569 9570 9571 9572 9573 9574 9575 9576 9577 9578 9579 9580 9581 9582 9583 9584 9585 9586 9587 9588 9589 9590 9591 9592 9593 9594 9595 9596 9597 9598 9599 9600 9601 9602 9603 9604 9605 9606 9607 9608 9609 9610 9611 9612 9613 9614 9615 9616 9617 9618 9619 9620 9621 9622 9623 9624 9625 9626 9627 9628 9629 9630 9631 9632 9633 9634 9635 9636 9637 9638 9639 9640 9641 9642 9643 9644 9645 9646 9647 9648 9649 9650 9651 9652 9653 9654 9655 9656 9657 9658 9659 9660 9661 9662 9663 9664 9665 9666 9667 9668 9669 9670 9671 9672 9673 9674 9675 9676 9677 9678 9679 9680 9681 9682 9683 9684 9685 9686 9687 9688 9689 9690 9691 9692 9693 9694 9695 9696 9697 9698 9699 9700 9701 9702 9703 9704 9705 9706 9707 9708 9709 9710 9711 9712 9713 9714 9715 9716 9717 9718 9719 9720 9721 9722 9723 9724 9725 9726 9727 9728 9729 9730 9731 9732 9733 9734 9735 9736 9737 9738 9739 9740 9741 9742 9743 9744 9745 9746 9747 9748 9749 9750 9751 9752 9753 9754 9755 9756 9757 9758 9759 9760 9761 9762 9763 9764 9765 9766 9767 9768 9769 9770 9771 9772 9773 9774 9775 9776 9777 9778 9779 9780 9781 9782 9783 9784 9785 9786 9787 9788 9789 9790 9791 9792 9793 9794 9795 9796 9797 9798 9799 9800 9801 9802 9803 9804 9805 9806 9807 9808 9809 9810 9811 9812 9813 9814 9815 9816 9817 9818 9819 9820 9821 9822 9823 9824 9825 9826 9827 9828 9829 9830 9831 9832 9833 9834 9835 9836 9837 9838 9839 9840 9841 9842 9843 9844 9845 9846 9847 9848 9849 9850 9851 9852 9853 9854 9855 9856 9857 9858 9859 9860 9861 9862 9863 9864 9865 9866 9867 9868 9869 9870 9871 9872 9873 9874 9875 9876 9877 9878 9879 9880 9881 9882 9883 9884 9885 9886 9887 9888 9889 9890 9891 9892 9893 9894 9895 9896 9897 9898 9899 9900 9901 9902 9903 9904 9905 9906 9907 9908 9909 9910 9911 9912 9913 9914 9915 9916 9917 9918 9919 9920 9921 9922 9923 9924 9925 9926 9927 9928 9929 9930 9931 9932 9933 9934 9935 9936 9937 9938 9939 9940 9941 9942 9943 9944 9945 9946 9947 9948 9949 9950 9951 9952 9953 9954 9955 9956 9957 9958 9959 9960 9961 9962 9963 9964 9965 9966 9967 9968 9969 9970 9971 9972 9973 9974 9975 9976 9977 9978 9979 9980 9981 9982 9983 9984 9985 9986 9987 9988 9989 9990 9991 9992 9993 9994 9995 9996 9997 9998 9999 10000 10001 10002 10003 10004 10005 10006 10007 10008 10009 10010 10011 10012 10013 10014 10015 10016 10017 10018 10019 10020 10021 10022 10023 10024 10025 10026 10027 10028 10029 10030 10031 10032 10033 10034 10035 10036 10037 10038 10039 10040 10041 10042 10043 10044 10045 10046 10047 10048 10049 10050 10051 10052 10053 10054 10055 10056 10057 10058 10059 10060 10061 10062 10063 10064 10065 10066 10067 10068 10069 10070 10071 10072 10073 10074 10075 10076 10077 10078 10079 10080 10081 10082 10083 10084 10085 10086 10087 10088 10089 10090 10091 10092 10093 10094 10095 10096 10097 10098 10099 10100 10101 10102 10103 10104 10105 10106 10107 10108 10109 10110 10111 10112 10113 10114 10115 10116 10117 10118 10119 10120 10121 10122 10123 10124 10125 10126 10127 10128 10129 10130 10131 10132 10133 10134 10135 10136 10137 10138 10139 10140 10141 10142 10143 10144 10145 10146 10147 10148 10149 10150 10151 10152 10153 10154 10155 10156 10157 10158 10159 10160 10161 10162 10163 10164 10165 10166 10167 10168 10169 10170 10171 10172 10173 10174 10175 10176 10177 10178 10179 10180 10181 10182 10183 10184 10185 10186 10187 10188 10189 10190 10191 10192 10193 10194 10195 10196 10197 10198 10199 10200 10201 10202 10203 10204 10205 10206 10207 10208 10209 10210 10211 10212 10213 10214 10215 10216 10217 10218 10219 10220 10221 10222 10223 10224 10225 10226 10227 10228 10229 10230 10231 10232 10233 10234 10235 10236 10237 10238 10239 10240 10241 10242 10243 10244 10245 10246 10247 10248 10249 10250 10251 10252 10253 10254 10255 10256 10257 10258 10259 10260 10261 10262 10263 10264 10265 10266 10267 10268 10269 10270 10271 10272 10273 10274 10275 10276 10277 10278 10279 10280 10281 10282 10283 10284 10285 10286 10287 10288 10289 10290 10291 10292 10293 10294 10295 10296 10297 10298 10299 10300 10301 10302 10303 10304 10305 10306 10307 10308 10309 10310 10311 10312 10313 10314 10315 10316 10317 10318 10319 10320 10321 10322 10323 10324 10325 10326 10327 10328 10329 10330 10331 10332 10333 10334 10335 10336 10337 10338 10339 10340 10341 10342 10343 10344 10345 10346 10347 10348 10349 10350 10351 10352 10353 10354 10355 10356 10357 10358 10359 10360 10361 10362 10363 10364 10365 10366 10367 10368 10369 10370 10371 10372 10373 10374 10375 10376 10377 10378 10379 10380 10381 10382 10383 10384 10385 10386 10387 10388 10389 10390 10391 10392 10393 10394 10395 10396 10397 10398 10399 10400 10401 10402 10403 10404 10405 10406 10407 10408 10409 10410 10411 10412 10413 10414 10415 10416 10417 10418 10419 10420 10421 10422 10423 10424 10425 10426 10427 10428 10429 10430 10431 10432 10433 10434 10435 10436 10437 10438 10439 10440 10441 10442 10443 10444 10445 10446 10447 10448 10449 10450 10451 10452 10453 10454 10455 10456 10457 10458 10459 10460 10461 10462 10463 10464 10465 10466 10467 10468 10469 10470 10471 10472 10473 10474 10475 10476 10477 10478 10479 10480 10481 10482 10483 10484 10485 10486 10487 10488 10489 10490 10491 10492 10493 10494 10495 10496 10497 10498 10499 10500 10501 10502 10503 10504 10505 10506 10507 10508 10509 10510 10511 10512 10513 10514 10515 10516 10517 10518 10519 10520 10521 10522 10523 10524 10525 10526 10527 10528 10529 10530 10531 10532 10533 10534 10535 10536 10537 10538 10539 10540 10541 10542 10543 10544 10545 10546 10547 10548 10549 10550 10551 10552 10553 10554 10555 10556 10557 10558 10559 10560 10561 10562 10563 10564 10565 10566 10567 10568 10569 10570 10571 10572 10573 10574 10575 10576 10577 10578 10579 10580 10581 10582 10583 10584 10585 10586 10587 10588 10589 10590 10591 10592 10593 10594 10595 10596 10597 10598 10599 10600 10601 10602 10603 10604 10605 10606 10607 10608 10609 10610 10611 10612 10613 10614 10615 10616 10617 10618 10619 10620 10621 10622 10623 10624 10625 10626 10627 10628 10629 10630 10631 10632 10633 10634 10635 10636 10637 10638 10639 10640 10641 10642 10643 10644 10645 10646 10647 10648 10649 10650 10651 10652 10653 10654 10655 10656 10657 10658 10659 10660 10661 10662 10663 10664 10665 10666 10667 10668 10669 10670 10671 10672 10673 10674 10675 10676 10677 10678 10679 10680 10681 10682 10683 10684 10685 10686 10687 10688 10689 10690 10691 10692 10693 10694 10695 10696 10697 10698 10699 10700 10701 10702 10703 10704 10705 10706 10707 10708 10709 10710 10711 10712 10713 10714 10715 10716 10717 10718 10719 10720 10721 10722 10723 10724 10725 10726 10727 10728 10729 10730 10731 10732 10733 10734 10735 10736 10737 10738 10739 10740 10741 10742 10743 10744 10745 10746 10747 10748 10749 10750 10751 10752 10753 10754 10755 10756 10757 10758 10759 10760 10761 10762 10763 10764 10765 10766 10767 10768 10769 10770 10771 10772 10773 10774 10775 10776 10777 10778 10779 10780 10781 10782 10783 10784 10785 10786 10787 10788 10789 10790 10791 10792 10793 10794 10795 10796 10797 10798 10799 10800 10801 10802 10803 10804 10805 10806 10807 10808 10809 10810 10811 10812 10813 10814 10815 10816 10817 10818 10819 10820 10821 10822 10823 10824 10825 10826 10827 10828 10829 10830 10831 10832 10833 10834 10835 10836 10837 10838 10839 10840 10841 10842 10843 10844 10845 10846 10847 10848 10849 10850 10851 10852 10853 10854 10855 10856 10857 10858 10859 10860 10861 10862 10863 10864 10865 10866 10867 10868 10869 10870 10871 10872 10873 10874 10875 10876 10877 10878 10879 10880 10881 10882 10883 10884 10885 10886 10887 10888 10889 10890 10891 10892 10893 10894 10895 10896 10897 10898 10899 10900 10901 10902 10903 10904 10905 10906 10907 10908 10909 10910 10911 10912 10913 10914 10915 10916 10917 10918 10919 10920 10921 10922 10923 10924 10925 10926 10927 10928 10929 10930 10931 10932 10933 10934 10935 10936 10937 10938 10939 10940 10941 10942 10943 10944 10945 10946 10947 10948 10949 10950 10951 10952 10953 10954 10955 10956 10957 10958 10959 10960 10961 10962 10963 10964 10965 10966 10967 10968 10969 10970 10971 10972 10973 10974 10975 10976 10977 10978 10979 10980 10981 10982 10983 10984 10985 10986 10987 10988 10989 10990 10991 10992 10993 10994 10995 10996 10997 10998 10999 11000 11001 11002 11003 11004 11005 11006 11007 11008 11009 11010 11011 11012 11013 11014 11015 11016 11017 11018 11019 11020 11021 11022 11023 11024 11025 11026 11027 11028 11029 11030 11031 11032 11033 11034 11035 11036 11037 11038 11039 11040 11041 11042 11043 11044 11045 11046 11047 11048 11049 11050 11051 11052 11053 11054 11055 11056 11057 11058 11059 11060 11061 11062 11063 11064 11065 11066 11067 11068 11069 11070 11071 11072 11073 11074 11075 11076 11077 11078 11079 11080 11081 11082 11083 11084 11085 11086 11087 11088 11089 11090 11091 11092 11093 11094 11095 11096 11097 11098 11099 11100 11101 11102 11103 11104 11105 11106 11107 11108 11109 11110 11111 11112 11113 11114 11115 11116 11117 11118 11119 11120 11121 11122 11123 11124 11125 11126 11127 11128 11129 11130 11131 11132 11133 11134 11135 11136 11137 11138 11139 11140 11141 11142 11143 11144 11145 11146 11147 11148 11149 11150 11151 11152 11153 11154 11155 11156 11157 11158 11159 11160 11161 11162 11163 11164 11165 11166 11167 11168 11169 11170 11171 11172 11173 11174 11175 11176 11177 11178 11179 11180 11181 11182 11183 11184 11185 11186 11187 11188 11189 11190 11191 11192 11193 11194 11195 11196 11197 11198 11199 11200 11201 11202 11203 11204 11205 11206 11207 11208 11209 11210 11211 11212 11213 11214 11215 11216 11217 11218 11219 11220 11221 11222 11223 11224 11225 11226 11227 11228 11229 11230 11231 11232 11233 11234 11235 11236 11237 11238 11239 11240 11241 11242 11243 11244 11245 11246 11247 11248 11249 11250 11251 11252 11253 11254 11255 11256 11257 11258 11259 11260 11261 11262 11263 11264 11265 11266 11267 11268 11269 11270 11271 11272 11273 11274 11275 11276 11277 11278 11279 11280 11281 11282 11283 11284 11285 11286 11287 11288 11289 11290 11291 11292 11293 11294 11295 11296 11297 11298 11299 11300 11301 11302 11303 11304 11305 11306 11307 11308 11309 11310 11311 11312 11313 11314 11315 11316 11317 11318 11319 11320 11321 11322 11323 11324 11325 11326 11327 11328 11329 11330 11331 11332 11333 11334 11335 11336 11337 11338 11339 11340 11341 11342 11343 11344 11345 11346 11347 11348 11349 11350 11351 11352 11353 11354 11355 11356 11357 11358 11359 11360 11361 11362 11363 11364 11365 11366 11367 11368 11369 11370 11371 11372 11373 11374 11375 11376 11377 11378 11379 11380 11381 11382 11383 11384 11385 11386 11387 11388 11389 11390 11391 11392 11393 11394 11395 11396 11397 11398 11399 11400 11401 11402 11403 11404 11405 11406 11407 11408 11409 11410 11411 11412 11413 11414 11415 11416 11417 11418 11419 11420 11421 11422 11423 11424 11425 11426 11427 11428 11429 11430 11431 11432 11433 11434 11435 11436 11437 11438 11439 11440 11441 11442 11443 11444 11445 11446 11447 11448 11449 11450 11451 11452 11453 11454 11455 11456 11457 11458 11459 11460 11461 11462 11463 11464 11465 11466 11467 11468 11469 11470 11471 11472 11473 11474 11475 11476 11477 11478 11479 11480 11481 11482 11483 11484 11485 11486 11487 11488 11489 11490 11491 11492 11493 11494 11495 11496 11497 11498 11499 11500 11501 11502 11503 11504 11505 11506 11507 11508 11509 11510 11511 11512 11513 11514 11515 11516 11517 11518 11519 11520 11521 11522 11523 11524 11525 11526 11527 11528 11529 11530 11531 11532 11533 11534 11535 11536 11537 11538 11539 11540 11541 11542 11543 11544 11545 11546 11547 11548 11549 11550 11551 11552 11553 11554 11555 11556 11557 11558 11559 11560 11561 11562 11563 11564 11565 11566 11567 11568 11569 11570 11571 11572 11573 11574 11575 11576 11577 11578 11579 11580 11581 11582 11583 11584 11585 11586 11587 11588 11589 11590 11591 11592 11593 11594 11595 11596 11597 11598 11599 11600 11601 11602 11603 11604 11605 11606 11607 11608 11609 11610 11611 11612 11613 11614 11615 11616 11617 11618 11619 11620 11621 11622 11623 11624 11625 11626 11627 11628 11629 11630 11631 11632 11633 11634 11635 11636 11637 11638 11639 11640 11641 11642 11643 11644 11645 11646 11647 11648 11649 11650 11651 11652 11653 11654 11655 11656 11657 11658 11659 11660 11661 11662 11663 11664 11665 11666 11667 11668 11669 11670 11671 11672 11673 11674 11675 11676 11677 11678 11679 11680 11681 11682 11683 11684 11685 11686 11687 11688 11689 11690 11691 11692 11693 11694 11695 11696 11697 11698 11699 11700 11701 11702 11703 11704 11705 11706 11707 11708 11709 11710 11711 11712 11713 11714 11715 11716 11717 11718 11719 11720 11721 11722 11723 11724 11725 11726 11727 11728 11729 11730 11731 11732 11733 11734 11735 11736 11737 11738 11739 11740 11741 11742 11743 11744 11745 11746 11747 11748 11749 11750 11751 11752 11753 11754 11755 11756 11757 11758 11759 11760 11761 11762 11763 11764 11765 11766 11767 11768 11769 11770 11771 11772 11773 11774 11775 11776 11777 11778 11779 11780 11781 11782 11783 11784 11785 11786 11787 11788 11789 11790 11791 11792 11793 11794 11795 11796 11797 11798 11799 11800 11801 11802 11803 11804 11805 11806 11807 11808 11809 11810 11811 11812 11813 11814 11815 11816 11817 11818 11819 11820 11821 11822 11823 11824 11825 11826 11827 11828 11829 11830 11831 11832 11833 11834 11835 11836 11837 11838 11839 11840 11841 11842 11843 11844 11845 11846 11847 11848 11849 11850 11851 11852 11853 11854 11855 11856 11857 11858 11859 11860 11861 11862 11863 11864 11865 11866 11867 11868 11869 11870 11871 11872 11873 11874 11875 11876 11877 11878 11879 11880 11881 11882 11883 11884 11885 11886 11887 11888 11889 11890 11891 11892 11893 11894 11895 11896 11897 11898 11899 11900 11901 11902 11903 11904 11905 11906 11907 11908 11909 11910 11911 11912 11913 11914 11915 11916 11917 11918 11919 11920 11921 11922 11923 11924 11925 11926 11927 11928 11929 11930 11931 11932 11933 11934 11935 11936 11937 11938 11939 11940 11941 11942 11943 11944 11945 11946 11947 11948 11949 11950 11951 11952 11953 11954 11955 11956 11957 11958 11959 11960 11961 11962 11963 11964 11965 11966 11967 11968 11969 11970 11971 11972 11973 11974 11975 11976 11977 11978 11979 11980 11981 11982 11983 11984 11985 11986 11987 11988 11989 11990 11991 11992 11993 11994 11995 11996 11997 11998 11999 12000 12001 12002 12003 12004 12005 12006 12007 12008 12009 12010 12011 12012 12013 12014 12015 12016 12017 12018 12019 12020 12021 12022 12023 12024 12025 12026 12027 12028 12029 12030 12031 12032 12033 12034 12035 12036 12037 12038 12039 12040 12041 12042 12043 12044 12045 12046 12047 12048 12049 12050 12051 12052 12053 12054 12055 12056 12057 12058 12059 12060 12061 12062 12063 12064 12065 12066 12067 12068 12069 12070 12071 12072 12073 12074 12075 12076 12077 12078 12079 12080 12081 12082 12083 12084 12085 12086 12087 12088 12089 12090 12091 12092 12093 12094 12095 12096 12097 12098 12099 12100 12101 12102 12103 12104 12105 12106 12107 12108 12109 12110 12111 12112 12113 12114 12115 12116 12117 12118 12119 12120 12121 12122 12123 12124 12125 12126 12127 12128 12129 12130 12131 12132 12133 12134 12135 12136 12137 12138 12139 12140 12141 12142 12143 12144 12145 12146 12147 12148 12149 12150 12151 12152 12153 12154 12155 12156 12157 12158 12159 12160 12161 12162 12163 12164 12165 12166 12167 12168 12169 12170 12171 12172 12173 12174 12175 12176 12177 12178 12179 12180 12181 12182 12183 12184 12185 12186 12187 12188 12189 12190 12191 12192 12193 12194 12195 12196 12197 12198 12199 12200 12201 12202 12203 12204 12205 12206 12207 12208 12209 12210 12211 12212 12213 12214 12215 12216 12217 12218 12219 12220 12221 12222 12223 12224 12225 12226 12227 12228 12229 12230 12231 12232 12233 12234 12235 12236 12237 12238 12239 12240 12241 12242 12243 12244 12245 12246 12247 12248 12249 12250 12251 12252 12253 12254 12255 12256 12257 12258 12259 12260 12261 12262 12263 12264 12265 12266 12267 12268 12269 12270 12271 12272 12273 12274 12275 12276 12277 12278 12279 12280 12281 12282 12283 12284 12285 12286 12287 12288 12289 12290 12291 12292 12293 12294 12295 12296 12297 12298 12299 12300 12301 12302 12303 12304 12305 12306 12307 12308 12309 12310 12311 12312 12313 12314 12315 12316 12317 12318 12319 12320 12321 12322 12323 12324 12325 12326 12327 12328 12329 12330 12331 12332 12333 12334 12335 12336 12337 12338 12339 12340 12341 12342 12343 12344 12345 12346 12347 12348 12349 12350 12351 12352 12353 12354 12355 12356 12357 12358 12359 12360 12361 12362 12363 12364 12365 12366 12367 12368 12369 12370 12371 12372 12373 12374 12375 12376 12377 12378 12379 12380 12381 12382 12383 12384 12385 12386 12387 12388 12389 12390 12391 12392 12393 12394 12395 12396 12397 12398 12399 12400 12401 12402 12403 12404 12405 12406 12407 12408 12409 12410 12411 12412 12413 12414 12415 12416 12417 12418 12419 12420 12421 12422 12423 12424 12425 12426 12427 12428 12429 12430 12431 12432 12433 12434 12435 12436 12437 12438 12439 12440 12441 12442 12443 12444 12445 12446 12447 12448 12449 12450 12451 12452 12453 12454 12455 12456 12457 12458 12459 12460 12461 12462 12463 12464 12465 12466 12467 12468 12469 12470 12471 12472 12473 12474 12475 12476 12477 12478 12479 12480 12481 12482 12483 12484 12485 12486 12487 12488 12489 12490 12491 12492 12493 12494 12495 12496 12497 12498 12499 12500 12501 12502 12503 12504 12505 12506 12507 12508 12509 12510 12511 12512 12513 12514 12515 12516 12517 12518 12519 12520 12521 12522 12523 12524 12525 12526 12527 12528 12529 12530 12531 12532 12533 12534 12535 12536 12537 12538 12539 12540 12541 12542 12543 12544 12545 12546 12547 12548 12549 12550 12551 12552 12553 12554 12555 12556 12557 12558 12559 12560 12561 12562 12563 12564 12565 12566 12567 12568 12569 12570 12571 12572 12573 12574 12575 12576 12577 12578 12579 12580 12581 12582 12583 12584 12585 12586 12587 12588 12589 12590 12591 12592 12593 12594 12595 12596 12597 12598 12599 12600 12601 12602 12603 12604 12605 12606 12607 12608 12609 12610 12611 12612 12613 12614 12615 12616 12617 12618 12619 12620 12621 12622 12623 12624 12625 12626 12627 12628 12629 12630 12631 12632 12633 12634 12635 12636 12637 12638 12639 12640 12641 12642 12643 12644 12645 12646 12647 12648 12649 12650 12651 12652 12653 12654 12655 12656 12657 12658 12659 12660 12661 12662 12663 12664 12665 12666 12667 12668 12669 12670 12671 12672 12673 12674 12675 12676 12677 12678 12679 12680 12681 12682 12683 12684 12685 12686 12687 12688 12689 12690 12691 12692 12693 12694 12695 12696 12697 12698 12699 12700 12701 12702 12703 12704 12705 12706 12707 12708 12709 12710 12711 12712 12713 12714 12715 12716 12717 12718 12719 12720 12721 12722 12723 12724 12725 12726 12727 12728 12729 12730 12731 12732 12733 12734 12735 12736 12737 12738 12739 12740 12741 12742 12743 12744 12745 12746 12747 12748 12749 12750 12751 12752 12753 12754 12755 12756 12757 12758 12759 12760 12761 12762 12763 12764 12765 12766 12767 12768 12769 12770 12771 12772 12773 12774 12775 12776 12777 12778 12779 12780 12781 12782 12783 12784 12785 12786 12787 12788 12789 12790 12791 12792 12793 12794 12795 12796 12797 12798 12799 12800 12801 12802 12803 12804 12805 12806 12807 12808 12809 12810 12811 12812 12813 12814 12815 12816 12817 12818 12819 12820 12821 12822 12823 12824 12825 12826 12827 12828 12829 12830 12831 12832 12833 12834 12835 12836 12837 12838 12839 12840 12841 12842 12843 12844 12845 12846 12847 12848 12849 12850 12851 12852 12853 12854 12855 12856 12857 12858 12859 12860 12861 12862 12863 12864 12865 12866 12867 12868 12869 12870 12871 12872 12873 12874 12875 12876 12877 12878 12879 12880 12881 12882 12883 12884 12885 12886 12887 12888 12889 12890 12891 12892 12893 12894 12895 12896 12897 12898 12899 12900 12901 12902 12903 12904 12905 12906 12907 12908 12909 12910 12911 12912 12913 12914 12915 12916 12917 12918 12919 12920 12921 12922 12923 12924 12925 12926 12927 12928 12929 12930 12931 12932 12933 12934 12935 12936 12937 12938 12939 12940 12941 12942 12943 12944 12945 12946 12947 12948 12949 12950 12951 12952 12953 12954 12955 12956 12957 12958 12959 12960 12961 12962 12963 12964 12965 12966 12967 12968 12969 12970 12971 12972 12973 12974 12975 12976 12977 12978 12979 12980 12981 12982 12983 12984 12985 12986 12987 12988 12989 12990 12991 12992 12993 12994 12995 12996 12997 12998 12999 13000 13001 13002 13003 13004 13005 13006 13007 13008 13009 13010 13011 13012 13013 13014 13015 13016 13017 13018 13019 13020 13021 13022 13023 13024 13025 13026 13027 13028 13029 13030 13031 13032 13033 13034 13035 13036 13037 13038 13039 13040 13041 13042 13043 13044 13045 13046 13047 13048 13049 13050 13051 13052 13053 13054 13055 13056 13057 13058 13059 13060 13061 13062 13063 13064 13065 13066 13067 13068 13069 13070 13071 13072 13073 13074 13075 13076 13077 13078 13079 13080 13081 13082 13083 13084 13085 13086 13087 13088 13089 13090 13091 13092 13093 13094 13095 13096 13097 13098 13099 13100 13101 13102 13103 13104 13105 13106 13107 13108 13109 13110 13111 13112 13113 13114 13115 13116 13117 13118 13119 13120 13121 13122 13123 13124 13125 13126 13127 13128 13129 13130 13131 13132 13133 13134 13135 13136 13137 13138 13139 13140 13141 13142 13143 13144 13145 13146 13147 13148 13149 13150 13151 13152 13153 13154 13155 13156 13157 13158 13159 13160 13161 13162 13163 13164 13165 13166 13167 13168 13169 13170 13171 13172 13173 13174 13175 13176 13177 13178 13179 13180 13181 13182 13183 13184 13185 13186 13187 13188 13189 13190 13191 13192 13193 13194 13195 13196 13197 13198 13199 13200 13201 13202 13203 13204 13205 13206 13207 13208 13209 13210 13211 13212 13213 13214 13215 13216 13217 13218 13219 13220 13221 13222 13223 13224 13225 13226 13227 13228 13229 13230 13231 13232 13233 13234 13235 13236 13237 13238 13239 13240 13241 13242 13243 13244 13245 13246 13247 13248 13249 13250 13251 13252 13253 13254 13255 13256 13257 13258 13259 13260 13261 13262 13263 13264 13265 13266 13267 13268 13269 13270 13271 13272 13273 13274 13275 13276 13277 13278 13279 13280 13281 13282 13283 13284 13285 13286 13287 13288 13289 13290 13291 13292 13293 13294 13295 13296 13297 13298 13299 13300 13301 13302 13303 13304 13305 13306 13307 13308 13309 13310 13311 13312 13313 13314 13315 13316 13317 13318 13319 13320 13321 13322 13323 13324 13325 13326 13327 13328 13329 13330 13331 13332 13333 13334 13335 13336 13337 13338 13339 13340 13341 13342 13343 13344 13345 13346 13347 13348 13349 13350 13351 13352 13353 13354 13355 13356 13357 13358 13359 13360 13361 13362 13363 13364 13365 13366 13367 13368 13369 13370 13371 13372 13373 13374 13375 13376 13377 13378 13379 13380 13381 13382 13383 13384 13385 13386 13387 13388 13389 13390 13391 13392 13393 13394 13395 13396 13397 13398 13399 13400 13401 13402 13403 13404 13405 13406 13407 13408 13409 13410 13411 13412 13413 13414 13415 13416 13417 13418 13419 13420 13421 13422 13423 13424 13425 13426 13427 13428 13429 13430 13431 13432 13433 13434 13435 13436 13437 13438 13439 13440 13441 13442 13443 13444 13445 13446 13447 13448 13449 13450 13451 13452 13453 13454 13455 13456 13457 13458 13459 13460 13461 13462 13463 13464 13465 13466 13467 13468 13469 13470 13471 13472 13473 13474 13475 13476 13477 13478 13479 13480 13481 13482 13483 13484 13485 13486 13487 13488 13489 13490 13491 13492 13493 13494 13495 13496 13497 13498 13499 13500 13501 13502 13503 13504 13505 13506 13507 13508 13509 13510 13511 13512 13513 13514 13515 13516 13517 13518 13519 13520 13521 13522 13523 13524 13525 13526 13527 13528 13529 13530 13531 13532 13533 13534 13535 13536 13537 13538 13539 13540 13541 13542 13543 13544 13545 13546 13547 13548 13549 13550 13551 13552 13553 13554 13555 13556 13557 13558 13559 13560 13561 13562 13563 13564 13565 13566 13567 13568 13569 13570 13571 13572 13573 13574 13575 13576 13577 13578 13579 13580 13581 13582 13583 13584 13585 13586 13587 13588 13589 13590 13591 13592 13593 13594 13595 13596 13597 13598 13599 13600 13601 13602 13603 13604 13605 13606 13607 13608 13609 13610 13611 13612 13613 13614 13615 13616 13617 13618 13619 13620 13621 13622 13623 13624 13625 13626 13627 13628 13629 13630 13631 13632 13633 13634 13635 13636 13637 13638 13639 13640 13641 13642 13643 13644 13645 13646 13647 13648 13649 13650 13651 13652 13653 13654 13655 13656 13657 13658 13659 13660 13661 13662 13663 13664 13665 13666 13667 13668 13669 13670 13671 13672 13673 13674 13675 13676 13677 13678 13679 13680 13681 13682 13683 13684 13685 13686 13687 13688 13689 13690 13691 13692 13693 13694 13695 13696 13697 13698 13699 13700 13701 13702 13703 13704 13705 13706 13707 13708 13709 13710 13711 13712 13713 13714 13715 13716 13717 13718 13719 13720 13721 13722 13723 13724 13725 13726 13727 13728 13729 13730 13731 13732 13733 13734 13735 13736 13737 13738 13739 13740 13741 13742 13743 13744 13745 13746 13747 13748 13749 13750 13751 13752 13753 13754 13755 13756 13757 13758 13759 13760 13761 13762 13763 13764 13765 13766 13767 13768 13769 13770 13771 13772 13773 13774 13775 13776 13777 13778 13779 13780 13781 13782 13783 13784 13785 13786 13787 13788 13789 13790 13791 13792 13793 13794 13795 13796 13797 13798 13799 13800 13801 13802 13803 13804 13805 13806 13807 13808 13809 13810 13811 13812 13813 13814 13815 13816 13817 13818 13819 13820 13821 13822 13823 13824 13825 13826 13827 13828 13829 13830 13831 13832 13833 13834 13835 13836 13837 13838 13839 13840 13841 13842 13843 13844 13845 13846 13847 13848 13849 13850 13851 13852 13853 13854 13855 13856 13857 13858 13859 13860 13861 13862 13863 13864 13865 13866 13867 13868 13869 13870 13871 13872 13873 13874 13875 13876 13877 13878 13879 13880 13881 13882 13883 13884 13885 13886 13887 13888 13889 13890 13891 13892 13893 13894 13895 13896 13897 13898 13899 13900 13901 13902 13903 13904 13905 13906 13907 13908 13909 13910 13911 13912 13913 13914 13915 13916 13917 13918 13919 13920 13921 13922 13923 13924 13925 13926 13927 13928 13929 13930 13931 13932 13933 13934 13935 13936 13937 13938 13939 13940 13941 13942 13943 13944 13945 13946 13947 13948 13949 13950 13951 13952 13953 13954 13955 13956 13957 13958 13959 13960 13961 13962 13963 13964 13965 13966 13967 13968 13969 13970 13971 13972 13973 13974 13975 13976 13977 13978 13979 13980 13981 13982 13983 13984 13985 13986 13987 13988 13989 13990 13991 13992 13993 13994 13995 13996 13997 13998 13999 14000 14001 14002 14003 14004 14005 14006 14007 14008 14009 14010 14011 14012 14013 14014 14015 14016 14017 14018 14019 14020 14021 14022 14023 14024 14025 14026 14027 14028 14029 14030 14031 14032 14033 14034 14035 14036 14037 14038 14039 14040 14041 14042 14043 14044 14045 14046 14047 14048 14049 14050 14051 14052 14053 14054 14055 14056 14057 14058 14059 14060 14061 14062 14063 14064 14065 14066 14067 14068 14069 14070 14071 14072 14073 14074 14075 14076 14077 14078 14079 14080 14081 14082 14083 14084 14085 14086 14087 14088 14089 14090 14091 14092 14093 14094 14095 14096 14097 14098 14099 14100 14101 14102 14103 14104 14105 14106 14107 14108 14109 14110 14111 14112 14113 14114 14115 14116 14117 14118 14119 14120 14121 14122 14123 14124 14125 14126 14127 14128 14129 14130 14131 14132 14133 14134 14135 14136 14137 14138 14139 14140 14141 14142 14143 14144 14145 14146 14147 14148 14149 14150 14151 14152 14153 14154 14155 14156 14157 14158 14159 14160 14161 14162 14163 14164 14165 14166 14167 14168 14169 14170 14171 14172 14173 14174 14175 14176 14177 14178 14179 14180 14181 14182 14183 14184 14185 14186 14187 14188 14189 14190 14191 14192 14193 14194 14195 14196 14197 14198 14199 14200 14201 14202 14203 14204 14205 14206 14207 14208 14209 14210 14211 14212 14213 14214 14215 14216 14217 14218 14219 14220 14221 14222 14223 14224 14225 14226 14227 14228 14229 14230 14231 14232 14233 14234 14235 14236 14237 14238 14239 14240 14241 14242 14243 14244 14245 14246 14247 14248 14249 14250 14251 14252 14253 14254 14255 14256 14257 14258 14259 14260 14261 14262 14263 14264 14265 14266 14267 14268 14269 14270 14271 14272 14273 14274 14275 14276 14277 14278 14279 14280 14281 14282 14283 14284 14285 14286 14287 14288 14289 14290 14291 14292 14293 14294 14295 14296 14297 14298 14299 14300 14301 14302 14303 14304 14305 14306 14307 14308 14309 14310 14311 14312 14313 14314 14315 14316 14317 14318 14319 14320 14321 14322 14323 14324 14325 14326 14327 14328 14329 14330 14331 14332 14333 14334 14335 14336 14337 14338 14339 14340 14341 14342 14343 14344 14345 14346 14347 14348 14349 14350 14351 14352 14353 14354 14355 14356 14357 14358 14359 14360 14361 14362 14363 14364 14365 14366 14367 14368 14369 14370 14371 14372 14373 14374 14375 14376 14377 14378 14379 14380 14381 14382 14383 14384 14385 14386 14387 14388 14389 14390 14391 14392 14393 14394 14395 14396 14397 14398 14399 14400 14401 14402 14403 14404 14405 14406 14407 14408 14409 14410 14411 14412 14413 14414 14415 14416 14417 14418 14419 14420 14421 14422 14423 14424 14425 14426 14427 14428 14429 14430 14431 14432 14433 14434 14435 14436 14437 14438 14439 14440 14441 14442 14443 14444 14445 14446 14447 14448 14449 14450 14451 14452 14453 14454 14455 14456 14457 14458 14459 14460 14461 14462 14463 14464 14465 14466 14467 14468 14469 14470 14471 14472 14473 14474 14475 14476 14477 14478 14479 14480 14481 14482 14483 14484 14485 14486 14487 14488 14489 14490 14491 14492 14493 14494 14495 14496 14497 14498 14499 14500 14501 14502 14503 14504 14505 14506 14507 14508 14509 14510 14511 14512 14513 14514 14515 14516 14517 14518 14519 14520 14521 14522 14523 14524 14525 14526 14527 14528 14529 14530 14531 14532 14533 14534 14535 14536 14537 14538 14539 14540 14541 14542 14543 14544 14545 14546 14547 14548 14549 14550 14551 14552 14553 14554 14555 14556 14557 14558 14559 14560 14561 14562 14563 14564 14565 14566 14567 14568 14569 14570 14571 14572 14573 14574 14575 14576 14577 14578 14579 14580 14581 14582 14583 14584 14585 14586 14587 14588 14589 14590 14591 14592 14593 14594 14595 14596 14597 14598 14599 14600 14601 14602 14603 14604 14605 14606 14607 14608 14609 14610 14611 14612 14613 14614 14615 14616 14617 14618 14619 14620 14621 14622 14623 14624 14625 14626 14627 14628 14629 14630 14631 14632 14633 14634 14635 14636 14637 14638 14639 14640 14641 14642 14643 14644 14645 14646 14647 14648 14649 14650 14651 14652 14653 14654 14655 14656 14657 14658 14659 14660 14661 14662 14663 14664 14665 14666 14667 14668 14669 14670 14671 14672 14673 14674 14675 14676 14677 14678 14679 14680 14681 14682 14683 14684 14685 14686 14687 14688 14689 14690 14691 14692 14693 14694 14695 14696 14697 14698 14699 14700 14701 14702 14703 14704 14705 14706 14707 14708 14709 14710 14711 14712 14713 14714 14715 14716 14717 14718 14719 14720 14721 14722 14723 14724 14725 14726 14727 14728 14729 14730 14731 14732 14733 14734 14735 14736 14737 14738 14739 14740 14741 14742 14743 14744 14745 14746 14747 14748 14749 14750 14751 14752 14753 14754 14755 14756 14757 14758 14759 14760 14761 14762 14763 14764 14765 14766 14767 14768 14769 14770 14771 14772 14773 14774 14775 14776 14777 14778 14779 14780 14781 14782 14783 14784 14785 14786 14787 14788 14789 14790 14791 14792 14793 14794 14795 14796 14797 14798 14799 14800 14801 14802 14803 14804 14805 14806 14807 14808 14809 14810 14811 14812 14813 14814 14815 14816 14817 14818 14819 14820 14821 14822 14823 14824 14825 14826 14827 14828 14829 14830 14831 14832 14833 14834 14835 14836 14837 14838 14839 14840 14841 14842 14843 14844 14845 14846 14847 14848 14849 14850 14851 14852 14853 14854 14855 14856 14857 14858 14859 14860 14861 14862 14863 14864 14865 14866 14867 14868 14869 14870 14871 14872 14873 14874 14875 14876 14877 14878 14879 14880 14881 14882 14883 14884 14885 14886 14887 14888 14889 14890 14891 14892 14893 14894 14895 14896 14897 14898 14899 14900 14901 14902 14903 14904 14905 14906 14907 14908 14909 14910 14911 14912 14913 14914 14915 14916 14917 14918 14919 14920 14921 14922 14923 14924 14925 14926 14927 14928 14929 14930 14931 14932 14933 14934 14935 14936 14937 14938 14939 14940 14941 14942 14943 14944 14945 14946 14947 14948 14949 14950 14951 14952 14953 14954 14955 14956 14957 14958 14959 14960 14961 14962 14963 14964 14965 14966 14967 14968 14969 14970 14971 14972 14973 14974 14975 14976 14977 14978 14979 14980 14981 14982 14983 14984 14985 14986 14987 14988 14989 14990 14991 14992 14993 14994 14995 14996 14997 14998 14999 15000 15001 15002 15003 15004 15005 15006 15007 15008 15009 15010 15011 15012 15013 15014 15015 15016 15017 15018 15019 15020 15021 15022 15023 15024 15025 15026 15027 15028 15029 15030 15031 15032 15033 15034 15035 15036 15037 15038 15039 15040 15041 15042 15043 15044 15045 15046 15047 15048 15049 15050 15051 15052 15053 15054 15055 15056 15057 15058 15059 15060 15061 15062 15063 15064 15065 15066 15067 15068 15069 15070 15071 15072 15073 15074 15075 15076 15077 15078 15079 15080 15081 15082 15083 15084 15085 15086 15087 15088 15089 15090 15091 15092 15093 15094 15095 15096 15097 15098 15099 15100 15101 15102 15103 15104 15105 15106 15107 15108 15109 15110 15111 15112 15113 15114 15115 15116 15117 15118 15119 15120 15121 15122 15123 15124 15125 15126 15127 15128 15129 15130 15131 15132 15133 15134 15135 15136 15137 15138 15139 15140 15141 15142 15143 15144 15145 15146 15147 15148 15149 15150 15151 15152 15153 15154 15155 15156 15157 15158 15159 15160 15161 15162 15163 15164 15165 15166 15167 15168 15169 15170 15171 15172 15173 15174 15175 15176 15177 15178 15179 15180 15181 15182 15183 15184 15185 15186 15187 15188 15189 15190 15191 15192 15193 15194 15195 15196 15197 15198 15199 15200 15201 15202 15203 15204 15205 15206 15207 15208 15209 15210 15211 15212 15213 15214 15215 15216 15217 15218 15219 15220 15221 15222 15223 15224 15225 15226 15227 15228 15229 15230 15231 15232 15233 15234 15235 15236 15237 15238 15239 15240 15241 15242 15243 15244 15245 15246 15247 15248 15249 15250 15251 15252 15253 15254 15255 15256 15257 15258 15259 15260 15261 15262 15263 15264 15265 15266 15267 15268 15269 15270 15271 15272 15273 15274 15275 15276 15277 15278 15279 15280 15281 15282 15283 15284 15285 15286 15287 15288 15289 15290 15291 15292 15293 15294 15295 15296 15297 15298 15299 15300 15301 15302 15303 15304 15305 15306 15307 15308 15309 15310 15311 15312 15313 15314 15315 15316 15317 15318 15319 15320 15321 15322 15323 15324 15325 15326 15327 15328 15329 15330 15331 15332 15333 15334 15335 15336 15337 15338 15339 15340 15341 15342 15343 15344 15345 15346 15347 15348 15349 15350 15351 15352 15353 15354 15355 15356 15357 15358 15359 15360 15361 15362 15363 15364 15365 15366 15367 15368 15369 15370 15371 15372 15373 15374 15375 15376 15377 15378 15379 15380 15381 15382 15383 15384 15385 15386 15387 15388 15389 15390 15391 15392 15393 15394 15395 15396 15397 15398 15399 15400 15401 15402 15403 15404 15405 15406 15407 15408 15409 15410 15411 15412 15413 15414 15415 15416 15417 15418 15419 15420 15421 15422 15423 15424 15425 15426 15427 15428 15429 15430 15431 15432 15433 15434 15435 15436 15437 15438 15439 15440 15441 15442 15443 15444 15445 15446 15447 15448 15449 15450 15451 15452 15453 15454 15455 15456 15457 15458 15459 15460 15461 15462 15463 15464 15465 15466 15467 15468 15469 15470 15471 15472 15473 15474 15475 15476 15477 15478 15479 15480 15481 15482 15483 15484 15485 15486 15487 15488 15489 15490 15491 15492 15493 15494 15495 15496 15497 15498 15499 15500 15501 15502 15503 15504 15505 15506 15507 15508 15509 15510 15511 15512 15513 15514 15515 15516 15517 15518 15519 15520 15521 15522 15523 15524 15525 15526 15527 15528 15529 15530 15531 15532 15533 15534 15535 15536 15537 15538 15539 15540 15541 15542 15543 15544 15545 15546 15547 15548 15549 15550 15551 15552 15553 15554 15555 15556 15557 15558 15559 15560 15561 15562 15563 15564 15565 15566 15567 15568 15569 15570 15571 15572 15573 15574 15575 15576 15577 15578 15579 15580 15581 15582 15583 15584 15585 15586 15587 15588 15589 15590 15591 15592 15593 15594 15595 15596 15597 15598 15599 15600 15601 15602 15603 15604 15605 15606 15607 15608 15609 15610 15611 15612 15613 15614 15615 15616 15617 15618 15619 15620 15621 15622 15623 15624 15625 15626 15627 15628 15629 15630 15631 15632 15633 15634 15635 15636 15637 15638 15639 15640 15641 15642 15643 15644 15645 15646 15647 15648 15649 15650 15651 15652 15653 15654 15655 15656 15657 15658 15659 15660 15661 15662 15663 15664 15665 15666 15667 15668 15669 15670 15671 15672 15673 15674 15675 15676 15677 15678 15679 15680 15681 15682 15683 15684 15685 15686 15687 15688 15689 15690 15691 15692 15693 15694 15695 15696 15697 15698 15699 15700 15701 15702 15703 15704 15705 15706 15707 15708 15709 15710 15711 15712 15713 15714 15715 15716 15717 15718 15719 15720 15721 15722 15723 15724 15725 15726 15727 15728 15729 15730 15731 15732 15733 15734 15735 15736 15737 15738 15739 15740 15741 15742 15743 15744 15745 15746 15747 15748 15749 15750 15751 15752 15753 15754 15755 15756 15757 15758 15759 15760 15761 15762 15763 15764 15765 15766 15767 15768 15769 15770 15771 15772 15773 15774 15775 15776 15777 15778 15779 15780 15781 15782 15783 15784 15785 15786 15787 15788 15789 15790 15791 15792 15793 15794 15795 15796 15797 15798 15799 15800 15801 15802 15803 15804 15805 15806 15807 15808 15809 15810 15811 15812 15813 15814 15815 15816 15817 15818 15819 15820 15821 15822 15823 15824 15825 15826 15827 15828 15829 15830 15831 15832 15833 15834 15835 15836 15837 15838 15839 15840 15841 15842 15843 15844 15845 15846 15847 15848 15849 15850 15851 15852 15853 15854 15855 15856 15857 15858 15859 15860 15861 15862 15863 15864 15865 15866 15867 15868 15869 15870 15871 15872 15873 15874 15875 15876 15877 15878 15879 15880 15881 15882 15883 15884 15885 15886 15887 15888 15889 15890 15891 15892 15893 15894 15895 15896 15897 15898 15899 15900 15901 15902 15903 15904 15905 15906 15907 15908 15909 15910 15911 15912 15913 15914 15915 15916 15917 15918 15919 15920 15921 15922 15923 15924 15925 15926 15927 15928 15929 15930 15931 15932 15933 15934 15935 15936 15937 15938 15939 15940 15941 15942 15943 15944 15945 15946 15947 15948 15949 15950 15951 15952 15953 15954 15955 15956 15957 15958 15959 15960 15961 15962 15963 15964 15965 15966 15967 15968 15969 15970 15971 15972 15973 15974 15975 15976 15977 15978 15979 15980 15981 15982 15983 15984 15985 15986 15987 15988 15989 15990 15991 15992 15993 15994 15995 15996 15997 15998 15999 16000 16001 16002 16003 16004 16005 16006 16007 16008 16009 16010 16011 16012 16013 16014 16015 16016 16017 16018 16019 16020 16021 16022 16023 16024 16025 16026 16027 16028 16029 16030 16031 16032 16033 16034 16035 16036 16037 16038 16039 16040 16041 16042 16043 16044 16045 16046 16047 16048 16049 16050 16051 16052 16053 16054 16055 16056 16057 16058 16059 16060 16061 16062 16063 16064 16065 16066 16067 16068 16069 16070 16071 16072 16073 16074 16075 16076 16077 16078 16079 16080 16081 16082 16083 16084 16085 16086 16087 16088 16089 16090 16091 16092 16093 16094 16095 16096 16097 16098 16099 16100 16101 16102 16103 16104 16105 16106 16107 16108 16109 16110 16111 16112 16113 16114 16115 16116 16117 16118 16119 16120 16121 16122 16123 16124 16125 16126 16127 16128 16129 16130 16131 16132 16133 16134 16135 16136 16137 16138 16139 16140 16141 16142 16143 16144 16145 16146 16147 16148 16149 16150 16151 16152 16153 16154 16155 16156 16157 16158 16159 16160 16161 16162 16163 16164 16165 16166 16167 16168 16169 16170 16171 16172 16173 16174 16175 16176 16177 16178 16179 16180 16181 16182 16183 16184 16185 16186 16187 16188 16189 16190 16191 16192 16193 16194 16195 16196 16197 16198 16199 16200 16201 16202 16203 16204 16205 16206 16207 16208 16209 16210 16211 16212 16213 16214 16215 16216 16217 16218 16219 16220 16221 16222 16223 16224 16225 16226 16227 16228 16229 16230 16231 16232 16233 16234 16235 16236 16237 16238 16239 16240 16241 16242 16243 16244 16245 16246 16247 16248 16249 16250 16251 16252 16253 16254 16255 16256 16257 16258 16259 16260 16261 16262 16263 16264 16265 16266 16267 16268 16269 16270 16271 16272 16273 16274 16275 16276 16277 16278 16279 16280 16281 16282 16283 16284 16285 16286 16287 16288 16289 16290 16291 16292 16293 16294 16295 16296 16297 16298 16299 16300 16301 16302 16303 16304 16305 16306 16307 16308 16309 16310 16311 16312 16313 16314 16315 16316 16317 16318 16319 16320 16321 16322 16323 16324 16325 16326 16327 16328 16329 16330 16331 16332 16333 16334 16335 16336 16337 16338 16339 16340 16341 16342 16343 16344 16345 16346 16347 16348 16349 16350 16351 16352 16353 16354 16355 16356 16357 16358 16359 16360 16361 16362 16363 16364 16365 16366 16367 16368 16369 16370 16371 16372 16373 16374 16375 16376 16377 16378 16379 16380 16381 16382 16383 16384 16385 16386 16387 16388 16389 16390 16391 16392 16393 16394 16395 16396 16397 16398 16399 16400 16401 16402 16403 16404 16405 16406 16407 16408 16409 16410 16411 16412 16413 16414 16415 16416 16417 16418 16419 16420 16421 16422 16423 16424 16425 16426 16427 16428 16429 16430 16431 16432 16433 16434 16435 16436 16437 16438 16439 16440 16441 16442 16443 16444 16445 16446 16447 16448 16449 16450 16451 16452 16453 16454 16455 16456 16457 16458 16459 16460 16461 16462 16463 16464 16465 16466 16467 16468 16469 16470 16471 16472 16473 16474 16475 16476 16477 16478 16479 16480 16481 16482 16483 16484 16485 16486 16487 16488 16489 16490 16491 16492 16493 16494 16495 16496 16497 16498 16499 16500 16501 16502 16503 16504 16505 16506 16507 16508 16509 16510 16511 16512 16513 16514 16515 16516 16517 16518 16519 16520 16521 16522 16523 16524 16525 16526 16527 16528 16529 16530 16531 16532 16533 16534 16535 16536 16537 16538 16539 16540 16541 16542 16543 16544 16545 16546 16547 16548 16549 16550 16551 16552 16553 16554 16555 16556 16557 16558 16559 16560 16561 16562 16563 16564 16565 16566 16567 16568 16569 16570 16571 16572 16573 16574 16575 16576 16577 16578 16579 16580 16581 16582 16583 16584 16585 16586 16587 16588 16589 16590 16591 16592 16593 16594 16595 16596 16597 16598 16599 16600 16601 16602 16603 16604 16605 16606 16607 16608 16609 16610 16611 16612 16613 16614 16615 16616 16617 16618 16619 16620 16621 16622 16623 16624 16625 16626 16627 16628 16629 16630 16631 16632 16633 16634 16635 16636 16637 16638 16639 16640 16641 16642 16643 16644 16645 16646 16647 16648 16649 16650 16651 16652 16653 16654 16655 16656 16657 16658 16659 16660 16661 16662 16663 16664 16665 16666 16667 16668 16669 16670 16671 16672 16673 16674 16675 16676 16677 16678 16679 16680 16681 16682 16683 16684 16685 16686 16687 16688 16689 16690 16691 16692 16693 16694 16695 16696 16697 16698 16699 16700 16701 16702 16703 16704 16705 16706 16707 16708 16709 16710 16711 16712 16713 16714 16715 16716 16717 16718 16719 16720 16721 16722 16723 16724 16725 16726 16727 16728 16729 16730 16731 16732 16733 16734 16735 16736 16737 16738 16739 16740 16741 16742 16743 16744 16745 16746 16747 16748 16749 16750 16751 16752 16753 16754 16755 16756 16757 16758 16759 16760 16761 16762 16763 16764 16765 16766 16767 16768 16769 16770 16771 16772 16773 16774 16775 16776 16777 16778 16779 16780 16781 16782 16783 16784 16785 16786 16787 16788 16789 16790 16791 16792 16793 16794 16795 16796 16797 16798 16799 16800 16801 16802 16803 16804 16805 16806 16807 16808 16809 16810 16811 16812 16813 16814 16815 16816 16817 16818 16819 16820 16821 16822 16823 16824 16825 16826 16827 16828 16829 16830 16831 16832 16833 16834 16835 16836 16837 16838 16839 16840 16841 16842 16843 16844 16845 16846 16847 16848 16849 16850 16851 16852 16853 16854 16855 16856 16857 16858 16859 16860 16861 16862 16863 16864 16865 16866 16867 16868 16869 16870 16871 16872 16873 16874 16875 16876 16877 16878 16879 16880 16881 16882 16883 16884 16885 16886 16887 16888 16889 16890 16891 16892 16893 16894 16895 16896 16897 16898 16899 16900 16901 16902 16903 16904 16905 16906 16907 16908 16909 16910 16911 16912 16913 16914 16915 16916 16917 16918 16919 16920 16921 16922 16923 16924 16925 16926 16927 16928 16929 16930 16931 16932 16933 16934 16935 16936 16937 16938 16939 16940 16941 16942 16943 16944 16945 16946 16947 16948 16949 16950 16951 16952 16953 16954 16955 16956 16957 16958 16959 16960 16961 16962 16963 16964 16965 16966 16967 16968 16969 16970 16971 16972 16973 16974 16975 16976 16977 16978 16979 16980 16981 16982 16983 16984 16985 16986 16987 16988 16989 16990 16991 16992 16993 16994 16995 16996 16997 16998 16999 17000 17001 17002 17003 17004 17005 17006 17007 17008 17009 17010 17011 17012 17013 17014 17015 17016 17017 17018 17019 17020 17021 17022 17023 17024 17025 17026 17027 17028 17029 17030 17031 17032 17033 17034 17035 17036 17037 17038 17039 17040 17041 17042 17043 17044 17045 17046 17047 17048 17049 17050 17051 17052 17053 17054 17055 17056 17057 17058 17059 17060 17061 17062 17063 17064 17065 17066 17067 17068 17069 17070 17071 17072 17073 17074 17075 17076 17077 17078 17079 17080 17081 17082 17083 17084 17085 17086 17087 17088 17089 17090 17091 17092 17093 17094 17095 17096 17097 17098 17099 17100 17101 17102 17103 17104 17105 17106 17107 17108 17109 17110 17111 17112 17113 17114 17115 17116 17117 17118 17119 17120 17121 17122 17123 17124 17125 17126 17127 17128 17129 17130 17131 17132 17133 17134 17135 17136 17137 17138 17139 17140 17141 17142 17143 17144 17145 17146 17147 17148 17149 17150 17151 17152 17153 17154 17155 17156 17157 17158 17159 17160 17161 17162 17163 17164 17165 17166 17167 17168 17169 17170 17171 17172 17173 17174 17175 17176 17177 17178 17179 17180 17181 17182 17183 17184 17185 17186 17187 17188 17189 17190 17191 17192 17193 17194 17195 17196 17197 17198 17199 17200 17201 17202 17203 17204 17205 17206 17207 17208 17209 17210 17211 17212 17213 17214 17215 17216 17217 17218 17219 17220 17221 17222 17223 17224 17225 17226 17227 17228 17229 17230 17231 17232 17233 17234 17235 17236 17237 17238 17239 17240 17241 17242 17243 17244 17245 17246 17247 17248 17249 17250 17251 17252 17253 17254 17255 17256 17257 17258 17259 17260 17261 17262 17263 17264 17265 17266 17267 17268 17269 17270 17271 17272 17273 17274 17275 17276 17277 17278 17279 17280 17281 17282 17283 17284 17285 17286 17287 17288 17289 17290 17291 17292 17293 17294 17295 17296 17297 17298 17299 17300 17301 17302 17303 17304 17305 17306 17307 17308 17309 17310 17311 17312 17313 17314 17315 17316 17317 17318 17319 17320 17321 17322 17323 17324 17325 17326 17327 17328 17329 17330 17331 17332 17333 17334 17335 17336 17337 17338 17339 17340 17341 17342 17343 17344 17345 17346 17347 17348 17349 17350 17351 17352 17353 17354 17355 17356 17357 17358 17359 17360 17361 17362 17363 17364 17365 17366 17367 17368 17369 17370 17371 17372 17373 17374 17375 17376 17377 17378 17379 17380 17381 17382 17383 17384 17385 17386 17387 17388 17389 17390 17391 17392 17393 17394 17395 17396 17397 17398 17399 17400 17401 17402 17403 17404 17405 17406 17407 17408 17409 17410 17411 17412 17413 17414 17415 17416 17417 17418 17419 17420 17421 17422 17423 17424 17425 17426 17427 17428 17429 17430 17431 17432 17433 17434 17435 17436 17437 17438 17439 17440 17441 17442 17443 17444 17445 17446 17447 17448 17449 17450 17451 17452 17453 17454 17455 17456 17457 17458 17459 17460 17461 17462 17463 17464 17465 17466 17467 17468 17469 17470 17471 17472 17473 17474 17475 17476 17477 17478 17479 17480 17481 17482 17483 17484 17485 17486 17487 17488 17489 17490 17491 17492 17493 17494 17495 17496 17497 17498 17499 17500 17501 17502 17503 17504 17505 17506 17507 17508 17509 17510 17511 17512 17513 17514 17515 17516 17517 17518 17519 17520 17521 17522 17523 17524 17525 17526 17527 17528 17529 17530 17531 17532 17533 17534 17535 17536 17537 17538 17539 17540 17541 17542 17543 17544 17545 17546 17547 17548 17549 17550 17551 17552 17553 17554 17555 17556 17557 17558 17559 17560 17561 17562 17563 17564 17565 17566 17567 17568 17569 17570 17571 17572 17573 17574 17575 17576 17577 17578 17579 17580 17581 17582 17583 17584 17585 17586 17587 17588 17589 17590 17591 17592 17593 17594 17595 17596 17597 17598 17599 17600 17601 17602 17603 17604 17605 17606 17607 17608 17609 17610 17611 17612 17613 17614 17615 17616 17617 17618 17619 17620 17621 17622 17623 17624 17625 17626 17627 17628 17629 17630 17631 17632 17633 17634 17635 17636 17637 17638 17639 17640 17641 17642 17643 17644 17645 17646 17647 17648 17649 17650 17651 17652 17653 17654 17655 17656 17657 17658 17659 17660 17661 17662 17663 17664 17665 17666 17667 17668 17669 17670 17671 17672 17673 17674 17675 17676 17677 17678 17679 17680 17681 17682 17683 17684 17685 17686 17687 17688 17689 17690 17691 17692 17693 17694 17695 17696 17697 17698 17699 17700 17701 17702 17703 17704 17705 17706 17707 17708 17709 17710 17711 17712 17713 17714 17715 17716 17717 17718 17719 17720 17721 17722 17723 17724 17725 17726 17727 17728 17729 17730 17731 17732 17733 17734 17735 17736 17737 17738 17739 17740 17741 17742 17743 17744 17745 17746 17747 17748 17749 17750 17751 17752 17753 17754 17755 17756 17757 17758 17759 17760 17761 17762 17763 17764 17765 17766 17767 17768 17769 17770 17771 17772 17773 17774 17775 17776 17777 17778 17779 17780 17781 17782 17783 17784 17785 17786 17787 17788 17789 17790 17791 17792 17793 17794 17795 17796 17797 17798 17799 17800 17801 17802 17803 17804 17805 17806 17807 17808 17809 17810 17811 17812 17813 17814 17815 17816 17817 17818 17819 17820 17821 17822 17823 17824 17825 17826 17827 17828 17829 17830 17831 17832 17833 17834 17835 17836 17837 17838 17839 17840 17841 17842 17843 17844 17845 17846 17847 17848 17849 17850 17851 17852 17853 17854 17855 17856 17857 17858 17859 17860 17861 17862 17863 17864 17865 17866 17867 17868 17869 17870 17871 17872 17873 17874 17875 17876 17877 17878 17879 17880 17881 17882 17883 17884 17885 17886 17887 17888 17889 17890 17891 17892 17893 17894 17895 17896 17897 17898 17899 17900 17901 17902 17903 17904 17905 17906 17907 17908 17909 17910 17911 17912 17913 17914 17915 17916 17917 17918 17919 17920 17921 17922 17923 17924 17925 17926 17927 17928 17929 17930 17931 17932 17933 17934 17935 17936 17937 17938 17939 17940 17941 17942 17943 17944 17945 17946 17947 17948 17949 17950 17951 17952 17953 17954 17955 17956 17957 17958 17959 17960 17961 17962 17963 17964 17965 17966 17967 17968 17969 17970 17971 17972 17973 17974 17975 17976 17977 17978 17979 17980 17981 17982 17983 17984 17985 17986 17987 17988 17989 17990 17991 17992 17993 17994 17995 17996 17997 17998 17999 18000 18001 18002 18003 18004 18005 18006 18007 18008 18009 18010 18011 18012 18013 18014 18015 18016 18017 18018 18019 18020 18021 18022 18023 18024 18025 18026 18027 18028 18029 18030 18031 18032 18033 18034 18035 18036 18037 18038 18039 18040 18041 18042 18043 18044 18045 18046 18047 18048 18049 18050 18051 18052 18053 18054 18055 18056 18057 18058 18059 18060 18061 18062 18063 18064 18065 18066 18067 18068 18069 18070 18071 18072 18073 18074 18075 18076 18077 18078 18079 18080 18081 18082 18083 18084 18085 18086 18087 18088 18089 18090 18091 18092 18093 18094 18095 18096 18097 18098 18099 18100 18101 18102 18103 18104 18105 18106 18107 18108 18109 18110 18111 18112 18113 18114 18115 18116 18117 18118 18119 18120 18121 18122 18123 18124 18125 18126 18127 18128 18129 18130 18131 18132 18133 18134 18135 18136 18137 18138 18139 18140 18141 18142 18143 18144 18145 18146 18147 18148 18149 18150 18151 18152 18153 18154 18155 18156 18157 18158 18159 18160 18161 18162 18163 18164 18165 18166 18167 18168 18169 18170 18171 18172 18173 18174 18175 18176 18177 18178 18179 18180 18181 18182 18183 18184 18185 18186 18187 18188 18189 18190 18191 18192 18193 18194 18195 18196 18197 18198 18199 18200 18201 18202 18203 18204 18205 18206 18207 18208 18209 18210 18211 18212 18213 18214 18215 18216 18217 18218 18219 18220 18221 18222 18223 18224 18225 18226 18227 18228 18229 18230 18231 18232 18233 18234 18235 18236 18237 18238 18239 18240 18241 18242 18243 18244 18245 18246 18247 18248 18249 18250 18251 18252 18253 18254 18255 18256 18257 18258 18259 18260 18261 18262 18263 18264 18265 18266 18267 18268 18269 18270 18271 18272 18273 18274 18275 18276 18277 18278 18279 18280 18281 18282 18283 18284 18285 18286 18287 18288 18289 18290 18291 18292 18293 18294 18295 18296 18297 18298 18299 18300 18301 18302 18303 18304 18305 18306 18307 18308 18309 18310 18311 18312 18313 18314 18315 18316 18317 18318 18319 18320 18321 18322 18323 18324 18325 18326 18327 18328 18329 18330 18331 18332 18333 18334 18335 18336 18337 18338 18339 18340 18341 18342 18343 18344 18345 18346 18347 18348 18349 18350 18351 18352 18353 18354 18355 18356 18357 18358 18359 18360 18361 18362 18363 18364 18365 18366 18367 18368 18369 18370 18371 18372 18373 18374 18375 18376 18377 18378 18379 18380 18381 18382 18383 18384 18385 18386 18387 18388 18389 18390 18391 18392 18393 18394 18395 18396 18397 18398 18399 18400 18401 18402 18403 18404 18405 18406 18407 18408 18409 18410 18411 18412 18413 18414 18415 18416 18417 18418 18419 18420 18421 18422 18423 18424 18425 18426 18427 18428 18429 18430 18431 18432 18433 18434 18435 18436 18437 18438 18439 18440 18441 18442 18443 18444 18445 18446 18447 18448 18449 18450 18451 18452 18453 18454 18455 18456 18457 18458 18459 18460 18461 18462 18463 18464 18465 18466 18467 18468 18469 18470 18471 18472 18473 18474 18475 18476 18477 18478 18479 18480 18481 18482 18483 18484 18485 18486 18487 18488 18489 18490 18491 18492 18493 18494 18495 18496 18497 18498 18499 18500 18501 18502 18503 18504 18505 18506 18507 18508 18509 18510 18511 18512 18513 18514 18515 18516 18517 18518 18519 18520 18521 18522 18523 18524 18525 18526 18527 18528 18529 18530 18531 18532 18533 18534 18535 18536 18537 18538 18539 18540 18541 18542 18543 18544 18545 18546 18547 18548 18549 18550 18551 18552 18553 18554 18555 18556 18557 18558 18559 18560 18561 18562 18563 18564 18565 18566 18567 18568 18569 18570 18571 18572 18573 18574 18575 18576 18577 18578 18579 18580 18581 18582 18583 18584 18585 18586 18587 18588 18589 18590 18591 18592 18593 18594 18595 18596 18597 18598 18599 18600 18601 18602 18603 18604 18605 18606 18607 18608 18609 18610 18611 18612 18613 18614 18615 18616 18617 18618 18619 18620 18621 18622 18623 18624 18625 18626 18627 18628 18629 18630 18631 18632 18633 18634 18635 18636 18637 18638 18639 18640 18641 18642 18643 18644 18645 18646 18647 18648 18649 18650 18651 18652 18653 18654 18655 18656 18657 18658 18659 18660 18661 18662 18663 18664 18665 18666 18667 18668 18669 18670 18671 18672 18673 18674 18675 18676 18677 18678 18679 18680 18681 18682 18683 18684 18685 18686 18687 18688 18689 18690 18691 18692 18693 18694 18695 18696 18697 18698 18699 18700 18701 18702 18703 18704 18705 18706 18707 18708 18709 18710 18711 18712 18713 18714 18715 18716 18717 18718 18719 18720 18721 18722 18723 18724 18725 18726 18727 18728 18729 18730 18731 18732 18733 18734 18735 18736 18737 18738 18739 18740 18741 18742 18743 18744 18745 18746 18747 18748 18749 18750 18751 18752 18753 18754 18755 18756 18757 18758 18759 18760 18761 18762 18763 18764 18765 18766 18767 18768 18769 18770 18771 18772 18773 18774 18775 18776 18777 18778 18779 18780 18781 18782 18783 18784 18785 18786 18787 18788 18789 18790 18791 18792 18793 18794 18795 18796 18797 18798 18799 18800 18801 18802 18803 18804 18805 18806 18807 18808 18809 18810 18811 18812 18813 18814 18815 18816 18817 18818 18819 18820 18821 18822 18823 18824 18825 18826 18827 18828 18829 18830 18831 18832 18833 18834 18835 18836 18837 18838 18839 18840 18841 18842 18843 18844 18845 18846 18847 18848 18849 18850 18851 18852 18853 18854 18855 18856 18857 18858 18859 18860 18861 18862 18863 18864 18865 18866 18867 18868 18869 18870 18871 18872 18873 18874 18875 18876 18877 18878 18879 18880 18881 18882 18883 18884 18885 18886 18887 18888 18889 18890 18891 18892 18893 18894 18895 18896 18897 18898 18899 18900 18901 18902 18903 18904 18905 18906 18907 18908 18909 18910 18911 18912 18913 18914 18915 18916 18917 18918 18919 18920 18921 18922 18923 18924 18925 18926 18927 18928 18929 18930 18931 18932 18933 18934 18935 18936 18937 18938 18939 18940 18941 18942 18943 18944 18945 18946 18947 18948 18949 18950 18951 18952 18953 18954 18955 18956 18957 18958 18959 18960 18961 18962 18963 18964 18965 18966 18967 18968 18969 18970 18971 18972 18973 18974 18975 18976 18977 18978 18979 18980 18981 18982 18983 18984 18985 18986 18987 18988 18989 18990 18991 18992 18993 18994 18995 18996 18997 18998 18999 19000 19001 19002 19003 19004 19005 19006 19007 19008 19009 19010 19011 19012 19013 19014 19015 19016 19017 19018 19019 19020 19021 19022 19023 19024 19025 19026 19027 19028 19029 19030 19031 19032 19033 19034 19035 19036 19037 19038 19039 19040 19041 19042 19043 19044 19045 19046 19047 19048 19049 19050 19051 19052 19053 19054 19055 19056 19057 19058 19059 19060 19061 19062 19063 19064 19065 19066 19067 19068 19069 19070 19071 19072 19073 19074 19075 19076 19077 19078 19079 19080 19081 19082 19083 19084 19085 19086 19087 19088 19089 19090 19091 19092 19093 19094 19095 19096 19097 19098 19099 19100 19101 19102 19103 19104 19105 19106 19107 19108 19109 19110 19111 19112 19113 19114 19115 19116 19117 19118 19119 19120 19121 19122 19123 19124 19125 19126 19127 19128 19129 19130 19131 19132 19133 19134 19135 19136 19137 19138 19139 19140 19141 19142 19143 19144 19145 19146 19147 19148 19149 19150 19151 19152 19153 19154 19155 19156 19157 19158 19159 19160 19161 19162 19163 19164 19165 19166 19167 19168 19169 19170 19171 19172 19173 19174 19175 19176 19177 19178 19179 19180 19181 19182 19183 19184 19185 19186 19187 19188 19189 19190 19191 19192 19193 19194 19195 19196 19197 19198 19199 19200 19201 19202 19203 19204 19205 19206 19207 19208 19209 19210 19211 19212 19213 19214 19215 19216 19217 19218 19219 19220 19221 19222 19223 19224 19225 19226 19227 19228 19229 19230 19231 19232 19233 19234 19235 19236 19237 19238 19239 19240 19241 19242 19243 19244 19245 19246 19247 19248 19249 19250 19251 19252 19253 19254 19255 19256 19257 19258 19259 19260 19261 19262 19263 19264 19265 19266 19267 19268 19269 19270 19271 19272 19273 19274 19275 19276 19277 19278 19279 19280 19281 19282 19283 19284 19285 19286 19287 19288 19289 19290 19291 19292 19293 19294 19295 19296 19297 19298 19299 19300 19301 19302 19303 19304 19305 19306 19307 19308 19309 19310 19311 19312 19313 19314 19315 19316 19317 19318 19319 19320 19321 19322 19323 19324 19325 19326 19327 19328 19329 19330 19331 19332 19333 19334 19335 19336 19337 19338 19339 19340 19341 19342 19343 19344 19345 19346 19347 19348 19349 19350 19351 19352 19353 19354 19355 19356 19357 19358 19359 19360 19361 19362 19363 19364 19365 19366 19367 19368 19369 19370 19371 19372 19373 19374 19375 19376 19377 19378 19379 19380 19381 19382 19383 19384 19385 19386 19387 19388 19389 19390 19391 19392 19393 19394 19395 19396 19397 19398 19399 19400 19401 19402 19403 19404 19405 19406 19407 19408 19409 19410 19411 19412 19413 19414 19415 19416 19417 19418 19419 19420 19421 19422 19423 19424 19425 19426 19427 19428 19429 19430 19431 19432 19433 19434 19435 19436 19437 19438 19439 19440 19441 19442 19443 19444 19445 19446 19447 19448 19449 19450 19451 19452 19453 19454 19455 19456 19457 19458 19459 19460 19461 19462 19463 19464 19465 19466 19467 19468 19469 19470 19471 19472 19473 19474 19475 19476 19477 19478 19479 19480 19481 19482 19483 19484 19485 19486 19487 19488 19489 19490 19491 19492 19493 19494 19495 19496 19497 19498 19499 19500 19501 19502 19503 19504 19505 19506 19507 19508 19509 19510 19511 19512 19513 19514 19515 19516 19517 19518 19519 19520 19521 19522 19523 19524 19525 19526 19527 19528 19529 19530 19531 19532 19533 19534 19535 19536 19537 19538 19539 19540 19541 19542 19543 19544 19545 19546 19547 19548 19549 19550 19551 19552 19553 19554 19555 19556 19557 19558 19559 19560 19561 19562 19563 19564 19565 19566 19567 19568 19569 19570 19571 19572 19573 19574 19575 19576 19577 19578 19579 19580 19581 19582 19583 19584 19585 19586 19587 19588 19589 19590 19591 19592 19593 19594 19595 19596 19597 19598 19599 19600 19601 19602 19603 19604 19605 19606 19607 19608 19609 19610 19611 19612 19613 19614 19615 19616 19617 19618 19619 19620 19621 19622 19623 19624 19625 19626 19627 19628 19629 19630 19631 19632 19633 19634 19635 19636 19637 19638 19639 19640 19641 19642 19643 19644 19645 19646 19647 19648 19649 19650 19651 19652 19653 19654 19655 19656 19657 19658 19659 19660 19661 19662 19663 19664 19665 19666 19667 19668 19669 19670 19671 19672 19673 19674 19675 19676 19677 19678 19679 19680 19681 19682 19683 19684 19685 19686 19687 19688 19689 19690 19691 19692 19693 19694 19695 19696 19697 19698 19699 19700 19701 19702 19703 19704 19705 19706 19707 19708 19709 19710 19711 19712 19713 19714 19715 19716 19717 19718 19719 19720 19721 19722 19723 19724 19725 19726 19727 19728 19729 19730 19731 19732 19733 19734 19735 19736 19737 19738 19739 19740 19741 19742 19743 19744 19745 19746 19747 19748 19749 19750 19751 19752 19753 19754 19755 19756 19757 19758 19759 19760 19761 19762 19763 19764 19765 19766 19767 19768 19769 19770 19771 19772 19773 19774 19775 19776 19777 19778 19779 19780 19781 19782 19783 19784 19785 19786 19787 19788 19789 19790 19791 19792 19793 19794 19795 19796 19797 19798 19799 19800 19801 19802 19803 19804 19805 19806 19807 19808 19809 19810 19811 19812 19813 19814 19815 19816 19817 19818 19819 19820 19821 19822 19823 19824 19825 19826 19827 19828 19829 19830 19831 19832 19833 19834 19835 19836 19837 19838 19839 19840 19841 19842 19843 19844 19845 19846 19847 19848 19849 19850 19851 19852 19853 19854 19855 19856 19857 19858 19859 19860 19861 19862 19863 19864 19865 19866 19867 19868 19869 19870 19871 19872 19873 19874 19875 19876 19877 19878 19879 19880 19881 19882 19883 19884 19885 19886 19887 19888 19889 19890 19891 19892 19893 19894 19895 19896 19897 19898 19899 19900 19901 19902 19903 19904 19905 19906 19907 19908 19909 19910 19911 19912 19913 19914 19915 19916 19917 19918 19919 19920 19921 19922 19923 19924 19925 19926 19927 19928 19929 19930 19931 19932 19933 19934 19935 19936 19937 19938 19939 19940 19941 19942 19943 19944 19945 19946 19947 19948 19949 19950 19951 19952 19953 19954 19955 19956 19957 19958 19959 19960 19961 19962 19963 19964 19965 19966 19967 19968 19969 19970 19971 19972 19973 19974 19975 19976 19977 19978 19979 19980 19981 19982 19983 19984 19985 19986 19987 19988 19989 19990 19991 19992 19993 19994 19995 19996 19997 19998 19999 20000 20001 20002 20003 20004 20005 20006 20007 20008 20009 20010 20011 20012 20013 20014 20015 20016 20017 20018 20019 20020 20021 20022 20023 20024 20025 20026 20027 20028 20029 20030 20031 20032 20033 20034 20035 20036 20037 20038 20039 20040 20041 20042 20043 20044 20045 20046 20047 20048 20049 20050 20051 20052 20053 20054 20055 20056 20057 20058 20059 20060 20061 20062 20063 20064 20065 20066 20067 20068 20069 20070 20071 20072 20073 20074 20075 20076 20077 20078 20079 20080 20081 20082 20083 20084 20085 20086 20087 20088 20089 20090 20091 20092 20093 20094 20095 20096 20097 20098 20099 20100 20101 20102 20103 20104 20105 20106 20107 20108 20109 20110 20111 20112 20113 20114 20115 20116 20117 20118 20119 20120 20121 20122 20123 20124 20125 20126 20127 20128 20129 20130 20131 20132 20133 20134 20135 20136 20137 20138 20139 20140 20141 20142 20143 20144 20145 20146 20147 20148 20149 20150 20151 20152 20153 20154 20155 20156 20157 20158 20159 20160 20161 20162 20163 20164 20165 20166 20167 20168 20169 20170 20171 20172 20173 20174 20175 20176 20177 20178 20179 20180 20181 20182 20183 20184 20185 20186 20187 20188 20189 20190 20191 20192 20193 20194 20195 20196 20197 20198 20199 20200 20201 20202 20203 20204 20205 20206 20207 20208 20209 20210 20211 20212 20213 20214 20215 20216 20217 20218 20219 20220 20221 20222 20223 20224 20225 20226 20227 20228 20229 20230 20231 20232 20233 20234 20235 20236 20237 20238 20239 20240 20241 20242 20243 20244 20245 20246 20247 20248 20249 20250 20251 20252 20253 20254 20255 20256 20257 20258 20259 20260 20261 20262 20263 20264 20265 20266 20267 20268 20269 20270 20271 20272 20273 20274 20275 20276 20277 20278 20279 20280 20281 20282 20283 20284 20285 20286 20287 20288 20289 20290 20291 20292 20293 20294 20295 20296 20297 20298 20299 20300 20301 20302 20303 20304 20305 20306 20307 20308 20309 20310 20311 20312 20313 20314 20315 20316 20317 20318 20319 20320 20321 20322 20323 20324 20325 20326 20327 20328 20329 20330 20331 20332 20333 20334 20335 20336 20337 20338 20339 20340 20341 20342 20343 20344 20345 20346 20347 20348 20349 20350 20351 20352 20353 20354 20355 20356 20357 20358 20359 20360 20361 20362 20363 20364 20365 20366 20367 20368 20369 20370 20371 20372 20373 20374 20375 20376 20377 20378 20379 20380 20381 20382 20383 20384 20385 20386 20387 20388 20389 20390 20391 20392 20393 20394 20395 20396 20397 20398 20399 20400 20401 20402 20403 20404 20405 20406 20407 20408 20409 20410 20411 20412 20413 20414 20415 20416 20417 20418 20419 20420 20421 20422 20423 20424 20425 20426 20427 20428 20429 20430 20431 20432 20433 20434 20435 20436 20437 20438 20439 20440 20441 20442 20443 20444 20445 20446 20447 20448 20449 20450 20451 20452 20453 20454 20455 20456 20457 20458 20459 20460 20461 20462 20463 20464 20465 20466 20467 20468 20469 20470 20471 20472 20473 20474 20475 20476 20477 20478 20479 20480 20481 20482 20483 20484 20485 20486 20487 20488 20489 20490 20491 20492 20493 20494 20495 20496 20497 20498 20499 20500 20501 20502 20503 20504 20505 20506 20507 20508 20509 20510 20511 20512 20513 20514 20515 20516 20517 20518 20519 20520 20521 20522 20523 20524 20525 20526 20527 20528 20529 20530 20531 20532 20533 20534 20535 20536 20537 20538 20539 20540 20541 20542 20543 20544 20545 20546 20547 20548 20549 20550 20551 20552 20553 20554 20555 20556 20557 20558 20559 20560 20561 20562 20563 20564 20565 20566 20567 20568 20569 20570 20571 20572 20573 20574 20575 20576 20577 20578 20579 20580 20581 20582 20583 20584 20585 20586 20587 20588 20589 20590 20591 20592 20593 20594 20595 20596 20597 20598 20599 20600 20601 20602 20603 20604 20605 20606 20607 20608 20609 20610 20611 20612 20613 20614 20615 20616 20617 20618 20619 20620 20621 20622 20623 20624 20625 20626 20627 20628 20629 20630 20631 20632 20633 20634 20635 20636 20637 20638 20639 20640 20641 20642 20643 20644 20645 20646 20647 20648 20649 20650 20651 20652 20653 20654 20655 20656 20657 20658 20659 20660 20661 20662 20663 20664 20665 20666 20667 20668 20669 20670 20671 20672 20673 20674 20675 20676 20677 20678 20679 20680 20681 20682 20683 20684 20685 20686 20687 20688 20689 20690 20691 20692 20693 20694 20695 20696 20697 20698 20699 20700 20701 20702 20703 20704 20705 20706 20707 20708 20709 20710 20711 20712 20713 20714 20715 20716 20717 20718 20719 20720 20721 20722 20723 20724 20725 20726 20727 20728 20729 20730 20731 20732 20733 20734 20735 20736 20737 20738 20739 20740 20741 20742 20743 20744 20745 20746 20747 20748 20749 20750 20751 20752 20753 20754 20755 20756 20757 20758 20759 20760 20761 20762 20763 20764 20765 20766 20767 20768 20769 20770 20771 20772 20773 20774 20775 20776 20777 20778 20779 20780 20781 20782 20783 20784 20785 20786 20787 20788 20789 20790 20791 20792 20793 20794 20795 20796 20797 20798 20799 20800 20801 20802 20803 20804 20805 20806 20807 20808 20809 20810 20811 20812 20813 20814 20815 20816 20817 20818 20819 20820 20821 20822 20823 20824 20825 20826 20827 20828 20829 20830 20831 20832 20833 20834 20835 20836 20837 20838 20839 20840 20841 20842 20843 20844 20845 20846 20847 20848 20849 20850 20851 20852 20853 20854 20855 20856 20857 20858 20859 20860 20861 20862 20863 20864 20865 20866 20867 20868 20869 20870 20871 20872 20873 20874 20875 20876 20877 20878 20879 20880 20881 20882 20883 20884 20885 20886 20887 20888 20889 20890 20891 20892 20893 20894 20895 20896 20897 20898 20899 20900 20901 20902 20903 20904 20905 20906 20907 20908 20909 20910 20911 20912 20913 20914 20915 20916 20917 20918 20919 20920 20921 20922 20923 20924 20925 20926 20927 20928 20929 20930 20931 20932 20933 20934 20935 20936 20937 20938 20939 20940 20941 20942 20943 20944 20945 20946 20947 20948 20949 20950 20951 20952 20953 20954 20955 20956 20957 20958 20959 20960 20961 20962 20963 20964 20965 20966 20967 20968 20969 20970 20971 20972 20973 20974 20975 20976 20977 20978 20979 20980 20981 20982 20983 20984 20985 20986 20987 20988 20989 20990 20991 20992 20993 20994 20995 20996 20997 20998 20999 21000 21001 21002 21003 21004 21005 21006 21007 21008 21009 21010 21011 21012 21013 21014 21015 21016 21017 21018 21019 21020 21021 21022 21023 21024 21025 21026 21027 21028 21029 21030 21031 21032 21033 21034 21035 21036 21037 21038 21039 21040 21041 21042 21043 21044 21045 21046 21047 21048 21049 21050 21051 21052 21053 21054 21055 21056 21057 21058 21059 21060 21061 21062 21063 21064 21065 21066 21067 21068 21069 21070 21071 21072 21073 21074 21075 21076 21077 21078 21079 21080 21081 21082 21083 21084 21085 21086 21087 21088 21089 21090 21091 21092 21093 21094 21095 21096 21097 21098 21099 21100 21101 21102 21103 21104 21105 21106 21107 21108 21109 21110 21111 21112 21113 21114 21115 21116 21117 21118 21119 21120 21121 21122 21123 21124 21125 21126 21127 21128 21129 21130 21131 21132 21133 21134 21135 21136 21137 21138 21139 21140 21141 21142 21143 21144 21145 21146 21147 21148 21149 21150 21151 21152 21153 21154 21155 21156 21157 21158 21159 21160 21161 21162 21163 21164 21165 21166 21167 21168 21169 21170 21171 21172 21173 21174 21175 21176 21177 21178 21179 21180 21181 21182 21183 21184 21185 21186 21187 21188 21189 21190 21191 21192 21193 21194 21195 21196 21197 21198 21199 21200 21201 21202 21203 21204 21205 21206 21207 21208 21209 21210 21211 21212 21213 21214 21215 21216 21217 21218 21219 21220 21221 21222 21223 21224 21225 21226 21227 21228 21229 21230 21231 21232 21233 21234 21235 21236 21237 21238 21239 21240 21241 21242 21243 21244 21245 21246 21247 21248 21249 21250 21251 21252 21253 21254 21255 21256 21257 21258 21259 21260 21261 21262 21263 21264 21265 21266 21267 21268 21269 21270 21271 21272 21273 21274 21275 21276 21277 21278 21279 21280 21281 21282 21283 21284 21285 21286 21287 21288 21289 21290 21291 21292 21293 21294 21295 21296 21297 21298 21299 21300 21301 21302 21303 21304 21305 21306 21307 21308 21309 21310 21311 21312 21313 21314 21315 21316 21317 21318 21319 21320 21321 21322 21323 21324 21325 21326 21327 21328 21329 21330 21331 21332 21333 21334 21335 21336 21337 21338 21339 21340 21341 21342 21343 21344 21345 21346 21347 21348 21349 21350 21351 21352 21353 21354 21355 21356 21357 21358 21359 21360 21361 21362 21363 21364 21365 21366 21367 21368 21369 21370 21371 21372 21373 21374 21375 21376 21377 21378 21379 21380 21381 21382 21383 21384 21385 21386 21387 21388 21389 21390 21391 21392 21393 21394 21395 21396 21397 21398 21399 21400 21401 21402 21403 21404 21405 21406 21407 21408 21409 21410 21411 21412 21413 21414 21415 21416 21417 21418 21419 21420 21421 21422 21423 21424 21425 21426 21427 21428 21429 21430 21431 21432 21433 21434 21435 21436 21437 21438 21439 21440 21441 21442 21443 21444 21445 21446 21447 21448 21449 21450 21451 21452 21453 21454 21455 21456 21457 21458 21459 21460 21461 21462 21463 21464 21465 21466 21467 21468 21469 21470 21471 21472 21473 21474 21475 21476 21477 21478 21479 21480 21481 21482 21483 21484 21485 21486 21487 21488 21489 21490 21491 21492 21493 21494 21495 21496 21497 21498 21499 21500 21501 21502 21503 21504 21505 21506 21507 21508 21509 21510 21511 21512 21513 21514 21515 21516 21517 21518 21519 21520 21521 21522 21523 21524 21525 21526 21527 21528 21529 21530 21531 21532 21533 21534 21535 21536 21537 21538 21539 21540 21541 21542 21543 21544 21545 21546 21547 21548 21549 21550 21551 21552 21553 21554 21555 21556 21557 21558 21559 21560 21561 21562 21563 21564 21565 21566 21567 21568 21569 21570 21571 21572 21573 21574 21575 21576 21577 21578 21579 21580 21581 21582 21583 21584 21585 21586 21587 21588 21589 21590 21591 21592 21593 21594 21595 21596 21597 21598 21599 21600 21601 21602 21603 21604 21605 21606 21607 21608 21609 21610 21611 21612 21613 21614 21615 21616 21617 21618 21619 21620 21621 21622 21623 21624 21625 21626 21627 21628 21629 21630 21631 21632 21633 21634 21635 21636 21637 21638 21639 21640 21641 21642 21643 21644 21645 21646 21647 21648 21649 21650 21651 21652 21653 21654 21655 21656 21657 21658 21659 21660 21661 21662 21663 21664 21665 21666 21667 21668 21669 21670 21671 21672 21673 21674 21675 21676 21677 21678 21679 21680 21681 21682 21683 21684 21685 21686 21687 21688 21689 21690 21691 21692 21693 21694 21695 21696 21697 21698 21699 21700 21701 21702 21703 21704 21705 21706 21707 21708 21709 21710 21711 21712 21713 21714 21715 21716 21717 21718 21719 21720 21721 21722 21723 21724 21725 21726 21727 21728 21729 21730 21731 21732 21733 21734 21735 21736 21737 21738 21739 21740 21741 21742 21743 21744 21745 21746 21747 21748 21749 21750 21751 21752 21753 21754 21755 21756 21757 21758 21759 21760 21761 21762 21763 21764 21765 21766 21767 21768 21769 21770 21771 21772 21773 21774 21775 21776 21777 21778 21779 21780 21781 21782 21783 21784 21785 21786 21787 21788 21789 21790 21791 21792 21793 21794 21795 21796 21797 21798 21799 21800 21801 21802 21803 21804 21805 21806 21807 21808 21809 21810 21811 21812 21813 21814 21815 21816 21817 21818 21819 21820 21821 21822 21823 21824 21825 21826 21827 21828 21829 21830 21831 21832 21833 21834 21835 21836 21837 21838 21839 21840 21841 21842 21843 21844 21845 21846 21847 21848 21849 21850 21851 21852 21853 21854 21855 21856 21857 21858 21859 21860 21861 21862 21863 21864 21865 21866 21867 21868 21869 21870 21871 21872 21873 21874 21875 21876 21877 21878 21879 21880 21881 21882 21883 21884 21885 21886 21887 21888 21889 21890 21891 21892 21893 21894 21895 21896 21897 21898 21899 21900 21901 21902 21903 21904 21905 21906 21907 21908 21909 21910 21911 21912 21913 21914 21915 21916 21917 21918 21919 21920 21921 21922 21923 21924 21925 21926 21927 21928 21929 21930 21931 21932 21933 21934 21935 21936 21937 21938 21939 21940 21941 21942 21943 21944 21945 21946 21947 21948 21949 21950 21951 21952 21953 21954 21955 21956 21957 21958 21959 21960 21961 21962 21963 21964 21965 21966 21967 21968 21969 21970 21971 21972 21973 21974 21975 21976 21977 21978 21979 21980 21981 21982 21983 21984 21985 21986 21987 21988 21989 21990 21991 21992 21993 21994 21995 21996 21997 21998 21999 22000 22001 22002 22003 22004 22005 22006 22007 22008 22009 22010 22011 22012 22013 22014 22015 22016 22017 22018 22019 22020 22021 22022 22023 22024 22025 22026 22027 22028 22029 22030 22031 22032 22033 22034 22035 22036 22037 22038 22039 22040 22041 22042 22043 22044 22045 22046 22047 22048 22049 22050 22051 22052 22053 22054 22055 22056 22057 22058 22059 22060 22061 22062 22063 22064 22065 22066 22067 22068 22069 22070 22071 22072 22073 22074 22075 22076 22077 22078 22079 22080 22081 22082 22083 22084 22085 22086 22087 22088 22089 22090 22091 22092 22093 22094 22095 22096 22097 22098 22099 22100 22101 22102 22103 22104 22105 22106 22107 22108 22109 22110 22111 22112 22113 22114 22115 22116 22117 22118 22119 22120 22121 22122 22123 22124 22125 22126 22127 22128 22129 22130 22131 22132 22133 22134 22135 22136 22137 22138 22139 22140 22141 22142 22143 22144 22145 22146 22147 22148 22149 22150 22151 22152 22153 22154 22155 22156 22157 22158 22159 22160 22161 22162 22163 22164 22165 22166 22167 22168 22169 22170 22171 22172 22173 22174 22175 22176 22177 22178 22179 22180 22181 22182 22183 22184 22185 22186 22187 22188 22189 22190 22191 22192 22193 22194 22195 22196 22197 22198 22199 22200 22201 22202 22203 22204 22205 22206 22207 22208 22209 22210 22211 22212 22213 22214 22215 22216 22217 22218 22219 22220 22221 22222 22223 22224 22225 22226 22227 22228 22229 22230 22231 22232 22233 22234 22235 22236 22237 22238 22239 22240 22241 22242 22243 22244 22245 22246 22247 22248 22249 22250 22251 22252 22253 22254 22255 22256 22257 22258 22259 22260 22261 22262 22263 22264 22265 22266 22267 22268 22269 22270 22271 22272 22273 22274 22275 22276 22277 22278 22279 22280 22281 22282 22283 22284 22285 22286 22287 22288 22289 22290 22291 22292 22293 22294 22295 22296 22297 22298 22299 22300 22301 22302 22303 22304 22305 22306 22307 22308 22309 22310 22311 22312 22313 22314 22315 22316 22317 22318 22319 22320 22321 22322 22323 22324 22325 22326 22327 22328 22329 22330 22331 22332 22333 22334 22335 22336 22337 22338 22339 22340 22341 22342 22343 22344 22345 22346 22347 22348 22349 22350 22351 22352 22353 22354 22355 22356 22357 22358 22359 22360 22361 22362 22363 22364 22365 22366 22367 22368 22369 22370 22371 22372 22373 22374 22375 22376 22377 22378 22379 22380 22381 22382 22383 22384 22385 22386 22387 22388 22389 22390 22391 22392 22393 22394 22395 22396 22397 22398 22399 22400 22401 22402 22403 22404 22405 22406 22407 22408 22409 22410 22411 22412 22413 22414 22415 22416 22417 22418 22419 22420 22421 22422 22423 22424 22425 22426 22427 22428 22429 22430 22431 22432 22433 22434 22435 22436 22437 22438 22439 22440 22441 22442 22443 22444 22445 22446 22447 22448 22449 22450 22451 22452 22453 22454 22455 22456 22457 22458 22459 22460 22461 22462 22463 22464 22465 22466 22467 22468 22469 22470 22471 22472 22473 22474 22475 22476 22477 22478 22479 22480 22481 22482 22483 22484 22485 22486 22487 22488 22489 22490 22491 22492 22493 22494 22495 22496 22497 22498 22499 22500 22501 22502 22503 22504 22505 22506 22507 22508 22509 22510 22511 22512 22513 22514 22515 22516 22517 22518 22519 22520 22521 22522 22523 22524 22525 22526 22527 22528 22529 22530 22531 22532 22533 22534 22535 22536 22537 22538 22539 22540 22541 22542 22543 22544 22545 22546 22547 22548 22549 22550 22551 22552 22553 22554 22555 22556 22557 22558 22559 22560 22561 22562 22563 22564 22565 22566 22567 22568 22569 22570 22571 22572 22573 22574 22575 22576 22577 22578 22579 22580 22581 22582 22583 22584 22585 22586 22587 22588 22589 22590 22591 22592 22593 22594 22595 22596 22597 22598 22599 22600 22601 22602 22603 22604 22605 22606 22607 22608 22609 22610 22611 22612 22613 22614 22615 22616 22617 22618 22619 22620 22621 22622 22623 22624 22625 22626 22627 22628 22629 22630 22631 22632 22633 22634 22635 22636 22637 22638 22639 22640 22641 22642 22643 22644 22645 22646 22647 22648 22649 22650 22651 22652 22653 22654 22655 22656 22657 22658 22659 22660 22661 22662 22663 22664 22665 22666 22667 22668 22669 22670 22671 22672 22673 22674 22675 22676 22677 22678 22679 22680 22681 22682 22683 22684 22685 22686 22687 22688 22689 22690 22691 22692 22693 22694 22695 22696 22697 22698 22699 22700 22701 22702 22703 22704 22705 22706 22707 22708 22709 22710 22711 22712 22713 22714 22715 22716 22717 22718 22719 22720 22721 22722 22723 22724 22725 22726 22727 22728 22729 22730 22731 22732 22733 22734 22735 22736 22737 22738 22739 22740 22741 22742 22743 22744 22745 22746 22747 22748 22749 22750 22751 22752 22753 22754 22755 22756 22757 22758 22759 22760 22761 22762 22763 22764 22765 22766 22767 22768 22769 22770 22771 22772 22773 22774 22775 22776 22777 22778 22779 22780 22781 22782 22783 22784 22785 22786 22787 22788 22789 22790 22791 22792 22793 22794 22795 22796 22797 22798 22799 22800 22801 22802 22803 22804 22805 22806 22807 22808 22809 22810 22811 22812 22813 22814 22815 22816 22817 22818 22819 22820 22821 22822 22823 22824 22825 22826 22827 22828 22829 22830 22831 22832 22833 22834 22835 22836 22837 22838 22839 22840 22841 22842 22843 22844 22845 22846 22847 22848 22849 22850 22851 22852 22853 22854 22855 22856 22857 22858 22859 22860 22861 22862 22863 22864 22865 22866 22867 22868 22869 22870 22871 22872 22873 22874 22875 22876 22877 22878 22879 22880 22881 22882 22883 22884 22885 22886 22887 22888 22889 22890 22891 22892 22893 22894 22895 22896 22897 22898 22899 22900 22901 22902 22903 22904 22905 22906 22907 22908 22909 22910 22911 22912 22913 22914 22915 22916 22917 22918 22919 22920 22921 22922 22923 22924 22925 22926 22927 22928 22929 22930 22931 22932 22933 22934 22935 22936 22937 22938 22939 22940 22941 22942 22943 22944 22945 22946 22947 22948 22949 22950 22951 22952 22953 22954 22955 22956 22957 22958 22959 22960 22961 22962 22963 22964 22965 22966 22967 22968 22969 22970 22971 22972 22973 22974 22975 22976 22977 22978 22979 22980 22981 22982 22983 22984 22985 22986 22987 22988 22989 22990 22991 22992 22993 22994 22995 22996 22997 22998 22999 23000 23001 23002 23003 23004 23005 23006 23007 23008 23009 23010 23011 23012 23013 23014 23015 23016 23017 23018 23019 23020 23021 23022 23023 23024 23025 23026 23027 23028 23029 23030 23031 23032 23033 23034 23035 23036 23037 23038 23039 23040 23041 23042 23043 23044 23045 23046 23047 23048 23049 23050 23051 23052 23053 23054 23055 23056 23057 23058 23059 23060 23061 23062 23063 23064 23065 23066 23067 23068 23069 23070 23071 23072 23073 23074 23075 23076 23077 23078 23079 23080 23081 23082 23083 23084 23085 23086 23087 23088 23089 23090 23091 23092 23093 23094 23095 23096 23097 23098 23099 23100 23101 23102 23103 23104 23105 23106 23107 23108 23109 23110 23111 23112 23113 23114 23115 23116 23117 23118 23119 23120 23121 23122 23123 23124 23125 23126 23127 23128 23129 23130 23131 23132 23133 23134 23135 23136 23137 23138 23139 23140 23141 23142 23143 23144 23145 23146 23147 23148 23149 23150 23151 23152 23153 23154 23155 23156 23157 23158 23159 23160 23161 23162 23163 23164 23165 23166 23167 23168 23169 23170 23171 23172 23173 23174 23175 23176 23177 23178 23179 23180 23181 23182 23183 23184 23185 23186 23187 23188 23189 23190 23191 23192 23193 23194 23195 23196 23197 23198 23199 23200 23201 23202 23203 23204 23205 23206 23207 23208 23209 23210 23211 23212 23213 23214 23215 23216 23217 23218 23219 23220 23221 23222 23223 23224 23225 23226 23227 23228 23229 23230 23231 23232 23233 23234 23235 23236 23237 23238 23239 23240 23241 23242 23243 23244 23245 23246 23247 23248 23249 23250 23251 23252 23253 23254 23255 23256 23257 23258 23259 23260 23261 23262 23263 23264 23265 23266 23267 23268 23269 23270 23271 23272 23273 23274 23275 23276 23277 23278 23279 23280 23281 23282 23283 23284 23285 23286 23287 23288 23289 23290 23291 23292 23293 23294 23295 23296 23297 23298 23299 23300 23301 23302 23303 23304 23305 23306 23307 23308 23309 23310 23311 23312 23313 23314 23315 23316 23317 23318 23319 23320 23321 23322 23323 23324 23325 23326 23327 23328 23329 23330 23331 23332 23333 23334 23335 23336 23337 23338 23339 23340 23341 23342 23343 23344 23345 23346 23347 23348 23349 23350 23351 23352 23353 23354 23355 23356 23357 23358 23359 23360 23361 23362 23363 23364 23365 23366 23367 23368 23369 23370 23371 23372 23373 23374 23375 23376 23377 23378 23379 23380 23381 23382 23383 23384 23385 23386 23387 23388 23389 23390 23391 23392 23393 23394 23395 23396 23397 23398 23399 23400 23401 23402 23403 23404 23405 23406 23407 23408 23409 23410 23411 23412 23413 23414 23415 23416 23417 23418 23419 23420 23421 23422 23423 23424 23425 23426 23427 23428 23429 23430 23431 23432 23433 23434 23435 23436 23437 23438 23439 23440 23441 23442 23443 23444 23445 23446 23447 23448 23449 23450 23451 23452 23453 23454 23455 23456 23457 23458 23459 23460 23461 23462 23463 23464 23465 23466 23467 23468 23469 23470 23471 23472 23473 23474 23475 23476 23477 23478 23479 23480 23481 23482 23483 23484 23485 23486 23487 23488 23489 23490 23491 23492 23493 23494 23495 23496 23497 23498 23499 23500 23501 23502 23503 23504 23505 23506 23507 23508 23509 23510 23511 23512 23513 23514 23515 23516 23517 23518 23519 23520 23521 23522 23523 23524 23525 23526 23527 23528 23529 23530 23531 23532 23533 23534 23535 23536 23537 23538 23539 23540 23541 23542 23543 23544 23545 23546 23547 23548 23549 23550 23551 23552 23553 23554 23555 23556 23557 23558 23559 23560 23561 23562 23563 23564 23565 23566 23567 23568 23569 23570 23571 23572 23573 23574 23575 23576 23577 23578 23579 23580 23581 23582 23583 23584 23585 23586 23587 23588 23589 23590 23591 23592 23593 23594 23595 23596 23597 23598 23599 23600 23601 23602 23603 23604 23605 23606 23607 23608 23609 23610 23611 23612 23613 23614 23615 23616 23617 23618 23619 23620 23621 23622 23623 23624 23625 23626 23627 23628 23629 23630 23631 23632 23633 23634 23635 23636 23637 23638 23639 23640 23641 23642 23643 23644 23645 23646 23647 23648 23649 23650 23651 23652 23653 23654 23655 23656 23657 23658 23659 23660 23661 23662 23663 23664 23665 23666 23667 23668 23669 23670 23671 23672 23673 23674 23675 23676 23677 23678 23679 23680 23681 23682 23683 23684 23685 23686 23687 23688 23689 23690 23691 23692 23693 23694 23695 23696 23697 23698 23699 23700 23701 23702 23703 23704 23705 23706 23707 23708 23709 23710 23711 23712 23713 23714 23715 23716 23717 23718 23719 23720 23721 23722 23723 23724 23725 23726 23727 23728 23729 23730 23731 23732 23733 23734 23735 23736 23737 23738 23739 23740 23741 23742 23743 23744 23745 23746 23747 23748 23749 23750 23751 23752 23753 23754 23755 23756 23757 23758 23759 23760 23761 23762 23763 23764 23765 23766 23767 23768 23769 23770 23771 23772 23773 23774 23775 23776 23777 23778 23779 23780 23781 23782 23783 23784 23785 23786 23787 23788 23789 23790 23791 23792 23793 23794 23795 23796 23797 23798 23799 23800 23801 23802 23803 23804 23805 23806 23807 23808 23809 23810 23811 23812 23813 23814 23815 23816 23817 23818 23819 23820 23821 23822 23823 23824 23825 23826 23827 23828 23829 23830 23831 23832 23833 23834 23835 23836 23837 23838 23839 23840 23841 23842 23843 23844 23845 23846 23847 23848 23849 23850 23851 23852 23853 23854 23855 23856 23857 23858 23859 23860 23861 23862 23863 23864 23865 23866 23867 23868 23869 23870 23871 23872 23873 23874 23875 23876 23877 23878 23879 23880 23881 23882 23883 23884 23885 23886 23887 23888 23889 23890 23891 23892 23893 23894 23895 23896 23897 23898 23899 23900 23901 23902 23903 23904 23905 23906 23907 23908 23909 23910 23911 23912 23913 23914 23915 23916 23917 23918 23919 23920 23921 23922 23923 23924 23925 23926 23927 23928 23929 23930 23931 23932 23933 23934 23935 23936 23937 23938 23939 23940 23941 23942 23943 23944 23945 23946 23947 23948 23949 23950 23951 23952 23953 23954 23955 23956 23957 23958 23959 23960 23961 23962 23963 23964 23965 23966 23967 23968 23969 23970 23971 23972 23973 23974 23975 23976 23977 23978 23979 23980 23981 23982 23983 23984 23985 23986 23987 23988 23989 23990 23991 23992 23993 23994 23995 23996 23997 23998 23999 24000 24001 24002 24003 24004 24005 24006 24007 24008 24009 24010 24011 24012 24013 24014 24015 24016 24017 24018 24019 24020 24021 24022 24023 24024 24025 24026 24027 24028 24029 24030 24031 24032 24033 24034 24035 24036 24037 24038 24039 24040 24041 24042 24043 24044 24045 24046 24047 24048 24049 24050 24051 24052 24053 24054 24055 24056 24057 24058 24059 24060 24061 24062 24063 24064 24065 24066 24067 24068 24069 24070 24071 24072 24073 24074 24075 24076 24077 24078 24079 24080 24081 24082 24083 24084 24085 24086 24087 24088 24089 24090 24091 24092 24093 24094 24095 24096 24097 24098 24099 24100 24101 24102 24103 24104 24105 24106 24107 24108 24109 24110 24111 24112 24113 24114 24115 24116 24117 24118 24119 24120 24121 24122 24123 24124 24125 24126 24127 24128 24129 24130 24131 24132 24133 24134 24135 24136 24137 24138 24139 24140 24141 24142 24143 24144 24145 24146 24147 24148 24149 24150 24151 24152 24153 24154 24155 24156 24157 24158 24159 24160 24161 24162 24163 24164 24165 24166 24167 24168 24169 24170 24171 24172 24173 24174 24175 24176 24177 24178 24179 24180 24181 24182 24183 24184 24185 24186 24187 24188 24189 24190 24191 24192 24193 24194 24195 24196 24197 24198 24199 24200 24201 24202 24203 24204 24205 24206 24207 24208 24209 24210 24211 24212 24213 24214 24215 24216 24217 24218 24219 24220 24221 24222 24223 24224 24225 24226 24227 24228 24229 24230 24231 24232 24233 24234 24235 24236 24237 24238 24239 24240 24241 24242 24243 24244 24245 24246 24247 24248 24249 24250 24251 24252 24253 24254 24255 24256 24257 24258 24259 24260 24261 24262 24263 24264 24265 24266 24267 24268 24269 24270 24271 24272 24273 24274 24275 24276 24277 24278 24279 24280 24281 24282 24283 24284 24285 24286 24287 24288 24289 24290 24291 24292 24293 24294 24295 24296 24297 24298 24299 24300 24301 24302 24303 24304 24305 24306 24307 24308 24309 24310 24311 24312 24313 24314 24315 24316 24317 24318 24319 24320 24321 24322 24323 24324 24325 24326 24327 24328 24329 24330 24331 24332 24333 24334 24335 24336 24337 24338 24339 24340 24341 24342 24343 24344 24345 24346 24347 24348 24349 24350 24351 24352 24353 24354 24355 24356 24357 24358 24359 24360 24361 24362 24363 24364 24365 24366 24367 24368 24369 24370 24371 24372 24373 24374 24375 24376 24377 24378 24379 24380 24381 24382 24383 24384 24385 24386 24387 24388 24389 24390 24391 24392 24393 24394 24395 24396 24397 24398 24399 24400 24401 24402 24403 24404 24405 24406 24407 24408 24409 24410 24411 24412 24413 24414 24415 24416 24417 24418 24419 24420 24421 24422 24423 24424 24425 24426 24427 24428 24429 24430 24431 24432 24433 24434 24435 24436 24437 24438 24439 24440 24441 24442 24443 24444 24445 24446 24447 24448 24449 24450 24451 24452 24453 24454 24455 24456 24457 24458 24459 24460 24461 24462 24463 24464 24465 24466 24467 24468 24469 24470 24471 24472 24473 24474 24475 24476 24477 24478 24479 24480 24481 24482 24483 24484 24485 24486 24487 24488 24489 24490 24491 24492 24493 24494 24495 24496 24497 24498 24499 24500 24501 24502 24503 24504 24505 24506 24507 24508 24509 24510 24511 24512 24513 24514 24515 24516 24517 24518 24519 24520 24521 24522 24523 24524 24525 24526 24527 24528 24529 24530 24531 24532 24533 24534 24535 24536 24537 24538 24539 24540 24541 24542 24543 24544 24545 24546 24547 24548 24549 24550 24551 24552 24553 24554 24555 24556 24557 24558 24559 24560 24561 24562 24563 24564 24565 24566 24567 24568 24569 24570 24571 24572 24573 24574 24575 24576 24577 24578 24579 24580 24581 24582 24583 24584 24585 24586 24587 24588 24589 24590 24591 24592 24593 24594 24595 24596 24597 24598 24599 24600 24601 24602 24603 24604 24605 24606 24607 24608 24609 24610 24611 24612 24613 24614 24615 24616 24617 24618 24619 24620 24621 24622 24623 24624 24625 24626 24627 24628 24629 24630 24631 24632 24633 24634 24635 24636 24637 24638 24639 24640 24641 24642 24643 24644 24645 24646 24647 24648 24649 24650 24651 24652 24653 24654 24655 24656 24657 24658 24659 24660 24661 24662 24663 24664 24665 24666 24667 24668 24669 24670 24671 24672 24673 24674 24675 24676 24677 24678 24679 24680 24681 24682 24683 24684 24685 24686 24687 24688 24689 24690 24691 24692 24693 24694 24695 24696 24697 24698 24699 24700 24701 24702 24703 24704 24705 24706 24707 24708 24709 24710 24711 24712 24713 24714 24715 24716 24717 24718 24719 24720 24721 24722 24723 24724 24725 24726 24727 24728 24729 24730 24731 24732 24733 24734 24735 24736 24737 24738 24739 24740 24741 24742 24743 24744 24745 24746 24747 24748 24749 24750 24751 24752 24753 24754 24755 24756 24757 24758 24759 24760 24761 24762 24763 24764 24765 24766 24767 24768 24769 24770 24771 24772 24773 24774 24775 24776 24777 24778 24779 24780 24781 24782 24783 24784 24785 24786 24787 24788 24789 24790 24791 24792 24793 24794 24795 24796 24797 24798 24799 24800 24801 24802 24803 24804 24805 24806 24807 24808 24809 24810 24811 24812 24813 24814 24815 24816 24817 24818 24819 24820 24821 24822 24823 24824 24825 24826 24827 24828 24829 24830 24831 24832 24833 24834 24835 24836 24837 24838 24839 24840 24841 24842 24843 24844 24845 24846 24847 24848 24849 24850 24851 24852 24853 24854 24855 24856 24857 24858 24859 24860 24861 24862 24863 24864 24865 24866 24867 24868 24869 24870 24871 24872 24873 24874 24875 24876 24877 24878 24879 24880 24881 24882 24883 24884 24885 24886 24887 24888 24889 24890 24891 24892 24893 24894 24895 24896 24897 24898 24899 24900 24901 24902 24903 24904 24905 24906 24907 24908 24909 24910 24911 24912 24913 24914 24915 24916 24917 24918 24919 24920 24921 24922 24923 24924 24925 24926 24927 24928 24929 24930 24931 24932 24933 24934 24935 24936 24937 24938 24939 24940 24941 24942 24943 24944 24945 24946 24947 24948 24949 24950 24951 24952 24953 24954 24955 24956 24957 24958 24959 24960 24961 24962 24963 24964 24965 24966 24967 24968 24969 24970 24971 24972 24973 24974 24975 24976 24977 24978 24979 24980 24981 24982 24983 24984 24985 24986 24987 24988 24989 24990 24991 24992 24993 24994 24995 24996 24997 24998 24999 25000 25001 25002 25003 25004 25005 25006 25007 25008 25009 25010 25011 25012 25013 25014 25015 25016 25017 25018 25019 25020 25021 25022 25023 25024 25025 25026 25027 25028 25029 25030 25031 25032 25033 25034 25035 25036 25037 25038 25039 25040 25041 25042 25043 25044 25045 25046 25047 25048 25049 25050 25051 25052 25053 25054 25055 25056 25057 25058 25059 25060 25061 25062 25063 25064 25065 25066 25067 25068 25069 25070 25071 25072 25073 25074 25075 25076 25077 25078 25079 25080 25081 25082 25083 25084 25085 25086 25087 25088 25089 25090 25091 25092 25093 25094 25095 25096 25097 25098 25099 25100 25101 25102 25103 25104 25105 25106 25107 25108 25109 25110 25111 25112 25113 25114 25115 25116 25117 25118 25119 25120 25121 25122 25123 25124 25125 25126 25127 25128 25129 25130 25131 25132 25133 25134 25135 25136 25137 25138 25139 25140 25141 25142 25143 25144 25145 25146 25147 25148 25149 25150 25151 25152 25153 25154 25155 25156 25157 25158 25159 25160 25161 25162 25163 25164 25165 25166 25167 25168 25169 25170 25171 25172 25173 25174 25175 25176 25177 25178 25179 25180 25181 25182 25183 25184 25185 25186 25187 25188 25189 25190 25191 25192 25193 25194 25195 25196 25197 25198 25199 25200 25201 25202 25203 25204 25205 25206 25207 25208 25209 25210 25211 25212 25213 25214 25215 25216 25217 25218 25219 25220 25221 25222 25223 25224 25225 25226 25227 25228 25229 25230 25231 25232 25233 25234 25235 25236 25237 25238 25239 25240 25241 25242 25243 25244 25245 25246 25247 25248 25249 25250 25251 25252 25253 25254 25255 25256 25257 25258 25259 25260 25261 25262 25263 25264 25265 25266 25267 25268 25269 25270 25271 25272 25273 25274 25275 25276 25277 25278 25279 25280 25281 25282 25283 25284 25285 25286 25287 25288 25289 25290 25291 25292 25293 25294 25295 25296 25297 25298 25299 25300 25301 25302 25303 25304 25305 25306 25307 25308 25309 25310 25311 25312 25313 25314 25315 25316 25317 25318 25319 25320 25321 25322 25323 25324 25325 25326 25327 25328 25329 25330 25331 25332 25333 25334 25335 25336 25337 25338 25339 25340 25341 25342 25343 25344 25345 25346 25347 25348 25349 25350 25351 25352 25353 25354 25355 25356 25357 25358 25359 25360 25361 25362 25363 25364 25365 25366 25367 25368 25369 25370 25371 25372 25373 25374 25375 25376 25377 25378 25379 25380 25381 25382 25383 25384 25385 25386 25387 25388 25389 25390 25391 25392 25393 25394 25395 25396 25397 25398 25399 25400 25401 25402 25403 25404 25405 25406 25407 25408 25409 25410 25411 25412 25413 25414 25415 25416 25417 25418 25419 25420 25421 25422 25423 25424 25425 25426 25427 25428 25429 25430 25431 25432 25433 25434 25435 25436 25437 25438 25439 25440 25441 25442 25443 25444 25445 25446 25447 25448 25449 25450 25451 25452 25453 25454 25455 25456 25457 25458 25459 25460 25461 25462 25463 25464 25465 25466 25467 25468 25469 25470 25471 25472 25473 25474 25475 25476 25477 25478 25479 25480 25481 25482 25483 25484 25485 25486 25487 25488 25489 25490 25491 25492 25493 25494 25495 25496 25497 25498 25499 25500 25501 25502 25503 25504 25505 25506 25507 25508 25509 25510 25511 25512 25513 25514 25515 25516 25517 25518 25519 25520 25521 25522 25523 25524 25525 25526 25527 25528 25529 25530 25531 25532 25533 25534 25535 25536 25537 25538 25539 25540 25541 25542 25543 25544 25545 25546 25547 25548 25549 25550 25551 25552 25553 25554 25555 25556 25557 25558 25559 25560 25561 25562 25563 25564 25565 25566 25567 25568 25569 25570 25571 25572 25573 25574 25575 25576 25577 25578 25579 25580 25581 25582 25583 25584 25585 25586 25587 25588 25589 25590 25591 25592 25593 25594 25595 25596 25597 25598 25599 25600 25601 25602 25603 25604 25605 25606 25607 25608 25609 25610 25611 25612 25613 25614 25615 25616 25617 25618 25619 25620 25621 25622 25623 25624 25625 25626 25627 25628 25629 25630 25631 25632 25633 25634 25635 25636 25637 25638 25639 25640 25641 25642 25643 25644 25645 25646 25647 25648 25649 25650 25651 25652 25653 25654 25655 25656 25657 25658 25659 25660 25661 25662 25663 25664 25665 25666 25667 25668 25669 25670 25671 25672 25673 25674 25675 25676 25677 25678 25679 25680 25681 25682 25683 25684 25685 25686 25687 25688 25689 25690 25691 25692 25693 25694 25695 25696 25697 25698 25699 25700 25701 25702 25703 25704 25705 25706 25707 25708 25709 25710 25711 25712 25713 25714 25715 25716 25717 25718 25719 25720 25721 25722 25723 25724 25725 25726 25727 25728 25729 25730 25731 25732 25733 25734 25735 25736 25737 25738 25739 25740 25741 25742 25743 25744 25745 25746 25747 25748 25749 25750 25751 25752 25753 25754 25755 25756 25757 25758 25759 25760 25761 25762 25763 25764 25765 25766 25767 25768 25769 25770 25771 25772 25773 25774 25775 25776 25777 25778 25779 25780 25781 25782 25783 25784 25785 25786 25787 25788 25789 25790 25791 25792 25793 25794 25795 25796 25797 25798 25799 25800 25801 25802 25803 25804 25805 25806 25807 25808 25809 25810 25811 25812 25813 25814 25815 25816 25817 25818 25819 25820 25821 25822 25823 25824 25825 25826 25827 25828 25829 25830 25831 25832 25833 25834 25835 25836 25837 25838 25839 25840 25841 25842 25843 25844 25845 25846 25847 25848 25849 25850 25851 25852 25853 25854 25855 25856 25857 25858 25859 25860 25861 25862 25863 25864 25865 25866 25867 25868 25869 25870 25871 25872 25873 25874 25875 25876 25877 25878 25879 25880 25881 25882 25883 25884 25885 25886 25887 25888 25889 25890 25891 25892 25893 25894 25895 25896 25897 25898 25899 25900 25901 25902 25903 25904 25905 25906 25907 25908 25909 25910 25911 25912 25913 25914 25915 25916 25917 25918 25919 25920 25921 25922 25923 25924 25925 25926 25927 25928 25929 25930 25931 25932 25933 25934 25935 25936 25937 25938 25939 25940 25941 25942 25943 25944 25945 25946 25947 25948 25949 25950 25951 25952 25953 25954 25955 25956 25957 25958 25959 25960 25961 25962 25963 25964 25965 25966 25967 25968 25969 25970 25971 25972 25973 25974 25975 25976 25977 25978 25979 25980 25981 25982 25983 25984 25985 25986 25987 25988 25989 25990 25991 25992 25993 25994 25995 25996 25997 25998 25999 26000 26001 26002 26003 26004 26005 26006 26007 26008 26009 26010 26011 26012 26013 26014 26015 26016 26017 26018 26019 26020 26021 26022 26023 26024 26025 26026 26027 26028 26029 26030 26031 26032 26033 26034 26035 26036 26037 26038 26039 26040 26041 26042 26043 26044 26045 26046 26047 26048 26049 26050 26051 26052 26053 26054 26055 26056 26057 26058 26059 26060 26061 26062 26063 26064 26065 26066 26067 26068 26069 26070 26071 26072 26073 26074 26075 26076 26077 26078 26079 26080 26081 26082 26083 26084 26085 26086 26087 26088 26089 26090 26091 26092 26093 26094 26095 26096 26097 26098 26099 26100 26101 26102 26103 26104 26105 26106 26107 26108 26109 26110 26111 26112 26113 26114 26115 26116 26117 26118 26119 26120 26121 26122 26123 26124 26125 26126 26127 26128 26129 26130 26131 26132 26133 26134 26135 26136 26137 26138 26139 26140 26141 26142 26143 26144 26145 26146 26147 26148 26149 26150 26151 26152 26153 26154 26155 26156 26157 26158 26159 26160 26161 26162 26163 26164 26165 26166 26167 26168 26169 26170 26171 26172 26173 26174 26175 26176 26177 26178 26179 26180 26181 26182 26183 26184 26185 26186 26187 26188 26189 26190 26191 26192 26193 26194 26195 26196 26197 26198 26199 26200 26201 26202 26203 26204 26205 26206 26207 26208 26209 26210 26211 26212 26213 26214 26215 26216 26217 26218 26219 26220 26221 26222 26223 26224 26225 26226 26227 26228 26229 26230 26231 26232 26233 26234 26235 26236 26237 26238 26239 26240 26241 26242 26243 26244 26245 26246 26247 26248 26249 26250 26251 26252 26253 26254 26255 26256 26257 26258 26259 26260 26261 26262 26263 26264 26265 26266 26267 26268 26269 26270 26271 26272 26273 26274 26275 26276 26277 26278 26279 26280 26281 26282 26283 26284 26285 26286 26287 26288 26289 26290 26291 26292 26293 26294 26295 26296 26297 26298 26299 26300 26301 26302 26303 26304 26305 26306 26307 26308 26309 26310 26311 26312 26313 26314 26315 26316 26317 26318 26319 26320 26321 26322 26323 26324 26325 26326 26327 26328 26329 26330 26331 26332 26333 26334 26335 26336 26337 26338 26339 26340 26341 26342 26343 26344 26345 26346 26347 26348 26349 26350 26351 26352 26353 26354 26355 26356 26357 26358 26359 26360 26361 26362 26363 26364 26365 26366 26367 26368 26369 26370 26371 26372 26373 26374 26375 26376 26377 26378 26379 26380 26381 26382 26383 26384 26385 26386 26387 26388 26389 26390 26391 26392 26393 26394 26395 26396 26397 26398 26399 26400 26401 26402 26403 26404 26405 26406 26407 26408 26409 26410 26411 26412 26413 26414 26415 26416 26417 26418 26419 26420 26421 26422 26423 26424 26425 26426 26427 26428 26429 26430 26431 26432 26433 26434 26435 26436 26437 26438 26439 26440 26441 26442 26443 26444 26445 26446 26447 26448 26449 26450 26451 26452 26453 26454 26455 26456 26457 26458 26459 26460 26461 26462 26463 26464 26465 26466 26467 26468 26469 26470 26471 26472 26473 26474 26475 26476 26477 26478 26479 26480 26481 26482 26483 26484 26485 26486 26487 26488 26489 26490 26491 26492 26493 26494 26495 26496 26497 26498 26499 26500 26501 26502 26503 26504 26505 26506 26507 26508 26509 26510 26511 26512 26513 26514 26515 26516 26517 26518 26519 26520 26521 26522 26523 26524 26525 26526 26527 26528 26529 26530 26531 26532 26533 26534 26535 26536 26537 26538 26539 26540 26541 26542 26543 26544 26545 26546 26547 26548 26549 26550 26551 26552 26553 26554 26555 26556 26557 26558 26559 26560 26561 26562 26563 26564 26565 26566 26567 26568 26569 26570 26571 26572 26573 26574 26575 26576 26577 26578 26579 26580 26581 26582 26583 26584 26585 26586 26587 26588 26589 26590 26591 26592 26593 26594 26595 26596 26597 26598 26599 26600 26601 26602 26603 26604 26605 26606 26607 26608 26609 26610 26611 26612 26613 26614 26615 26616 26617 26618 26619 26620 26621 26622 26623 26624 26625 26626 26627 26628 26629 26630 26631 26632 26633 26634 26635 26636 26637 26638 26639 26640 26641 26642 26643 26644 26645 26646 26647 26648 26649 26650 26651 26652 26653 26654 26655 26656 26657 26658 26659 26660 26661 26662 26663 26664 26665 26666 26667 26668 26669 26670 26671 26672 26673 26674 26675 26676 26677 26678 26679 26680 26681 26682 26683 26684 26685 26686 26687 26688 26689 26690 26691 26692 26693 26694 26695 26696 26697 26698 26699 26700 26701 26702 26703 26704 26705 26706 26707 26708 26709 26710 26711 26712 26713 26714 26715 26716 26717 26718 26719 26720 26721 26722 26723 26724 26725 26726 26727 26728 26729 26730 26731 26732 26733 26734 26735 26736 26737 26738 26739 26740 26741 26742 26743 26744 26745 26746 26747 26748 26749 26750 26751 26752 26753 26754 26755 26756 26757 26758 26759 26760 26761 26762 26763 26764 26765 26766 26767 26768 26769 26770 26771 26772 26773 26774 26775 26776 26777 26778 26779 26780 26781 26782 26783 26784 26785 26786 26787 26788 26789 26790 26791 26792 26793 26794 26795 26796 26797 26798 26799 26800 26801 26802 26803 26804 26805 26806 26807 26808 26809 26810 26811 26812 26813 26814 26815 26816 26817 26818 26819 26820 26821 26822 26823 26824 26825 26826 26827 26828 26829 26830 26831 26832 26833 26834 26835 26836 26837 26838 26839 26840 26841 26842 26843 26844 26845 26846 26847 26848 26849 26850 26851 26852 26853 26854 26855 26856 26857 26858 26859 26860 26861 26862 26863 26864 26865 26866 26867 26868 26869 26870 26871 26872 26873 26874 26875 26876 26877 26878 26879 26880 26881 26882 26883 26884 26885 26886 26887 26888 26889 26890 26891 26892 26893 26894 26895 26896 26897 26898 26899 26900 26901 26902 26903 26904 26905 26906 26907 26908 26909 26910 26911 26912 26913 26914 26915 26916 26917 26918 26919 26920 26921 26922 26923 26924 26925 26926 26927 26928 26929 26930 26931 26932 26933 26934 26935 26936 26937 26938 26939 26940 26941 26942 26943 26944 26945 26946 26947 26948 26949 26950 26951 26952 26953 26954 26955 26956 26957 26958 26959 26960 26961 26962 26963 26964 26965 26966 26967 26968 26969 26970 26971 26972 26973 26974 26975 26976 26977 26978 26979 26980 26981 26982 26983 26984 26985 26986 26987 26988 26989 26990 26991 26992 26993 26994 26995 26996 26997 26998 26999 27000 27001 27002 27003 27004 27005 27006 27007 27008 27009 27010 27011 27012 27013 27014 27015 27016 27017 27018 27019 27020 27021 27022 27023 27024 27025 27026 27027 27028 27029 27030 27031 27032 27033 27034 27035 27036 27037 27038 27039 27040 27041 27042 27043 27044 27045 27046 27047 27048 27049 27050 27051 27052 27053 27054 27055 27056 27057 27058 27059 27060 27061 27062 27063 27064 27065 27066 27067 27068 27069 27070 27071 27072 27073 27074 27075 27076 27077 27078 27079 27080 27081 27082 27083 27084 27085 27086 27087 27088 27089 27090 27091 27092 27093 27094 27095 27096 27097 27098 27099 27100 27101 27102 27103 27104 27105 27106 27107 27108 27109 27110 27111 27112 27113 27114 27115 27116 27117 27118 27119 27120 27121 27122 27123 27124 27125 27126 27127 27128 27129 27130 27131 27132 27133 27134 27135 27136 27137 27138 27139 27140 27141 27142 27143 27144 27145 27146 27147 27148 27149 27150 27151 27152 27153 27154 27155 27156 27157 27158 27159 27160 27161 27162 27163 27164 27165 27166 27167 27168 27169 27170 27171 27172 27173 27174 27175 27176 27177 27178 27179 27180 27181 27182 27183 27184 27185 27186 27187 27188 27189 27190 27191 27192 27193 27194 27195 27196 27197 27198 27199 27200 27201 27202 27203 27204 27205 27206 27207 27208 27209 27210 27211 27212 27213 27214 27215 27216 27217 27218 27219 27220 27221 27222 27223 27224 27225 27226 27227 27228 27229 27230 27231 27232 27233 27234 27235 27236 27237 27238 27239 27240 27241 27242 27243 27244 27245 27246 27247 27248 27249 27250 27251 27252 27253 27254 27255 27256 27257 27258 27259 27260 27261 27262 27263 27264 27265 27266 27267 27268 27269 27270 27271 27272 27273 27274 27275 27276 27277 27278 27279 27280 27281 27282 27283 27284 27285 27286 27287 27288 27289 27290 27291 27292 27293 27294 27295 27296 27297 27298 27299 27300 27301 27302 27303 27304 27305 27306 27307 27308 27309 27310 27311 27312 27313 27314 27315 27316 27317 27318 27319 27320 27321 27322 27323 27324 27325 27326 27327 27328 27329 27330 27331 27332 27333 27334 27335 27336 27337 27338 27339 27340 27341 27342 27343 27344 27345 27346 27347 27348 27349 27350 27351 27352 27353 27354 27355 27356 27357 27358 27359 27360 27361 27362 27363 27364 27365 27366 27367 27368 27369 27370 27371 27372 27373 27374 27375 27376 27377 27378 27379 27380 27381 27382 27383 27384 27385 27386 27387 27388 27389 27390 27391 27392 27393 27394 27395 27396 27397 27398 27399 27400 27401 27402 27403 27404 27405 27406 27407 27408 27409 27410 27411 27412 27413 27414 27415 27416 27417 27418 27419 27420 27421 27422 27423 27424 27425 27426 27427 27428 27429 27430 27431 27432 27433 27434 27435 27436 27437 27438 27439 27440 27441 27442 27443 27444 27445 27446 27447 27448 27449 27450 27451 27452 27453 27454 27455 27456 27457 27458 27459 27460 27461 27462 27463 27464 27465 27466 27467 27468 27469 27470 27471 27472 27473 27474 27475 27476 27477 27478 27479 27480 27481 27482 27483 27484 27485 27486 27487 27488 27489 27490 27491 27492 27493 27494 27495 27496 27497 27498 27499 27500 27501 27502 27503 27504 27505 27506 27507 27508 27509 27510 27511 27512 27513 27514 27515 27516 27517 27518 27519 27520 27521 27522 27523 27524 27525 27526 27527 27528 27529 27530 27531 27532 27533 27534 27535 27536 27537 27538 27539 27540 27541 27542 27543 27544 27545 27546 27547 27548 27549 27550 27551 27552 27553 27554 27555 27556 27557 27558 27559 27560 27561 27562 27563 27564 27565 27566 27567 27568 27569 27570 27571 27572 27573 27574 27575 27576 27577 27578 27579 27580 27581 27582 27583 27584 27585 27586 27587 27588 27589 27590 27591 27592 27593 27594 27595 27596 27597 27598 27599 27600 27601 27602 27603 27604 27605 27606 27607 27608 27609 27610 27611 27612 27613 27614 27615 27616 27617 27618 27619 27620 27621 27622 27623 27624 27625 27626 27627 27628 27629 27630 27631 27632 27633 27634 27635 27636 27637 27638 27639 27640 27641 27642 27643 27644 27645 27646 27647 27648 27649 27650 27651 27652 27653 27654 27655 27656 27657 27658 27659 27660 27661 27662 27663 27664 27665 27666 27667 27668 27669 27670 27671 27672 27673 27674 27675 27676 27677 27678 27679 27680 27681 27682 27683 27684 27685 27686 27687 27688 27689 27690 27691 27692 27693 27694 27695 27696 27697 27698 27699 27700 27701 27702 27703 27704 27705 27706 27707 27708 27709 27710 27711 27712 27713 27714 27715 27716 27717 27718 27719 27720 27721 27722 27723 27724 27725 27726 27727 27728 27729 27730 27731 27732 27733 27734 27735 27736 27737 27738 27739 27740 27741 27742 27743 27744 27745 27746 27747 27748 27749 27750 27751 27752 27753 27754 27755 27756 27757 27758 27759 27760 27761 27762 27763 27764 27765 27766 27767 27768 27769 27770 27771 27772 27773 27774 27775 27776 27777 27778 27779 27780 27781 27782 27783 27784 27785 27786 27787 27788 27789 27790 27791 27792 27793 27794 27795 27796 27797 27798 27799 27800 27801 27802 27803 27804 27805 27806 27807 27808 27809 27810 27811 27812 27813 27814 27815 27816 27817 27818 27819 27820 27821 27822 27823 27824 27825 27826 27827 27828 27829 27830 27831 27832 27833 27834 27835 27836 27837 27838 27839 27840 27841 27842 27843 27844 27845 27846 27847 27848 27849 27850 27851 27852 27853 27854 27855 27856 27857 27858 27859 27860 27861 27862 27863 27864 27865 27866 27867 27868 27869 27870 27871 27872 27873 27874 27875 27876 27877 27878 27879 27880 27881 27882 27883 27884 27885 27886 27887 27888 27889 27890 27891 27892 27893 27894 27895 27896 27897 27898 27899 27900 27901 27902 27903 27904 27905 27906 27907 27908 27909 27910 27911 27912 27913 27914 27915 27916 27917 27918 27919 27920 27921 27922 27923 27924 27925 27926 27927 27928 27929 27930 27931 27932 27933 27934 27935 27936 27937 27938 27939 27940 27941 27942 27943 27944 27945 27946 27947 27948 27949 27950 27951 27952 27953 27954 27955 27956 27957 27958 27959 27960 27961 27962 27963 27964 27965 27966 27967 27968 27969 27970 27971 27972 27973 27974 27975 27976 27977 27978 27979 27980 27981 27982 27983 27984 27985 27986 27987 27988 27989 27990 27991 27992 27993 27994 27995 27996 27997 27998 27999 28000 28001 28002 28003 28004 28005 28006 28007 28008 28009 28010 28011 28012 28013 28014 28015 28016 28017 28018 28019 28020 28021 28022 28023 28024 28025 28026 28027 28028 28029 28030 28031 28032 28033 28034 28035 28036 28037 28038 28039 28040 28041 28042 28043 28044 28045 28046 28047 28048 28049 28050 28051 28052 28053 28054 28055 28056 28057 28058 28059 28060 28061 28062 28063 28064 28065 28066 28067 28068 28069 28070 28071 28072 28073 28074 28075 28076 28077 28078 28079 28080 28081 28082 28083 28084 28085 28086 28087 28088 28089 28090 28091 28092 28093 28094 28095 28096 28097 28098 28099 28100 28101 28102 28103 28104 28105 28106 28107 28108 28109 28110 28111 28112 28113 28114 28115 28116 28117 28118 28119 28120 28121 28122 28123 28124 28125 28126 28127 28128 28129 28130 28131 28132 28133 28134 28135 28136 28137 28138 28139 28140 28141 28142 28143 28144 28145 28146 28147 28148 28149 28150 28151 28152 28153 28154 28155 28156 28157 28158 28159 28160 28161 28162 28163 28164 28165 28166 28167 28168 28169 28170 28171 28172 28173 28174 28175 28176 28177 28178 28179 28180 28181 28182 28183 28184 28185 28186 28187 28188 28189 28190 28191 28192 28193 28194 28195 28196 28197 28198 28199 28200 28201 28202 28203 28204 28205 28206 28207 28208 28209 28210 28211 28212 28213 28214 28215 28216 28217 28218 28219 28220 28221 28222 28223 28224 28225 28226 28227 28228 28229 28230 28231 28232 28233 28234 28235 28236 28237 28238 28239 28240 28241 28242 28243 28244 28245 28246 28247 28248 28249 28250 28251 28252 28253 28254 28255 28256 28257 28258 28259 28260 28261 28262 28263 28264 28265 28266 28267 28268 28269 28270 28271 28272 28273 28274 28275 28276 28277 28278 28279 28280 28281 28282 28283 28284 28285 28286 28287 28288 28289 28290 28291 28292 28293 28294 28295 28296 28297 28298 28299 28300 28301 28302 28303 28304 28305 28306 28307 28308 28309 28310 28311 28312 28313 28314 28315 28316 28317 28318 28319 28320 28321 28322 28323 28324 28325 28326 28327 28328 28329 28330 28331 28332 28333 28334 28335 28336 28337 28338 28339 28340 28341 28342 28343 28344 28345 28346 28347 28348 28349 28350 28351 28352 28353 28354 28355 28356 28357 28358 28359 28360 28361 28362 28363 28364 28365 28366 28367 28368 28369 28370 28371 28372 28373 28374 28375 28376 28377 28378 28379 28380 28381 28382 28383 28384 28385 28386 28387 28388 28389 28390 28391 28392 28393 28394 28395 28396 28397 28398 28399 28400 28401 28402 28403 28404 28405 28406 28407 28408 28409 28410 28411 28412 28413 28414 28415 28416 28417 28418 28419 28420 28421 28422 28423 28424 28425 28426 28427 28428 28429 28430 28431 28432 28433 28434 28435 28436 28437 28438 28439 28440 28441 28442 28443 28444 28445 28446 28447 28448 28449 28450 28451 28452 28453 28454 28455 28456 28457 28458 28459 28460 28461 28462 28463 28464 28465 28466 28467 28468 28469 28470 28471 28472 28473 28474 28475 28476 28477 28478 28479 28480 28481 28482 28483 28484 28485 28486 28487 28488 28489 28490 28491 28492 28493 28494 28495 28496 28497 28498 28499 28500 28501 28502 28503 28504 28505 28506 28507 28508 28509 28510 28511 28512 28513 28514 28515 28516 28517 28518 28519 28520 28521 28522 28523 28524 28525 28526 28527 28528 28529 28530 28531 28532 28533 28534 28535 28536 28537 28538 28539 28540 28541 28542 28543 28544 28545 28546 28547 28548 28549 28550 28551 28552 28553 28554 28555 28556 28557 28558 28559 28560 28561 28562 28563 28564 28565 28566 28567 28568 28569 28570 28571 28572 28573 28574 28575 28576 28577 28578 28579 28580 28581 28582 28583 28584 28585 28586 28587 28588 28589 28590 28591 28592 28593 28594 28595 28596 28597 28598 28599 28600 28601 28602 28603 28604 28605 28606 28607 28608 28609 28610 28611 28612 28613 28614 28615 28616 28617 28618 28619 28620 28621 28622 28623 28624 28625 28626 28627 28628 28629 28630 28631 28632 28633 28634 28635 28636 28637 28638 28639 28640 28641 28642 28643 28644 28645 28646 28647 28648 28649 28650 28651 28652 28653 28654 28655 28656 28657 28658 28659 28660 28661 28662 28663 28664 28665 28666 28667 28668 28669 28670 28671 28672 28673 28674 28675 28676 28677 28678 28679 28680 28681 28682 28683 28684 28685 28686 28687 28688 28689 28690 28691 28692 28693 28694 28695 28696 28697 28698 28699 28700 28701 28702 28703 28704 28705 28706 28707 28708 28709 28710 28711 28712 28713 28714 28715 28716 28717 28718 28719 28720 28721 28722 28723 28724 28725 28726 28727 28728 28729 28730 28731 28732 28733 28734 28735 28736 28737 28738 28739 28740 28741 28742 28743 28744 28745 28746 28747 28748 28749 28750 28751 28752 28753 28754 28755 28756 28757 28758 28759 28760 28761 28762 28763 28764 28765 28766 28767 28768 28769 28770 28771 28772 28773 28774 28775 28776 28777 28778 28779 28780 28781 28782 28783 28784 28785 28786 28787 28788 28789 28790 28791 28792 28793 28794 28795 28796 28797 28798 28799 28800 28801 28802 28803 28804 28805 28806 28807 28808 28809 28810 28811 28812 28813 28814 28815 28816 28817 28818 28819 28820 28821 28822 28823 28824 28825 28826 28827 28828 28829 28830 28831 28832 28833 28834 28835 28836 28837 28838 28839 28840 28841 28842 28843 28844 28845 28846 28847 28848 28849 28850 28851 28852 28853 28854 28855 28856 28857 28858 28859 28860 28861 28862 28863 28864 28865 28866 28867 28868 28869 28870 28871 28872 28873 28874 28875 28876 28877 28878 28879 28880 28881 28882 28883 28884 28885 28886 28887 28888 28889 28890 28891 28892 28893 28894 28895 28896 28897 28898 28899 28900 28901 28902 28903 28904 28905 28906 28907 28908 28909 28910 28911 28912 28913 28914 28915 28916 28917 28918 28919 28920 28921 28922 28923 28924 28925 28926 28927 28928 28929 28930 28931 28932 28933 28934 28935 28936 28937 28938 28939 28940 28941 28942 28943 28944 28945 28946 28947 28948 28949 28950 28951 28952 28953 28954 28955 28956 28957 28958 28959 28960 28961 28962 28963 28964 28965 28966 28967 28968 28969 28970 28971 28972 28973 28974 28975 28976 28977 28978 28979 28980 28981 28982 28983 28984 28985 28986 28987 28988 28989 28990 28991 28992 28993 28994 28995 28996 28997 28998 28999 29000 29001 29002 29003 29004 29005 29006 29007 29008 29009 29010 29011 29012 29013 29014 29015 29016 29017 29018 29019 29020 29021 29022 29023 29024 29025 29026 29027 29028 29029 29030 29031 29032 29033 29034 29035 29036 29037 29038 29039 29040 29041 29042 29043 29044 29045 29046 29047 29048 29049 29050 29051 29052 29053 29054 29055 29056 29057 29058 29059 29060 29061 29062 29063 29064 29065 29066 29067 29068 29069 29070 29071 29072 29073 29074 29075 29076 29077 29078 29079 29080 29081 29082 29083 29084 29085 29086 29087 29088 29089 29090 29091 29092 29093 29094 29095 29096 29097 29098 29099 29100 29101 29102 29103 29104 29105 29106 29107 29108 29109 29110 29111 29112 29113 29114 29115 29116 29117 29118 29119 29120 29121 29122 29123 29124 29125 29126 29127 29128 29129 29130 29131 29132 29133 29134 29135 29136 29137 29138 29139 29140 29141 29142 29143 29144 29145 29146 29147 29148 29149 29150 29151 29152 29153 29154 29155 29156 29157 29158 29159 29160 29161 29162 29163 29164 29165 29166 29167 29168 29169 29170 29171 29172 29173 29174 29175 29176 29177 29178 29179 29180 29181 29182 29183 29184 29185 29186 29187 29188 29189 29190 29191 29192 29193 29194 29195 29196 29197 29198 29199 29200 29201 29202 29203 29204 29205 29206 29207 29208 29209 29210 29211 29212 29213 29214 29215 29216 29217 29218 29219 29220 29221 29222 29223 29224 29225 29226 29227 29228 29229 29230 29231 29232 29233 29234 29235 29236 29237 29238 29239 29240 29241 29242 29243 29244 29245 29246 29247 29248 29249 29250 29251 29252 29253 29254 29255 29256 29257 29258 29259 29260 29261 29262 29263 29264 29265 29266 29267 29268 29269 29270 29271 29272 29273 29274 29275 29276 29277 29278 29279 29280 29281 29282 29283 29284 29285 29286 29287 29288 29289 29290 29291 29292 29293 29294 29295 29296 29297 29298 29299 29300 29301 29302 29303 29304 29305 29306 29307 29308 29309 29310 29311 29312 29313 29314 29315 29316 29317 29318 29319 29320 29321 29322 29323 29324 29325 29326 29327 29328 29329 29330 29331 29332 29333 29334 29335 29336 29337 29338 29339 29340 29341 29342 29343 29344 29345 29346 29347 29348 29349 29350 29351 29352 29353 29354 29355 29356 29357 29358 29359 29360 29361 29362 29363 29364 29365 29366 29367 29368 29369 29370 29371 29372 29373 29374 29375 29376 29377 29378 29379 29380 29381 29382 29383 29384 29385 29386 29387 29388 29389 29390 29391 29392 29393 29394 29395 29396 29397 29398 29399 29400 29401 29402 29403 29404 29405 29406 29407 29408 29409 29410 29411 29412 29413 29414 29415 29416 29417 29418 29419 29420 29421 29422 29423 29424 29425 29426 29427 29428 29429 29430 29431 29432 29433 29434 29435 29436 29437 29438 29439 29440 29441 29442 29443 29444 29445 29446 29447 29448 29449 29450 29451 29452 29453 29454 29455 29456 29457 29458 29459 29460 29461 29462 29463 29464 29465 29466 29467 29468 29469 29470 29471 29472 29473 29474 29475 29476 29477 29478 29479 29480 29481 29482 29483 29484 29485 29486 29487 29488 29489 29490 29491 29492 29493 29494 29495 29496 29497 29498 29499 29500 29501 29502 29503 29504 29505 29506 29507 29508 29509 29510 29511 29512 29513 29514 29515 29516 29517 29518 29519 29520 29521 29522 29523 29524 29525 29526 29527 29528 29529 29530 29531 29532 29533 29534 29535 29536 29537 29538 29539 29540 29541 29542 29543 29544 29545 29546 29547 29548 29549 29550 29551 29552 29553 29554 29555 29556 29557 29558 29559 29560 29561 29562 29563 29564 29565 29566 29567 29568 29569 29570 29571 29572 29573 29574 29575 29576 29577 29578 29579 29580 29581 29582 29583 29584 29585 29586 29587 29588 29589 29590 29591 29592 29593 29594 29595 29596 29597 29598 29599 29600 29601 29602 29603 29604 29605 29606 29607 29608 29609 29610 29611 29612 29613 29614 29615 29616 29617 29618 29619 29620 29621 29622 29623 29624 29625 29626 29627 29628 29629 29630 29631 29632 29633 29634 29635 29636 29637 29638 29639 29640 29641 29642 29643 29644 29645 29646 29647 29648 29649 29650 29651 29652 29653 29654 29655 29656 29657 29658 29659 29660 29661 29662 29663 29664 29665 29666 29667 29668 29669 29670 29671 29672 29673 29674 29675 29676 29677 29678 29679 29680 29681 29682 29683 29684 29685 29686 29687 29688 29689 29690 29691 29692 29693 29694 29695 29696 29697 29698 29699 29700 29701 29702 29703 29704 29705 29706 29707 29708 29709 29710 29711 29712 29713 29714 29715 29716 29717 29718 29719 29720 29721 29722 29723 29724 29725 29726 29727 29728 29729 29730 29731 29732 29733 29734 29735 29736 29737 29738 29739 29740 29741 29742 29743 29744 29745 29746 29747 29748 29749 29750 29751 29752 29753 29754 29755 29756 29757 29758 29759 29760 29761 29762 29763 29764 29765 29766 29767 29768 29769 29770 29771 29772 29773 29774 29775 29776 29777 29778 29779 29780 29781 29782 29783 29784 29785 29786 29787 29788 29789 29790 29791 29792 29793 29794 29795 29796 29797 29798 29799 29800 29801 29802 29803 29804 29805 29806 29807 29808 29809 29810 29811 29812 29813 29814 29815 29816 29817 29818 29819 29820 29821 29822 29823 29824 29825 29826 29827 29828 29829 29830 29831 29832 29833 29834 29835 29836 29837 29838 29839 29840 29841 29842 29843 29844 29845 29846 29847 29848 29849 29850 29851 29852 29853 29854 29855 29856 29857 29858 29859 29860 29861 29862 29863 29864 29865 29866 29867 29868 29869 29870 29871 29872 29873 29874 29875 29876 29877 29878 29879 29880 29881 29882 29883 29884 29885 29886 29887 29888 29889 29890 29891 29892 29893 29894 29895 29896 29897 29898 29899 29900 29901 29902 29903 29904 29905 29906 29907 29908 29909 29910 29911 29912 29913 29914 29915 29916 29917 29918 29919 29920 29921 29922 29923 29924 29925 29926 29927 29928 29929 29930 29931 29932 29933 29934 29935 29936 29937 29938 29939 29940 29941 29942 29943 29944 29945 29946 29947 29948 29949 29950 29951 29952 29953 29954 29955 29956 29957 29958 29959 29960 29961 29962 29963 29964 29965 29966 29967 29968 29969 29970 29971 29972 29973 29974 29975 29976 29977 29978 29979 29980 29981 29982 29983 29984 29985 29986 29987 29988 29989 29990 29991 29992 29993 29994 29995 29996 29997 29998 29999 30000 30001 30002 30003 30004 30005 30006 30007 30008 30009 30010 30011 30012 30013 30014 30015 30016 30017 30018 30019 30020 30021 30022 30023 30024 30025 30026 30027 30028 30029 30030 30031 30032 30033 30034 30035 30036 30037 30038 30039 30040 30041 30042 30043 30044 30045 30046 30047 30048 30049 30050 30051 30052 30053 30054 30055 30056 30057 30058 30059 30060 30061 30062 30063 30064 30065 30066 30067 30068 30069 30070 30071 30072 30073 30074 30075 30076 30077 30078 30079 30080 30081 30082 30083 30084 30085 30086 30087 30088 30089 30090 30091 30092 30093 30094 30095 30096 30097 30098 30099 30100 30101 30102 30103 30104 30105 30106 30107 30108 30109 30110 30111 30112 30113 30114 30115 30116 30117 30118 30119 30120 30121 30122 30123 30124 30125 30126 30127 30128 30129 30130 30131 30132 30133 30134 30135 30136 30137 30138 30139 30140 30141 30142 30143 30144 30145 30146 30147 30148 30149 30150 30151 30152 30153 30154 30155 30156 30157 30158 30159 30160 30161 30162 30163 30164 30165 30166 30167 30168 30169 30170 30171 30172 30173 30174 30175 30176 30177 30178 30179 30180 30181 30182 30183 30184 30185 30186 30187 30188 30189 30190 30191 30192 30193 30194 30195 30196 30197 30198 30199 30200 30201 30202 30203 30204 30205 30206 30207 30208 30209 30210 30211 30212 30213 30214 30215 30216 30217 30218 30219 30220 30221 30222 30223 30224 30225 30226 30227 30228 30229 30230 30231 30232 30233 30234 30235 30236 30237 30238 30239 30240 30241 30242 30243 30244 30245 30246 30247 30248 30249 30250 30251 30252 30253 30254 30255 30256 30257 30258 30259 30260 30261 30262 30263 30264 30265 30266 30267 30268 30269 30270 30271 30272 30273 30274 30275 30276 30277 30278 30279 30280 30281 30282 30283 30284 30285 30286 30287 30288 30289 30290 30291 30292 30293 30294 30295 30296 30297 30298 30299 30300 30301 30302 30303 30304 30305 30306 30307 30308 30309 30310 30311 30312 30313 30314 30315 30316 30317 30318 30319 30320 30321 30322 30323 30324 30325 30326 30327 30328 30329 30330 30331 30332 30333 30334 30335 30336 30337 30338 30339 30340 30341 30342 30343 30344 30345 30346 30347 30348 30349 30350 30351 30352 30353 30354 30355 30356 30357 30358 30359 30360 30361 30362 30363 30364 30365 30366 30367 30368 30369 30370 30371 30372 30373 30374 30375 30376 30377 30378 30379 30380 30381 30382 30383 30384 30385 30386 30387 30388 30389 30390 30391 30392 30393 30394 30395 30396 30397 30398 30399 30400 30401 30402 30403 30404 30405 30406 30407 30408 30409 30410 30411 30412 30413 30414 30415 30416 30417 30418 30419 30420 30421 30422 30423 30424 30425 30426 30427 30428 30429 30430 30431 30432 30433 30434 30435 30436 30437 30438 30439 30440 30441 30442 30443 30444 30445 30446 30447 30448 30449 30450 30451 30452 30453 30454 30455 30456 30457 30458 30459 30460 30461 30462 30463 30464 30465 30466 30467 30468 30469 30470 30471 30472 30473 30474 30475 30476 30477 30478 30479 30480 30481 30482 30483 30484 30485 30486 30487 30488 30489 30490 30491 30492 30493 30494 30495 30496 30497 30498 30499 30500 30501 30502 30503 30504 30505 30506 30507 30508 30509 30510 30511 30512 30513 30514 30515 30516 30517 30518 30519 30520 30521 30522 30523 30524 30525 30526 30527 30528 30529 30530 30531 30532 30533 30534 30535 30536 30537 30538 30539 30540 30541 30542 30543 30544 30545 30546 30547 30548 30549 30550 30551 30552 30553 30554 30555 30556 30557 30558 30559 30560 30561 30562 30563 30564 30565 30566 30567 30568 30569 30570 30571 30572 30573 30574 30575 30576 30577 30578 30579 30580 30581 30582 30583 30584 30585 30586 30587 30588 30589 30590 30591 30592 30593 30594 30595 30596 30597 30598 30599 30600 30601 30602 30603 30604 30605 30606 30607 30608 30609 30610 30611 30612 30613 30614 30615 30616 30617 30618 30619 30620 30621 30622 30623 30624 30625 30626 30627 30628 30629 30630 30631 30632 30633 30634 30635 30636 30637 30638 30639 30640 30641 30642 30643 30644 30645 30646 30647 30648 30649 30650 30651 30652 30653 30654 30655 30656 30657 30658 30659 30660 30661 30662 30663 30664 30665 30666 30667 30668 30669 30670 30671 30672 30673 30674 30675 30676 30677 30678 30679 30680 30681 30682 30683 30684 30685 30686 30687 30688 30689 30690 30691 30692 30693 30694 30695 30696 30697 30698 30699 30700 30701 30702 30703 30704 30705 30706 30707 30708 30709 30710 30711 30712 30713 30714 30715 30716 30717 30718 30719 30720 30721 30722 30723 30724 30725 30726 30727 30728 30729 30730 30731 30732 30733 30734 30735 30736 30737 30738 30739 30740 30741 30742 30743 30744 30745 30746 30747 30748 30749 30750 30751 30752 30753 30754 30755 30756 30757 30758 30759 30760 30761 30762 30763 30764 30765 30766 30767 30768 30769 30770 30771 30772 30773 30774 30775 30776 30777 30778 30779 30780 30781 30782 30783 30784 30785 30786 30787 30788 30789 30790 30791 30792 30793 30794 30795 30796 30797 30798 30799 30800 30801 30802 30803 30804 30805 30806 30807 30808 30809 30810 30811 30812 30813 30814 30815 30816 30817 30818 30819 30820 30821 30822 30823 30824 30825 30826 30827 30828 30829 30830 30831 30832 30833 30834 30835 30836 30837 30838 30839 30840 30841 30842 30843 30844 30845 30846 30847 30848 30849 30850 30851 30852 30853 30854 30855 30856 30857 30858 30859 30860 30861 30862 30863 30864 30865 30866 30867 30868 30869 30870 30871 30872 30873 30874 30875 30876 30877 30878 30879 30880 
</DataArray>
<DataArray type="UInt32" Name="offsets" format="ascii">
3 6 8 11 14 17 20 22 25 28 31 34 37 40 43 46 49 52 55 58 60 63 66 69 72 74 77 80 83 86 89 92 95 97 100 103 106 109 112 115 118 121 123 126 129 132 135 138 141 144 147 150 153 156 158 160 163 166 169 172 175 178 181 184 186 189 192 195 198 201 204 207 210 213 216 219 222 225 228 231 234 237 240 243 246 249 252 254 257 260 263 266 269 272 275 278 281 284 287 289 292 295 298 300 303 306 309 312 315 318 321 324 327 330 333 336 339 342 345 348 351 354 357 360 363 366 369 372 375 378 381 384 387 390 393 396 399 402 405 408 411 414 417 420 423 426 429 432 435 437 440 442 445 448 451 454 457 460 463 466 469 472 475 478 481 484 487 490 493 496 499 502 505 508 511 514 517 520 522 525 528 530 533 535 538 541 544 547 550 553 556 559 562 565 568 571 574 577 579 582 584 587 590 593 596 599 602 605 607 610 612 615 618 621 624 627 630 632 635 638 640 643 646 649 652 655 658 660 662 665 668 670 673 675 678 680 682 685 688 691 693 696 699 702 705 708 711 714 717 720 723 726 729 732 734 737 740 743 746 749 752 755 757 760 763 766 769 772 775 778 780 783 786 789 792 794 797 800 803 806 809 812 814 817 820 823 825 828 831 834 837 840 843 846 848 851 854 857 860 863 866 868 871 874 877 880 883 886 888 891 894 897 900 903 906 909 911 914 917 920 923 926 929 932 935 938 941 944 947 950 953 956 959 962 965 968 971 974 976 978 981 984 987 990 993 995 998 1001 1004 1007 1010 1013 1016 1018 1021 1023 1026 1029 1032 1034 1037 1040 1043 1045 1048 1050 1053 1056 1059 1062 1065 1068 1071 1073 1076 1079 1082 1085 1088 1091 1094 1096 1099 1102 1105 1107 1110 1113 1116 1119 1122 1125 1128 1131 1134 1137 1140 1143 1146 1149 1152 1155 1158 1161 1164 1167 1170 1173 1176 1179 1182 1185 1188 1191 1194 1197 1200 1203 1205 1208 1211 1214 1217 1220 1223 1226 1229 1232 1235 1238 1241 1244 1247 1250 1253 1256 1259 1262 1265 1268 1271 1274 1277 1280 1283 1286 1289 1292 1295 1298 1301 1303 1306 1309 1312 1315 1318 1321 1324 1327 1330 1333 1336 1339 1342 1345 1348 1351 1354 1357 1360 1363 1365 1368 1371 1374 1377 1380 1383 1386 1388 1391 1394 1397 1400 1403 1405 1408 1411 1413 1416 1418 1421 1424 1427 1430 1432 1435 1438 1440 1443 1446 1449 1452 1455 1458 1460 1463 1466 1469 1472 1475 1478 1481 1484 1487 1490 1493 1496 1499 1502 1505 1508 1511 1514 1517 1519 1522 1525 1528 1531 1534 1537 1540 1543 1546 1549 1552 1554 1556 1559 1562 1565 1568 1571 1574 1577 1580 1583 1586 1589 1592 1595 1598 1601 1604 1607 1610 1613 1616 1619 1621 1624 1626 1628 1631 1634 1636 1639 1642 1645 1648 1651 1654 1657 1660 1663 1666 1669 1672 1675 1677 1680 1683 1686 1689 1692 1695 1698 1700 1702 1705 1708 1711 1714 1717 1720 1723 1726 1728 1730 1733 1736 1739 1741 1744 1747 1750 1753 1756 1759 1762 1765 1768 1771 1774 1777 1780 1783 1786 1789 1792 1795 1798 1801 1804 1807 1810 1813 1816 1819 1822 1825 1828 1831 1834 1837 1840 1843 1846 1848 1851 1854 1856 1859 1862 1865 1868 1870 1873 1876 1879 1881 1884 1887 1890 1892 1895 1898 1900 1903 1906 1909 1912 1915 1918 1921 1924 1927 1930 1933 1936 1939 1942 1945 1948 1951 1954 1957 1960 1963 1965 1968 1971 1974 1976 1979 1982 1985 1988 1991 1993 1996 1999 2002 2005 2008 2011 2013 2016 2019 2022 2025 2028 2031 2034 2037 2040 2043 2046 2049 2052 2055 2058 2061 2064 2067 2069 2072 2075 2078 2081 2084 2087 2090 2093 2096 2099 2102 2105 2108 2111 2114 2117 2120 2123 2126 2129 2132 2134 2137 2140 2143 2146 2149 2152 2155 2158 2161 2164 2167 2170 2173 2176 2179 2181 2184 2187 2190 2193 2196 2199 2202 2205 2208 2211 2214 2217 2220 2223 2226 2229 2232 2235 2237 2240 2243 2246 2249 2252 2255 2258 2260 2263 2266 2269 2272 2275 2278 2281 2284 2287 2290 2293 2296 2299 2302 2305 2308 2311 2314 2317 2320 2323 2325 2328 2331 2334 2337 2340 2343 2346 2349 2352 2354 2357 2360 2363 2366 2369 2372 2375 2378 2380 2383 2386 2389 2392 2395 2398 2401 2404 2407 2410 2413 2416 2419 2422 2425 2428 2431 2434 2437 2439 2442 2445 2448 2451 2454 2456 2459 2462 2465 2467 2470 2473 2476 2479 2482 2485 2487 2490 2493 2496 2499 2502 2505 2508 2511 2514 2517 2519 2522 2525 2528 2531 2534 2537 2540 2543 2546 2549 2552 2555 2557 2560 2562 2565 2568 2571 2574 2577 2580 2583 2585 2588 2590 2593 2596 2599 2602 2605 2608 2611 2614 2617 2620 2623 2626 2629 2632 2635 2638 2641 2644 2647 2650 2653 2656 2659 2662 2665 2668 2671 2674 2677 2680 2683 2686 2689 2692 2695 2698 2701 2704 2707 2710 2713 2716 2719 2722 2725 2727 2729 2732 2735 2737 2740 2743 2746 2749 2752 2755 2758 2761 2764 2767 2770 2773 2776 2779 2782 2785 2787 2790 2793 2796 2799 2801 2804 2807 2809 2812 2815 2818 2821 2824 2827 2829 2832 2834 2837 2840 2842 2845 2848 2851 2854 2857 2860 2863 2866 2869 2872 2874 2877 2880 2883 2886 2889 2891 2893 2896 2899 2902 2905 2907 2910 2913 2915 2918 2920 2923 2926 2929 2932 2935 2937 2940 2943 2945 2948 2951 2954 2957 2960 2963 2966 2969 2972 2975 2978 2981 2983 2986 2989 2992 2995 2998 3001 3004 3007 3010 3013 3016 3019 3022 3025 3028 3030 3033 3035 3038 3040 3042 3045 3047 3050 3053 3055 3058 3061 3064 3067 3070 3073 3075 3078 3080 3083 3086 3088 3091 3094 3097 3099 3102 3105 3107 3110 3113 3116 3119 3122 3124 3127 3130 3132 3135 3138 3141 3144 3147 3149 3152 3154 3157 3160 3162 3165 3168 3170 3173 3176 3179 3182 3185 3188 3191 3194 3196 3199 3202 3205 3208 3211 3214 3217 3220 3223 3226 3228 3231 3234 3237 3240 3242 3245 3248 3250 3253 3256 3259 3262 3265 3267 3270 3273 3276 3279 3282 3284 3287 3289 3292 3295 3298 3301 3304 3307 3309 3312 3315 3318 3321 3324 3327 3330 3333 3335 3337 3339 3342 3345 3348 3351 3353 3356 3358 3361 3364 3367 3369 3371 3374 3377 3380 3382 3385 3388 3391 3393 3396 3398 3401 3403 3405 3408 3410 3413 3416 3419 3422 3424 3427 3430 3433 3435 3438 3440 3443 3445 3448 3451 3454 3457 3460 3463 3466 3468 3471 3474 3477 3480 3482 3485 3488 3491 3494 3497 3500 3503 3506 3508 3511 3513 3515 3518 3521 3524 3526 3529 3532 3535 3538 3540 3542 3545 3548 3550 3552 3555 3558 3561 3564 3567 3569 3572 3575 3578 3581 3584 3587 3590 3593 3595 3598 3600 3603 3606 3609 3612 3615 3618 3621 3624 3627 3630 3633 3636 3639 3642 3645 3648 3651 3653 3656 3659 3662 3665 3668 3671 3674 3677 3680 3683 3686 3689 3692 3695 3698 3701 3704 3707 3710 3713 3716 3719 3722 3725 3728 3730 3733 3735 3738 3741 3744 3747 3750 3752 3754 3757 3760 3763 3766 3768 3770 3773 3775 3778 3781 3783 3786 3789 3791 3794 3797 3800 3803 3805 3807 3810 3813 3816 3819 3822 3825 3828 3831 3833 3836 3839 3841 3844 3847 3850 3852 3855 3858 3860 3863 3866 3869 3872 3875 3878 3880 3883 3886 3889 3892 3895 3898 3900 3903 3906 3909 3912 3915 3917 3920 3923 3925 3927 3930 3933 3935 3938 3941 3943 3946 3949 3952 3955 3958 3961 3964 3967 3970 3973 3976 3979 3981 3984 3986 3989 3992 3994 3997 4000 4003 4006 4009 4012 4014 4017 4020 4023 4025 4027 4029 4032 4035 4038 4040 4042 4045 4047 4049 4052 4055 4057 4060 4063 4065 4068 4070 4073 4075 4078 4081 4084 4086 4088 4091 4094 4096 4098 4100 4102 4105 4108 4111 4113 4115 4118 4121 4123 4125 4127 4130 4132 4134 4137 4140 4142 4145 4147 4149 4152 4154 4157 4160 4162 4165 4167 4169 4172 4175 4178 4181 4183 4185 4188 4191 4193 4196 4199 4202 4204 4207 4210 4213 4216 4219 4222 4225 4228 4231 4234 4237 4240 4243 4246 4249 4252 4255 4258 4261 4264 4267 4270 4273 4276 4279 4282 4285 4288 4291 4294 4297 4300 4303 4306 4309 4312 4315 4318 4321 4324 4327 4330 4333 4336 4339 4342 4345 4348 4351 4354 4357 4360 4363 4366 4369 4372 4375 4378 4380 4383 4385 4388 4391 4394 4397 4400 4403 4406 4409 4412 4415 4418 4421 4424 4427 4429 4432 4435 4438 4441 4444 4447 4450 4453 4456 4459 4461 4464 4467 4470 4473 4476 4479 4482 4485 4488 4491 4494 4497 4500 4503 4506 4509 4512 4515 4518 4521 4524 4527 4530 4533 4536 4539 4542 4545 4548 4551 4554 4557 4560 4563 4566 4569 4572 4575 4578 4581 4584 4587 4590 4593 4596 4599 4601 4604 4607 4610 4612 4615 4617 4620 4623 4626 4629 4632 4634 4637 4639 4642 4645 4648 4651 4654 4657 4660 4663 4666 4669 4672 4675 4678 4681 4684 4687 4690 4693 4696 4699 4702 4705 4708 4711 4714 4716 4719 4722 4725 4728 4731 4734 4736 4739 4741 4744 4747 4750 4752 4755 4758 4760 4763 4766 4769 4772 4775 4778 4781 4784 4787 4790 4793 4796 4799 4802 4805 4808 4811 4814 4817 4820 4823 4826 4829 4832 4835 4838 4841 4844 4847 4850 4853 4856 4859 4862 4865 4868 4871 4873 4876 4878 4881 4884 4887 4890 4893 4896 4899 4902 4905 4908 4910 4913 4916 4919 4922 4925 4928 4931 4934 4937 4940 4943 4946 4949 4952 4955 4958 4961 4963 4966 4969 4972 4974 4976 4979 4981 4984 4987 4990 4993 4996 4999 5002 5005 5007 5010 5013 5016 5019 5021 5024 5027 5030 5033 5036 5039 5042 5044 5047 5050 5052 5055 5057 5060 5063 5065 5068 5071 5073 5075 5078 5081 5084 5087 5090 5093 5096 5099 5102 5105 5108 5111 5114 5117 5120 5122 5125 5127 5130 5133 5136 5138 5141 5143 5146 5149 5152 5155 5158 5161 5164 5167 5170 5173 5176 5179 5181 5184 5186 5189 5192 5195 5198 5201 5204 5207 5210 5212 5215 5218 5220 5223 5226 5229 5231 5233 5236 5239 5242 5245 5248 5251 5254 5257 5260 5263 5266 5269 5272 5275 5278 5281 5284 5287 5290 5293 5296 5298 5301 5304 5307 5310 5313 5315 5318 5320 5323 5326 5329 5332 5334 5337 5340 5342 5345 5348 5351 5354 5357 5359 5362 5365 5368 5371 5373 5376 5379 5382 5385 5388 5391 5394 5396 5399 5402 5405 5407 5410 5413 5416 5419 5422 5425 5428 5431 5434 5437 5440 5442 5445 5448 5451 5454 5457 5460 5463 5466 5468 5471 5474 5477 5480 5483 5486 5488 5491 5494 5497 5500 5503 5506 5508 5511 5514 5517 5520 5523 5526 5529 5532 5535 5538 5541 5543 5546 5549 5552 5554 5557 5560 5563 5565 5568 5570 5573 5576 5579 5582 5585 5588 5590 5593 5596 5599 5602 5605 5608 5611 5614 5617 5620 5623 5626 5629 5632 5635 5637 5640 5643 5646 5649 5652 5654 5657 5660 5663 5666 5669 5672 5675 5678 5680 5683 5686 5689 5692 5695 5698 5701 5704 5707 5710 5713 5716 5719 5722 5725 5728 5730 5733 5736 5739 5742 5744 5747 5750 5753 5756 5759 5762 5765 5768 5771 5774 5777 5780 5783 5786 5789 5792 5795 5798 5801 5804 5807 5810 5813 5816 5819 5822 5824 5827 5830 5833 5835 5838 5840 5843 5846 5849 5852 5854 5857 5859 5862 5865 5868 5871 5874 5876 5879 5882 5885 5888 5891 5894 5897 5900 5903 5905 5908 5911 5914 5917 5920 5923 5926 5929 5932 5935 5938 5941 5944 5947 5950 5953 5956 5959 5962 5965 5968 5971 5974 5977 5979 5981 5984 5987 5990 5993 5996 5998 6001 6004 6007 6009 6012 6015 6018 6020 6023 6026 6028 6031 6033 6036 6039 6042 6045 6047 6050 6053 6056 6059 6061 6063 6066 6069 6072 6075 6078 6081 6084 6087 6090 6093 6096 6099 6101 6104 6107 6110 6113 6115 6118 6121 6124 6127 6130 6132 6135 6138 6140 6143 6146 6149 6152 6155 6158 6161 6164 6167 6170 6173 6176 6179 6182 6185 6188 6190 6193 6196 6198 6201 6204 6207 6209 6212 6215 6218 6221 6224 6227 6230 6233 6236 6239 6242 6244 6247 6250 6253 6256 6259 6262 6265 6268 6271 6274 6277 6280 6283 6286 6289 6292 6294 6297 6300 6302 6305 6307 6310 6313 6315 6318 6320 6323 6325 6328 6331 6334 6337 6340 6343 6346 6349 6352 6355 6358 6361 6364 6366 6369 6371 6373 6376 6379 6381 6383 6386 6389 6391 6393 6396 6399 6402 6404 6407 6409 6412 6415 6417 6420 6423 6426 6429 6431 6433 6436 6438 6441 6444 6446 6448 6451 6454 6456 6459 6462 6465 6467 6470 6473 6476 6478 6480 6482 6485 6488 6490 6493 6495 6497 6500 6503 6506 6509 6512 6515 6518 6521 6524 6527 6530 6532 6534 6537 6539 6542 6544 6547 6549 6552 6555 6558 6560 6563 6566 6569 6572 6575 6577 6580 6583 6586 6589 6592 6595 6598 6601 6604 6607 6610 6613 6616 6619 6622 6625 6628 6631 6634 6637 6640 6643 6646 6649 6651 6654 6657 6660 6663 6666 6669 6672 6675 6678 6681 6684 6687 6690 6693 6696 6699 6702 6705 6707 6710 6713 6716 6719 6722 6725 6728 6731 6734 6737 6740 6742 6745 6748 6751 6754 6757 6759 6762 6765 6768 6771 6774 6777 6780 6783 6786 6789 6792 6795 6798 6801 6803 6806 6809 6812 6815 6818 6821 6824 6827 6830 6833 6836 6839 6842 6845 6847 6850 6852 6855 6858 6861 6864 6866 6869 6872 6875 6878 6881 6884 6887 6890 6893 6896 6899 6902 6904 6907 6909 6912 6915 6918 6921 6923 6926 6929 6932 6935 6938 6941 6944 6946 6949 6952 6955 6958 6961 6964 6967 6969 6972 6975 6978 6980 6983 6985 6988 6991 6994 6997 7000 7003 7006 7009 7012 7014 7017 7020 7023 7026 7029 7032 7035 7038 7041 7044 7047 7050 7053 7056 7059 7062 7065 7068 7071 7074 7077 7080 7083 7086 7089 7092 7095 7098 7101 7104 7107 7110 7113 7116 7119 7122 7125 7128 7131 7134 7137 7140 7143 7145 7148 7151 7153 7156 7159 7162 7165 7168 7171 7174 7177 7180 7183 7185 7188 7191 7194 7197 7200 7202 7205 7208 7210 7213 7216 7219 7222 7225 7228 7230 7233 7236 7239 7242 7244 7247 7250 7252 7255 7257 7260 7263 7266 7269 7272 7275 7278 7281 7284 7287 7290 7292 7295 7297 7300 7303 7306 7309 7311 7314 7317 7320 7323 7326 7329 7332 7335 7338 7341 7344 7347 7350 7353 7356 7359 7362 7365 7368 7371 7374 7376 7379 7382 7385 7388 7390 7393 7396 7399 7402 7405 7408 7411 7413 7416 7419 7422 7425 7428 7430 7433 7436 7439 7441 7444 7447 7450 7452 7455 7458 7460 7463 7466 7469 7471 7474 7477 7479 7482 7485 7488 7491 7494 7497 7500 7503 7506 7509 7512 7515 7518 7521 7524 7527 7530 7533 7536 7539 7542 7545 7548 7551 7554 7557 7560 7563 7566 7569 7572 7574 7577 7580 7583 7586 7589 7592 7595 7598 7601 7604 7607 7609 7612 7615 7618 7621 7624 7627 7630 7633 7636 7639 7642 7645 7648 7651 7654 7656 7658 7661 7664 7667 7669 7672 7675 7678 7681 7683 7686 7689 7691 7694 7697 7700 7703 7706 7709 7712 7715 7718 7721 7724 7727 7730 7732 7734 7737 7740 7743 7746 7749 7752 7755 7758 7761 7764 7767 7769 7772 7775 7777 7780 7783 7786 7789 7792 7795 7798 7801 7804 7807 7810 7813 7816 7819 7822 7825 7828 7831 7834 7836 7839 7842 7845 7847 7850 7853 7856 7859 7862 7864 7867 7870 7873 7876 7879 7882 7885 7888 7891 7894 7897 7900 7903 7906 7909 7912 7915 7918 7921 7924 7926 7929 7932 7934 7937 7940 7943 7946 7949 7952 7955 7958 7961 7964 7967 7970 7973 7976 7979 7982 7985 7988 7991 7993 7996 7999 8002 8005 8008 8011 8014 8017 8020 8023 8026 8029 8032 8035 8038 8041 8044 8047 8050 8053 8056 8059 8062 8065 8068 8071 8074 8077 8080 8083 8086 8089 8091 8094 8097 8100 8103 8106 8109 8111 8114 8117 8120 8123 8126 8128 8131 8134 8137 8140 8142 8145 8148 8151 8154 8157 8160 8163 8166 8169 8172 8175 8178 8181 8184 8187 8190 8193 8196 8199 8202 8205 8208 8210 8213 8216 8219 8222 8225 8228 8231 8233 8236 8239 8241 8244 8247 8249 8252 8255 8258 8261 8264 8267 8269 8272 8275 8278 8281 8284 8287 8290 8293 8296 8299 8301 8304 8306 8309 8312 8315 8318 8321 8324 8327 8330 8332 8335 8338 8340 8343 8346 8349 8351 8354 8357 8360 8362 8365 8368 8371 8373 8375 8378 8381 8383 8386 8389 8391 8394 8397 8399 8402 8405 8408 8411 8414 8417 8420 8423 8426 8428 8431 8434 8437 8439 8442 8445 8448 8450 8453 8456 8459 8461 8464 8466 8469 8472 8474 8477 8480 8483 8486 8489 8492 8495 8498 8500 8503 8506 8508 8511 8514 8517 8520 8523 8526 8529 8532 8535 8538 8541 8544 8547 8549 8552 8554 8557 8560 8563 8565 8567 8570 8572 8575 8578 8581 8584 8586 8589 8591 8594 8597 8600 8603 8606 8609 8612 8615 8618 8620 8623 8626 8629 8632 8635 8638 8641 8644 8647 8650 8653 8656 8659 8662 8665 8668 8671 8674 8677 8680 8683 8686 8689 8692 8695 8698 8701 8704 8706 8709 8712 8715 8718 8721 8724 8726 8729 8732 8735 8738 8741 8744 8746 8749 8752 8755 8758 8761 8764 8766 8769 8772 8775 8777 8780 8783 8786 8788 8791 8794 8796 8799 8802 8805 8808 8811 8814 8816 8819 8822 8825 8827 8829 8832 8835 8838 8841 8844 8847 8850 8853 8856 8859 8862 8865 8868 8871 8874 8877 8880 8882 8885 8888 8891 8894 8897 8900 8903 8905 8908 8911 8914 8917 8920 8922 8925 8928 8931 8934 8937 8939 8942 8945 8947 8950 8953 8956 8959 8961 8964 8967 8970 8973 8976 8979 8981 8984 8986 8989 8991 8993 8996 8998 9001 9004 9007 9009 9012 9015 9018 9021 9024 9026 9029 9032 9035 9037 9040 9043 9046 9049 9051 9053 9055 9058 9061 9064 9067 9069 9071 9074 9076 9079 9082 9085 9088 9091 9094 9096 9099 9101 9104 9107 9109 9112 9115 9118 9120 9123 9126 9128 9131 9134 9137 9140 9143 9146 9149 9152 9155 9158 9161 9164 9166 9169 9172 9175 9178 9180 9183 9186 9189 9192 9194 9197 9200 9203 9206 9209 9212 9215 9218 9221 9223 9225 9227 9230 9233 9236 9238 9240 9243 9246 9248 9251 9253 9256 9259 9262 9265 9268 9271 9274 9276 9279 9282 9285 9288 9291 9294 9297 9300 9303 9306 9309 9312 9315 9318 9321 9324 9326 9329 9332 9335 9338 9341 9344 9347 9350 9353 9355 9358 9361 9363 9366 9368 9371 9373 9376 9379 9381 9384 9387 9390 9392 9394 9397 9400 9402 9405 9408 9411 9413 9416 9419 9422 9425 9427 9430 9433 9436 9439 9442 9445 9448 9451 9454 9457 9460 9462 9464 9467 9470 9473 9476 9479 9482 9485 9488 9491 9494 9497 9500 9503 9506 9509 9512 9515 9518 9521 9524 9527 9530 9533 9536 9539 9542 9545 9548 9551 9554 9557 9560 9562 9565 9568 9571 9574 9577 9580 9583 9586 9589 9592 9595 9598 9601 9604 9607 9610 9613 9616 9619 9621 9624 9627 9630 9633 9636 9639 9641 9643 9646 9649 9651 9653 9656 9659 9662 9664 9667 9670 9673 9676 9679 9682 9685 9688 9691 9694 9697 9700 9703 9706 9709 9712 9715 9718 9721 9724 9727 9730 9733 9735 9738 9740 9743 9745 9748 9751 9754 9757 9760 9763 9765 9768 9770 9772 9775 9778 9780 9783 9786 9789 9792 9795 9798 9800 9802 9805 9808 9810 9812 9815 9818 9820 9822 9825 9828 9831 9834 9837 9840 9843 9846 9848 9851 9854 9857 9860 9863 9865 9868 9871 9873 9876 9879 9882 9884 9887 9890 9893 9896 9899 9902 9905 9908 9911 9914 9917 9920 9923 9926 9929 9932 9935 9938 9941 9944 9947 9950 9953 9956 9959 9962 9965 9968 9971 9974 9977 9980 9983 9986 9988 9991 9994 9996 9999 10001 10003 10006 10009 10012 10015 10018 10021 10024 10027 10030 10032 10035 10038 10041 10044 10047 10049 10052 10055 10058 10061 10064 10067 10070 10072 10075 10078 10081 10084 10087 10090 10093 10096 10098 10101 10104 10107 10110 10113 10115 10118 10121 10124 10127 10130 10133 10136 10139 10142 10145 10148 10151 10154 10157 10160 10163 10166 10169 10172 10175 10178 10181 10184 10187 10190 10193 10196 10199 10202 10205 10207 10209 10212 10215 10218 10221 10224 10227 10230 10232 10235 10238 10241 10243 10246 10248 10251 10254 10257 10260 10263 10266 10269 10272 10275 10278 10281 10284 10287 10290 10293 10296 10299 10302 10305 10308 10311 10313 10316 10319 10322 10325 10328 10331 10333 10336 10339 10342 10345 10348 10351 10354 10356 10359 10362 10364 10367 10370 10373 10376 10379 10382 10384 10387 10390 10393 10395 10398 10401 10403 10405 10408 10411 10414 10417 10420 10423 10426 10429 10432 10435 10438 10441 10444 10447 10450 10453 10456 10459 10462 10465 10468 10471 10474 10477 10480 10483 10486 10489 10491 10494 10497 10500 10503 10506 10509 10512 10515 10518 10521 10524 10527 10530 10533 10536 10539 10542 10545 10548 10550 10553 10556 10559 10561 10563 10566 10569 10572 10575 10578 10580 10583 10586 10589 10591 10594 10597 10600 10603 10606 10608 10611 10614 10617 10620 10623 10626 10629 10632 10635 10638 10641 10644 10647 10650 10653 10656 10659 10662 10665 10668 10671 10673 10676 10679 10682 10685 10688 10691 10693 10696 10699 10702 10705 10708 10711 10714 10717 10720 10723 10726 10729 10731 10734 10737 10740 10743 10745 10748 10750 10753 10756 10759 10762 10765 10768 10771 10774 10777 10780 10783 10786 10789 10791 10794 10797 10800 10803 10806 10808 10811 10814 10817 10820 10823 10826 10828 10831 10834 10837 10840 10843 10846 10849 10852 10855 10858 10861 10864 10866 10869 10872 10874 10877 10880 10882 10885 10888 10890 10893 10896 10899 10902 10905 10908 10911 10914 10917 10920 10922 10925 10928 10931 10934 10937 10940 10943 10946 10948 10951 10954 10957 10959 10962 10965 10968 10970 10973 10976 10978 10981 10984 10987 10989 10992 10995 10998 11001 11004 11006 11009 11011 11014 11017 11020 11023 11025 11027 11030 11033 11036 11038 11041 11044 11047 11050 11052 11055 11058 11061 11064 11067 11070 11073 11076 11079 11082 11085 11088 11091 11094 11097 11099 11102 11105 11107 11109 11112 11115 11118 11121 11123 11126 11129 11132 11135 11138 11141 11143 11146 11149 11152 11155 11158 11161 11163 11166 11169 11172 11175 11178 11181 11184 11187 11189 11192 11195 11198 11201 11204 11207 11210 11213 11216 11219 11221 11224 11227 11229 11232 11235 11237 11240 11243 11246 11249 11252 11254 11256 11259 11262 11264 11266 11269 11271 11274 11276 11279 11281 11283 11286 11289 11291 11294 11296 11299 11301 11304 11306 11309 11311 11314 11317 11319 11322 11324 11327 11329 11332 11335 11338 11341 11344 11347 11349 11352 11355 11358 11360 11363 11366 11369 11372 11375 11378 11381 11384 11387 11389 11392 11395 11397 11400 11402 11405 11407 11410 11413 11416 11418 11420 11423 11426 11429 11432 11435 11438 11441 11444 11447 11450 11453 11455 11458 11461 11464 11467 11470 11472 11475 11478 11481 11484 11487 11490 11493 11496 11499 11502 11505 11508 11511 11514 11517 11520 11523 11525 11528 11531 11534 11537 11540 11543 11545 11548 11551 11554 11556 11559 11562 11564 11567 11570 11573 11575 11578 11580 11582 11585 11588 11591 11594 11597 11600 11603 11606 11609 11611 11614 11617 11620 11623 11626 11629 11632 11634 11637 11639 11642 11644 11647 11650 11653 11656 11659 11662 11665 11668 11671 11674 11677 11680 11683 11686 11689 11692 11695 11698 11701 11704 11707 11710 11713 11716 11719 11722 11725 11728 11731 11734 11737 11740 11743 11746 11749 11752 11755 11757 11760 11763 11765 11767 11770 11773 11776 11779 11781 11784 11787 11790 11793 11796 11798 11801 11804 11806 11808 11811 11814 11817 11820 11823 11826 11828 11831 11833 11836 11839 11841 11843 11846 11848 11851 11854 11857 11859 11862 11865 11868 11871 11873 11876 11879 11882 11884 11887 11890 11892 11894 11897 11900 11903 11905 11908 11911 11914 11917 11919 11922 11925 11927 11930 11933 11936 11938 11941 11944 11946 11949 11952 11955 11957 11960 11962 11965 11968 11970 11973 11976 11978 11980 11983 11986 11988 11991 11993 11995 11998 12001 12004 12007 12009 12012 12015 12018 12021 12023 12026 12029 12032 12035 12038 12041 12044 12047 12050 12053 12056 12059 12061 12064 12067 12070 12073 12075 12078 12080 12083 12086 12089 12092 12095 12097 12099 12101 12104 12107 12110 12113 12116 12119 12122 12125 12127 12130 12133 12136 12139 12142 12145 12147 12150 12153 12156 12159 12161 12164 12167 12170 12173 12176 12179 12182 12185 12188 12191 12194 12197 12200 12203 12206 12209 12212 12215 12217 12220 12222 12225 12228 12230 12232 12235 12237 12240 12243 12245 12248 12250 12253 12255 12258 12260 12263 12266 12269 12272 12274 12277 12280 12283 12285 12288 12291 12294 12297 12300 12303 12306 12309 12312 12315 12318 12321 12324 12327 12330 12333 12336 12339 12342 12345 12348 12351 12354 12357 12360 12362 12365 12368 12371 12374 12377 12379 12382 12385 12388 12391 12394 12397 12400 12403 12406 12409 12412 12414 12417 12420 12423 12426 12429 12431 12434 12437 12439 12441 12444 12447 12450 12452 12455 12458 12460 12462 12465 12467 12470 12473 12476 12479 12482 12485 12488 12491 12494 12497 12500 12503 12506 12509 12512 12515 12517 12520 12523 12526 12529 12531 12534 12537 12540 12543 12546 12549 12552 12555 12557 12559 12562 12565 12567 12570 12573 12576 12579 12582 12585 12588 12591 12594 12596 12598 12601 12604 12606 12609 12612 12615 12617 12620 12623 12626 12629 12632 12635 12638 12641 12644 12647 12650 12653 12656 12659 12662 12665 12668 12671 12674 12677 12680 12683 12686 12689 12692 12695 12697 12700 12703 12706 12709 12712 12715 12718 12721 12724 12727 12730 12733 12736 12739 12742 12745 12748 12751 12754 12757 12759 12762 12765 12768 12770 12772 12775 12778 12781 12783 12786 12789 12791 12794 12797 12800 12803 12806 12808 12811 12813 12816 12819 12822 12825 12828 12831 12834 12837 12839 12842 12845 12848 12850 12853 12856 12858 12861 12863 12866 12869 12872 12874 12877 12880 12883 12885 12888 12891 12894 12897 12900 12903 12906 12909 12912 12915 12918 12921 12924 12927 12930 12933 12936 12938 12941 12944 12947 12950 12953 12956 12959 12962 12965 12967 12970 12973 12976 12979 12982 12985 12988 12991 12993 12996 12999 13002 13005 13008 13011 13014 13017 13020 13023 13026 13029 13032 13034 13037 13040 13043 13045 13048 13051 13054 13057 13060 13063 13066 13069 13072 13075 13078 13081 13084 13087 13090 13093 13096 13099 13102 13104 13107 13110 13113 13115 13118 13120 13123 13126 13129 13131 13134 13137 13140 13142 13144 13147 13150 13153 13156 13159 13162 13165 13168 13171 13174 13177 13180 13183 13186 13189 13192 13195 13198 13201 13204 13207 13210 13212 13215 13218 13221 13224 13226 13229 13232 13235 13238 13240 13243 13246 13249 13252 13255 13258 13261 13263 13266 13269 13272 13275 13277 13280 13283 13286 13289 13292 13295 13297 13300 13303 13306 13309 13312 13315 13317 13320 13323 13326 13328 13331 13334 13337 13340 13343 13346 13349 13352 13355 13357 13360 13363 13366 13369 13372 13375 13377 13380 13383 13386 13389 13392 13395 13398 13401 13404 13407 13410 13412 13415 13418 13420 13423 13426 13429 13432 13435 13437 13440 13443 13445 13448 13451 13454 13457 13460 13463 13466 13468 13470 13473 13476 13479 13482 13484 13487 13490 13493 13496 13499 13502 13504 13507 13510 13513 13516 13519 13522 13525 13528 13531 13534 13536 13539 13542 13545 13548 13551 13554 13557 13560 13563 13566 13569 13572 13574 13577 13579 13582 13585 13588 13590 13593 13596 13598 13601 13604 13607 13610 13612 13615 13618 13621 13624 13627 13629 13632 13635 13638 13641 13644 13647 13650 13653 13655 13658 13661 13664 13667 13669 13672 13675 13678 13681 13684 13687 13690 13692 13695 13698 13701 13704 13707 13710 13713 13716 13719 13722 13724 13727 13730 13733 13735 13738 13740 13743 13746 13749 13752 13755 13758 13760 13763 13765 13768 13770 13773 13776 13779 13782 13784 13787 13790 13793 13796 13799 13802 13805 13808 13811 13814 13817 13820 13823 13826 13828 13831 13833 13836 13839 13842 13845 13848 13851 13854 13856 13859 13862 13865 13868 13871 13874 13877 13880 13883 13886 13889 13892 13895 13897 13900 13903 13906 13909 13911 13914 13917 13920 13923 13926 13929 13932 13935 13938 13941 13944 13947 13950 13953 13956 13959 13962 13965 13968 13971 13974 13977 13980 13983 13985 13988 13991 13994 13997 13999 14002 14005 14008 14010 14013 14016 14018 14021 14024 14026 14029 14032 14035 14038 14041 14044 14047 14050 14053 14056 14059 14062 14065 14068 14071 14073 14076 14079 14081 14084 14087 14090 14093 14096 14099 14102 14104 14107 14110 14113 14116 14119 14121 14124 14127 14130 14132 14135 14138 14141 14143 14146 14149 14152 14155 14158 14161 14164 14166 14169 14172 14175 14177 14180 14182 14184 14187 14190 14193 14196 14199 14201 14204 14207 14210 14213 14216 14219 14222 14225 14228 14231 14233 14236 14239 14242 14245 14248 14251 14254 14257 14260 14263 14266 14269 14272 14275 14278 14281 14284 14287 14290 14293 14296 14299 14302 14305 14308 14311 14314 14317 14320 14323 14326 14329 14332 14335 14338 14341 14344 14346 14349 14352 14355 14358 14361 14364 14367 14370 14373 14376 14379 14382 14385 14388 14391 14394 14396 14399 14402 14405 14408 14411 14414 14417 14420 14423 14425 14428 14431 14434 14437 14440 14443 14446 14448 14451 14454 14457 14460 14463 14466 14469 14472 14475 14478 14481 14484 14487 14490 14493 14496 14499 14502 14505 14508 14511 14513 14516 14519 14522 14525 14528 14531 14534 14537 14540 14543 14546 14549 14552 14555 14558 14561 14564 14566 14569 14572 14575 14578 14581 14584 14587 14590 14593 14596 14599 14602 14605 14608 14611 14614 14617 14620 14623 14626 14629 14632 14635 14638 14641 14644 14647 14650 14653 14656 14659 14662 14665 14668 14671 14674 14677 14680 14683 14686 14689 14692 14695 14698 14701 14704 14706 14709 14712 14715 14718 14721 14724 14727 14730 14733 14736 14739 14742 14745 14747 14750 14752 14755 14758 14761 14764 14767 14769 14772 14775 14778 14781 14784 14786 14788 14791 14794 14797 14800 14803 14806 14809 14812 14815 14818 14821 14824 14827 14830 14833 14836 14839 14841 14843 14846 14849 14852 14855 14858 14861 14863 14866 14868 14871 14874 14877 14880 14883 14886 14889 14892 14895 14897 14900 14903 14906 14909 14912 14915 14918 14921 14924 14927 14930 14933 14936 14939 14942 14945 14948 14951 14954 14956 14959 14962 14965 14968 14971 14973 14976 14978 14981 14984 14987 14990 14993 14996 14999 15001 15004 15007 15010 15012 15015 15018 15021 15023 15026 15029 15031 15034 15037 15040 15042 15045 15048 15050 15053 15055 15058 15060 15063 15066 15068 15071 15074 15077 15080 15083 15086 15089 15092 15095 15098 15101 15104 15107 15110 15113 15116 15119 15122 15125 15128 15131 15133 15136 15138 15141 15144 15147 15150 15153 15156 15159 15161 15164 15167 15170 15173 15176 15179 15182 15185 15188 15191 15194 15197 15200 15203 15206 15209 15212 15215 15218 15220 15223 15226 15229 15231 15234 15237 15240 15243 15246 15249 15252 15255 15258 15261 15263 15266 15269 15272 15275 15277 15280 15283 15285 15288 15291 15294 15297 15300 15302 15305 15308 15311 15314 15316 15319 15321 15324 15327 15329 15332 15335 15338 15341 15344 15347 15350 15352 15355 15358 15360 15363 15365 15368 15371 15374 15377 15380 15383 15386 15389 15392 15395 15398 15401 15404 15407 15410 15413 15416 15419 15421 15424 15427 15430 15433 15436 15439 15442 15444 15447 15450 15453 15456 15458 15461 15464 15467 15470 15473 15476 15479 15482 15485 15487 15490 15493 15496 15499 15501 15504 15507 15510 15513 15516 15519 15522 15525 15528 15531 15534 15537 15539 15542 15545 15548 15551 15554 15557 15560 15563 15566 15568 15571 15574 15577 15580 15583 15586 15589 15592 15595 15598 15601 15604 15606 15609 15612 15614 15617 15620 15623 15626 15629 15632 15635 15638 15641 15643 15645 15647 15650 15653 15656 15658 15661 15664 15667 15670 15673 15676 15678 15681 15684 15687 15689 15691 15694 15697 15700 15703 15706 15709 15712 15715 15718 15721 15724 15727 15729 15732 15735 15738 15740 15742 15745 15748 15751 15754 15757 15759 15762 15765 15768 15771 15773 15776 15779 15782 15785 15787 15790 15793 15796 15799 15802 15804 15806 15808 15811 15814 15817 15819 15821 15824 15827 15830 15833 15836 15839 15842 15845 15848 15850 15852 15855 15858 15861 15863 15865 15868 15871 15874 15877 15880 15883 15886 15889 15892 15895 15898 15901 15904 15907 15910 15913 15916 15918 15921 15923 15926 15929 15932 15935 15937 15940 15943 15946 15949 15952 15955 15958 15960 15963 15966 15969 15972 15975 15978 15981 15983 15986 15989 15991 15994 15996 15998 16001 16004 16007 16009 16011 16014 16017 16020 16022 16024 16027 16030 16033 16036 16039 16042 16045 16048 16051 16054 16056 16059 16062 16065 16068 16071 16074 16077 16079 16082 16085 16088 16091 16093 16096 16099 16102 16105 16108 16111 16113 16116 16119 16122 16125 16127 16130 16132 16135 16138 16141 16144 16147 16150 16153 16156 16159 16162 16165 16168 16171 16174 16176 16179 16182 16185 16188 16191 16194 16197 16199 16202 16205 16208 16211 16213 16216 16219 16222 16224 16227 16230 16233 16236 16239 16242 16245 16248 16251 16254 16257 16260 16263 16266 16269 16272 16275 16278 16281 16284 16287 16290 16292 16295 16297 16300 16303 16305 16308 16311 16314 16316 16319 16322 16324 16327 16330 16333 16336 16339 16342 16345 16348 16351 16354 16357 16360 16363 16366 16369 16372 16375 16378 16381 16384 16386 16388 16390 16393 16396 16399 16402 16405 16408 16411 16414 16417 16420 16423 16426 16429 16431 16434 16437 16440 16442 16445 16448 16450 16453 16456 16459 16462 16464 16467 16470 16472 16474 16477 16480 16483 16486 16488 16491 16494 16496 16499 16501 16504 16507 16510 16513 16516 16519 16522 16525 16528 16531 16534 16537 16539 16542 16545 16548 16551 16554 16557 16560 16562 16565 16567 16570 16573 16576 16579 16581 16584 16587 16590 16593 16596 16599 16602 16605 16608 16611 16614 16617 16620 16623 16626 16629 16632 16635 16638 16641 16644 16647 16650 16652 16655 16658 16661 16663 16666 16668 16671 16674 16677 16679 16682 16685 16688 16691 16694 16696 16699 16702 16704 16707 16710 16713 16716 16719 16722 16725 16728 16730 16733 16736 16739 16742 16745 16747 16750 16753 16756 16759 16762 16765 16768 16771 16774 16777 16780 16783 16786 16789 16791 16794 16797 16800 16803 16805 16808 16811 16814 16817 16820 16823 16826 16829 16832 16835 16838 16841 16843 16846 16849 16852 16855 16857 16860 16863 16866 16869 16872 16875 16878 16881 16884 16887 16890 16893 16896 16898 16901 16904 16906 16909 16912 16915 16917 16920 16923 16926 16929 16932 16935 16938 16941 16944 16947 16950 16953 16956 16958 16960 16963 16965 16967 16970 16973 16976 16978 16980 16983 16985 16988 16990 16993 16995 16998 17001 17004 17006 17009 17011 17014 17017 17020 17023 17025 17028 17031 17034 17037 17040 17043 17045 17048 17051 17054 17057 17060 17062 17065 17068 17070 17073 17076 17078 17081 17084 17086 17089 17092 17095 17098 17101 17103 17106 17108 17111 17114 17117 17120 17123 17126 17129 17132 17135 17138 17141 17144 17147 17149 17152 17155 17157 17160 17163 17166 17169 17172 17175 17178 17181 17184 17186 17189 17192 17195 17198 17201 17204 17207 17210 17213 17215 17218 17221 17223 17226 17228 17231 17234 17237 17240 17243 17246 17249 17251 17254 17257 17260 17263 17266 17269 17272 17274 17277 17279 17282 17285 17287 17290 17293 17296 17298 17301 17304 17307 17310 17312 17315 17318 17321 17324 17327 17329 17332 17335 17338 17341 17344 17347 17350 17353 17356 17359 17362 17365 17368 17371 17374 17377 17380 17383 17386 17389 17392 17394 17397 17400 17402 17405 17408 17411 17413 17416 17419 17422 17425 17427 17430 17433 17436 17439 17442 17445 17448 17451 17454 17457 17460 17463 17466 17469 17472 17475 17478 17481 17484 17487 17490 17493 17496 17498 17501 17504 17507 17510 17513 17516 17518 17521 17524 17527 17530 17533 17536 17539 17542 17545 17548 17551 17554 17557 17559 17562 17564 17567 17570 17572 17575 17578 17581 17584 17586 17588 17591 17593 17596 17598 17601 17604 17607 17610 17613 17615 17618 17621 17623 17625 17628 17631 17634 17637 17640 17642 17645 17648 17650 17653 17656 17659 17662 17665 17668 17671 17674 17676 17678 17681 17684 17687 17689 17692 17694 17697 17700 17703 17706 17709 17711 17714 17716 17719 17722 17725 17728 17731 17733 17735 17738 17741 17744 17747 17749 17752 17755 17758 17761 17763 17766 17769 17772 17775 17778 17781 17784 17787 17790 17793 17796 17799 17802 17805 17808 17811 17814 17816 17819 17822 17824 17827 17830 17833 17835 17838 17841 17844 17847 17850 17853 17856 17859 17862 17865 17868 17871 17874 17877 17880 17883 17886 17889 17892 17894 17897 17900 17903 17906 17909 17912 17915 17918 17921 17924 17927 17930 17933 17936 17938 17940 17943 17946 17949 17951 17954 17957 17960 17963 17966 17968 17971 17974 17977 17980 17983 17986 17989 17992 17995 17998 18001 18003 18006 18009 18011 18014 18017 18020 18023 18026 18029 18032 18035 18038 18041 18043 18046 18049 18052 18054 18057 18059 18062 18064 18067 18070 18073 18075 18077 18080 18082 18085 18088 18090 18093 18096 18098 18100 18103 18106 18109 18111 18114 18117 18119 18122 18124 18127 18130 18133 18135 18138 18141 18143 18145 18148 18150 18153 18156 18158 18161 18163 18166 18169 18172 18175 18178 18181 18184 18187 18190 18192 18195 18198 18201 18204 18207 18209 18212 18215 18218 18221 18224 18227 18230 18233 18236 18239 18241 18244 18247 18250 18253 18255 18257 18260 18263 18265 18268 18270 18273 18276 18279 18282 18285 18287 18290 18293 18295 18298 18300 18303 18306 18309 18312 18315 18318 18321 18323 18326 18329 18332 18335 18338 18341 18344 18347 18350 18352 18355 18357 18360 18362 18365 18367 18370 18373 18376 18379 18381 18384 18387 18390 18393 18396 18398 18400 18403 18406 18409 18412 18415 18418 18420 18423 18426 18429 18432 18435 18437 18440 18443 18446 18449 18451 18454 18457 18459 18462 18464 18467 18470 18473 18475 18478 18480 18483 18486 18488 18490 18492 18495 18498 18501 18504 18507 18510 18512 18514 18516 18519 18522 18525 18528 18530 18533 18535 18538 18540 18543 18546 18549 18552 18555 18558 18560 18563 18566 18569 18572 18575 18578 18581 18584 18587 18590 18593 18596 18599 18602 18605 18608 18611 18614 18617 18620 18623 18626 18629 18632 18635 18638 18641 18644 18647 18650 18653 18656 18659 18662 18665 18668 18671 18674 18677 18680 18683 18686 18689 18692 18695 18698 18701 18704 18707 18709 18712 18715 18718 18720 18722 18725 18728 18731 18734 18737 18740 18743 18746 18749 18752 18755 18758 18761 18764 18767 18770 18773 18776 18779 18781 18784 18787 18790 18793 18796 18799 18802 18804 18807 18810 18812 18815 18818 18820 18823 18826 18828 18831 18833 18836 18839 18841 18844 18847 18850 18852 18855 18857 18860 18862 18864 18867 18870 18873 18875 18877 18880 18883 18885 18888 18891 18893 18896 18899 18902 18905 18908 18911 18914 18917 18920 18923 18926 18929 18931 18934 18937 18940 18943 18945 18948 18951 18954 18957 18959 18962 18965 18968 18971 18974 18977 18980 18983 18986 18988 18991 18993 18996 18999 19002 19005 19007 19010 19013 19016 19018 19021 19024 19027 19030 19033 19036 19038 19041 19044 19046 19049 19052 19055 19057 19060 19063 19066 19069 19072 19075 19078 19080 19083 19086 19089 19092 19095 19097 19100 19103 19106 19109 19112 19115 19118 19121 19124 19127 19130 19133 19136 19139 19142 19144 19147 19150 19153 19156 19159 19161 19164 19167 19169 19172 19174 19177 19180 19183 19186 19188 19190 19193 19196 19198 19201 19204 19207 19210 19213 19216 19219 19222 19225 19228 19231 19233 19236 19238 19241 19244 19247 19250 19253 19255 19258 19261 19264 19266 19269 19272 19275 19277 19280 19283 19286 19289 19292 19295 19298 19301 19304 19307 19310 19313 19316 19318 19321 19324 19327 19330 19333 19336 19339 19341 19344 19346 19349 19352 19355 19358 19361 19364 19367 19369 19371 19374 19377 19380 19383 19386 19389 19392 19395 19398 19400 19403 19406 19409 19412 19415 19418 19420 19422 19424 19427 19429 19432 19435 19438 19441 19444 19447 19449 19452 19454 19457 19459 19462 19464 19467 19470 19473 19476 19479 19482 19484 19487 19490 19492 19495 19498 19501 19504 19506 19509 19512 19515 19518 19521 19524 19527 19530 19533 19536 19539 19542 19545 19548 19551 19554 19557 19560 19563 19566 19569 19571 19574 19576 19579 19582 19585 19588 19591 19594 19597 19600 19603 19606 19609 19612 19615 19618 19621 19624 19627 19630 19633 19636 19639 19642 19645 19648 19651 19654 19657 19660 19663 19666 19669 19672 19675 19678 19681 19684 19687 19690 19693 19696 19699 19702 19705 19708 19711 19714 19717 19720 19723 19726 19729 19732 19735 19738 19741 19744 19747 19750 19752 19755 19758 19761 19764 19767 19770 19773 19776 19779 19782 19785 19788 19791 19794 19797 19800 19803 19806 19809 19812 19815 19818 19821 19823 19826 19829 19832 19834 19837 19839 19842 19845 19848 19851 19854 19857 19860 19863 19866 19869 19872 19875 19878 19881 19884 19887 19890 19893 19896 19899 19902 19905 19908 19911 19914 19917 19920 19923 19926 19929 19932 19935 19938 19941 19944 19947 19950 19953 19956 19958 19961 19963 19966 19969 19972 19975 19978 19981 19984 19987 19990 19993 19996 19999 20002 20005 20008 20011 20014 20017 20020 20023 20026 20029 20032 20035 20038 20040 20043 20046 20049 20052 20055 20058 20061 20064 20067 20070 20073 20076 20079 20082 20085 20088 20091 20094 20097 20100 20103 20106 20109 20112 20115 20118 20121 20124 20127 20130 20133 20136 20139 20142 20145 20148 20151 20154 20157 20160 20163 20166 20169 20172 20175 20178 20181 20184 20187 20190 20193 20196 20199 20202 20205 20208 20211 20214 20217 20220 20223 20226 20229 20232 20235 20238 20241 20244 20247 20249 20252 20255 20258 20261 20264 20267 20270 20272 20275 20278 20280 20283 20286 20289 20292 20295 20298 20301 20304 20307 20310 20313 20316 20319 20322 20325 20328 20331 20334 20337 20340 20342 20345 20348 20351 20354 20357 20360 20363 20366 20369 20372 20375 20378 20381 20384 20387 20390 20393 20396 20399 20402 20405 20408 20411 20414 20417 20420 20423 20426 20429 20432 20435 20438 20440 20443 20446 20449 20452 20454 20457 20459 20462 20465 20468 20471 20474 20477 20479 20482 20485 20487 20490 20493 20495 20497 20500 20502 20505 20508 20511 20513 20516 20519 20522 20525 20528 20531 20534 20537 20540 20543 20546 20549 20552 20555 20558 20560 20563 20566 20569 20572 20575 20578 20581 20584 20586 20589 20592 20595 20598 20601 20604 20607 20610 20613 20616 20619 20622 20625 20628 20631 20634 20637 20640 20643 20646 20649 20652 20655 20658 20661 20664 20667 20670 20673 20676 20679 20682 20685 20688 20691 20694 20696 20699 20702 20705 20708 20711 20714 20717 20719 20722 20725 20727 20730 20732 20735 20738 20741 20744 20747 20750 20753 20756 20759 20762 20765 20767 20769 20772 20775 20777 20780 20783 20785 20787 20790 20793 20796 20799 20801 20804 20806 20809 20812 20814 20817 20819 20821 20824 20826 20829 20831 20834 20837 20840 20843 20846 20849 20852 20854 20857 20859 20862 20865 20868 20871 20874 20876 20879 20882 20885 20887 20890 20893 20895 20898 20900 20903 20905 20907 20910 20913 20915 20918 20921 20924 20927 20930 20933 20935 20938 20941 20944 20947 20950 20953 20956 20959 20961 20963 20966 20969 20972 20974 20977 20980 20983 20986 20988 20990 20993 20995 20998 21001 21004 21006 21009 21012 21015 21018 21021 21024 21027 21030 21033 21036 21039 21042 21045 21048 21051 21054 21056 21059 21062 21065 21068 21071 21074 21076 21079 21081 21084 21087 21090 21092 21094 21097 21100 21102 21105 21107 21110 21113 21116 21119 21122 21125 21128 21131 21134 21137 21140 21143 21145 21147 21150 21153 21156 21159 21162 21164 21167 21170 21173 21176 21179 21182 21185 21187 21190 21193 21196 21198 21201 21203 21206 21209 21211 21214 21217 21220 21223 21226 21229 21232 21235 21238 21240 21243 21246 21248 21251 21254 21257 21260 21263 21266 21269 21272 21275 21278 21281 21283 21286 21289 21292 21295 21298 21301 21304 21307 21310 21313 21316 21319 21322 21325 21328 21331 21334 21337 21340 21343 21346 21349 21351 21354 21357 21360 21363 21366 21369 21372 21375 21378 21381 21384 21386 21389 21392 21395 21398 21400 21403 21406 21409 21412 21415 21418 21421 21424 21427 21430 21433 21435 21438 21441 21444 21447 21450 21452 21455 21457 21460 21463 21466 21469 21472 21475 21478 21481 21484 21486 21489 21492 21494 21497 21500 21502 21505 21508 21511 21514 21516 21519 21522 21525 21528 21531 21534 21537 21540 21543 21546 21549 21552 21555 21558 21561 21564 21567 21570 21573 21576 21579 21581 21584 21587 21589 21592 21594 21597 21600 21603 21606 21609 21612 21615 21618 21621 21623 21626 21629 21631 21633 21635 21638 21641 21644 21646 21649 21652 21655 21658 21661 21664 21666 21668 21671 21673 21676 21679 21681 21684 21687 21689 21692 21695 21698 21701 21703 21706 21709 21712 21715 21717 21720 21723 21726 21729 21732 21735 21738 21741 21744 21747 21750 21752 21755 21758 21760 21763 21765 21767 21770 21773 21775 21777 21779 21782 21785 21788 21791 21794 21797 21800 21803 21806 21809 21811 21814 21817 21820 21823 21826 21829 21832 21835 21838 21840 21843 21846 21849 21852 21855 21857 21860 21863 21866 21869 21872 21875 21878 21881 21884 21887 21889 21892 21895 21898 21901 21904 21907 21910 21913 21916 21919 21922 21925 21928 21931 21934 21937 21940 21943 21946 21949 21952 21955 21958 21961 21963 21965 21968 21971 21974 21977 21980 21983 21986 21989 21991 21994 21997 22000 22003 22006 22009 22012 22015 22018 22021 22024 22027 22030 22033 22036 22039 22041 22044 22047 22050 22053 22055 22058 22061 22064 22066 22068 22071 22074 22077 22080 22083 22086 22088 22091 22093 22096 22099 22102 22104 22107 22110 22113 22116 22119 22122 22125 22128 22130 22133 22135 22137 22140 22143 22146 22149 22152 22155 22158 22161 22164 22167 22170 22173 22175 22178 22181 22183 22186 22188 22191 22194 22197 22200 22203 22206 22209 22212 22215 22218 22221 22224 22227 22230 22233 22236 22239 22242 22245 22248 22251 22254 22257 22259 22262 22265 22268 22271 22274 22276 22279 22282 22285 22288 22291 22294 22297 22300 22303 22306 22308 22311 22314 22317 22319 22322 22325 22328 22331 22334 22337 22340 22343 22346 22349 22352 22354 22356 22359 22362 22365 22368 22371 22373 22376 22379 22382 22384 22387 22390 22393 22396 22399 22402 22405 22408 22411 22414 22416 22419 22422 22425 22428 22431 22434 22437 22439 22441 22444 22446 22449 22452 22455 22458 22460 22463 22466 22469 22472 22475 22477 22480 22483 22486 22489 22492 22495 22498 22501 22504 22507 22509 22512 22515 22518 22521 22524 22527 22530 22533 22536 22539 22541 22544 22547 22550 22553 22556 22559 22562 22564 22567 22570 22573 22576 22579 22582 22585 22588 22591 22594 22597 22600 22603 22606 22609 22612 22615 22618 22621 22624 22626 22629 22632 22635 22637 22640 22643 22646 22649 22652 22655 22658 22661 22664 22667 22670 22673 22676 22678 22681 22683 22685 22688 22690 22692 22695 22698 22701 22704 22707 22709 22712 22715 22718 22721 22724 22727 22730 22732 22735 22738 22740 22743 22746 22748 22751 22754 22756 22759 22762 22764 22766 22768 22770 22773 22776 22778 22780 22783 22786 22788 22791 22794 22796 22799 22802 22805 22808 22810 22812 22814 22816 22819 22822 22825 22827 22830 22832 22835 22837 22840 22842 22844 22847 22850 22853 22856 22859 22862 22865 22867 22870 22873 22875 22878 22880 22883 22886 22888 22890 22893 22896 22899 22902 22905 22908 22911 22914 22917 22920 22923 22926 22929 22932 22935 22938 22941 22943 22946 22949 22952 22955 22958 22961 22964 22967 22970 22973 22976 22979 22982 22985 22988 22991 22994 22996 22999 23002 23005 23008 23011 23014 23017 23020 23023 23026 23029 23032 23035 23038 23040 23042 23045 23048 23051 23054 23056 23059 23061 23064 23067 23070 23072 23074 23077 23079 23082 23085 23088 23091 23094 23097 23100 23103 23106 23109 23112 23115 23118 23121 23124 23127 23130 23133 23136 23138 23141 23143 23146 23149 23152 23155 23157 23160 23163 23166 23169 23172 23175 23178 23181 23184 23187 23190 23193 23196 23199 23202 23205 23208 23211 23214 23217 23219 23222 23225 23228 23231 23234 23237 23240 23243 23246 23249 23252 23255 23258 23261 23263 23266 23269 23272 23275 23278 23281 23284 23287 23290 23293 23296 23299 23302 23305 23308 23311 23314 23317 23320 23323 23326 23329 23332 23335 23338 23341 23344 23347 23350 23353 23356 23359 23362 23365 23368 23371 23374 23377 23380 23383 23386 23389 23392 23395 23398 23401 23404 23407 23410 23413 23416 23419 23422 23425 23428 23431 23434 23437 23440 23443 23446 23449 23451 23454 23457 23460 23462 23465 23468 23470 23473 23476 23479 23482 23485 23488 23491 23494 23497 23500 23503 23505 23508 23511 23514 23517 23519 23522 23525 23528 23531 23534 23537 23540 23543 23546 23549 23552 23555 23558 23561 23564 23567 23570 23573 23576 23579 23582 23585 23588 23591 23594 23597 23600 23603 23606 23608 23611 23614 23617 23620 23622 23625 23628 23631 23634 23637 23640 23643 23646 23649 23652 23654 23657 23660 23662 23665 23668 23671 23674 23677 23680 23683 23686 23689 23692 23695 23698 23700 23703 23706 23709 23712 23715 23718 23721 23724 23726 23729 23732 23735 23738 23741 23744 23747 23750 23753 23756 23758 23761 23763 23766 23769 23772 23774 23777 23780 23783 23785 23788 23790 23793 23795 23797 23800 23803 23806 23809 23812 23814 23817 23820 23823 23826 23829 23832 23835 23838 23841 23844 23847 23850 23853 23856 23859 23862 23865 23868 23871 23874 23877 23880 23883 23885 23888 23891 23893 23896 23899 23902 23904 23907 23909 23912 23915 23918 23921 23924 23927 23930 23933 23936 23939 23942 23945 23947 23950 23953 23956 23959 23962 23965 23968 23971 23974 23977 23980 23983 23986 23989 23992 23995 23998 24001 24004 24006 24009 24012 24015 24018 24021 24024 24027 24030 24033 24036 24039 24042 24045 24048 24051 24054 24057 24060 24063 24066 24069 24072 24075 24078 24081 24084 24087 24089 24092 24095 24098 24101 24104 24107 24110 24113 24116 24119 24122 24125 24128 24131 24134 24137 24140 24143 24145 24148 24151 24154 24156 24159 24162 24165 24167 24169 24172 24175 24178 24181 24184 24186 24189 24192 24195 24198 24201 24204 24207 24209 24211 24214 24217 24220 24222 24225 24227 24230 24233 24236 24239 24242 24245 24247 24249 24252 24255 24257 24259 24262 24265 24268 24271 24274 24277 24280 24283 24286 24289 24291 24294 24297 24300 24303 24306 24309 24311 24314 24317 24320 24323 24326 24329 24332 24335 24338 24341 24344 24347 24350 24353 24356 24359 24362 24364 24367 24370 24373 24376 24378 24381 24384 24386 24389 24392 24395 24398 24401 24404 24407 24410 24413 24416 24419 24421 24424 24426 24429 24431 24434 24437 24440 24443 24446 24449 24452 24455 24458 24461 24464 24467 24470 24473 24476 24479 24482 24485 24488 24490 24493 24496 24498 24501 24504 24507 24509 24512 24515 24517 24520 24523 24526 24529 24531 24534 24537 24540 24543 24546 24549 24552 24554 24557 24560 24563 24566 24569 24572 24575 24578 24581 24584 24587 24590 24593 24596 24599 24602 24605 24608 24611 24614 24617 24620 24623 24626 24629 24632 24635 24638 24641 24643 24646 24649 24652 24655 24658 24661 24664 24667 24670 24673 24676 24679 24682 24685 24688 24691 24694 24697 24700 24703 24706 24709 24712 24715 24718 24721 24724 24727 24730 24733 24736 24739 24742 24745 24748 24751 24754 24756 24758 24760 24763 24766 24768 24771 24774 24777 24779 24782 24784 24787 24790 24793 24796 24799 24801 24804 24807 24810 24813 24816 24819 24822 24824 24827 24830 24833 24836 24839 24842 24845 24848 24851 24854 24857 24860 24863 24866 24868 24871 24874 24877 24879 24882 24884 24887 24890 24893 24896 24899 24902 24905 24908 24910 24913 24916 24919 24922 24925 24928 24931 24933 24936 24938 24941 24943 24946 24949 24952 24955 24958 24961 24964 24967 24969 24972 24975 24977 24979 24981 24984 24986 24989 24991 24994 24997 25000 25003 25006 25009 25012 25015 25018 25021 25024 25027 25030 25033 25036 25039 25042 25045 25048 25051 25054 25056 25059 25062 25064 25066 25069 25072 25075 25077 25080 25083 25086 25089 25092 25095 25098 25100 25103 25105 25108 25111 25114 25117 25119 25122 25125 25127 25130 25133 25136 25139 25142 25145 25148 25150 25153 25156 25158 25161 25164 25167 25169 25172 25175 25178 25181 25184 25187 25190 25193 25196 25198 25201 25204 25207 25210 25213 25216 25218 25221 25224 25226 25229 25232 25235 25238 25240 25243 25246 25249 25252 25255 25258 25260 25262 25264 25267 25270 25273 25275 25278 25280 25283 25285 25288 25291 25294 25297 25300 25303 25305 25308 25311 25314 25316 25319 25322 25325 25327 25330 25333 25336 25339 25342 25345 25348 25351 25354 25357 25360 25363 25365 25368 25371 25374 25376 25379 25382 25385 25388 25391 25393 25395 25398 25401 25403 25406 25408 25410 25412 25415 25418 25421 25423 25426 25429 25432 25435 25438 25440 25443 25446 25449 25452 25455 25458 25461 25464 25467 25470 25473 25476 25478 25481 25484 25487 25490 25493 25496 25498 25501 25504 25506 25509 25512 25514 25517 25520 25523 25526 25529 25531 25534 25537 25539 25542 25544 25547 25549 25552 25555 25558 25561 25564 25567 25569 25572 25575 25578 25581 25583 25586 25589 25592 25595 25598 25601 25604 25607 25610 25613 25615 25618 25621 25624 25627 25630 25632 25635 25638 25641 25644 25647 25650 25653 25656 25659 25662 25665 25668 25671 25674 25677 25679 25682 25685 25688 25691 25694 25696 25699 25701 25704 25707 25710 25713 25716 25718 25721 25724 25727 25730 25733 25735 25738 25741 25744 25747 25750 25752 25755 25758 25761 25764 25767 25770 25773 25776 25779 25782 25784 25787 25789 25792 25794 25797 25800 25802 25805 25808 25811 25814 25817 25820 25823 25826 25828 25831 25833 25836 25839 25842 25845 25848 25851 25854 25857 25860 25863 25865 25868 25871 25874 25877 25880 25883 25886 25889 25892 25895 25897 25900 25903 25906 25908 25911 25913 25915 25918 25921 25924 25926 25929 25932 25935 25937 25939 25942 25945 25948 25951 25954 25957 25960 25963 25966 25969 25971 25973 25976 25979 25982 25985 25988 25990 25993 25996 25999 26002 26005 26008 26011 26014 26017 26020 26022 26025 26027 26029 26031 26034 26037 26040 26043 26046 26049 26052 26055 26057 26060 26063 26066 26069 26072 26075 26078 26081 26084 26087 26090 26093 26096 26099 26102 26105 26108 26111 26114 26117 26120 26123 26126 26129 26132 26135 26138 26141 26144 26146 26149 26152 26155 26158 26160 26163 26166 26169 26172 26175 26178 26181 26184 26186 26189 26192 26195 26198 26201 26204 26207 26210 26212 26215 26218 26221 26224 26227 26230 26233 26236 26239 26242 26245 26248 26251 26254 26257 26260 26263 26266 26269 26272 26275 26278 26281 26284 26287 26290 26292 26295 26298 26301 26304 26307 26310 26312 26315 26317 26320 26323 26325 26328 26331 26334 26336 26339 26341 26344 26347 26350 26352 26355 26358 26361 26363 26366 26369 26372 26375 26378 26381 26383 26386 26389 26392 26395 26398 26401 26404 26407 26410 26413 26416 26419 26422 26425 26428 26431 26434 26437 26440 26443 26446 26449 26452 26455 26458 26461 26464 26466 26469 26471 26474 26477 26480 26483 26485 26488 26491 26494 26497 26500 26503 26506 26509 26512 26515 26518 26521 26524 26526 26529 26532 26534 26537 26540 26542 26545 26548 26551 26554 26557 26559 26562 26565 26568 26571 26574 26577 26580 26583 26585 26588 26590 26593 26596 26599 26602 26605 26607 26609 26612 26615 26617 26620 26623 26626 26628 26631 26634 26637 26640 26643 26646 26649 26651 26654 26657 26660 26663 26666 26669 26672 26675 26678 26681 26684 26687 26690 26693 26696 26699 26701 26704 26707 26710 26713 26716 26718 26721 26723 26726 26729 26732 26735 26738 26741 26744 26747 26750 26753 26756 26759 26761 26764 26766 26769 26772 26775 26778 26781 26784 26786 26788 26791 26794 26797 26800 26803 26806 26809 26812 26815 26818 26821 26824 26827 26830 26833 26836 26839 26842 26845 26848 26851 26853 26856 26859 26861 26864 26867 26870 26873 26876 26878 26881 26884 26887 26890 26893 26896 26898 26901 26904 26907 26910 26913 26916 26919 26922 26925 26928 26931 26934 26937 26940 26943 26946 26948 26951 26954 26956 26959 26962 26965 26968 26970 26973 26976 26979 26982 26985 26988 26991 26994 26997 27000 27003 27005 27008 27011 27014 27017 27020 27023 27026 27029 27032 27035 27038 27041 27044 27047 27050 27053 27056 27059 27062 27064 27067 27070 27073 27076 27079 27082 27085 27088 27091 27094 27097 27100 27102 27105 27108 27111 27114 27117 27120 27123 27126 27129 27132 27135 27138 27141 27143 27145 27148 27151 27154 27157 27160 27163 27165 27168 27171 27174 27177 27180 27183 27186 27189 27192 27195 27198 27201 27204 27207 27210 27213 27216 27219 27222 27225 27228 27231 27234 27237 27240 27243 27246 27249 27252 27255 27258 27261 27264 27267 27270 27272 27275 27278 27281 27284 27287 27290 27293 27296 27298 27301 27304 27307 27310 27313 27316 27319 27322 27325 27328 27331 27334 27336 27339 27342 27345 27348 27350 27353 27355 27358 27361 27364 27367 27370 27373 27376 27379 27381 27384 27387 27390 27393 27396 27399 27402 27405 27408 27411 27413 27416 27419 27422 27424 27427 27430 27432 27435 27438 27441 27444 27446 27449 27452 27454 27457 27460 27463 27466 27469 27472 27475 27478 27480 27483 27486 27489 27491 27494 27497 27500 27503 27506 27509 27512 27514 27517 27519 27522 27524 27527 27529 27531 27534 27537 27540 27542 27544 27546 27549 27552 27554 27557 27560 27563 27565 27568 27571 27574 27577 27579 27582 27585 27588 27591 27594 27597 27600 27603 27606 27609 27612 27615 27618 27621 27624 27627 27630 27633 27636 27639 27642 27645 27648 27651 27654 27657 27660 27663 27666 27669 27672 27675 27678 27681 27684 27687 27690 27693 27695 27698 27701 27704 27707 27710 27713 27716 27719 27721 27724 27727 27730 27733 27735 27738 27741 27743 27746 27749 27751 27754 27757 27760 27763 27765 27768 27771 27774 27777 27780 27782 27785 27788 27791 27794 27797 27800 27803 27806 27809 27812 27815 27818 27821 27823 27825 27828 27831 27834 27836 27839 27842 27845 27848 27851 27854 27857 27860 27863 27866 27869 27872 27875 27878 27880 27883 27886 27889 27892 27895 27898 27900 27903 27906 27908 27911 27914 27917 27920 27923 27926 27929 27932 27935 27938 27940 27943 27946 27949 27952 27955 27957 27960 27963 27966 27969 27972 27975 27978 27981 27984 27987 27989 27992 27995 27998 28001 28004 28007 28010 28013 28016 28019 28022 28025 28028 28031 28034 28036 28039 28042 28045 28048 28051 28054 28057 28060 28063 28066 28069 28072 28075 28078 28081 28084 28087 28090 28093 28096 28099 28102 28105 28107 28110 28112 28115 28118 28121 28123 28126 28129 28132 28135 28138 28141 28144 28147 28150 28152 28155 28158 28161 28163 28166 28169 28172 28175 28178 28181 28184 28187 28190 28193 28196 28199 28202 28205 28208 28211 28213 28216 28219 28222 28225 28228 28230 28233 28236 28239 28241 28244 28246 28249 28252 28255 28258 28261 28264 28266 28269 28272 28275 28278 28281 28284 28287 28290 28293 28296 28299 28302 28305 28308 28311 28314 28317 28320 28323 28326 28329 28332 28335 28338 28341 28344 28347 28349 28352 28355 28357 28360 28363 28366 28369 28372 28375 28378 28380 28383 28386 28389 28392 28394 28397 28400 28402 28405 28408 28411 28414 28417 28420 28422 28425 28428 28431 28433 28436 28439 28442 28444 28447 28450 28453 28456 28459 28461 28464 28467 28470 28473 28476 28478 28481 28484 28487 28490 28493 28496 28499 28502 28504 28507 28510 28512 28515 28518 28521 28524 28526 28529 28532 28535 28538 28540 28543 28546 28549 28552 28554 28557 28560 28563 28565 28568 28570 28573 28576 28579 28582 28585 28588 28591 28594 28597 28600 28602 28605 28608 28611 28614 28617 28620 28623 28625 28627 28630 28633 28636 28639 28642 28644 28647 28650 28653 28656 28659 28661 28664 28667 28670 28672 28675 28678 28680 28683 28686 28688 28691 28694 28697 28699 28702 28705 28708 28711 28714 28717 28719 28722 28725 28728 28731 28734 28736 28739 28742 28745 28748 28751 28753 28756 28759 28762 28765 28768 28771 28773 28776 28779 28782 28785 28787 28790 28793 28796 28799 28802 28804 28807 28810 28813 28816 28819 28822 28825 28828 28831 28834 28836 28839 28842 28845 28848 28851 28854 28857 28859 28862 28865 28868 28871 28873 28875 28878 28881 28883 28886 28889 28892 28895 28898 28901 28904 28906 28909 28912 28915 28918 28921 28924 28927 28929 28932 28934 28937 28940 28942 28945 28948 28951 28954 28956 28959 28961 28964 28967 28970 28973 28976 28979 28982 28985 28988 28991 28993 28996 28999 29002 29005 29008 29010 29013 29016 29019 29021 29024 29027 29030 29033 29035 29038 29041 29043 29046 29049 29052 29055 29058 29060 29063 29065 29068 29070 29072 29075 29078 29081 29084 29086 29088 29091 29094 29097 29100 29103 29106 29109 29112 29115 29118 29121 29124 29127 29129 29132 29135 29138 29141 29144 29147 29149 29151 29154 29157 29160 29163 29166 29169 29172 29175 29178 29181 29184 29187 29190 29192 29195 29198 29201 29204 29207 29210 29213 29216 29219 29222 29225 29228 29231 29234 29237 29240 29243 29246 29249 29252 29255 29258 29261 29264 29267 29270 29273 29276 29279 29282 29285 29288 29291 29293 29296 29299 29301 29304 29307 29310 29313 29316 29319 29322 29324 29327 29330 29333 29335 29338 29341 29343 29346 29349 29352 29354 29356 29359 29362 29365 29368 29370 29372 29375 29378 29381 29384 29387 29390 29393 29396 29399 29402 29405 29408 29411 29414 29416 29419 29422 29424 29427 29430 29433 29435 29438 29441 29444 29447 29449 29452 29455 29457 29460 29463 29466 29469 29472 29475 29478 29481 29484 29487 29490 29492 29495 29498 29501 29504 29507 29510 29513 29515 29518 29521 29524 29527 29530 29533 29536 29539 29542 29545 29548 29551 29554 29557 29560 29563 29566 29569 29571 29574 29577 29580 29583 29586 29589 29591 29594 29596 29599 29602 29605 29608 29611 29613 29616 29619 29621 29624 29627 29630 29632 29635 29638 29641 29643 29646 29649 29652 29655 29658 29661 29664 29667 29670 29673 29676 29679 29682 29685 29687 29690 29693 29696 29699 29701 29703 29706 29709 29712 29715 29718 29721 29724 29727 29730 29733 29736 29739 29742 29745 29748 29751 29754 29757 29760 29762 29765 29768 29771 29774 29777 29780 29783 29786 29788 29791 29793 29796 29799 29802 29805 29808 29811 29814 29816 29819 29821 29824 29827 29830 29833 29836 29838 29841 29844 29847 29850 29853 29856 29858 29861 29864 29867 29870 29873 29875 29877 29880 29883 29886 29888 29890 29892 29895 29898 29901 29904 29907 29909 29912 29915 29918 29921 29924 29926 29929 29932 29935 29938 29940 29943 29945 29947 29950 29952 29954 29957 29960 29963 29965 29968 29971 29974 29976 29979 29982 29985 29987 29990 29993 29996 29998 30001 30004 30007 30010 30013 30016 30019 30022 30024 30027 30030 30033 30035 30038 30041 30044 30047 30050 30053 30055 30058 30061 30064 30067 30070 30073 30075 30078 30081 30084 30087 30090 30093 30096 30099 30102 30105 30108 30111 30114 30117 30119 30122 30124 30127 30130 30133 30135 30138 30141 30143 30146 30148 30151 30153 30156 30159 30161 30164 30167 30170 30173 30176 30179 30181 30184 30187 30190 30193 30195 30198 30201 30204 30207 30210 30213 30215 30218 30221 30224 30227 30230 30233 30236 30239 30242 30245 30247 30250 30253 30256 30259 30262 30265 30268 30271 30274 30277 30280 30283 30286 30289 30292 30295 30298 30301 30304 30306 30308 30311 30314 30317 30319 30322 30325 30327 30330 30333 30335 30338 30341 30343 30346 30349 30351 30353 30356 30359 30362 30365 30367 30370 30373 30376 30379 30382 30385 30388 30391 30394 30397 30400 30402 30404 30407 30410 30413 30415 30418 30420 30423 30425 30428 30431 30434 30437 30440 30442 30445 30448 30450 30453 30455 30458 30461 30463 30465 30467 30470 30473 30476 30479 30481 30484 30487 30489 30492 30494 30497 30500 30502 30505 30508 30511 30514 30517 30520 30523 30526 30528 30531 30533 30535 30538 30541 30544 30547 30550 30552 30554 30557 30560 30563 30565 30567 30570 30573 30576 30579 30582 30585 30588 30591 30593 30596 30598 30601 30604 30607 30610 30613 30616 30619 30622 30625 30628 30631 30634 30637 30640 30643 30646 30649 30652 30655 30658 30661 30664 30667 30670 30673 30676 30679 30682 30685 30687 30690 30693 30696 30699 30702 30705 30708 30711 30714 30717 30720 30723 30726 30729 30732 30734 30737 30740 30742 30745 30748 30751 30754 30757 30759 30762 30765 30768 30771 30774 30777 30780 30783 30786 30789 30792 30795 30798 30800 30803 30806 30809 30812 30815 30818 30821 30824 30827 30829 30832 30835 30837 30840 30843 30846 30849 30851 30853 30855 30858 30861 30864 30867 30870 30872 30875 30878 30881 
</DataArray>
<DataArray type="UInt32" Name="types" format="ascii">
5 5 3 5 5 5 5 3 5 5 5 5 5 5 5 5 5 5 5 5 3 5 5 5 5 3 5 5 5 5 5 5 5 3 5 5 5 5 5 5 5 5 3 5 5 5 5 5 5 5 5 5 5 5 3 3 5 5 5 5 5 5 5 5 3 5 5 5 5 5 5 5 5 5 5 5 5 5 5 5 5 5 5 5 5 5 5 3 5 5 5 5 5 5 5 5 5 5 5 3 5 5 5 3 5 5 5 5 5 5 5 5 5 5 5 5 5 5 5 5 5 5 5 5 5 5 5 5 5 5 5 5 5 5 5 5 5 5 5 5 5 5 5 5 5 5 5 5 5 3 5 3 5 5 5 5 5 5 5 5 5 5 5 5 5 5 5 5 5 5 5 5 5 5 5 5 5 5 3 5 5 3 5 3 5 5 5 5 5 5 5 5 5 5 5 5 5 5 3 5 3 5 5 5 5 5 5 5 3 5 3 5 5 5 5 5 5 3 5 5 3 5 5 5 5 5 5 3 3 5 5 3 5 3 5 3 3 5 5 5 3 5 5 5 5 5 5 5 5 5 5 5 5 5 3 5 5 5 5 5 5 5 3 5 5 5 5 5 5 5 3 5 5 5 5 3 5 5 5 5 5 5 3 5 5 5 3 5 5 5 5 5 5 5 3 5 5 5 5 5 5 3 5 5 5 5 5 5 3 5 5 5 5 5 5 5 3 5 5 5 5 5 5 5 5 5 5 5 5 5 5 5 5 5 5 5 5 5 3 3 5 5 5 5 5 3 5 5 5 5 5 5 5 3 5 3 5 5 5 3 5 5 5 3 5 3 5 5 5 5 5 5 5 3 5 5 5 5 5 5 5 3 5 5 5 3 5 5 5 5 5 5 5 5 5 5 5 5 5 5 5 5 5 5 5 5 5 5 5 5 5 5 5 5 5 5 5 5 3 5 5 5 5 5 5 5 5 5 5 5 5 5 5 5 5 5 5 5 5 5 5 5 5 5 5 5 5 5 5 5 5 3 5 5 5 5 5 5 5 5 5 5 5 5 5 5 5 5 5 5 5 5 3 5 5 5 5 5 5 5 3 5 5 5 5 5 3 5 5 3 5 3 5 5 5 5 3 5 5 3 5 5 5 5 5 5 3 5 5 5 5 5 5 5 5 5 5 5 5 5 5 5 5 5 5 5 3 5 5 5 5 5 5 5 5 5 5 5 3 3 5 5 5 5 5 5 5 5 5 5 5 5 5 5 5 5 5 5 5 5 5 3 5 3 3 5 5 3 5 5 5 5 5 5 5 5 5 5 5 5 5 3 5 5 5 5 5 5 5 3 3 5 5 5 5 5 5 5 5 3 3 5 5 5 3 5 5 5 5 5 5 5 5 5 5 5 5 5 5 5 5 5 5 5 5 5 5 5 5 5 5 5 5 5 5 5 5 5 5 5 3 5 5 3 5 5 5 5 3 5 5 5 3 5 5 5 3 5 5 3 5 5 5 5 5 5 5 5 5 5 5 5 5 5 5 5 5 5 5 5 5 3 5 5 5 3 5 5 5 5 5 3 5 5 5 5 5 5 3 5 5 5 5 5 5 5 5 5 5 5 5 5 5 5 5 5 5 3 5 5 5 5 5 5 5 5 5 5 5 5 5 5 5 5 5 5 5 5 5 3 5 5 5 5 5 5 5 5 5 5 5 5 5 5 5 3 5 5 5 5 5 5 5 5 5 5 5 5 5 5 5 5 5 5 3 5 5 5 5 5 5 5 3 5 5 5 5 5 5 5 5 5 5 5 5 5 5 5 5 5 5 5 5 5 3 5 5 5 5 5 5 5 5 5 3 5 5 5 5 5 5 5 5 3 5 5 5 5 5 5 5 5 5 5 5 5 5 5 5 5 5 5 5 3 5 5 5 5 5 3 5 5 5 3 5 5 5 5 5 5 3 5 5 5 5 5 5 5 5 5 5 3 5 5 5 5 5 5 5 5 5 5 5 5 3 5 3 5 5 5 5 5 5 5 3 5 3 5 5 5 5 5 5 5 5 5 5 5 5 5 5 5 5 5 5 5 5 5 5 5 5 5 5 5 5 5 5 5 5 5 5 5 5 5 5 5 5 5 5 5 5 5 3 3 5 5 3 5 5 5 5 5 5 5 5 5 5 5 5 5 5 5 5 3 5 5 5 5 3 5 5 3 5 5 5 5 5 5 3 5 3 5 5 3 5 5 5 5 5 5 5 5 5 5 3 5 5 5 5 5 3 3 5 5 5 5 3 5 5 3 5 3 5 5 5 5 5 3 5 5 3 5 5 5 5 5 5 5 5 5 5 5 5 3 5 5 5 5 5 5 5 5 5 5 5 5 5 5 5 3 5 3 5 3 3 5 3 5 5 3 5 5 5 5 5 5 3 5 3 5 5 3 5 5 5 3 5 5 3 5 5 5 5 5 3 5 5 3 5 5 5 5 5 3 5 3 5 5 3 5 5 3 5 5 5 5 5 5 5 5 3 5 5 5 5 5 5 5 5 5 5 3 5 5 5 5 3 5 5 3 5 5 5 5 5 3 5 5 5 5 5 3 5 3 5 5 5 5 5 5 3 5 5 5 5 5 5 5 5 3 3 3 5 5 5 5 3 5 3 5 5 5 3 3 5 5 5 3 5 5 5 3 5 3 5 3 3 5 3 5 5 5 5 3 5 5 5 3 5 3 5 3 5 5 5 5 5 5 5 3 5 5 5 5 3 5 5 5 5 5 5 5 5 3 5 3 3 5 5 5 3 5 5 5 5 3 3 5 5 3 3 5 5 5 5 5 3 5 5 5 5 5 5 5 5 3 5 3 5 5 5 5 5 5 5 5 5 5 5 5 5 5 5 5 5 3 5 5 5 5 5 5 5 5 5 5 5 5 5 5 5 5 5 5 5 5 5 5 5 5 5 3 5 3 5 5 5 5 5 3 3 5 5 5 5 3 3 5 3 5 5 3 5 5 3 5 5 5 5 3 3 5 5 5 5 5 5 5 5 3 5 5 3 5 5 5 3 5 5 3 5 5 5 5 5 5 3 5 5 5 5 5 5 3 5 5 5 5 5 3 5 5 3 3 5 5 3 5 5 3 5 5 5 5 5 5 5 5 5 5 5 5 3 5 3 5 5 3 5 5 5 5 5 5 3 5 5 5 3 3 3 5 5 5 3 3 5 3 3 5 5 3 5 5 3 5 3 5 3 5 5 5 3 3 5 5 3 3 3 3 5 5 5 3 3 5 5 3 3 3 5 3 3 5 5 3 5 3 3 5 3 5 5 3 5 3 3 5 5 5 5 3 3 5 5 3 5 5 5 3 5 5 5 5 5 5 5 5 5 5 5 5 5 5 5 5 5 5 5 5 5 5 5 5 5 5 5 5 5 5 5 5 5 5 5 5 5 5 5 5 5 5 5 5 5 5 5 5 5 5 5 5 5 5 5 5 5 5 3 5 3 5 5 5 5 5 5 5 5 5 5 5 5 5 5 3 5 5 5 5 5 5 5 5 5 5 3 5 5 5 5 5 5 5 5 5 5 5 5 5 5 5 5 5 5 5 5 5 5 5 5 5 5 5 5 5 5 5 5 5 5 5 5 5 5 5 5 5 5 5 5 5 5 3 5 5 5 3 5 3 5 5 5 5 5 3 5 3 5 5 5 5 5 5 5 5 5 5 5 5 5 5 5 5 5 5 5 5 5 5 5 5 5 3 5 5 5 5 5 5 3 5 3 5 5 5 3 5 5 3 5 5 5 5 5 5 5 5 5 5 5 5 5 5 5 5 5 5 5 5 5 5 5 5 5 5 5 5 5 5 5 5 5 5 5 5 5 3 5 3 5 5 5 5 5 5 5 5 5 5 3 5 5 5 5 5 5 5 5 5 5 5 5 5 5 5 5 5 3 5 5 5 3 3 5 3 5 5 5 5 5 5 5 5 3 5 5 5 5 3 5 5 5 5 5 5 5 3 5 5 3 5 3 5 5 3 5 5 3 3 5 5 5 5 5 5 5 5 5 5 5 5 5 5 5 3 5 3 5 5 5 3 5 3 5 5 5 5 5 5 5 5 5 5 5 5 3 5 3 5 5 5 5 5 5 5 5 3 5 5 3 5 5 5 3 3 5 5 5 5 5 5 5 5 5 5 5 5 5 5 5 5 5 5 5 5 5 3 5 5 5 5 5 3 5 3 5 5 5 5 3 5 5 3 5 5 5 5 5 3 5 5 5 5 3 5 5 5 5 5 5 5 3 5 5 5 3 5 5 5 5 5 5 5 5 5 5 5 3 5 5 5 5 5 5 5 5 3 5 5 5 5 5 5 3 5 5 5 5 5 5 3 5 5 5 5 5 5 5 5 5 5 5 3 5 5 5 3 5 5 5 3 5 3 5 5 5 5 5 5 3 5 5 5 5 5 5 5 5 5 5 5 5 5 5 5 3 5 5 5 5 5 3 5 5 5 5 5 5 5 5 3 5 5 5 5 5 5 5 5 5 5 5 5 5 5 5 5 3 5 5 5 5 3 5 5 5 5 5 5 5 5 5 5 5 5 5 5 5 5 5 5 5 5 5 5 5 5 5 5 3 5 5 5 3 5 3 5 5 5 5 3 5 3 5 5 5 5 5 3 5 5 5 5 5 5 5 5 5 3 5 5 5 5 5 5 5 5 5 5 5 5 5 5 5 5 5 5 5 5 5 5 5 5 3 3 5 5 5 5 5 3 5 5 5 3 5 5 5 3 5 5 3 5 3 5 5 5 5 3 5 5 5 5 3 3 5 5 5 5 5 5 5 5 5 5 5 5 3 5 5 5 5 3 5 5 5 5 5 3 5 5 3 5 5 5 5 5 5 5 5 5 5 5 5 5 5 5 5 3 5 5 3 5 5 5 3 5 5 5 5 5 5 5 5 5 5 5 3 5 5 5 5 5 5 5 5 5 5 5 5 5 5 5 5 3 5 5 3 5 3 5 5 3 5 3 5 3 5 5 5 5 5 5 5 5 5 5 5 5 5 3 5 3 3 5 5 3 3 5 5 3 3 5 5 5 3 5 3 5 5 3 5 5 5 5 3 3 5 3 5 5 3 3 5 5 3 5 5 5 3 5 5 5 3 3 3 5 5 3 5 3 3 5 5 5 5 5 5 5 5 5 5 5 3 3 5 3 5 3 5 3 5 5 5 3 5 5 5 5 5 3 5 5 5 5 5 5 5 5 5 5 5 5 5 5 5 5 5 5 5 5 5 5 5 5 3 5 5 5 5 5 5 5 5 5 5 5 5 5 5 5 5 5 5 3 5 5 5 5 5 5 5 5 5 5 5 3 5 5 5 5 5 3 5 5 5 5 5 5 5 5 5 5 5 5 5 5 3 5 5 5 5 5 5 5 5 5 5 5 5 5 5 3 5 3 5 5 5 5 3 5 5 5 5 5 5 5 5 5 5 5 5 3 5 3 5 5 5 5 3 5 5 5 5 5 5 5 3 5 5 5 5 5 5 5 3 5 5 5 3 5 3 5 5 5 5 5 5 5 5 5 3 5 5 5 5 5 5 5 5 5 5 5 5 5 5 5 5 5 5 5 5 5 5 5 5 5 5 5 5 5 5 5 5 5 5 5 5 5 5 5 5 5 5 5 3 5 5 3 5 5 5 5 5 5 5 5 5 5 3 5 5 5 5 5 3 5 5 3 5 5 5 5 5 5 3 5 5 5 5 3 5 5 3 5 3 5 5 5 5 5 5 5 5 5 5 5 3 5 3 5 5 5 5 3 5 5 5 5 5 5 5 5 5 5 5 5 5 5 5 5 5 5 5 5 5 3 5 5 5 5 3 5 5 5 5 5 5 5 3 5 5 5 5 5 3 5 5 5 3 5 5 5 3 5 5 3 5 5 5 3 5 5 3 5 5 5 5 5 5 5 5 5 5 5 5 5 5 5 5 5 5 5 5 5 5 5 5 5 5 5 5 5 5 5 3 5 5 5 5 5 5 5 5 5 5 5 3 5 5 5 5 5 5 5 5 5 5 5 5 5 5 5 3 3 5 5 5 3 5 5 5 5 3 5 5 3 5 5 5 5 5 5 5 5 5 5 5 5 5 3 3 5 5 5 5 5 5 5 5 5 5 5 3 5 5 3 5 5 5 5 5 5 5 5 5 5 5 5 5 5 5 5 5 5 5 3 5 5 5 3 5 5 5 5 5 3 5 5 5 5 5 5 5 5 5 5 5 5 5 5 5 5 5 5 5 5 3 5 5 3 5 5 5 5 5 5 5 5 5 5 5 5 5 5 5 5 5 5 5 3 5 5 5 5 5 5 5 5 5 5 5 5 5 5 5 5 5 5 5 5 5 5 5 5 5 5 5 5 5 5 5 5 3 5 5 5 5 5 5 3 5 5 5 5 5 3 5 5 5 5 3 5 5 5 5 5 5 5 5 5 5 5 5 5 5 5 5 5 5 5 5 5 5 3 5 5 5 5 5 5 5 3 5 5 3 5 5 3 5 5 5 5 5 5 3 5 5 5 5 5 5 5 5 5 5 3 5 3 5 5 5 5 5 5 5 5 3 5 5 3 5 5 5 3 5 5 5 3 5 5 5 3 3 5 5 3 5 5 3 5 5 3 5 5 5 5 5 5 5 5 5 3 5 5 5 3 5 5 5 3 5 5 5 3 5 3 5 5 3 5 5 5 5 5 5 5 5 3 5 5 3 5 5 5 5 5 5 5 5 5 5 5 5 5 3 5 3 5 5 5 3 3 5 3 5 5 5 5 3 5 3 5 5 5 5 5 5 5 5 5 3 5 5 5 5 5 5 5 5 5 5 5 5 5 5 5 5 5 5 5 5 5 5 5 5 5 5 5 5 3 5 5 5 5 5 5 3 5 5 5 5 5 5 3 5 5 5 5 5 5 3 5 5 5 3 5 5 5 3 5 5 3 5 5 5 5 5 5 3 5 5 5 3 3 5 5 5 5 5 5 5 5 5 5 5 5 5 5 5 5 5 3 5 5 5 5 5 5 5 3 5 5 5 5 5 3 5 5 5 5 5 3 5 5 3 5 5 5 5 3 5 5 5 5 5 5 3 5 3 5 3 3 5 3 5 5 5 3 5 5 5 5 5 3 5 5 5 3 5 5 5 5 3 3 3 5 5 5 5 3 3 5 3 5 5 5 5 5 5 3 5 3 5 5 3 5 5 5 3 5 5 3 5 5 5 5 5 5 5 5 5 5 5 5 3 5 5 5 5 3 5 5 5 5 3 5 5 5 5 5 5 5 5 5 3 3 3 5 5 5 3 3 5 5 3 5 3 5 5 5 5 5 5 5 3 5 5 5 5 5 5 5 5 5 5 5 5 5 5 5 5 3 5 5 5 5 5 5 5 5 5 3 5 5 3 5 3 5 3 5 5 3 5 5 5 3 3 5 5 3 5 5 5 3 5 5 5 5 3 5 5 5 5 5 5 5 5 5 5 5 3 3 5 5 5 5 5 5 5 5 5 5 5 5 5 5 5 5 5 5 5 5 5 5 5 5 5 5 5 5 5 5 5 5 3 5 5 5 5 5 5 5 5 5 5 5 5 5 5 5 5 5 5 5 3 5 5 5 5 5 5 3 3 5 5 3 3 5 5 5 3 5 5 5 5 5 5 5 5 5 5 5 5 5 5 5 5 5 5 5 5 5 5 5 3 5 3 5 3 5 5 5 5 5 5 3 5 3 3 5 5 3 5 5 5 5 5 5 3 3 5 5 3 3 5 5 3 3 5 5 5 5 5 5 5 5 3 5 5 5 5 5 3 5 5 3 5 5 5 3 5 5 5 5 5 5 5 5 5 5 5 5 5 5 5 5 5 5 5 5 5 5 5 5 5 5 5 5 5 5 5 5 5 5 3 5 5 3 5 3 3 5 5 5 5 5 5 5 5 5 3 5 5 5 5 5 3 5 5 5 5 5 5 5 3 5 5 5 5 5 5 5 5 3 5 5 5 5 5 3 5 5 5 5 5 5 5 5 5 5 5 5 5 5 5 5 5 5 5 5 5 5 5 5 5 5 5 5 5 5 3 3 5 5 5 5 5 5 5 3 5 5 5 3 5 3 5 5 5 5 5 5 5 5 5 5 5 5 5 5 5 5 5 5 5 5 5 3 5 5 5 5 5 5 3 5 5 5 5 5 5 5 3 5 5 3 5 5 5 5 5 5 3 5 5 5 3 5 5 3 3 5 5 5 5 5 5 5 5 5 5 5 5 5 5 5 5 5 5 5 5 5 5 5 5 5 5 5 5 3 5 5 5 5 5 5 5 5 5 5 5 5 5 5 5 5 5 5 5 3 5 5 5 3 3 5 5 5 5 5 3 5 5 5 3 5 5 5 5 5 3 5 5 5 5 5 5 5 5 5 5 5 5 5 5 5 5 5 5 5 5 5 3 5 5 5 5 5 5 3 5 5 5 5 5 5 5 5 5 5 5 5 3 5 5 5 5 3 5 3 5 5 5 5 5 5 5 5 5 5 5 5 5 3 5 5 5 5 5 3 5 5 5 5 5 5 3 5 5 5 5 5 5 5 5 5 5 5 5 3 5 5 3 5 5 3 5 5 3 5 5 5 5 5 5 5 5 5 5 3 5 5 5 5 5 5 5 5 3 5 5 5 3 5 5 5 3 5 5 3 5 5 5 3 5 5 5 5 5 3 5 3 5 5 5 5 3 3 5 5 5 3 5 5 5 5 3 5 5 5 5 5 5 5 5 5 5 5 5 5 5 5 3 5 5 3 3 5 5 5 5 3 5 5 5 5 5 5 3 5 5 5 5 5 5 3 5 5 5 5 5 5 5 5 3 5 5 5 5 5 5 5 5 5 5 3 5 5 3 5 5 3 5 5 5 5 5 3 3 5 5 3 3 5 3 5 3 5 3 3 5 5 3 5 3 5 3 5 3 5 3 5 5 3 5 3 5 3 5 5 5 5 5 5 3 5 5 5 3 5 5 5 5 5 5 5 5 5 3 5 5 3 5 3 5 3 5 5 5 3 3 5 5 5 5 5 5 5 5 5 5 5 3 5 5 5 5 5 3 5 5 5 5 5 5 5 5 5 5 5 5 5 5 5 5 5 3 5 5 5 5 5 5 3 5 5 5 3 5 5 3 5 5 5 3 5 3 3 5 5 5 5 5 5 5 5 5 3 5 5 5 5 5 5 5 3 5 3 5 3 5 5 5 5 5 5 5 5 5 5 5 5 5 5 5 5 5 5 5 5 5 5 5 5 5 5 5 5 5 5 5 5 5 5 5 5 5 3 5 5 3 3 5 5 5 5 3 5 5 5 5 5 3 5 5 3 3 5 5 5 5 5 5 3 5 3 5 5 3 3 5 3 5 5 5 3 5 5 5 5 3 5 5 5 3 5 5 3 3 5 5 5 3 5 5 5 5 3 5 5 3 5 5 5 3 5 5 3 5 5 5 3 5 3 5 5 3 5 5 3 3 5 5 3 5 3 3 5 5 5 5 3 5 5 5 5 3 5 5 5 5 5 5 5 5 5 5 5 5 3 5 5 5 5 3 5 3 5 5 5 5 5 3 3 3 5 5 5 5 5 5 5 5 3 5 5 5 5 5 5 3 5 5 5 5 3 5 5 5 5 5 5 5 5 5 5 5 5 5 5 5 5 5 5 3 5 3 5 5 3 3 5 3 5 5 3 5 3 5 3 5 3 5 5 5 5 3 5 5 5 3 5 5 5 5 5 5 5 5 5 5 5 5 5 5 5 5 5 5 5 5 5 5 5 5 5 3 5 5 5 5 5 3 5 5 5 5 5 5 5 5 5 5 5 3 5 5 5 5 5 3 5 5 3 3 5 5 5 3 5 5 3 3 5 3 5 5 5 5 5 5 5 5 5 5 5 5 5 5 5 5 3 5 5 5 5 3 5 5 5 5 5 5 5 5 3 3 5 5 3 5 5 5 5 5 5 5 5 5 3 3 5 5 3 5 5 5 3 5 5 5 5 5 5 5 5 5 5 5 5 5 5 5 5 5 5 5 5 5 5 5 5 5 5 3 5 5 5 5 5 5 5 5 5 5 5 5 5 5 5 5 5 5 5 5 3 5 5 5 3 3 5 5 5 3 5 5 3 5 5 5 5 5 3 5 3 5 5 5 5 5 5 5 5 3 5 5 5 3 5 5 3 5 3 5 5 5 3 5 5 5 3 5 5 5 5 5 5 5 5 5 5 5 5 5 5 5 5 5 3 5 5 5 5 5 5 5 5 5 3 5 5 5 5 5 5 5 5 3 5 5 5 5 5 5 5 5 5 5 5 5 5 3 5 5 5 3 5 5 5 5 5 5 5 5 5 5 5 5 5 5 5 5 5 5 5 3 5 5 5 3 5 3 5 5 5 3 5 5 5 3 3 5 5 5 5 5 5 5 5 5 5 5 5 5 5 5 5 5 5 5 5 5 5 3 5 5 5 5 3 5 5 5 5 3 5 5 5 5 5 5 5 3 5 5 5 5 3 5 5 5 5 5 5 3 5 5 5 5 5 5 3 5 5 5 3 5 5 5 5 5 5 5 5 5 3 5 5 5 5 5 5 3 5 5 5 5 5 5 5 5 5 5 5 3 5 5 3 5 5 5 5 5 3 5 5 3 5 5 5 5 5 5 5 3 3 5 5 5 5 3 5 5 5 5 5 5 3 5 5 5 5 5 5 5 5 5 5 3 5 5 5 5 5 5 5 5 5 5 5 5 3 5 3 5 5 5 3 5 5 3 5 5 5 5 3 5 5 5 5 5 3 5 5 5 5 5 5 5 5 3 5 5 5 5 3 5 5 5 5 5 5 5 3 5 5 5 5 5 5 5 5 5 5 3 5 5 5 3 5 3 5 5 5 5 5 5 3 5 3 5 3 5 5 5 5 3 5 5 5 5 5 5 5 5 5 5 5 5 5 5 3 5 3 5 5 5 5 5 5 5 3 5 5 5 5 5 5 5 5 5 5 5 5 5 3 5 5 5 5 3 5 5 5 5 5 5 5 5 5 5 5 5 5 5 5 5 5 5 5 5 5 5 5 5 3 5 5 5 5 3 5 5 5 3 5 5 3 5 5 3 5 5 5 5 5 5 5 5 5 5 5 5 5 5 5 3 5 5 3 5 5 5 5 5 5 5 3 5 5 5 5 5 3 5 5 5 3 5 5 5 3 5 5 5 5 5 5 5 3 5 5 5 3 5 3 3 5 5 5 5 5 3 5 5 5 5 5 5 5 5 5 5 3 5 5 5 5 5 5 5 5 5 5 5 5 5 5 5 5 5 5 5 5 5 5 5 5 5 5 5 5 5 5 5 5 5 5 5 5 5 3 5 5 5 5 5 5 5 5 5 5 5 5 5 5 5 5 3 5 5 5 5 5 5 5 5 5 3 5 5 5 5 5 5 5 3 5 5 5 5 5 5 5 5 5 5 5 5 5 5 5 5 5 5 5 5 5 3 5 5 5 5 5 5 5 5 5 5 5 5 5 5 5 5 5 3 5 5 5 5 5 5 5 5 5 5 5 5 5 5 5 5 5 5 5 5 5 5 5 5 5 5 5 5 5 5 5 5 5 5 5 5 5 5 5 5 5 5 5 5 5 5 3 5 5 5 5 5 5 5 5 5 5 5 5 5 3 5 3 5 5 5 5 5 3 5 5 5 5 5 3 3 5 5 5 5 5 5 5 5 5 5 5 5 5 5 5 5 5 3 3 5 5 5 5 5 5 3 5 3 5 5 5 5 5 5 5 5 5 3 5 5 5 5 5 5 5 5 5 5 5 5 5 5 5 5 5 5 5 3 5 5 5 5 5 3 5 3 5 5 5 5 5 5 5 3 5 5 5 3 5 5 5 3 5 5 3 5 5 5 3 5 5 3 5 3 5 3 5 5 3 5 5 5 5 5 5 5 5 5 5 5 5 5 5 5 5 5 5 5 5 5 3 5 3 5 5 5 5 5 5 5 3 5 5 5 5 5 5 5 5 5 5 5 5 5 5 5 5 5 5 5 3 5 5 5 3 5 5 5 5 5 5 5 5 5 5 3 5 5 5 5 3 5 5 3 5 5 5 5 5 3 5 5 5 5 3 5 3 5 5 3 5 5 5 5 5 5 5 3 5 5 3 5 3 5 5 5 5 5 5 5 5 5 5 5 5 5 5 5 5 5 5 3 5 5 5 5 5 5 5 3 5 5 5 5 3 5 5 5 5 5 5 5 5 5 3 5 5 5 5 3 5 5 5 5 5 5 5 5 5 5 5 5 3 5 5 5 5 5 5 5 5 5 3 5 5 5 5 5 5 5 5 5 5 5 5 3 5 5 3 5 5 5 5 5 5 5 5 5 3 3 3 5 5 5 3 5 5 5 5 5 5 3 5 5 5 3 3 5 5 5 5 5 5 5 5 5 5 5 5 3 5 5 5 3 3 5 5 5 5 5 3 5 5 5 5 3 5 5 5 5 3 5 5 5 5 5 3 3 3 5 5 5 3 3 5 5 5 5 5 5 5 5 5 3 3 5 5 5 3 3 5 5 5 5 5 5 5 5 5 5 5 5 5 5 5 5 5 3 5 3 5 5 5 5 3 5 5 5 5 5 5 5 3 5 5 5 5 5 5 5 3 5 5 3 5 3 3 5 5 5 3 3 5 5 5 3 3 5 5 5 5 5 5 5 5 5 5 3 5 5 5 5 5 5 5 3 5 5 5 5 3 5 5 5 5 5 5 3 5 5 5 5 3 5 3 5 5 5 5 5 5 5 5 5 5 5 5 5 5 3 5 5 5 5 5 5 5 3 5 5 5 5 3 5 5 5 3 5 5 5 5 5 5 5 5 5 5 5 5 5 5 5 5 5 5 5 5 5 5 3 5 3 5 5 3 5 5 5 3 5 5 3 5 5 5 5 5 5 5 5 5 5 5 5 5 5 5 5 5 5 5 5 3 3 3 5 5 5 5 5 5 5 5 5 5 5 5 5 3 5 5 5 3 5 5 3 5 5 5 5 3 5 5 3 3 5 5 5 5 3 5 5 3 5 3 5 5 5 5 5 5 5 5 5 5 5 5 3 5 5 5 5 5 5 5 3 5 3 5 5 5 5 3 5 5 5 5 5 5 5 5 5 5 5 5 5 5 5 5 5 5 5 5 5 5 5 3 5 5 5 3 5 3 5 5 5 3 5 5 5 5 5 3 5 5 3 5 5 5 5 5 5 5 5 3 5 5 5 5 5 3 5 5 5 5 5 5 5 5 5 5 5 5 5 5 3 5 5 5 5 3 5 5 5 5 5 5 5 5 5 5 5 5 3 5 5 5 5 3 5 5 5 5 5 5 5 5 5 5 5 5 5 3 5 5 3 5 5 5 3 5 5 5 5 5 5 5 5 5 5 5 5 5 3 3 5 3 3 5 5 5 3 3 5 3 5 3 5 3 5 5 5 3 5 3 5 5 5 5 3 5 5 5 5 5 5 3 5 5 5 5 5 3 5 5 3 5 5 3 5 5 3 5 5 5 5 5 3 5 3 5 5 5 5 5 5 5 5 5 5 5 5 5 3 5 5 3 5 5 5 5 5 5 5 5 5 3 5 5 5 5 5 5 5 5 5 3 5 5 3 5 3 5 5 5 5 5 5 5 3 5 5 5 5 5 5 5 3 5 3 5 5 3 5 5 5 3 5 5 5 5 3 5 5 5 5 5 3 5 5 5 5 5 5 5 5 5 5 5 5 5 5 5 5 5 5 5 5 5 3 5 5 3 5 5 5 3 5 5 5 5 3 5 5 5 5 5 5 5 5 5 5 5 5 5 5 5 5 5 5 5 5 5 5 5 3 5 5 5 5 5 5 3 5 5 5 5 5 5 5 5 5 5 5 5 5 3 5 3 5 5 3 5 5 5 5 3 3 5 3 5 3 5 5 5 5 5 3 5 5 3 3 5 5 5 5 5 3 5 5 3 5 5 5 5 5 5 5 5 3 3 5 5 5 3 5 3 5 5 5 5 5 3 5 3 5 5 5 5 5 3 3 5 5 5 5 3 5 5 5 5 3 5 5 5 5 5 5 5 5 5 5 5 5 5 5 5 5 5 3 5 5 3 5 5 5 3 5 5 5 5 5 5 5 5 5 5 5 5 5 5 5 5 5 5 5 3 5 5 5 5 5 5 5 5 5 5 5 5 5 5 3 3 5 5 5 3 5 5 5 5 5 3 5 5 5 5 5 5 5 5 5 5 5 3 5 5 3 5 5 5 5 5 5 5 5 5 5 3 5 5 5 3 5 3 5 3 5 5 5 3 3 5 3 5 5 3 5 5 3 3 5 5 5 3 5 5 3 5 3 5 5 5 3 5 5 3 3 5 3 5 5 3 5 3 5 5 5 5 5 5 5 5 5 3 5 5 5 5 5 3 5 5 5 5 5 5 5 5 5 5 3 5 5 5 5 3 3 5 5 3 5 3 5 5 5 5 5 3 5 5 3 5 3 5 5 5 5 5 5 5 3 5 5 5 5 5 5 5 5 5 3 5 3 5 3 5 3 5 5 5 5 3 5 5 5 5 5 3 3 5 5 5 5 5 5 3 5 5 5 5 5 3 5 5 5 5 3 5 5 3 5 3 5 5 5 3 5 3 5 5 3 3 3 5 5 5 5 5 5 3 3 3 5 5 5 5 3 5 3 5 3 5 5 5 5 5 5 3 5 5 5 5 5 5 5 5 5 5 5 5 5 5 5 5 5 5 5 5 5 5 5 5 5 5 5 5 5 5 5 5 5 5 5 5 5 5 5 5 5 5 5 5 5 5 5 5 5 3 5 5 5 3 3 5 5 5 5 5 5 5 5 5 5 5 5 5 5 5 5 5 5 5 3 5 5 5 5 5 5 5 3 5 5 3 5 5 3 5 5 3 5 3 5 5 3 5 5 5 3 5 3 5 3 3 5 5 5 3 3 5 5 3 5 5 3 5 5 5 5 5 5 5 5 5 5 5 5 3 5 5 5 5 3 5 5 5 5 3 5 5 5 5 5 5 5 5 5 3 5 3 5 5 5 5 3 5 5 5 3 5 5 5 5 5 5 3 5 5 3 5 5 5 3 5 5 5 5 5 5 5 3 5 5 5 5 5 3 5 5 5 5 5 5 5 5 5 5 5 5 5 5 5 3 5 5 5 5 5 3 5 5 3 5 3 5 5 5 5 3 3 5 5 3 5 5 5 5 5 5 5 5 5 5 5 3 5 3 5 5 5 5 5 3 5 5 5 3 5 5 5 3 5 5 5 5 5 5 5 5 5 5 5 5 5 3 5 5 5 5 5 5 5 3 5 3 5 5 5 5 5 5 5 3 3 5 5 5 5 5 5 5 5 5 3 5 5 5 5 5 5 3 3 3 5 3 5 5 5 5 5 5 3 5 3 5 3 5 3 5 5 5 5 5 5 3 5 5 3 5 5 5 5 3 5 5 5 5 5 5 5 5 5 5 5 5 5 5 5 5 5 5 5 5 5 3 5 3 5 5 5 5 5 5 5 5 5 5 5 5 5 5 5 5 5 5 5 5 5 5 5 5 5 5 5 5 5 5 5 5 5 5 5 5 5 5 5 5 5 5 5 5 5 5 5 5 5 5 5 5 5 5 5 5 5 5 3 5 5 5 5 5 5 5 5 5 5 5 5 5 5 5 5 5 5 5 5 5 5 5 3 5 5 5 3 5 3 5 5 5 5 5 5 5 5 5 5 5 5 5 5 5 5 5 5 5 5 5 5 5 5 5 5 5 5 5 5 5 5 5 5 5 5 5 5 5 3 5 3 5 5 5 5 5 5 5 5 5 5 5 5 5 5 5 5 5 5 5 5 5 5 5 5 5 3 5 5 5 5 5 5 5 5 5 5 5 5 5 5 5 5 5 5 5 5 5 5 5 5 5 5 5 5 5 5 5 5 5 5 5 5 5 5 5 5 5 5 5 5 5 5 5 5 5 5 5 5 5 5 5 5 5 5 5 5 5 5 5 5 5 5 5 5 5 3 5 5 5 5 5 5 5 3 5 5 3 5 5 5 5 5 5 5 5 5 5 5 5 5 5 5 5 5 5 5 5 3 5 5 5 5 5 5 5 5 5 5 5 5 5 5 5 5 5 5 5 5 5 5 5 5 5 5 5 5 5 5 5 5 3 5 5 5 5 3 5 3 5 5 5 5 5 5 3 5 5 3 5 5 3 3 5 3 5 5 5 3 5 5 5 5 5 5 5 5 5 5 5 5 5 5 5 3 5 5 5 5 5 5 5 5 3 5 5 5 5 5 5 5 5 5 5 5 5 5 5 5 5 5 5 5 5 5 5 5 5 5 5 5 5 5 5 5 5 5 5 5 5 3 5 5 5 5 5 5 5 3 5 5 3 5 3 5 5 5 5 5 5 5 5 5 5 5 3 3 5 5 3 5 5 3 3 5 5 5 5 3 5 3 5 5 3 5 3 3 5 3 5 3 5 5 5 5 5 5 5 3 5 3 5 5 5 5 5 3 5 5 5 3 5 5 3 5 3 5 3 3 5 5 3 5 5 5 5 5 5 3 5 5 5 5 5 5 5 5 3 3 5 5 5 3 5 5 5 5 3 3 5 3 5 5 5 3 5 5 5 5 5 5 5 5 5 5 5 5 5 5 5 5 3 5 5 5 5 5 5 3 5 3 5 5 5 3 3 5 5 3 5 3 5 5 5 5 5 5 5 5 5 5 5 5 3 3 5 5 5 5 5 3 5 5 5 5 5 5 5 3 5 5 5 3 5 3 5 5 3 5 5 5 5 5 5 5 5 5 3 5 5 3 5 5 5 5 5 5 5 5 5 5 5 3 5 5 5 5 5 5 5 5 5 5 5 5 5 5 5 5 5 5 5 5 5 5 3 5 5 5 5 5 5 5 5 5 5 5 3 5 5 5 5 3 5 5 5 5 5 5 5 5 5 5 5 3 5 5 5 5 5 3 5 3 5 5 5 5 5 5 5 5 5 3 5 5 3 5 5 3 5 5 5 5 3 5 5 5 5 5 5 5 5 5 5 5 5 5 5 5 5 5 5 5 5 5 3 5 5 3 5 3 5 5 5 5 5 5 5 5 5 3 5 5 3 3 3 5 5 5 3 5 5 5 5 5 5 3 3 5 3 5 5 3 5 5 3 5 5 5 5 3 5 5 5 5 3 5 5 5 5 5 5 5 5 5 5 5 3 5 5 3 5 3 3 5 5 3 3 3 5 5 5 5 5 5 5 5 5 5 3 5 5 5 5 5 5 5 5 5 3 5 5 5 5 5 3 5 5 5 5 5 5 5 5 5 5 3 5 5 5 5 5 5 5 5 5 5 5 5 5 5 5 5 5 5 5 5 5 5 5 5 3 3 5 5 5 5 5 5 5 5 3 5 5 5 5 5 5 5 5 5 5 5 5 5 5 5 5 3 5 5 5 5 3 5 5 5 3 3 5 5 5 5 5 5 3 5 3 5 5 5 3 5 5 5 5 5 5 5 5 3 5 3 3 5 5 5 5 5 5 5 5 5 5 5 5 3 5 5 3 5 3 5 5 5 5 5 5 5 5 5 5 5 5 5 5 5 5 5 5 5 5 5 5 5 3 5 5 5 5 5 3 5 5 5 5 5 5 5 5 5 5 3 5 5 5 3 5 5 5 5 5 5 5 5 5 5 5 3 3 5 5 5 5 5 3 5 5 5 3 5 5 5 5 5 5 5 5 5 5 3 5 5 5 5 5 5 5 3 3 5 3 5 5 5 5 3 5 5 5 5 5 3 5 5 5 5 5 5 5 5 5 5 3 5 5 5 5 5 5 5 5 5 5 3 5 5 5 5 5 5 5 3 5 5 5 5 5 5 5 5 5 5 5 5 5 5 5 5 5 5 5 5 3 5 5 5 3 5 5 5 5 5 5 5 5 5 5 5 5 5 3 5 3 3 5 3 3 5 5 5 5 5 3 5 5 5 5 5 5 5 3 5 5 3 5 5 3 5 5 3 5 5 3 3 3 3 5 5 3 3 5 5 3 5 5 3 5 5 5 5 3 3 3 3 5 5 5 3 5 3 5 3 5 3 3 5 5 5 5 5 5 5 3 5 5 3 5 3 5 5 3 3 5 5 5 5 5 5 5 5 5 5 5 5 5 5 5 5 5 3 5 5 5 5 5 5 5 5 5 5 5 5 5 5 5 5 5 3 5 5 5 5 5 5 5 5 5 5 5 5 5 5 3 3 5 5 5 5 3 5 3 5 5 5 3 3 5 3 5 5 5 5 5 5 5 5 5 5 5 5 5 5 5 5 5 5 5 3 5 3 5 5 5 5 3 5 5 5 5 5 5 5 5 5 5 5 5 5 5 5 5 5 5 5 5 3 5 5 5 5 5 5 5 5 5 5 5 5 5 5 3 5 5 5 5 5 5 5 5 5 5 5 5 5 5 5 5 5 5 5 5 5 5 5 5 5 5 5 5 5 5 5 5 5 5 5 5 5 5 5 5 5 5 5 5 5 5 5 5 5 5 5 5 5 5 5 5 5 5 5 5 5 5 3 5 5 5 3 5 5 3 5 5 5 5 5 5 5 5 5 5 5 3 5 5 5 5 3 5 5 5 5 5 5 5 5 5 5 5 5 5 5 5 5 5 5 5 5 5 5 5 5 5 5 5 5 5 3 5 5 5 5 3 5 5 5 5 5 5 5 5 5 5 3 5 5 3 5 5 5 5 5 5 5 5 5 5 5 5 3 5 5 5 5 5 5 5 5 3 5 5 5 5 5 5 5 5 5 5 3 5 3 5 5 5 3 5 5 5 3 5 3 5 3 3 5 5 5 5 5 3 5 5 5 5 5 5 5 5 5 5 5 5 5 5 5 5 5 5 5 5 5 5 5 3 5 5 3 5 5 5 3 5 3 5 5 5 5 5 5 5 5 5 5 5 5 3 5 5 5 5 5 5 5 5 5 5 5 5 5 5 5 5 5 5 5 3 5 5 5 5 5 5 5 5 5 5 5 5 5 5 5 5 5 5 5 5 5 5 5 5 5 5 5 3 5 5 5 5 5 5 5 5 5 5 5 5 5 5 5 5 5 5 3 5 5 5 3 5 5 5 3 3 5 5 5 5 5 3 5 5 5 5 5 5 5 3 3 5 5 5 3 5 3 5 5 5 5 5 5 3 3 5 5 3 3 5 5 5 5 5 5 5 5 5 5 3 5 5 5 5 5 5 3 5 5 5 5 5 5 5 5 5 5 5 5 5 5 5 5 5 3 5 5 5 5 3 5 5 3 5 5 5 5 5 5 5 5 5 5 5 3 5 3 5 3 5 5 5 5 5 5 5 5 5 5 5 5 5 5 5 5 5 5 5 3 5 5 3 5 5 5 3 5 5 3 5 5 5 5 3 5 5 5 5 5 5 5 3 5 5 5 5 5 5 5 5 5 5 5 5 5 5 5 5 5 5 5 5 5 5 5 5 5 5 5 5 5 3 5 5 5 5 5 5 5 5 5 5 5 5 5 5 5 5 5 5 5 5 5 5 5 5 5 5 5 5 5 5 5 5 5 5 5 5 5 3 3 3 5 5 3 5 5 5 3 5 3 5 5 5 5 5 3 5 5 5 5 5 5 5 3 5 5 5 5 5 5 5 5 5 5 5 5 5 5 3 5 5 5 3 5 3 5 5 5 5 5 5 5 5 3 5 5 5 5 5 5 5 3 5 3 5 3 5 5 5 5 5 5 5 5 3 5 5 3 3 3 5 3 5 3 5 5 5 5 5 5 5 5 5 5 5 5 5 5 5 5 5 5 5 5 5 3 5 5 3 3 5 5 5 3 5 5 5 5 5 5 5 3 5 3 5 5 5 5 3 5 5 3 5 5 5 5 5 5 5 3 5 5 3 5 5 5 3 5 5 5 5 5 5 5 5 5 3 5 5 5 5 5 5 3 5 5 3 5 5 5 5 3 5 5 5 5 5 5 3 3 3 5 5 5 3 5 3 5 3 5 5 5 5 5 5 3 5 5 5 3 5 5 5 3 5 5 5 5 5 5 5 5 5 5 5 5 3 5 5 5 3 5 5 5 5 5 3 3 5 5 3 5 3 3 3 5 5 5 3 5 5 5 5 5 3 5 5 5 5 5 5 5 5 5 5 5 5 3 5 5 5 5 5 5 3 5 5 3 5 5 3 5 5 5 5 5 3 5 5 3 5 3 5 3 5 5 5 5 5 5 3 5 5 5 5 3 5 5 5 5 5 5 5 5 5 5 3 5 5 5 5 5 3 5 5 5 5 5 5 5 5 5 5 5 5 5 5 5 3 5 5 5 5 5 3 5 3 5 5 5 5 5 3 5 5 5 5 5 3 5 5 5 5 5 3 5 5 5 5 5 5 5 5 5 5 3 5 3 5 3 5 5 3 5 5 5 5 5 5 5 5 3 5 3 5 5 5 5 5 5 5 5 5 5 3 5 5 5 5 5 5 5 5 5 5 3 5 5 5 3 5 3 3 5 5 5 3 5 5 5 3 3 5 5 5 5 5 5 5 5 5 5 3 3 5 5 5 5 5 3 5 5 5 5 5 5 5 5 5 5 3 5 3 3 3 5 5 5 5 5 5 5 5 3 5 5 5 5 5 5 5 5 5 5 5 5 5 5 5 5 5 5 5 5 5 5 5 5 5 5 5 5 5 3 5 5 5 5 3 5 5 5 5 5 5 5 5 3 5 5 5 5 5 5 5 5 3 5 5 5 5 5 5 5 5 5 5 5 5 5 5 5 5 5 5 5 5 5 5 5 5 5 5 3 5 5 5 5 5 5 3 5 3 5 5 3 5 5 5 3 5 3 5 5 5 3 5 5 5 3 5 5 5 5 5 5 3 5 5 5 5 5 5 5 5 5 5 5 5 5 5 5 5 5 5 5 5 5 5 5 5 5 5 5 3 5 3 5 5 5 5 3 5 5 5 5 5 5 5 5 5 5 5 5 5 3 5 5 3 5 5 3 5 5 5 5 5 3 5 5 5 5 5 5 5 5 3 5 3 5 5 5 5 5 3 3 5 5 3 5 5 5 3 5 5 5 5 5 5 5 3 5 5 5 5 5 5 5 5 5 5 5 5 5 5 5 5 3 5 5 5 5 5 3 5 3 5 5 5 5 5 5 5 5 5 5 5 5 3 5 3 5 5 5 5 5 5 3 3 5 5 5 5 5 5 5 5 5 5 5 5 5 5 5 5 5 5 5 5 5 3 5 5 3 5 5 5 5 5 3 5 5 5 5 5 5 3 5 5 5 5 5 5 5 5 5 5 5 5 5 5 5 5 3 5 5 3 5 5 5 5 3 5 5 5 5 5 5 5 5 5 5 5 3 5 5 5 5 5 5 5 5 5 5 5 5 5 5 5 5 5 5 5 3 5 5 5 5 5 5 5 5 5 5 5 5 3 5 5 5 5 5 5 5 5 5 5 5 5 5 3 3 5 5 5 5 5 5 3 5 5 5 5 5 5 5 5 5 5 5 5 5 5 5 5 5 5 5 5 5 5 5 5 5 5 5 5 5 5 5 5 5 5 5 3 5 5 5 5 5 5 5 5 3 5 5 5 5 5 5 5 5 5 5 5 5 3 5 5 5 5 3 5 3 5 5 5 5 5 5 5 5 3 5 5 5 5 5 5 5 5 5 5 3 5 5 5 3 5 5 3 5 5 5 5 3 5 5 3 5 5 5 5 5 5 5 5 3 5 5 5 3 5 5 5 5 5 5 5 3 5 3 5 3 5 3 3 5 5 5 3 3 3 5 5 3 5 5 5 3 5 5 5 5 3 5 5 5 5 5 5 5 5 5 5 5 5 5 5 5 5 5 5 5 5 5 5 5 5 5 5 5 5 5 5 5 5 5 5 5 5 5 5 3 5 5 5 5 5 5 5 5 3 5 5 5 5 3 5 5 3 5 5 3 5 5 5 5 3 5 5 5 5 5 3 5 5 5 5 5 5 5 5 5 5 5 5 5 3 3 5 5 5 3 5 5 5 5 5 5 5 5 5 5 5 5 5 5 3 5 5 5 5 5 5 3 5 5 3 5 5 5 5 5 5 5 5 5 5 3 5 5 5 5 5 3 5 5 5 5 5 5 5 5 5 5 3 5 5 5 5 5 5 5 5 5 5 5 5 5 5 5 3 5 5 5 5 5 5 5 5 5 5 5 5 5 5 5 5 5 5 5 5 5 5 5 3 5 3 5 5 5 3 5 5 5 5 5 5 5 5 5 3 5 5 5 3 5 5 5 5 5 5 5 5 5 5 5 5 5 5 5 5 3 5 5 5 5 5 3 5 5 5 3 5 3 5 5 5 5 5 5 3 5 5 5 5 5 5 5 5 5 5 5 5 5 5 5 5 5 5 5 5 5 5 5 5 5 5 5 3 5 5 3 5 5 5 5 5 5 5 3 5 5 5 5 3 5 5 3 5 5 5 5 5 5 3 5 5 5 3 5 5 5 3 5 5 5 5 5 3 5 5 5 5 5 3 5 5 5 5 5 5 5 5 3 5 5 3 5 5 5 5 3 5 5 5 5 3 5 5 5 5 3 5 5 5 3 5 3 5 5 5 5 5 5 5 5 5 5 3 5 5 5 5 5 5 5 3 3 5 5 5 5 5 3 5 5 5 5 5 3 5 5 5 3 5 5 3 5 5 3 5 5 5 3 5 5 5 5 5 5 3 5 5 5 5 5 3 5 5 5 5 5 3 5 5 5 5 5 5 3 5 5 5 5 3 5 5 5 5 5 3 5 5 5 5 5 5 5 5 5 5 3 5 5 5 5 5 5 5 3 5 5 5 5 3 3 5 5 3 5 5 5 5 5 5 5 3 5 5 5 5 5 5 5 3 5 3 5 5 3 5 5 5 5 3 5 3 5 5 5 5 5 5 5 5 5 5 3 5 5 5 5 5 3 5 5 5 3 5 5 5 5 3 5 5 3 5 5 5 5 5 3 5 3 5 3 3 5 5 5 5 3 3 5 5 5 5 5 5 5 5 5 5 5 5 5 3 5 5 5 5 5 5 3 3 5 5 5 5 5 5 5 5 5 5 5 5 5 3 5 5 5 5 5 5 5 5 5 5 5 5 5 5 5 5 5 5 5 5 5 5 5 5 5 5 5 5 5 5 5 5 5 3 5 5 3 5 5 5 5 5 5 5 3 5 5 5 3 5 5 3 5 5 5 3 3 5 5 5 5 3 3 5 5 5 5 5 5 5 5 5 5 5 5 5 5 3 5 5 3 5 5 5 3 5 5 5 5 3 5 5 3 5 5 5 5 5 5 5 5 5 5 5 3 5 5 5 5 5 5 5 3 5 5 5 5 5 5 5 5 5 5 5 5 5 5 5 5 5 5 3 5 5 5 5 5 5 3 5 3 5 5 5 5 5 3 5 5 3 5 5 5 3 5 5 5 3 5 5 5 5 5 5 5 5 5 5 5 5 5 5 3 5 5 5 5 3 3 5 5 5 5 5 5 5 5 5 5 5 5 5 5 5 5 5 5 5 3 5 5 5 5 5 5 5 5 3 5 3 5 5 5 5 5 5 5 3 5 3 5 5 5 5 5 3 5 5 5 5 5 5 3 5 5 5 5 5 3 3 5 5 5 3 3 3 5 5 5 5 5 3 5 5 5 5 5 3 5 5 5 5 3 5 3 3 5 3 3 5 5 5 3 5 5 5 3 5 5 5 3 5 5 5 3 5 5 5 5 5 5 5 5 3 5 5 5 3 5 5 5 5 5 5 3 5 5 5 5 5 5 3 5 5 5 5 5 5 5 5 5 5 5 5 5 5 3 5 3 5 5 5 3 5 5 3 5 3 5 3 5 5 3 5 5 5 5 5 5 3 5 5 5 5 3 5 5 5 5 5 5 3 5 5 5 5 5 5 5 5 5 5 3 5 5 5 5 5 5 5 5 5 5 5 5 5 5 5 5 5 5 5 3 3 5 5 5 3 5 5 3 5 5 3 5 5 3 5 5 3 3 5 5 5 5 3 5 5 5 5 5 5 5 5 5 5 5 3 3 5 5 5 3 5 3 5 3 5 5 5 5 5 3 5 5 3 5 3 5 5 3 3 3 5 5 5 5 3 5 5 3 5 3 5 5 3 5 5 5 5 5 5 5 5 3 5 3 3 5 5 5 5 5 3 3 5 5 5 3 3 5 5 5 5 5 5 5 5 3 5 3 5 5 5 5 5 5 5 5 5 5 5 5 5 5 5 5 5 5 5 5 5 5 5 5 5 5 5 5 5 3 5 5 5 5 5 5 5 5 5 5 5 5 5 5 5 3 5 5 3 5 5 5 5 5 3 5 5 5 5 5 5 5 5 5 5 5 5 5 3 5 5 5 5 5 5 5 5 5 3 5 5 3 5 5 5 5 3 3 3 5 5 5 5 5 3 5 5 5 
</DataArray>
</Cells>
<PointData Scalars="" Vectors="displacement," Tensors="">
<DataArray type="Float64" Name="displacement" NumberOfComponents="3" format="ascii">
1.4603840922419657e-06 -0.10223231167959715 0 -9.7390016752626472e-07 -0.10499413985685116 0 4.7448154757250761e-07 -0.10491653934471307 0 -9.7390016752626472e-07 -0.10499413985685116 0 4.7448154757250761e-07 -0.10491653934471307 0 4.8315442690570199e-07 -0.10500258050170223 0 3.3342512396261677e-07 -0.10222533704178843 0 -1.0996662440245141e-05 -0.10353984002015337 0 -4.168453118503762e-07 -0.10221675658553896 0 -0.00056443551062901581 -0.10064130372261791 0 -0.00053403208157126183 -0.10165981536929439 0 -4.168453118503762e-07 -0.10221675658553896 0 -0.00056443551062901581 -0.10064130372261791 0 -3.0808361338240427e-06 -0.09786005537545428 0 -0.00056443551062901581 -0.10064130372261791 0 -0.00034232651181434709 -0.10272579590632004 0 -0.00047560761473150481 -0.10199491738081939 0 -0.00056443551062901581 -0.10064130372261791 0 -0.00053403208157126183 -0.10165981536929439 0 -0.00034232651181434709 -0.10272579590632004 0 -1.0996662440245141e-05 -0.10353984002015337 0 -4.9652593947999663e-07 -0.10499752689683323 0 -0.00053403208157126183 -0.10165981536929439 0 -3.5959775235469536e-06 -0.104992904131694 0 -0.00034232651181434709 -0.10272579590632004 0 -3.5959775235469536e-06 -0.104992904131694 0 -0.00034232651181434709 -0.10272579590632004 0 -0.00034106635315480727 -0.10366209658747243 0 -0.00034232651181434709 -0.10272579590632004 0 -0.00034106635315480727 -0.10366209658747243 0 -0.00047560761473150481 -0.10199491738081939 0 -0.00053135939562311903 -0.10285660249921524 0 -0.00034106635315480727 -0.10366209658747243 0 -0.00047560761473150481 -0.10199491738081939 0 -0.00053135939562311903 -0.10285660249921524 0 -0.00034106635315480727 -0.10366209658747243 0 -0.00026548858256421451 -0.10371805891370152 0 -0.00034106635315480727 -0.10366209658747243 0 9.1635075598947542e-07 -0.10499851165418547 0 -0.00026548858256421451 -0.10371805891370152 0 -3.5959775235469536e-06 -0.104992904131694 0 -0.00034106635315480727 -0.10366209658747243 0 9.1635075598947542e-07 -0.10499851165418547 0 -0.00066502203009186306 -0.10187686815273671 0 -0.0021288572160549309 -0.1001482710535012 0 -0.0014388434011664798 -0.10150079968707125 0 -0.00053135939562311903 -0.10285660249921524 0 -0.00066502203009186306 -0.10187686815273671 0 -0.00047560761473150481 -0.10199491738081939 0 -0.00053135939562311903 -0.10285660249921524 0 -0.00066502203009186306 -0.10187686815273671 0 -0.00083768865874624067 -0.10248619496799029 0 -0.00066502203009186306 -0.10187686815273671 0 -0.00047560761473150481 -0.10199491738081939 0 0.00078192985747250576 -0.10128969278045341 0 -0.00066502203009186306 -0.10187686815273671 0 0.00078192985747250576 -0.10128969278045341 0 -0.0021288572160549309 -0.1001482710535012 0 -0.00045255132984463992 -0.095994625598312178 0 -0.0006564662872357484 -0.097624428220356427 0 -0.00047560761473150481 -0.10199491738081939 0 0.00078192985747250576 -0.10128969278045341 0 -0.00052263237024569183 -0.099119388140320022 0 -0.00056443551062901581 -0.10064130372261791 0 -0.00047560761473150481 -0.10199491738081939 0 -0.00052263237024569183 -0.099119388140320022 0 -0.00056443551062901581 -0.10064130372261791 0 -0.00052263237024569183 -0.099119388140320022 0 -3.0808361338240427e-06 -0.09786005537545428 0 -0.00052263237024569183 -0.099119388140320022 0 -3.0808361338240427e-06 -0.09786005537545428 0 5.8141490170402139e-06 -0.093504884790679241 0 -0.00045255132984463992 -0.095994625598312178 0 -1.127988506964346e-06 -0.093497466740534871 0 -0.0024788228645216469 -0.090600090129761071 0 -6.9841061622044978e-07 -0.093484714062708668 0 -0.0010134831599665512 -0.090132284740715343 0 0.00078192985747250576 -0.10128969278045341 0 -0.00052263237024569183 -0.099119388140320022 0 5.8141490170402139e-06 -0.093504884790679241 0 -6.9841061622044978e-07 -0.093484714062708668 0 -0.0010134831599665512 -0.090132284740715343 0 -2.6206311034176239e-06 -0.087346752865754176 0 -0.0010134831599665512 -0.090132284740715343 0 -2.6206311034176239e-06 -0.087346752865754176 0 -9.8674958933212049e-05 -0.089445697033423838 0 -2.6206311034176239e-06 -0.087346752865754176 0 -9.8674958933212049e-05 -0.089445697033423838 0 0.00024525731002051536 -0.086193953672505069 0 -0.0024788228645216469 -0.090600090129761071 0 -0.0010134831599665512 -0.090132284740715343 0 -9.8674958933212049e-05 -0.089445697033423838 0 4.5978115372060273e-06 -0.081190958978563307 0 0.0019668020918233559 -0.087477823426794804 0 0.00070950824463701418 -0.077944125570249573 0 -0.00011250492008642402 -0.082598479086142318 0 -5.6253963688082748e-05 -0.081868473302955783 0 4.5978115372060273e-06 -0.081190958978563307 0 0.00024525731002051536 -0.086193953672505069 0 0.0019668020918233559 -0.087477823426794804 0 -2.6206311034176239e-06 -0.087346752865754176 0 4.5978115372060273e-06 -0.081190958978563307 0 0.00024525731002051536 -0.086193953672505069 0 -9.8674958933212049e-05 -0.089445697033423838 0 0.00024525731002051536 -0.086193953672505069 0 0.0019668020918233559 -0.087477823426794804 0 -9.8674958933212049e-05 -0.089445697033423838 0 0.0019668020918233559 -0.087477823426794804 0 0.0019100246999633949 -0.093524500362146448 0 0.00070817793516136419 -0.071488116905976187 0 0.00036915012116323418 -0.073071331014651048 0 0.00050458094662448271 -0.071743661973266815 0 0.00070817793516136419 -0.071488116905976187 0 0.00070950824463701418 -0.077944125570249573 0 0.00036915012116323418 -0.073071331014651048 0 -0.00061774585586616857 -0.072620170075940779 0 0.00050458094662448271 -0.071743661973266815 0 0.00070937231838645522 -0.072550199015710234 0 0.00070817793516136419 -0.071488116905976187 0 -0.00061774585586616857 -0.072620170075940779 0 0.00050458094662448271 -0.071743661973266815 0 -0.00011250492008642402 -0.082598479086142318 0 -0.00085289422623836245 -0.085062932232057978 0 0.00070817793516136419 -0.071488116905976187 0 -0.00061774585586616857 -0.072620170075940779 0 -0.0033942217094691477 -0.072259049117204363 0 -0.0030899960967030082 -0.074056765338143871 0 -0.005494063044590082 -0.073550556190949981 0 -0.0033855376736358642 -0.076472644021725003 0 -0.00061774585586616857 -0.072620170075940779 0 -0.0030899960967030082 -0.074056765338143871 0 -0.0016070762019552568 -0.075275616219022332 0 -0.00061774585586616857 -0.072620170075940779 0 -0.0030899960967030082 -0.074056765338143871 0 -0.0033942217094691477 -0.072259049117204363 0 -0.00061774585586616857 -0.072620170075940779 0 0.00052255154885198101 -0.074984553084858199 0 -0.0016070762019552568 -0.075275616219022332 0 -0.00061774585586616857 -0.072620170075940779 0 0.00052255154885198101 -0.074984553084858199 0 0.00070937231838645522 -0.072550199015710234 0 -0.0024788228645216469 -0.090600090129761071 0 -0.00042961867646559523 -0.094608817898136743 0 -0.0021288572160549309 -0.1001482710535012 0 -0.0024788228645216469 -0.090600090129761071 0 -9.8674958933212049e-05 -0.089445697033423838 0 -0.00042961867646559523 -0.094608817898136743 0 -0.00042961867646559523 -0.094608817898136743 0 0.0019100246999633949 -0.093524500362146448 0 0.001180990977481994 -0.097128795433992915 0 -9.8674958933212049e-05 -0.089445697033423838 0 -0.00042961867646559523 -0.094608817898136743 0 0.0019100246999633949 -0.093524500362146448 0 -0.0030899960967030082 -0.074056765338143871 0 -0.0033942217094691477 -0.072259049117204363 0 -0.005494063044590082 -0.073550556190949981 0 -0.00085289422623836245 -0.085062932232057978 0 -0.0012973657236789364 -0.086851452821750358 0 -0.0012973657236789364 -0.086851452821750358 0 -0.0022055354413123931 -0.088638524490902509 0 -0.00042961867646559523 -0.094608817898136743 0 -0.00098301934947569872 -0.10057934929554929 0 -0.0021288572160549309 -0.1001482710535012 0 -0.00042961867646559523 -0.094608817898136743 0 0.001180990977481994 -0.097128795433992915 0 -0.00098301934947569872 -0.10057934929554929 0 -0.00098301934947569872 -0.10057934929554929 0 -0.0021288572160549309 -0.1001482710535012 0 -0.0017255271017361789 -0.10111778017423795 0 -0.0017255271017361789 -0.10111778017423795 0 -0.0016450019585574815 -0.10107004848743796 0 -0.0017460584178878059 -0.10145210740982689 0 -0.00098301934947569872 -0.10057934929554929 0 -0.0017255271017361789 -0.10111778017423795 0 -0.0016450019585574815 -0.10107004848743796 0 -0.005494063044590082 -0.073550556190949981 0 -0.006452064625547543 -0.07890947296944964 0 -0.0033855376736358642 -0.076472644021725003 0 -0.0007075081498476056 -0.1004072585607223 0 -0.00098301934947569872 -0.10057934929554929 0 -0.0016450019585574815 -0.10107004848743796 0 -0.0007075081498476056 -0.1004072585607223 0 -0.0016450019585574815 -0.10107004848743796 0 -0.0021852293389396423 -0.10126332785488126 0 -0.0012973657236789364 -0.086851452821750358 0 -0.0031664376013733654 -0.089967948675573478 0 -0.0016450019585574815 -0.10107004848743796 0 -0.0021852293389396423 -0.10126332785488126 0 -0.0020246950370920399 -0.10115942285017622 0 -0.0021852293389396423 -0.10126332785488126 0 -0.0020246950370920399 -0.10115942285017622 0 -0.0023640274232391788 -0.1007225430533745 0 -0.0020246950370920399 -0.10115942285017622 0 -0.0023640274232391788 -0.1007225430533745 0 -0.0017460584178878059 -0.10145210740982689 0 -0.0016450019585574815 -0.10107004848743796 0 -0.0020246950370920399 -0.10115942285017622 0 -0.0017460584178878059 -0.10145210740982689 0 0.00052255154885198101 -0.074984553084858199 0 -0.0010250881615484059 -0.07706464384783214 0 0.00076316414528857402 -0.078537376789780858 0 0.00052255154885198101 -0.074984553084858199 0 -0.0010250881615484059 -0.07706464384783214 0 -0.0016070762019552568 -0.075275616219022332 0 -0.0010250881615484059 -0.07706464384783214 0 -0.0016070762019552568 -0.075275616219022332 0 -0.0033855376736358642 -0.076472644021725003 0 -0.0030899960967030082 -0.074056765338143871 0 -0.0016070762019552568 -0.075275616219022332 0 -0.0033855376736358642 -0.076472644021725003 0 -0.006452064625547543 -0.07890947296944964 0 -0.0017483522678986691 -0.080518231027836201 0 -0.0031370332342802172 -0.084574193759411012 0 -0.0010250881615484059 -0.07706464384783214 0 -0.0033855376736358642 -0.076472644021725003 0 -0.0017483522678986691 -0.080518231027836201 0 -0.006452064625547543 -0.07890947296944964 0 -0.0033855376736358642 -0.076472644021725003 0 -0.0017483522678986691 -0.080518231027836201 0 -0.0010250881615484059 -0.07706464384783214 0 -0.0017483522678986691 -0.080518231027836201 0 0.00076316414528857402 -0.078537376789780858 0 -0.0017483522678986691 -0.080518231027836201 0 0.00076316414528857402 -0.078537376789780858 0 0.0011021210411741422 -0.081719994719227057 0 0.00039477825527267326 -0.084661848559248604 0 0.0011021210411741422 -0.081719994719227057 0 0.0030705490407809109 -0.083957654244558214 0 -0.0017483522678986691 -0.080518231027836201 0 0.00039477825527267326 -0.084661848559248604 0 0.0011021210411741422 -0.081719994719227057 0 -0.0017483522678986691 -0.080518231027836201 0 0.00039477825527267326 -0.084661848559248604 0 -0.0031370332342802172 -0.084574193759411012 0 -0.0031370332342802172 -0.084574193759411012 0 -0.0069018751639791671 -0.086742303126383605 0 -0.0030274298696649229 -0.090599487310472418 0 -0.0031370332342802172 -0.084574193759411012 0 0.0006759627075761536 -0.090254159802181058 0 -0.0030274298696649229 -0.090599487310472418 0 0.00039477825527267326 -0.084661848559248604 0 -0.0031370332342802172 -0.084574193759411012 0 0.0006759627075761536 -0.090254159802181058 0 0.00039477825527267326 -0.084661848559248604 0 0.0006759627075761536 -0.090254159802181058 0 0.0030155870890062686 -0.08721938387763857 0 -0.0021852293389396423 -0.10126332785488126 0 -0.0023640274232391788 -0.1007225430533745 0 -0.0039680775220935398 -0.099976211356638464 0 -0.006452064625547543 -0.07890947296944964 0 -0.0031370332342802172 -0.084574193759411012 0 -0.0069018751639791671 -0.086742303126383605 0 -0.0031664376013733654 -0.089967948675573478 0 -0.0041233154140959266 -0.092745861295795123 0 -0.0039680775220935398 -0.099976211356638464 0 -0.0028727972988534713 -0.099432190472351814 0 -0.0037034391078922639 -0.0975166551996383 0 -0.0028727972988534713 -0.099432190472351814 0 -0.0019003069137891702 -0.099796547744589528 0 -0.0027951124032139143 -0.098281498387609273 0 -0.0023640274232391788 -0.1007225430533745 0 -0.0028727972988534713 -0.099432190472351814 0 -0.0019003069137891702 -0.099796547744589528 0 -0.0023640274232391788 -0.1007225430533745 0 -0.0039680775220935398 -0.099976211356638464 0 -0.0028727972988534713 -0.099432190472351814 0 -0.0019003069137891702 -0.099796547744589528 0 -0.0014878737256585018 -0.10129999793673479 0 -0.00090461534507180826 -0.10053495866639417 0 -0.0023640274232391788 -0.1007225430533745 0 -0.0019003069137891702 -0.099796547744589528 0 -0.0014878737256585018 -0.10129999793673479 0 -0.0014878737256585018 -0.10129999793673479 0 -0.00090461534507180826 -0.10053495866639417 0 -0.00059712619826705947 -0.10178339471898304 0 -0.0019003069137891702 -0.099796547744589528 0 -0.00090461534507180826 -0.10053495866639417 0 -0.0010438777293497574 -0.099201892745178349 0 -0.00090461534507180826 -0.10053495866639417 0 5.1475979448490436e-05 -0.099843553913689528 0 -0.0010438777293497574 -0.099201892745178349 0 5.1475979448490436e-05 -0.099843553913689528 0 0.0013646511473259049 -0.10094754047463575 0 -0.0001296108806633413 -0.10111382740761343 0 -0.00090461534507180826 -0.10053495866639417 0 5.1475979448490436e-05 -0.099843553913689528 0 -0.0001296108806633413 -0.10111382740761343 0 3.0829691145552647e-05 -0.10332185170473411 0 -0.00032727067270128758 -0.10416567029807368 0 6.0651964263123165e-05 -0.10510050755699532 0 -4.5269291729212173e-09 -0.10499816292042422 0 1.112000628898537e-07 -0.10500121691422454 0 6.0651964263123165e-05 -0.10510050755699532 0 -2.33423130938456e-05 -0.10499076159918663 0 1.112000628898537e-07 -0.10500121691422454 0 5.1475979448490436e-05 -0.099843553913689528 0 0.0013646511473259049 -0.10094754047463575 0 0.001497031496481701 -0.099040758001992954 0 3.0829691145552647e-05 -0.10332185170473411 0 0.00010145858399012371 -0.10339784701384322 0 0.0013646511473259049 -0.10094754047463575 0 -0.0001296108806633413 -0.10111382740761343 0 -1.0841229695429787e-06 -0.10238813060509169 0 6.0651964263123165e-05 -0.10510050755699532 0 -4.5269291729212173e-09 -0.10499816292042422 0 0.00033404581625597627 -0.10419791828752502 0 0.0013646511473259049 -0.10094754047463575 0 -1.0841229695429787e-06 -0.10238813060509169 0 0.00033404581625597627 -0.10419791828752502 0 -0.00090461534507180826 -0.10053495866639417 0 -0.0001296108806633413 -0.10111382740761343 0 -0.00059712619826705947 -0.10178339471898304 0 -0.0001296108806633413 -0.10111382740761343 0 -1.0841229695429787e-06 -0.10238813060509169 0 -0.00059712619826705947 -0.10178339471898304 0 -0.00059712619826705947 -0.10178339471898304 0 -0.00040323696454222838 -0.10308595821610454 0 -0.00098639311427960868 -0.10216091822244149 0 -1.0841229695429787e-06 -0.10238813060509169 0 -0.00040323696454222838 -0.10308595821610454 0 0.00033404581625597627 -0.10419791828752502 0 -1.0841229695429787e-06 -0.10238813060509169 0 -0.00059712619826705947 -0.10178339471898304 0 -0.00040323696454222838 -0.10308595821610454 0 -0.00040323696454222838 -0.10308595821610454 0 0.00033404581625597627 -0.10419791828752502 0 -4.2956793333916925e-05 -0.10403172226816129 0 -4.5269291729212173e-09 -0.10499816292042422 0 0.00033404581625597627 -0.10419791828752502 0 9.1635075598947542e-07 -0.10499851165418547 0 0.00033404581625597627 -0.10419791828752502 0 -4.2956793333916925e-05 -0.10403172226816129 0 9.1635075598947542e-07 -0.10499851165418547 0 -4.2956793333916925e-05 -0.10403172226816129 0 9.1635075598947542e-07 -0.10499851165418547 0 -0.00026548858256421451 -0.10371805891370152 0 -0.00053135939562311903 -0.10285660249921524 0 -0.00026548858256421451 -0.10371805891370152 0 -0.00083768865874624067 -0.10248619496799029 0 -0.00040323696454222838 -0.10308595821610454 0 -0.00026548858256421451 -0.10371805891370152 0 -0.00083768865874624067 -0.10248619496799029 0 -0.00040323696454222838 -0.10308595821610454 0 -4.2956793333916925e-05 -0.10403172226816129 0 -0.00026548858256421451 -0.10371805891370152 0 -0.00066502203009186306 -0.10187686815273671 0 -0.00083768865874624067 -0.10248619496799029 0 -0.0014388434011664798 -0.10150079968707125 0 -0.00083768865874624067 -0.10248619496799029 0 -0.0013628708954952363 -0.10183009405959265 0 -0.00098639311427960868 -0.10216091822244149 0 -0.00083768865874624067 -0.10248619496799029 0 -0.0014388434011664798 -0.10150079968707125 0 -0.0013628708954952363 -0.10183009405959265 0 -0.0021288572160549309 -0.1001482710535012 0 -0.0017255271017361789 -0.10111778017423795 0 -0.0014388434011664798 -0.10150079968707125 0 -0.0017255271017361789 -0.10111778017423795 0 -0.0014388434011664798 -0.10150079968707125 0 -0.0017460584178878059 -0.10145210740982689 0 -0.0014388434011664798 -0.10150079968707125 0 -0.0013628708954952363 -0.10183009405959265 0 -0.0017460584178878059 -0.10145210740982689 0 -0.0023640274232391788 -0.1007225430533745 0 -0.0014878737256585018 -0.10129999793673479 0 -0.0017460584178878059 -0.10145210740982689 0 -0.0014878737256585018 -0.10129999793673479 0 -0.0013628708954952363 -0.10183009405959265 0 -0.0017460584178878059 -0.10145210740982689 0 -0.0014878737256585018 -0.10129999793673479 0 -0.0013628708954952363 -0.10183009405959265 0 -0.00098639311427960868 -0.10216091822244149 0 -0.0014878737256585018 -0.10129999793673479 0 -0.00059712619826705947 -0.10178339471898304 0 -0.00098639311427960868 -0.10216091822244149 0 -0.00040323696454222838 -0.10308595821610454 0 -0.00083768865874624067 -0.10248619496799029 0 -0.00098639311427960868 -0.10216091822244149 0 -0.00034372881046664363 -0.060124910582156701 0 -0.00048784503681529136 -0.061838564506081654 0 0.00049172535513583257 -0.061423545311022364 0 -0.00034372881046664363 -0.060124910582156701 0 -0.0010337892763900584 -0.061652068207869504 0 -0.00048784503681529136 -0.061838564506081654 0 -0.00034372881046664363 -0.060124910582156701 0 0.00049172535513583257 -0.061423545311022364 0 0.00055746267168271921 -0.059615675884095942 0 -0.00034372881046664363 -0.060124910582156701 0 -0.0010337892763900584 -0.061652068207869504 0 -0.0010460866493785031 -0.060137222777363275 0 -0.0010337892763900584 -0.061652068207869504 0 -0.0010460866493785031 -0.060137222777363275 0 -0.001286680963187583 -0.062330721284464007 0 -0.0010460866493785031 -0.060137222777363275 0 -0.00032732372409174378 -0.055878204118456273 0 0.00015194767792765912 -0.057830868381102053 0 -0.00034372881046664363 -0.060124910582156701 0 -0.0010460866493785031 -0.060137222777363275 0 0.00015194767792765912 -0.057830868381102053 0 -0.00034372881046664363 -0.060124910582156701 0 0.00015194767792765912 -0.057830868381102053 0 0.00055746267168271921 -0.059615675884095942 0 -0.00032732372409174378 -0.055878204118456273 0 -1.1085316265278155e-06 -0.05658585861494389 0 -8.1919616707985371e-07 -0.050431726083095527 0 -0.00032732372409174378 -0.055878204118456273 0 -1.1085316265278155e-06 -0.05658585861494389 0 -0.00070424355473734949 -0.059900002990657931 0 -0.0010460866493785031 -0.060137222777363275 0 -0.00032732372409174378 -0.055878204118456273 0 -0.00070424355473734949 -0.059900002990657931 0 -0.0010460866493785031 -0.060137222777363275 0 -0.00070424355473734949 -0.059900002990657931 0 -0.00098321489439420263 -0.06304635677493424 0 -0.00070424355473734949 -0.059900002990657931 0 -1.6783639039615358e-06 -0.062736635915172603 0 -0.00098321489439420263 -0.06304635677493424 0 -1.1085316265278155e-06 -0.05658585861494389 0 -0.00070424355473734949 -0.059900002990657931 0 -1.6783639039615358e-06 -0.062736635915172603 0 -1.6783639039615358e-06 -0.062736635915172603 0 -0.00098321489439420263 -0.06304635677493424 0 -0.00022167207096419615 -0.066945443070853483 0 -0.00098321489439420263 -0.06304635677493424 0 -0.001286680963187583 -0.062330721284464007 0 -0.00041534247531469089 -0.064869576221847941 0 -0.0010460866493785031 -0.060137222777363275 0 -0.00098321489439420263 -0.06304635677493424 0 -0.001286680963187583 -0.062330721284464007 0 -0.0010337892763900584 -0.061652068207869504 0 -0.001286680963187583 -0.062330721284464007 0 -0.0011989820323631962 -0.062066025906585394 0 -0.001286680963187583 -0.062330721284464007 0 -0.00041534247531469089 -0.064869576221847941 0 -0.0010275556850950756 -0.062206010625404297 0 0.0027860197680924406 -0.060296711222608566 0 0.0038031613513691367 -0.059265402031689514 0 -0.00041534247531469089 -0.064869576221847941 0 0.0018434982480961233 -0.068800999115988123 0 0.0018647984174931258 -0.062981760485840588 0 0.0038932057047919009 -0.06920459372998139 0 0.0044153093191768855 -0.069637057988907361 0 -0.00041534247531469089 -0.064869576221847941 0 0.0018434982480961233 -0.068800999115988123 0 -0.00022167207096419615 -0.066945443070853483 0 -0.00098321489439420263 -0.06304635677493424 0 -0.00041534247531469089 -0.064869576221847941 0 -0.00022167207096419615 -0.066945443070853483 0 -1.6783639039615358e-06 -0.062736635915172603 0 -0.00022167207096419615 -0.066945443070853483 0 -1.371186092620287e-07 -0.068886862523313011 0 -0.00022167207096419615 -0.066945443070853483 0 -1.371186092620287e-07 -0.068886862523313011 0 0.00021236061952429716 -0.070744450167151238 0 -1.371186092620287e-07 -0.068886862523313011 0 3.3660051336353764e-07 -0.075037242668645199 0 0.00021236061952429716 -0.070744450167151238 0 0.0018434982480961233 -0.068800999115988123 0 -0.00022167207096419615 -0.066945443070853483 0 0.00021236061952429716 -0.070744450167151238 0 0.0018434982480961233 -0.068800999115988123 0 0.00047161132431480546 -0.071536420633297917 0 0.00021236061952429716 -0.070744450167151238 0 0.00047161132431480546 -0.071536420633297917 0 0.00021236061952429716 -0.070744450167151238 0 9.0558008412857375e-05 -0.073731009337351994 0 3.3660051336353764e-07 -0.075037242668645199 0 0.00021236061952429716 -0.070744450167151238 0 9.0558008412857375e-05 -0.073731009337351994 0 3.3660051336353764e-07 -0.075037242668645199 0 0.00070950824463701418 -0.077944125570249573 0 9.0558008412857375e-05 -0.073731009337351994 0 4.5978115372060273e-06 -0.081190958978563307 0 3.3660051336353764e-07 -0.075037242668645199 0 0.00070950824463701418 -0.077944125570249573 0 0.00070950824463701418 -0.077944125570249573 0 9.0558008412857375e-05 -0.073731009337351994 0 0.00036915012116323418 -0.073071331014651048 0 0.00047161132431480546 -0.071536420633297917 0 0.00036915012116323418 -0.073071331014651048 0 0.00050458094662448271 -0.071743661973266815 0 0.00047161132431480546 -0.071536420633297917 0 9.0558008412857375e-05 -0.073731009337351994 0 0.00036915012116323418 -0.073071331014651048 0 0.00050458094662448271 -0.071743661973266815 0 0.0010482048130167068 -0.071067416610673895 0 0.00070937231838645522 -0.072550199015710234 0 0.00047161132431480546 -0.071536420633297917 0 0.00050458094662448271 -0.071743661973266815 0 0.0010482048130167068 -0.071067416610673895 0 0.0018434982480961233 -0.068800999115988123 0 0.00047161132431480546 -0.071536420633297917 0 0.0010482048130167068 -0.071067416610673895 0 0.0018434982480961233 -0.068800999115988123 0 0.0010482048130167068 -0.071067416610673895 0 0.0020761946475440825 -0.073609521762418445 0 0.0018434982480961233 -0.068800999115988123 0 0.0020761946475440825 -0.073609521762418445 0 0.0048161196511025536 -0.074494686734451754 0 0.00052255154885198101 -0.074984553084858199 0 0.0020761946475440825 -0.073609521762418445 0 0.00070937231838645522 -0.072550199015710234 0 0.0010482048130167068 -0.071067416610673895 0 0.0020761946475440825 -0.073609521762418445 0 0.00070937231838645522 -0.072550199015710234 0 0.00052255154885198101 -0.074984553084858199 0 0.00076316414528857402 -0.078537376789780858 0 0.0025460356958365987 -0.076805183549825864 0 0.00052255154885198101 -0.074984553084858199 0 0.0020761946475440825 -0.073609521762418445 0 0.0025460356958365987 -0.076805183549825864 0 0.0020761946475440825 -0.073609521762418445 0 0.0025460356958365987 -0.076805183549825864 0 0.0036557193840060062 -0.076647816490260159 0 0.0020761946475440825 -0.073609521762418445 0 0.0036557193840060062 -0.076647816490260159 0 0.0048161196511025536 -0.074494686734451754 0 0.0025460356958365987 -0.076805183549825864 0 0.0036557193840060062 -0.076647816490260159 0 0.0027843726341363947 -0.078035316824537154 0 0.0048139808141582641 -0.079207187564425643 0 0.0060714219341152119 -0.073013706388953784 0 0.0036557193840060062 -0.076647816490260159 0 0.0027843726341363947 -0.078035316824537154 0 0.0052997392134114599 -0.078025155371868576 0 0.0025460356958365987 -0.076805183549825864 0 0.0052281848510377449 -0.080901078204880225 0 0.0034443476801178439 -0.081092192215106482 0 0.0048139808141582641 -0.079207187564425643 0 0.0047379306978124818 -0.079255620661005693 0 0.00076316414528857402 -0.078537376789780858 0 0.0025460356958365987 -0.076805183549825864 0 0.0034443476801178439 -0.081092192215106482 0 0.0045492220694962468 -0.078791312454187967 0 0.0048139808141582641 -0.079207187564425643 0 0.00076316414528857402 -0.078537376789780858 0 0.0011021210411741422 -0.081719994719227057 0 0.0034443476801178439 -0.081092192215106482 0 0.0011021210411741422 -0.081719994719227057 0 0.0034443476801178439 -0.081092192215106482 0 0.0030705490407809109 -0.083957654244558214 0 0.0061851756308362203 -0.080969320102410397 0 0.0045351431740374426 -0.082970584518779505 0 0.0055077918549074206 -0.085688625471156007 0 0.0034443476801178439 -0.081092192215106482 0 0.0045351431740374426 -0.082970584518779505 0 0.0030705490407809109 -0.083957654244558214 0 0.0061851756308362203 -0.080969320102410397 0 0.0034443476801178439 -0.081092192215106482 0 0.0045351431740374426 -0.082970584518779505 0 0.0055077918549074206 -0.085688625471156007 0 0.0030705490407809109 -0.083957654244558214 0 0.0030155870890062686 -0.08721938387763857 0 0.0045351431740374426 -0.082970584518779505 0 0.0055077918549074206 -0.085688625471156007 0 0.0030705490407809109 -0.083957654244558214 0 0.00039477825527267326 -0.084661848559248604 0 0.0030705490407809109 -0.083957654244558214 0 0.0030155870890062686 -0.08721938387763857 0 0.0055077918549074206 -0.085688625471156007 0 0.0030155870890062686 -0.08721938387763857 0 0.0044796775833494335 -0.090105004654790807 0 0.0006759627075761536 -0.090254159802181058 0 0.0030155870890062686 -0.08721938387763857 0 0.0044796775833494335 -0.090105004654790807 0 0.0055077918549074206 -0.085688625471156007 0 0.0044796775833494335 -0.090105004654790807 0 0.0088440615157429538 -0.088949812055498553 0 0.0061851756308362203 -0.080969320102410397 0 0.0055077918549074206 -0.085688625471156007 0 0.0088440615157429538 -0.088949812055498553 0 0.0049343671122906918 -0.083508155479585289 0 0.0071076026357093551 -0.089844549506202187 0 0.0084391833556785364 -0.086262141392998329 0 0.0049343671122906918 -0.083508155479585289 0 0.0084391833556785364 -0.086262141392998329 0 0.010503507754496565 -0.083045436762785294 0 0.0048139808141582641 -0.079207187564425643 0 0.0077215160231127507 -0.088499805399625972 0 0.0084391833556785364 -0.086262141392998329 0 0.011203239151943167 -0.08863805406882895 0 0.010503507754496565 -0.083045436762785294 0 0.0084368379193859901 -0.081722607874678513 0 0.0060714219341152119 -0.073013706388953784 0 0.0071076026357093551 -0.089844549506202187 0 0.0084391833556785364 -0.086262141392998329 0 0.011203239151943167 -0.08863805406882895 0 0.0071076026357093551 -0.089844549506202187 0 0.011203239151943167 -0.08863805406882895 0 0.0098571254080444277 -0.092161524346232537 0 0.0084236789047577882 -0.075720225798890484 0 0.01298755354345419 -0.079304863820239963 0 0.014785866255330965 -0.072790106040817606 0 0.01298755354345419 -0.079304863820239963 0 0.014785866255330965 -0.072790106040817606 0 0.017857254326961183 -0.07909693987841028 0 0.0084236789047577882 -0.075720225798890484 0 0.014785866255330965 -0.072790106040817606 0 0.0072702252315857384 -0.06669948186395272 0 0.014785866255330965 -0.072790106040817606 0 0.0072702252315857384 -0.06669948186395272 0 0.01621113712211477 -0.065941362243048876 0 0.0013737319977879592 -0.059694294914693975 0 -0.00018652811337120626 -0.061765985125026235 0 -0.0015273597906394624 -0.059964674597617521 0 0.0060714219341152119 -0.073013706388953784 0 0.0077768409420344601 -0.065381115083056399 0 0.0036557193840060062 -0.076647816490260159 0 0.0052997392134114599 -0.078025155371868576 0 0.0048161196511025536 -0.074494686734451754 0 0.0060714219341152119 -0.073013706388953784 0 0.0044153093191768855 -0.069637057988907361 0 0.0013737319977879592 -0.059694294914693975 0 0.0018647984174931258 -0.062981760485840588 0 -0.00018652811337120626 -0.061765985125026235 0 -0.00018652811337120626 -0.061765985125026235 0 -0.0023314380971929459 -0.062491266929470247 0 -0.0015273597906394624 -0.059964674597617521 0 -0.00041534247531469089 -0.064869576221847941 0 0.0018647984174931258 -0.062981760485840588 0 -0.00018652811337120626 -0.061765985125026235 0 -0.00041534247531469089 -0.064869576221847941 0 -0.00018652811337120626 -0.061765985125026235 0 -0.0023314380971929459 -0.062491266929470247 0 -0.001286680963187583 -0.062330721284464007 0 -0.0010275556850950756 -0.062206010625404297 0 -0.0011989820323631962 -0.062066025906585394 0 -0.0010275556850950756 -0.062206010625404297 0 -0.0011989820323631962 -0.062066025906585394 0 -0.00125903812186676 -0.062329208628166717 0 0.0038031613513691367 -0.059265402031689514 0 0.010104911319669641 -0.058865226321333952 0 -0.0010337892763900584 -0.061652068207869504 0 -0.0011989820323631962 -0.062066025906585394 0 -0.00125903812186676 -0.062329208628166717 0 -0.0023314380971929459 -0.062491266929470247 0 -0.004323477217423358 -0.060212873983698352 0 -0.0015273597906394624 -0.059964674597617521 0 0.010104911319669641 -0.058865226321333952 0 0.0077768409420344601 -0.065381115083056399 0 0.025142963145544987 -0.065173537173976934 0 0.01621113712211477 -0.065941362243048876 0 0.022717797501214994 -0.072994457190016057 0 0.014785866255330965 -0.072790106040817606 0 0.01621113712211477 -0.065941362243048876 0 0.022717797501214994 -0.072994457190016057 0 0.014785866255330965 -0.072790106040817606 0 0.017857254326961183 -0.07909693987841028 0 0.022717797501214994 -0.072994457190016057 0 0.022717797501214994 -0.072994457190016057 0 0.032053770716981553 -0.072779642771743994 0 0.027592414314227185 -0.081393167173350017 0 0.017857254326961183 -0.07909693987841028 0 0.022717797501214994 -0.072994457190016057 0 0.027592414314227185 -0.081393167173350017 0 0.025142963145544987 -0.065173537173976934 0 0.022717797501214994 -0.072994457190016057 0 0.032053770716981553 -0.072779642771743994 0 0.010104911319669641 -0.058865226321333952 0 0.013855961240160948 -0.050264825921730164 0 0.013855961240160948 -0.050264825921730164 0 0.018916316675451926 -0.051020760139433248 0 0.018234774310271557 -0.027538636794368351 0 0.015344481739222916 -0.024255830400871873 0 0.020384946496267875 -0.023342019504441609 0 0.018450607758017948 -0.027480305483839451 0 0.015344481739222916 -0.024255830400871873 0 0.014746743956481874 -0.028633363773501432 0 0.013855961240160948 -0.050264825921730164 0 0.010251805315993869 -0.04093935580968068 0 0.018450607758017948 -0.027480305483839451 0 0.014746743956481874 -0.028633363773501432 0 0.015755974038935291 -0.033252263628590073 0 0.013855961240160948 -0.050264825921730164 0 0.0097161880442191133 -0.051202887733301006 0 0.014746743956481874 -0.028633363773501432 0 0.015755974038935291 -0.033252263628590073 0 0.012198813320080631 -0.033705120121068056 0 0.0097161880442191133 -0.051202887733301006 0 0.010552266100553577 -0.050241521854240814 0 0.010104911319669641 -0.058865226321333952 0 0.0097161880442191133 -0.051202887733301006 0 -0.00125903812186676 -0.062329208628166717 0 -0.00032397044218171781 -0.062426197155625696 0 -0.00048784503681529136 -0.061838564506081654 0 0.01092195702627469 -0.054066412405355035 0 0.011248023610029178 -0.054413562406366148 0 0.011456751394531796 -0.054012722911705259 0 -0.0010337892763900584 -0.061652068207869504 0 -0.00125903812186676 -0.062329208628166717 0 -0.00048784503681529136 -0.061838564506081654 0 0.0097161880442191133 -0.051202887733301006 0 0.0077237250257919405 -0.050827344259105636 0 -0.00032397044218171781 -0.062426197155625696 0 -0.00048784503681529136 -0.061838564506081654 0 0.00049172535513583257 -0.061423545311022364 0 0.014970824466948522 -0.033495149190477594 0 0.011905309405315591 -0.038504409731356694 0 0.012198813320080631 -0.033705120121068056 0 0.016383851435081441 -0.014212387040984376 0 0.015576482923315508 -0.017156506953095875 0 0.014105975052248608 -0.014620507668310296 0 0.016383851435081441 -0.014212387040984376 0 0.018891636303364701 -0.013147129018197408 0 0.016774867361828774 -0.011780881408535195 0 0.016383851435081441 -0.014212387040984376 0 0.018891636303364701 -0.013147129018197408 0 0.018659712716828356 -0.016505613459899003 0 0.018891636303364701 -0.013147129018197408 0 0.018659712716828356 -0.016505613459899003 0 0.021208208321725978 -0.014686769509537061 0 0.018659712716828356 -0.016505613459899003 0 0.015576482923315508 -0.017156506953095875 0 0.017417962103134798 -0.020212927179399303 0 0.016383851435081441 -0.014212387040984376 0 0.018659712716828356 -0.016505613459899003 0 0.015576482923315508 -0.017156506953095875 0 0.015576482923315508 -0.017156506953095875 0 0.017417962103134798 -0.020212927179399303 0 0.013949093580714906 -0.020222846996343063 0 0.015344481739222916 -0.024255830400871873 0 0.017417962103134798 -0.020212927179399303 0 0.013949093580714906 -0.020222846996343063 0 0.015344481739222916 -0.024255830400871873 0 0.017417962103134798 -0.020212927179399303 0 0.020384946496267875 -0.023342019504441609 0 0.017417962103134798 -0.020212927179399303 0 0.022342176263405452 -0.019254536795774171 0 0.020384946496267875 -0.023342019504441609 0 0.018659712716828356 -0.016505613459899003 0 0.017417962103134798 -0.020212927179399303 0 0.022342176263405452 -0.019254536795774171 0 0.019851677630677744 -0.053486408025920799 0 0.018916316675451926 -0.051020760139433248 0 0.017857254326961183 -0.07909693987841028 0 0.027592414314227185 -0.081393167173350017 0 0.020076162259100496 -0.084502633524262641 0 0.023085746844250736 -0.090072282223171055 0 0.027592414314227185 -0.081393167173350017 0 0.020076162259100496 -0.084502633524262641 0 0.017857254326961183 -0.07909693987841028 0 0.020076162259100496 -0.084502633524262641 0 0.014953696160610038 -0.083499895279628103 0 0.020076162259100496 -0.084502633524262641 0 0.01560705711626232 -0.088530721896139003 0 0.014953696160610038 -0.083499895279628103 0 0.023085746844250736 -0.090072282223171055 0 0.015756165590459382 -0.093646845408056803 0 0.01560705711626232 -0.088530721896139003 0 0.023085746844250736 -0.090072282223171055 0 0.020076162259100496 -0.084502633524262641 0 0.01560705711626232 -0.088530721896139003 0 0.023085746844250736 -0.090072282223171055 0 0.01833426991526068 -0.098689054843069751 0 0.015756165590459382 -0.093646845408056803 0 0.019851677630677744 -0.053486408025920799 0 0.018946579732897491 -0.055784244046706274 0 0.01833426991526068 -0.098689054843069751 0 0.014397827713255321 -0.097221762571850903 0 0.015756165590459382 -0.093646845408056803 0 0.018659712716828356 -0.016505613459899003 0 0.022342176263405452 -0.019254536795774171 0 0.021208208321725978 -0.014686769509537061 0 0.022342176263405452 -0.019254536795774171 0 0.021208208321725978 -0.014686769509537061 0 0.024095623713082211 -0.015348567635966971 0 0.021208208321725978 -0.014686769509537061 0 0.023028255658474939 -0.013111148702049718 0 0.02119256564534663 -0.011825777414730983 0 0.018891636303364701 -0.013147129018197408 0 0.021208208321725978 -0.014686769509537061 0 0.02119256564534663 -0.011825777414730983 0 0.024095623713082211 -0.015348567635966971 0 0.025724505524242155 -0.011692322584405987 0 0.023028255658474939 -0.013111148702049718 0 0.021208208321725978 -0.014686769509537061 0 0.024095623713082211 -0.015348567635966971 0 0.023028255658474939 -0.013111148702049718 0 0.018946579732897491 -0.055784244046706274 0 0.016524735184757892 -0.057935926840678643 0 0.012603258968389519 -0.10243114190706561 0 0.011366538487350534 -0.1009058462672186 0 0.012251296277021161 -0.098967942263517156 0 0.01833426991526068 -0.098689054843069751 0 0.012603258968389519 -0.10243114190706561 0 0.013907310275026195 -0.10512909201557682 0 0.012603258968389519 -0.10243114190706561 0 0.01089166264071518 -0.093941285038277075 0 0.014397827713255321 -0.097221762571850903 0 0.01833426991526068 -0.098689054843069751 0 0.012603258968389519 -0.10243114190706561 0 0.014397827713255321 -0.097221762571850903 0 0.011524880412643676 -0.097979761720701719 0 0.011041828211465867 -0.095002448947624996 0 0.012603258968389519 -0.10243114190706561 0 0.010627123658145478 -0.10297321026930513 0 0.011366538487350534 -0.1009058462672186 0 0.011366538487350534 -0.1009058462672186 0 0.0081994604002017211 -0.1011136661399847 0 0.0090509309655137649 -0.10263112424251455 0 0.010627123658145478 -0.10297321026930513 0 0.011366538487350534 -0.1009058462672186 0 0.0090509309655137649 -0.10263112424251455 0 0.010627123658145478 -0.10297321026930513 0 0.0090509309655137649 -0.10263112424251455 0 0.0090498612932061236 -0.10395999457982841 0 0.011366538487350534 -0.1009058462672186 0 0.012251296277021161 -0.098967942263517156 0 0.0093563418309664699 -0.09593794554588389 0 0.011366538487350534 -0.1009058462672186 0 0.010556784539323152 -0.096180251041148593 0 0.0092285627525910859 -0.099294045770019934 0 0.010576964128195565 -0.09767868339926418 0 0.0096651456698862558 -0.094757147237078482 0 0.011366538487350534 -0.1009058462672186 0 0.0092285627525910859 -0.099294045770019934 0 0.0081994604002017211 -0.1011136661399847 0 0.01089166264071518 -0.093941285038277075 0 0.014397827713255321 -0.097221762571850903 0 0.015756165590459382 -0.093646845408056803 0 0.01089166264071518 -0.093941285038277075 0 0.015756165590459382 -0.093646845408056803 0 0.01560705711626232 -0.088530721896139003 0 0.011041828211465867 -0.095002448947624996 0 0.0099766131665479409 -0.088963027390461538 0 0.01089166264071518 -0.093941285038277075 0 0.01560705711626232 -0.088530721896139003 0 0.00958848750835712 -0.084802032365696417 0 0.0084236789047577882 -0.075720225798890484 0 0.01298755354345419 -0.079304863820239963 0 0.00958848750835712 -0.084802032365696417 0 0.01560705711626232 -0.088530721896139003 0 0.014953696160610038 -0.083499895279628103 0 0.00958848750835712 -0.084802032365696417 0 0.01298755354345419 -0.079304863820239963 0 0.014953696160610038 -0.083499895279628103 0 0.00958848750835712 -0.084802032365696417 0 0.01298755354345419 -0.079304863820239963 0 0.017857254326961183 -0.07909693987841028 0 0.014953696160610038 -0.083499895279628103 0 0.011203239151943167 -0.08863805406882895 0 0.0098571254080444277 -0.092161524346232537 0 0.011801961447714554 -0.09412922268541575 0 0.0098571254080444277 -0.092161524346232537 0 0.011801961447714554 -0.09412922268541575 0 0.0093563418309664699 -0.09593794554588389 0 0.0084368379193859901 -0.081722607874678513 0 0.0099766131665479409 -0.088963027390461538 0 0.0071076026357093551 -0.089844549506202187 0 0.0098571254080444277 -0.092161524346232537 0 0.0093563418309664699 -0.09593794554588389 0 0.012251296277021161 -0.098967942263517156 0 0.011801961447714554 -0.09412922268541575 0 0.0093563418309664699 -0.09593794554588389 0 0.010556784539323152 -0.096180251041148593 0 0.0065709821456052253 -0.093735434502108611 0 0.0066607889164446293 -0.098770070630938567 0 0.010556784539323152 -0.096180251041148593 0 0.0066607889164446293 -0.098770070630938567 0 0.0092285627525910859 -0.099294045770019934 0 0.0044796775833494335 -0.090105004654790807 0 0.0088440615157429538 -0.088949812055498553 0 0.0065709821456052253 -0.093735434502108611 0 0.0088440615157429538 -0.088949812055498553 0 0.010556784539323152 -0.096180251041148593 0 0.0065709821456052253 -0.093735434502108611 0 0.0077215160231127507 -0.088499805399625972 0 0.0096651456698862558 -0.094757147237078482 0 0.0006759627075761536 -0.090254159802181058 0 0.0044796775833494335 -0.090105004654790807 0 0.0024856132425145959 -0.094383498014017145 0 0.0044796775833494335 -0.090105004654790807 0 0.0065709821456052253 -0.093735434502108611 0 0.0024856132425145959 -0.094383498014017145 0 0.0065709821456052253 -0.093735434502108611 0 0.0024856132425145959 -0.094383498014017145 0 0.0066607889164446293 -0.098770070630938567 0 0.0024856132425145959 -0.094383498014017145 0 0.0066607889164446293 -0.098770070630938567 0 0.00014901186386344131 -0.098574897558070806 0 0.0066607889164446293 -0.098770070630938567 0 0.0081994604002017211 -0.1011136661399847 0 0.0049070779644750347 -0.10217109267632869 0 0.0066607889164446293 -0.098770070630938567 0 0.0049070779644750347 -0.10217109267632869 0 0.0037408062380529347 -0.10006153420142638 0 0.0041719900971072272 -0.099768536476428249 0 0.0024251746541716101 -0.09998107805614817 0 0.0066607889164446293 -0.098770070630938567 0 0.0092285627525910859 -0.099294045770019934 0 0.0081994604002017211 -0.1011136661399847 0 0.0081994604002017211 -0.1011136661399847 0 0.0073104193477700084 -0.10283345125075202 0 0.0049070779644750347 -0.10217109267632869 0 0.0081994604002017211 -0.1011136661399847 0 0.0090509309655137649 -0.10263112424251455 0 0.0073104193477700084 -0.10283345125075202 0 0.0090509309655137649 -0.10263112424251455 0 0.0073104193477700084 -0.10283345125075202 0 0.0078728815411108072 -0.10393812511825062 0 0.0073104193477700084 -0.10283345125075202 0 0.0049070779644750347 -0.10217109267632869 0 0.0067042850574458536 -0.10414846660164009 0 0.0049070779644750347 -0.10217109267632869 0 0.0059092144867539968 -0.10568905866725982 0 0.0067042850574458536 -0.10414846660164009 0 0.0049070779644750347 -0.10217109267632869 0 0.0053878131568906593 -0.10498010272813361 0 0.0041472700681680743 -0.1036036555221658 0 0.0053338673569886079 -0.10326841550445219 0 0.0054465746218518721 -0.1035356303610791 0 0.0059092144867539968 -0.10568905866725982 0 0.0068362906340854917 -0.10537435880642429 0 0.0067042850574458536 -0.10414846660164009 0 0.0053878131568906593 -0.10498010272813361 0 0.0045484287661760976 -0.10506554983190507 0 0.0041472700681680743 -0.1036036555221658 0 0.0073104193477700084 -0.10283345125075202 0 0.0067042850574458536 -0.10414846660164009 0 0.0078728815411108072 -0.10393812511825062 0 0.0067042850574458536 -0.10414846660164009 0 0.0078728815411108072 -0.10393812511825062 0 0.0074693521682516811 -0.10488426231297594 0 0.0090509309655137649 -0.10263112424251455 0 0.0078728815411108072 -0.10393812511825062 0 0.0090498612932061236 -0.10395999457982841 0 0.0078728815411108072 -0.10393812511825062 0 0.0090498612932061236 -0.10395999457982841 0 0.0086254591906500273 -0.10517641788183234 0 0.0090498612932061236 -0.10395999457982841 0 0.0086254591906500273 -0.10517641788183234 0 0.0099069111544565595 -0.10466131520010992 0 0.0078728815411108072 -0.10393812511825062 0 0.0086254591906500273 -0.10517641788183234 0 0.0074693521682516811 -0.10488426231297594 0 0.0068362906340854917 -0.10537435880642429 0 0.0067042850574458536 -0.10414846660164009 0 0.0074693521682516811 -0.10488426231297594 0 0.0086254591906500273 -0.10517641788183234 0 0.0074693521682516811 -0.10488426231297594 0 0.0078143021153715322 -0.10571041835962504 0 0.0068362906340854917 -0.10537435880642429 0 0.0074693521682516811 -0.10488426231297594 0 0.0078143021153715322 -0.10571041835962504 0 0.0068362906340854917 -0.10537435880642429 0 0.0078143021153715322 -0.10571041835962504 0 0.0073186077580890564 -0.10674009225088209 0 0.0073186077580890564 -0.10674009225088209 0 0.008232449765130755 -0.10782613091731949 0 0.0068312828263367223 -0.10944491352854276 0 0.0078143021153715322 -0.10571041835962504 0 0.0073186077580890564 -0.10674009225088209 0 0.0084041181166076978 -0.10640468366600128 0 0.0084041181166076978 -0.10640468366600128 0 0.0094037729173753228 -0.10737878211406025 0 0.0097796949463975786 -0.10589833277998138 0 0.0086254591906500273 -0.10517641788183234 0 0.0078143021153715322 -0.10571041835962504 0 0.0084041181166076978 -0.10640468366600128 0 0.0086254591906500273 -0.10517641788183234 0 0.0084041181166076978 -0.10640468366600128 0 0.0097796949463975786 -0.10589833277998138 0 0.0084041181166076978 -0.10640468366600128 0 0.008232449765130755 -0.10782613091731949 0 0.0094037729173753228 -0.10737878211406025 0 0.008232449765130755 -0.10782613091731949 0 0.0089330622506874624 -0.10870101939926373 0 0.0094037729173753228 -0.10737878211406025 0 0.0073186077580890564 -0.10674009225088209 0 0.0084041181166076978 -0.10640468366600128 0 0.008232449765130755 -0.10782613091731949 0 0.0053134874387445168 -0.10540283425549722 0 0.0058269335805870102 -0.10702129185058327 0 0.004024212518432789 -0.1061072691203469 0 0.0054465746218518721 -0.1035356303610791 0 0.0043626279157316754 -0.098047581534980582 0 0.0030604174637328639 -0.10298713227053158 0 0.0026956658911526732 -0.10266774987119971 0 0.0053134874387445168 -0.10540283425549722 0 0.0045484287661760976 -0.10506554983190507 0 0.0037121520186284601 -0.10628508017741273 0 0.0059092144867539968 -0.10568905866725982 0 0.0073186077580890564 -0.10674009225088209 0 0.0068312828263367223 -0.10944491352854276 0 0.0053878131568906593 -0.10498010272813361 0 0.0053134874387445168 -0.10540283425549722 0 0.0058269335805870102 -0.10702129185058327 0 0.0059092144867539968 -0.10568905866725982 0 0.0068362906340854917 -0.10537435880642429 0 0.0073186077580890564 -0.10674009225088209 0 0.0053878131568906593 -0.10498010272813361 0 0.0053134874387445168 -0.10540283425549722 0 0.0045484287661760976 -0.10506554983190507 0 0.0043626279157316754 -0.098047581534980582 0 0.0026956658911526732 -0.10266774987119971 0 -0.00015344250606442745 -0.10372066327723231 0 -0.00019634707354850895 -0.10368907430060136 0 -0.00019297474266841881 -0.1037479407258185 0 -0.00015344250606442745 -0.10372066327723231 0 -0.0001739596667726128 -0.10375036343084174 0 -0.00019297474266841881 -0.1037479407258185 0 -0.00015344250606442745 -0.10372066327723231 0 -0.0001739596667726128 -0.10375036343084174 0 -0.00018076259595291804 -0.10375974122076742 0 -0.0001739596667726128 -0.10375036343084174 0 -0.00017905353218238801 -0.1037666098126804 0 -0.00018076259595291804 -0.10375974122076742 0 -0.0001739596667726128 -0.10375036343084174 0 -0.00019297474266841881 -0.1037479407258185 0 -0.00017905353218238801 -0.1037666098126804 0 -0.0047970840151162287 -0.080709246018071154 0 -0.00098323140957615488 -0.084456129866003218 0 -0.0036841394789664536 -0.085806256572105111 0 -0.0047970840151162287 -0.080709246018071154 0 -0.00020311135993798148 -0.082982059277622616 0 -0.00098323140957615488 -0.084456129866003218 0 0.0043626279157316754 -0.098047581534980582 0 0.0011256594121114652 -0.095805239753201613 0 0.0068312828263367223 -0.10944491352854276 0 0.0089330622506874624 -0.10870101939926373 0 0.0098758344334429361 -0.11089057927177026 0 0.0043626279157316754 -0.098047581534980582 0 0.001819493493042536 -0.084970011486674879 0 0.008232449765130755 -0.10782613091731949 0 0.0068312828263367223 -0.10944491352854276 0 0.0089330622506874624 -0.10870101939926373 0 0.0089330622506874624 -0.10870101939926373 0 0.010079930011145854 -0.10843771196343233 0 0.0094037729173753228 -0.10737878211406025 0 0.0089330622506874624 -0.10870101939926373 0 0.010079930011145854 -0.10843771196343233 0 0.0098758344334429361 -0.11089057927177026 0 0.01024846427503261 -0.063612299893222007 0 0.001819493493042536 -0.084970011486674879 0 0.0018280865619065331 -0.07679113236961381 0 -0.00089601435845730842 -0.081966973899333523 0 0.0023086969109957349 -0.080364867214404972 0 0.010079930011145854 -0.10843771196343233 0 0.011388413410275359 -0.1080893938473446 0 0.0098758344334429361 -0.11089057927177026 0 -0.00089601435845730842 -0.081966973899333523 0 0.0033523414385605225 -0.08213376869147751 0 0.0023086969109957349 -0.080364867214404972 0 0.001819493493042536 -0.084970011486674879 0 0.0032448832758111062 -0.0852643258395481 0 -0.00016096138569025243 -0.082884778477659196 0 0.0010798511828173899 -0.084965259118279679 0 0.0037472250254132998 -0.084773195121388076 0 0.001819493493042536 -0.084970011486674879 0 0.0017533556610565141 -0.084961936644160685 0 0.0010798511828173899 -0.084965259118279679 0 -0.00098323140957615488 -0.084456129866003218 0 0.00023365486718432383 -0.086357089403668721 0 -0.00016096138569025243 -0.082884778477659196 0 0.0010798511828173899 -0.084965259118279679 0 -0.00098323140957615488 -0.084456129866003218 0 0.0034839946354252522 -0.084188524197791395 0 0.0053911998277897007 -0.082157859775144296 0 0.0077504646444719588 -0.086529644210351142 0 -0.00089601435845730842 -0.081966973899333523 0 0.0034839946354252522 -0.084188524197791395 0 0.0033523414385605225 -0.08213376869147751 0 0.0033523414385605225 -0.08213376869147751 0 0.0053911998277897007 -0.082157859775144296 0 0.0023086969109957349 -0.080364867214404972 0 0.0034839946354252522 -0.084188524197791395 0 0.0033523414385605225 -0.08213376869147751 0 0.0053911998277897007 -0.082157859775144296 0 0.02744498394886934 -0.0082280221558157195 0 0.025211084645612541 -0.0049780134619834132 0 0.025481124291801407 -0.0071670198119124237 0 0.01024846427503261 -0.063612299893222007 0 0.010629015273919627 -0.050539458148826294 0 0.025211084645612541 -0.0049780134619834132 0 0.025481124291801407 -0.0071670198119124237 0 0.024463847306864014 -0.0061228406937530013 0 0.0018280865619065331 -0.07679113236961381 0 0.0053911998277897007 -0.082157859775144296 0 0.0023086969109957349 -0.080364867214404972 0 0.02744498394886934 -0.0082280221558157195 0 0.025481124291801407 -0.0071670198119124237 0 0.026044242696430627 -0.0082442922970017898 0 0.025481124291801407 -0.0071670198119124237 0 0.024927557046978327 -0.0084080107278047302 0 0.026044242696430627 -0.0082442922970017898 0 0.024927557046978327 -0.0084080107278047302 0 0.025666916029656574 -0.0093290421232778056 0 0.024400039617443435 -0.010082702316045982 0 0.02744498394886934 -0.0082280221558157195 0 0.025666916029656574 -0.0093290421232778056 0 0.025724505524242155 -0.011692322584405987 0 0.011483305450476327 -0.10822801917889822 0 0.011415796138528828 -0.10622755310695539 0 0.013907310275026195 -0.10512909201557682 0 0.01024846427503261 -0.063612299893222007 0 0.016524735184757892 -0.057935926840678643 0 0.024927557046978327 -0.0084080107278047302 0 0.026044242696430627 -0.0082442922970017898 0 0.025666916029656574 -0.0093290421232778056 0 0.025666916029656574 -0.0093290421232778056 0 0.025724505524242155 -0.011692322584405987 0 0.024400039617443435 -0.010082702316045982 0 0.02744498394886934 -0.0082280221558157195 0 0.026044242696430627 -0.0082442922970017898 0 0.025666916029656574 -0.0093290421232778056 0 0.01024846427503261 -0.063612299893222007 0 0.011906701578062579 -0.067269315467592197 0 0.010079930011145854 -0.10843771196343233 0 0.011388413410275359 -0.1080893938473446 0 0.01079386138842835 -0.10716830299259225 0 0.011483305450476327 -0.10822801917889822 0 0.01079386138842835 -0.10716830299259225 0 0.011415796138528828 -0.10622755310695539 0 0.010079930011145854 -0.10843771196343233 0 0.01079386138842835 -0.10716830299259225 0 0.0094037729173753228 -0.10737878211406025 0 0.01079386138842835 -0.10716830299259225 0 0.0094037729173753228 -0.10737878211406025 0 0.0097796949463975786 -0.10589833277998138 0 0.01079386138842835 -0.10716830299259225 0 0.0097796949463975786 -0.10589833277998138 0 0.011415796138528828 -0.10622755310695539 0 0.0097796949463975786 -0.10589833277998138 0 0.011415796138528828 -0.10622755310695539 0 0.011215306464557104 -0.1045626766645347 0 0.0086254591906500273 -0.10517641788183234 0 0.0097796949463975786 -0.10589833277998138 0 0.0099069111544565595 -0.10466131520010992 0 0.0097796949463975786 -0.10589833277998138 0 0.011215306464557104 -0.1045626766645347 0 0.0099069111544565595 -0.10466131520010992 0 0.010627123658145478 -0.10297321026930513 0 0.0090498612932061236 -0.10395999457982841 0 0.0099069111544565595 -0.10466131520010992 0 0.012603258968389519 -0.10243114190706561 0 0.010627123658145478 -0.10297321026930513 0 0.011215306464557104 -0.1045626766645347 0 0.010627123658145478 -0.10297321026930513 0 0.011215306464557104 -0.1045626766645347 0 0.0099069111544565595 -0.10466131520010992 0 0.012603258968389519 -0.10243114190706561 0 0.011215306464557104 -0.1045626766645347 0 0.013907310275026195 -0.10512909201557682 0 0.011415796138528828 -0.10622755310695539 0 0.011215306464557104 -0.1045626766645347 0 0.013907310275026195 -0.10512909201557682 0 0.025724505524242155 -0.011692322584405987 0 0.023256719475701675 -0.011228808508503595 0 0.023028255658474939 -0.013111148702049718 0 0.025724505524242155 -0.011692322584405987 0 0.023256719475701675 -0.011228808508503595 0 0.024400039617443435 -0.010082702316045982 0 0.023256719475701675 -0.011228808508503595 0 0.02119256564534663 -0.011825777414730983 0 0.022215241027193251 -0.0092966386582544434 0 0.023256719475701675 -0.011228808508503595 0 0.023028255658474939 -0.013111148702049718 0 0.02119256564534663 -0.011825777414730983 0 0.022215241027193251 -0.0092966386582544434 0 0.020300676181674717 -0.0079221829968802032 0 0.019067109859939001 -0.010032387268640006 0 0.02119256564534663 -0.011825777414730983 0 0.022215241027193251 -0.0092966386582544434 0 0.019067109859939001 -0.010032387268640006 0 0.022215241027193251 -0.0092966386582544434 0 0.023578764383894005 -0.0084264470661061987 0 0.022152875183144561 -0.0069529066032419226 0 0.022215241027193251 -0.0092966386582544434 0 0.023578764383894005 -0.0084264470661061987 0 0.024400039617443435 -0.010082702316045982 0 0.023256719475701675 -0.011228808508503595 0 0.022215241027193251 -0.0092966386582544434 0 0.024400039617443435 -0.010082702316045982 0 0.024927557046978327 -0.0084080107278047302 0 0.023578764383894005 -0.0084264470661061987 0 0.024400039617443435 -0.010082702316045982 0 0.025481124291801407 -0.0071670198119124237 0 0.024927557046978327 -0.0084080107278047302 0 0.024223016552477574 -0.0072479871092620499 0 0.024927557046978327 -0.0084080107278047302 0 0.023578764383894005 -0.0084264470661061987 0 0.024223016552477574 -0.0072479871092620499 0 0.023578764383894005 -0.0084264470661061987 0 0.024223016552477574 -0.0072479871092620499 0 0.022152875183144561 -0.0069529066032419226 0 0.023453729466724915 -0.0061141605744840719 0 0.022481888474664632 -0.0052320695129031633 0 0.022152875183144561 -0.0069529066032419226 0 0.024223016552477574 -0.0072479871092620499 0 0.023453729466724915 -0.0061141605744840719 0 0.022152875183144561 -0.0069529066032419226 0 0.025481124291801407 -0.0071670198119124237 0 0.024223016552477574 -0.0072479871092620499 0 0.024463847306864014 -0.0061228406937530013 0 0.024223016552477574 -0.0072479871092620499 0 0.023453729466724915 -0.0061141605744840719 0 0.024463847306864014 -0.0061228406937530013 0 0.023453729466724915 -0.0061141605744840719 0 0.024463847306864014 -0.0061228406937530013 0 0.023721723380829264 -0.0053070292779287933 0 0.025211084645612541 -0.0049780134619834132 0 0.02301826461761361 -0.0040915086348315517 0 0.022887914789814834 -0.001886683917520781 0 0.010629015273919627 -0.050539458148826294 0 0.012706239638731888 -0.04726050647130247 0 0.025211084645612541 -0.0049780134619834132 0 0.023721723380829264 -0.0053070292779287933 0 0.02301826461761361 -0.0040915086348315517 0 0.025211084645612541 -0.0049780134619834132 0 0.024463847306864014 -0.0061228406937530013 0 0.023721723380829264 -0.0053070292779287933 0 0.023721723380829264 -0.0053070292779287933 0 0.022481888474664632 -0.0052320695129031633 0 0.02301826461761361 -0.0040915086348315517 0 0.022481888474664632 -0.0052320695129031633 0 0.02301826461761361 -0.0040915086348315517 0 0.021611398950241074 -0.0043325494248825083 0 0.023453729466724915 -0.0061141605744840719 0 0.023721723380829264 -0.0053070292779287933 0 0.022481888474664632 -0.0052320695129031633 0 0.020166464052238434 -0.0041908265521644434 0 0.021611398950241074 -0.0043325494248825083 0 0.021269562654743501 -0.0029360881785291575 0 0.02301826461761361 -0.0040915086348315517 0 0.021611398950241074 -0.0043325494248825083 0 0.021269562654743501 -0.0029360881785291575 0 0.022481888474664632 -0.0052320695129031633 0 0.021611398950241074 -0.0043325494248825083 0 0.021155036063120244 -0.0053325582536805291 0 0.020166464052238434 -0.0041908265521644434 0 0.021155036063120244 -0.0053325582536805291 0 0.019839805451139288 -0.0061077995766783315 0 0.020166464052238434 -0.0041908265521644434 0 0.021611398950241074 -0.0043325494248825083 0 0.021155036063120244 -0.0053325582536805291 0 0.021155036063120244 -0.0053325582536805291 0 0.022152875183144561 -0.0069529066032419226 0 0.019839805451139288 -0.0061077995766783315 0 0.022481888474664632 -0.0052320695129031633 0 0.021155036063120244 -0.0053325582536805291 0 0.022152875183144561 -0.0069529066032419226 0 0.022215241027193251 -0.0092966386582544434 0 0.022152875183144561 -0.0069529066032419226 0 0.020300676181674717 -0.0079221829968802032 0 0.022152875183144561 -0.0069529066032419226 0 0.020300676181674717 -0.0079221829968802032 0 0.019839805451139288 -0.0061077995766783315 0 0.017901779421814826 -0.0072698774690446808 0 0.019839805451139288 -0.0061077995766783315 0 0.018333914407876007 -0.0046251838551930879 0 0.020300676181674717 -0.0079221829968802032 0 0.017901779421814826 -0.0072698774690446808 0 0.019839805451139288 -0.0061077995766783315 0 0.020166464052238434 -0.0041908265521644434 0 0.019839805451139288 -0.0061077995766783315 0 0.018333914407876007 -0.0046251838551930879 0 0.020166464052238434 -0.0041908265521644434 0 0.018333914407876007 -0.0046251838551930879 0 0.018966909197925243 -0.0024940714412932034 0 0.016151035332720453 -0.0051033424134828212 0 0.015689334990909819 -0.0025211557732708542 0 0.013842659391428612 -0.0043305195816129962 0 0.018333914407876007 -0.0046251838551930879 0 0.016151035332720453 -0.0051033424134828212 0 0.015689334990909819 -0.0025211557732708542 0 0.017901779421814826 -0.0072698774690446808 0 0.016151035332720453 -0.0051033424134828212 0 0.01508672168899197 -0.0068722151430864412 0 0.017901779421814826 -0.0072698774690446808 0 0.018333914407876007 -0.0046251838551930879 0 0.016151035332720453 -0.0051033424134828212 0 0.017901779421814826 -0.0072698774690446808 0 0.016255940063966481 -0.0093040792808257791 0 0.01508672168899197 -0.0068722151430864412 0 0.020300676181674717 -0.0079221829968802032 0 0.017901779421814826 -0.0072698774690446808 0 0.019067109859939001 -0.010032387268640006 0 0.017901779421814826 -0.0072698774690446808 0 0.016255940063966481 -0.0093040792808257791 0 0.019067109859939001 -0.010032387268640006 0 0.018891636303364701 -0.013147129018197408 0 0.019067109859939001 -0.010032387268640006 0 0.016774867361828774 -0.011780881408535195 0 0.018891636303364701 -0.013147129018197408 0 0.02119256564534663 -0.011825777414730983 0 0.019067109859939001 -0.010032387268640006 0 0.016255940063966481 -0.0093040792808257791 0 0.019067109859939001 -0.010032387268640006 0 0.016774867361828774 -0.011780881408535195 0 0.016255940063966481 -0.0093040792808257791 0 0.016774867361828774 -0.011780881408535195 0 0.014474916784893111 -0.012030057828185068 0 0.016383851435081441 -0.014212387040984376 0 0.016774867361828774 -0.011780881408535195 0 0.014474916784893111 -0.012030057828185068 0 1.4283455208013794e-05 -0.10406041272421288 0 0.00010350433401039365 -0.10395971115227443 0 2.9953200128184569e-05 -0.10422695728952776 0 1.4283455208013794e-05 -0.10406041272421288 0 2.9953200128184569e-05 -0.10422695728952776 0 -9.9079614173947842e-06 -0.10445706334766769 0 0.00017427131756417579 -0.10324482626110063 0 -0.00052709725014098532 -0.10193445998124982 0 1.4283455208013794e-05 -0.10406041272421288 0 0.0002274146702493696 -0.10366306167557779 0 0.00010350433401039365 -0.10395971115227443 0 1.4283455208013794e-05 -0.10406041272421288 0 0.0002274146702493696 -0.10366306167557779 0 0.00040943317707532089 -0.10312819746348185 0 0.0002274146702493696 -0.10366306167557779 0 0.00010350433401039365 -0.10395971115227443 0 0.000150103072920303 -0.10399554236088041 0 0.0002274146702493696 -0.10366306167557779 0 0.000150103072920303 -0.10399554236088041 0 0.00032363138804115011 -0.10369649500174996 0 0.000150103072920303 -0.10399554236088041 0 0.00021571342335504319 -0.1041019000974083 0 0.00032363138804115011 -0.10369649500174996 0 0.000150103072920303 -0.10399554236088041 0 0.00021571342335504319 -0.1041019000974083 0 9.5474113142880076e-05 -0.1043215256207929 0 2.9953200128184569e-05 -0.10422695728952776 0 6.4893281293533488e-06 -0.10449233378017315 0 9.5474113142880076e-05 -0.1043215256207929 0 2.9953200128184569e-05 -0.10422695728952776 0 6.4893281293533488e-06 -0.10449233378017315 0 -2.105964312775706e-05 -0.10457819866706304 0 0.000150103072920303 -0.10399554236088041 0 2.9953200128184569e-05 -0.10422695728952776 0 9.5474113142880076e-05 -0.1043215256207929 0 0.00010350433401039365 -0.10395971115227443 0 0.000150103072920303 -0.10399554236088041 0 2.9953200128184569e-05 -0.10422695728952776 0 6.4893281293533488e-06 -0.10449233378017315 0 -2.105964312775706e-05 -0.10457819866706304 0 -2.789733112784232e-05 -0.10476612240144113 0 -2.105964312775706e-05 -0.10457819866706304 0 -2.2332467652146715e-05 -0.10478112899146451 0 -2.789733112784232e-05 -0.10476612240144113 0 2.9953200128184569e-05 -0.10422695728952776 0 -2.105964312775706e-05 -0.10457819866706304 0 -9.9079614173947842e-06 -0.10445706334766769 0 -2.105964312775706e-05 -0.10457819866706304 0 -2.2332467652146715e-05 -0.10478112899146451 0 -2.0321776065166663e-05 -0.10468925508200676 0 -8.5550042513755131e-08 -0.10499940191386604 0 -2.2332467652146715e-05 -0.10478112899146451 0 -2.789733112784232e-05 -0.10476612240144113 0 -8.5550042513755131e-08 -0.10499940191386604 0 -2.2332467652146715e-05 -0.10478112899146451 0 -2.4727441462812519e-05 -0.10492189584004347 0 -8.5550042513755131e-08 -0.10499940191386604 0 -2.4727441462812519e-05 -0.10492189584004347 0 -9.1678613866576266e-09 -0.1049998608603574 0 -2.4727441462812519e-05 -0.10492189584004347 0 -1.1681829882309283e-05 -0.10476637340301215 0 -8.3754297388057957e-05 -0.10463364728602602 0 -2.2332467652146715e-05 -0.10478112899146451 0 -2.4727441462812519e-05 -0.10492189584004347 0 -2.0321776065166663e-05 -0.10468925508200676 0 -2.4727441462812519e-05 -0.10492189584004347 0 -2.0321776065166663e-05 -0.10468925508200676 0 -1.1681829882309283e-05 -0.10476637340301215 0 0.00017427131756417579 -0.10324482626110063 0 0.00016652656326059483 -0.10364711915017302 0 1.4283455208013794e-05 -0.10406041272421288 0 -1.1681829882309283e-05 -0.10476637340301215 0 -9.9079614173947842e-06 -0.10445706334766769 0 -2.0321776065166663e-05 -0.10468925508200676 0 -1.1681829882309283e-05 -0.10476637340301215 0 -9.9079614173947842e-06 -0.10445706334766769 0 -2.105964312775706e-05 -0.10457819866706304 0 -2.0321776065166663e-05 -0.10468925508200676 0 -9.9079614173947842e-06 -0.10445706334766769 0 -1.1681829882309283e-05 -0.10476637340301215 0 0.00013934147365847393 -0.10466094146697978 0 3.8641163830187675e-05 -0.10463823634908379 0 0.00022822715406462074 -0.10470989625749817 0 -1.1681829882309283e-05 -0.10476637340301215 0 0.00013934147365847393 -0.10466094146697978 0 3.8641163830187675e-05 -0.10463823634908379 0 5.5202235413943191e-06 -0.10457641392616569 0 0.00012918279613206309 -0.10456825900747908 0 0.00013934147365847393 -0.10466094146697978 0 3.8641163830187675e-05 -0.10463823634908379 0 0.00012918279613206309 -0.10456825900747908 0 -0.00023775606613300813 -0.10466247888209333 0 -0.00026001342809337452 -0.10455560703164889 0 -2.4727441462812519e-05 -0.10492189584004347 0 -9.1678613866576266e-09 -0.1049998608603574 0 -6.1028160854115632e-06 -0.1050090488707783 0 -9.1678613866576266e-09 -0.1049998608603574 0 -6.1028160854115632e-06 -0.1050090488707783 0 -4.6813904238933943e-09 -0.1050000901239473 0 -1.1681829882309283e-05 -0.10476637340301215 0 3.8641163830187675e-05 -0.10463823634908379 0 -8.3754297388057957e-05 -0.10463364728602602 0 3.8641163830187675e-05 -0.10463823634908379 0 -8.3754297388057957e-05 -0.10463364728602602 0 5.5202235413943191e-06 -0.10457641392616569 0 -8.3754297388057957e-05 -0.10463364728602602 0 5.5202235413943191e-06 -0.10457641392616569 0 -6.8180288862554103e-05 -0.10446981264386909 0 -0.00026001342809337452 -0.10455560703164889 0 -0.00032727067270128758 -0.10416567029807368 0 5.5202235413943191e-06 -0.10457641392616569 0 -6.8180288862554103e-05 -0.10446981264386909 0 0.00012918279613206309 -0.10456825900747908 0 -6.1028160854115632e-06 -0.1050090488707783 0 4.621905884649555e-07 -0.10500090608633997 0 -4.6813904238933943e-09 -0.1050000901239473 0 -0.00032727067270128758 -0.10416567029807368 0 -2.5923019270076326e-07 -0.10499445614898249 0 5.1475979448490436e-05 -0.099843553913689528 0 0.001497031496481701 -0.099040758001992954 0 -0.00013578037746082508 -0.098240417397736507 0 -0.00032727067270128758 -0.10416567029807368 0 -0.00053291692915216355 -0.10270216373002647 0 5.1475979448490436e-05 -0.099843553913689528 0 -0.00013578037746082508 -0.098240417397736507 0 -0.0010438777293497574 -0.099201892745178349 0 -0.0010438777293497574 -0.099201892745178349 0 -0.0011605330209842513 -0.098236854118457631 0 -0.0019438830210684029 -0.098180306190121594 0 -0.00013578037746082508 -0.098240417397736507 0 -0.0010438777293497574 -0.099201892745178349 0 -0.0011605330209842513 -0.098236854118457631 0 -0.00013578037746082508 -0.098240417397736507 0 -0.0011605330209842513 -0.098236854118457631 0 -0.0015111240327990961 -0.097256605145353045 0 -0.00053291692915216355 -0.10270216373002647 0 -0.00081117167197364943 -0.1019428427116954 0 0.00013934147365847393 -0.10466094146697978 0 0.00012918279613206309 -0.10456825900747908 0 0.00028094637259415498 -0.10464419240016624 0 0.00022822715406462074 -0.10470989625749817 0 0.00013934147365847393 -0.10466094146697978 0 0.00028094637259415498 -0.10464419240016624 0 -0.00081117167197364943 -0.1019428427116954 0 -0.00052709725014098532 -0.10193445998124982 0 -0.0015111240327990961 -0.097256605145353045 0 -0.0019438830210684029 -0.098180306190121594 0 -0.0033742993888130676 -0.096255224637342401 0 0.00022822715406462074 -0.10470989625749817 0 0.00028094637259415498 -0.10464419240016624 0 0.00040412479039535909 -0.10468817218010153 0 -0.0019003069137891702 -0.099796547744589528 0 -0.0019438830210684029 -0.098180306190121594 0 -0.0027951124032139143 -0.098281498387609273 0 -0.0019003069137891702 -0.099796547744589528 0 -0.0010438777293497574 -0.099201892745178349 0 -0.0019438830210684029 -0.098180306190121594 0 -0.0011605330209842513 -0.098236854118457631 0 -0.0015111240327990961 -0.097256605145353045 0 -0.0019438830210684029 -0.098180306190121594 0 -0.0028727972988534713 -0.099432190472351814 0 -0.0027951124032139143 -0.098281498387609273 0 -0.0037034391078922639 -0.0975166551996383 0 -0.0041233154140959266 -0.092745861295795123 0 -0.0043279304973960321 -0.094259857434045802 0 -0.0039680775220935398 -0.099976211356638464 0 -0.0037034391078922639 -0.0975166551996383 0 -0.0049827155903416848 -0.096168168063765935 0 -0.0042326038105833996 -0.09666306289192364 0 -0.0045136541127342158 -0.09723795175797087 0 -0.0033742993888130676 -0.096255224637342401 0 -0.0037034391078922639 -0.0975166551996383 0 -0.0049827155903416848 -0.096168168063765935 0 -0.0042326038105833996 -0.09666306289192364 0 -0.0049827155903416848 -0.096168168063765935 0 -0.0042326038105833996 -0.09666306289192364 0 -0.0045136541127342158 -0.09723795175797087 0 -0.0019438830210684029 -0.098180306190121594 0 -0.0027951124032139143 -0.098281498387609273 0 -0.0033742993888130676 -0.096255224637342401 0 -0.0027951124032139143 -0.098281498387609273 0 -0.0037034391078922639 -0.0975166551996383 0 -0.0033742993888130676 -0.096255224637342401 0 -0.0037034391078922639 -0.0975166551996383 0 -0.0042326038105833996 -0.09666306289192364 0 -0.0033742993888130676 -0.096255224637342401 0 0.0006759627075761536 -0.090254159802181058 0 -0.0030274298696649229 -0.090599487310472418 0 -0.0013356383960239509 -0.094792284943403415 0 0.0006759627075761536 -0.090254159802181058 0 0.0024856132425145959 -0.094383498014017145 0 -0.0013356383960239509 -0.094792284943403415 0 -0.0069018751639791671 -0.086742303126383605 0 -0.0049827155903416848 -0.096168168063765935 0 -0.0030274298696649229 -0.090599487310472418 0 -0.0049827155903416848 -0.096168168063765935 0 -0.0030274298696649229 -0.090599487310472418 0 -0.0013356383960239509 -0.094792284943403415 0 -0.0049827155903416848 -0.096168168063765935 0 -0.0028263691460443628 -0.096643600275113692 0 -0.0013356383960239509 -0.094792284943403415 0 -0.0028263691460443628 -0.096643600275113692 0 0.00014901186386344131 -0.098574897558070806 0 -0.0045136541127342158 -0.09723795175797087 0 -0.0049827155903416848 -0.096168168063765935 0 -0.0028263691460443628 -0.096643600275113692 0 -0.0045136541127342158 -0.09723795175797087 0 0.0024856132425145959 -0.094383498014017145 0 -0.0013356383960239509 -0.094792284943403415 0 0.00014901186386344131 -0.098574897558070806 0 -0.0028263691460443628 -0.096643600275113692 0 -0.0013356383960239509 -0.094792284943403415 0 0.00014901186386344131 -0.098574897558070806 0 0.0049070779644750347 -0.10217109267632869 0 0.0037408062380529347 -0.10006153420142638 0 0.003541228016445473 -0.10224074245800398 0 0.0037408062380529347 -0.10006153420142638 0 0.0025443611370375972 -0.10170965509902509 0 0.003541228016445473 -0.10224074245800398 0 0.0037408062380529347 -0.10006153420142638 0 0.0025443611370375972 -0.10170965509902509 0 0.0015321720248605852 -0.10105152516333588 0 0.0024251746541716101 -0.09998107805614817 0 4.4967504981795649e-05 -0.10058898190971008 0 0.0025443611370375972 -0.10170965509902509 0 0.0017933127828083681 -0.10254435393945721 0 0.0011549155556591674 -0.10228723277219715 0 0.0025443611370375972 -0.10170965509902509 0 0.0015321720248605852 -0.10105152516333588 0 0.0011549155556591674 -0.10228723277219715 0 0.0017933127828083681 -0.10254435393945721 0 0.0025573271789026027 -0.10308461535491723 0 0.0015416217263052657 -0.10323962636386437 0 0.0025573271789026027 -0.10308461535491723 0 0.0015416217263052657 -0.10323962636386437 0 0.0017944218256764027 -0.10395347967337697 0 0.0025443611370375972 -0.10170965509902509 0 0.0017933127828083681 -0.10254435393945721 0 0.0025573271789026027 -0.10308461535491723 0 0.0025443611370375972 -0.10170965509902509 0 0.0025573271789026027 -0.10308461535491723 0 0.003541228016445473 -0.10224074245800398 0 0.0025573271789026027 -0.10308461535491723 0 0.003541228016445473 -0.10224074245800398 0 0.0041472700681680743 -0.1036036555221658 0 0.0049070779644750347 -0.10217109267632869 0 0.003541228016445473 -0.10224074245800398 0 0.0041472700681680743 -0.1036036555221658 0 0.00040943317707532089 -0.10312819746348185 0 0.00057667371011349729 -0.10347013272869114 0 0.00032363138804115011 -0.10369649500174996 0 0.0002274146702493696 -0.10366306167557779 0 0.00040943317707532089 -0.10312819746348185 0 0.00032363138804115011 -0.10369649500174996 0 0.00040943317707532089 -0.10312819746348185 0 0.00091415899688227788 -0.10296922404617984 0 0.00057667371011349729 -0.10347013272869114 0 -0.00052709725014098532 -0.10193445998124982 0 0.00016925831574791833 -0.10220708069141628 0 4.4967504981795649e-05 -0.10058898190971008 0 -0.00052709725014098532 -0.10193445998124982 0 0.00040943317707532089 -0.10312819746348185 0 0.0011549155556591674 -0.10228723277219715 0 0.00091415899688227788 -0.10296922404617984 0 0.0015321720248605852 -0.10105152516333588 0 -0.0015328596179951051 -0.10110503685865042 0 0.0011549155556591674 -0.10228723277219715 0 0.0017933127828083681 -0.10254435393945721 0 0.0011549155556591674 -0.10228723277219715 0 0.00091415899688227788 -0.10296922404617984 0 0.00091415899688227788 -0.10296922404617984 0 0.0010123235207721833 -0.10359449894739677 0 0.00057667371011349729 -0.10347013272869114 0 0.0017933127828083681 -0.10254435393945721 0 0.00091415899688227788 -0.10296922404617984 0 0.0015416217263052657 -0.10323962636386437 0 0.00091415899688227788 -0.10296922404617984 0 0.0015416217263052657 -0.10323962636386437 0 0.0010123235207721833 -0.10359449894739677 0 0.0015416217263052657 -0.10323962636386437 0 0.0010123235207721833 -0.10359449894739677 0 0.0017944218256764027 -0.10395347967337697 0 0.0010123235207721833 -0.10359449894739677 0 0.00057667371011349729 -0.10347013272869114 0 0.00068255854524881354 -0.10392813003879675 0 0.00057667371011349729 -0.10347013272869114 0 0.00038016130235564308 -0.10404501733119403 0 0.00068255854524881354 -0.10392813003879675 0 0.00057667371011349729 -0.10347013272869114 0 0.00032363138804115011 -0.10369649500174996 0 0.00038016130235564308 -0.10404501733119403 0 0.00021571342335504319 -0.1041019000974083 0 0.00032363138804115011 -0.10369649500174996 0 0.00038016130235564308 -0.10404501733119403 0 0.00038016130235564308 -0.10404501733119403 0 0.00037831481623411067 -0.10440281918772301 0 0.00021716373218079292 -0.10435610505155761 0 0.00038016130235564308 -0.10404501733119403 0 0.00037831481623411067 -0.10440281918772301 0 0.00059878153267351754 -0.10428253819757777 0 0.00037831481623411067 -0.10440281918772301 0 0.00059878153267351754 -0.10428253819757777 0 0.0005057977826596091 -0.10452282422538769 0 0.00038016130235564308 -0.10404501733119403 0 0.00059878153267351754 -0.10428253819757777 0 0.00068255854524881354 -0.10392813003879675 0 0.0010123235207721833 -0.10359449894739677 0 0.00068255854524881354 -0.10392813003879675 0 0.00099168957869515779 -0.10419151657220016 0 0.00059878153267351754 -0.10428253819757777 0 0.00068255854524881354 -0.10392813003879675 0 0.00099168957869515779 -0.10419151657220016 0 0.0010123235207721833 -0.10359449894739677 0 0.00099168957869515779 -0.10419151657220016 0 0.0017944218256764027 -0.10395347967337697 0 0.00099168957869515779 -0.10419151657220016 0 0.0017944218256764027 -0.10395347967337697 0 0.0016275912022681719 -0.10458557201947069 0 0.00099168957869515779 -0.10419151657220016 0 0.00096064244445703926 -0.10473481461200931 0 0.0016275912022681719 -0.10458557201947069 0 0.00059878153267351754 -0.10428253819757777 0 0.00068610707693128614 -0.10437258176436957 0 0.0005057977826596091 -0.10452282422538769 0 0.0014237930660618843 -0.10367471671762316 0 0.0014884897565028304 -0.10367102810910013 0 0.00059878153267351754 -0.10428253819757777 0 0.00099168957869515779 -0.10419151657220016 0 0.00099727082505366381 -0.10449954255680642 0 0.0014804436464184538 -0.1037183360342014 0 0.0014884897565028304 -0.10367102810910013 0 0.0014884897565028304 -0.10367102810910013 0 0.002162626778853009 -0.10335724408144276 0 0.0014122957253660171 -0.10328521393550959 0 0.0014136877250050335 -0.10338065939506928 0 0.0015047626859998906 -0.10332990739832575 0 0.00068610707693128614 -0.10437258176436957 0 0.00061479918439103648 -0.10463012733606578 0 0.0005057977826596091 -0.10452282422538769 0 0.0014884897565028304 -0.10367102810910013 0 0.0010700301090837594 -0.10390842708997505 0 0.00061479918439103648 -0.10463012733606578 0 0.0005057977826596091 -0.10452282422538769 0 0.00038874727881769462 -0.1047282367246918 0 0.0005057977826596091 -0.10452282422538769 0 0.00038874727881769462 -0.1047282367246918 0 0.00023416173138016749 -0.1046272888791928 0 0.00037831481623411067 -0.10440281918772301 0 0.0005057977826596091 -0.10452282422538769 0 0.00023416173138016749 -0.1046272888791928 0 0.0025573271789026027 -0.10308461535491723 0 0.0041472700681680743 -0.1036036555221658 0 0.0029276409164094908 -0.10427191664271239 0 0.0045484287661760976 -0.10506554983190507 0 0.0038022259881472583 -0.10493323459532353 0 0.0041472700681680743 -0.1036036555221658 0 0.0038022259881472583 -0.10493323459532353 0 0.0029276409164094908 -0.10427191664271239 0 0.0030939019642817491 -0.10521558534672516 0 0.0038022259881472583 -0.10493323459532353 0 0.0041472700681680743 -0.1036036555221658 0 0.0029276409164094908 -0.10427191664271239 0 0.0022676772512722257 -0.10466597308788297 0 0.0029276409164094908 -0.10427191664271239 0 0.0017944218256764027 -0.10395347967337697 0 0.0022676772512722257 -0.10466597308788297 0 0.0029276409164094908 -0.10427191664271239 0 0.0030939019642817491 -0.10521558534672516 0 0.0025573271789026027 -0.10308461535491723 0 0.0029276409164094908 -0.10427191664271239 0 0.0017944218256764027 -0.10395347967337697 0 0.0022676772512722257 -0.10466597308788297 0 0.0016275912022681719 -0.10458557201947069 0 0.0022276346089375636 -0.1054786385978253 0 0.0022676772512722257 -0.10466597308788297 0 0.0017944218256764027 -0.10395347967337697 0 0.0016275912022681719 -0.10458557201947069 0 0.00096064244445703926 -0.10473481461200931 0 0.0016275912022681719 -0.10458557201947069 0 0.0022276346089375636 -0.1054786385978253 0 0.002162626778853009 -0.10335724408144276 0 0.0026956658911526732 -0.10266774987119971 0 0.0015047626859998906 -0.10332990739832575 0 0.0015991540896949678 -0.10337431837456329 0 0.0015064280534133215 -0.10342626481549373 0 0.0014136877250050335 -0.10338065939506928 0 0.0015047626859998906 -0.10332990739832575 0 0.0015064280534133215 -0.10342626481549373 0 0.0022676772512722257 -0.10466597308788297 0 0.0022276346089375636 -0.1054786385978253 0 0.0030939019642817491 -0.10521558534672516 0 0.0022276346089375636 -0.1054786385978253 0 0.0030939019642817491 -0.10521558534672516 0 0.0037121520186284601 -0.10628508017741273 0 0.0038022259881472583 -0.10493323459532353 0 0.0030939019642817491 -0.10521558534672516 0 0.0037121520186284601 -0.10628508017741273 0 0.0045484287661760976 -0.10506554983190507 0 0.0038022259881472583 -0.10493323459532353 0 0.0037121520186284601 -0.10628508017741273 0 -0.00019634707354850895 -0.10368907430060136 0 -0.00024039595266675523 -0.10370692375991504 0 -0.00019297474266841881 -0.1037479407258185 0 0.0026956658911526732 -0.10266774987119971 0 0.0013336565119255867 -0.10352151270829986 0 0.0013336565119255867 -0.10352151270829986 0 0.00066250042290475213 -0.10407966783013277 0 -0.00024039595266675523 -0.10370692375991504 0 -0.00025132307299316237 -0.10374754758853562 0 -0.00030224738152148748 -0.10372801415348634 0 -0.00025132307299316237 -0.10374754758853562 0 -0.00019297474266841881 -0.1037479407258185 0 -0.00022738697399862719 -0.10379207238467479 0 -0.00024039595266675523 -0.10370692375991504 0 -0.00025132307299316237 -0.10374754758853562 0 -0.00019297474266841881 -0.1037479407258185 0 -0.00025132307299316237 -0.10374754758853562 0 -0.00031823484265769354 -0.10380605108920445 0 -0.00022738697399862719 -0.10379207238467479 0 0.00038874727881769462 -0.1047282367246918 0 0.00019666094778235317 -0.10488270100614291 0 0.00023145260038109878 -0.10477574455712965 0 0.00038874727881769462 -0.1047282367246918 0 0.00023145260038109878 -0.10477574455712965 0 0.00023416173138016749 -0.1046272888791928 0 0.00061479918439103648 -0.10463012733606578 0 0.00038874727881769462 -0.1047282367246918 0 0.00056499525760043468 -0.10482745666922301 0 0.0014136877250050335 -0.10338065939506928 0 0.0015064280534133215 -0.10342626481549373 0 0.001414398523481541 -0.10347799224436995 0 0.0010700301090837594 -0.10390842708997505 0 0.00066250042290475213 -0.10407966783013277 0 0.00066250042290475213 -0.10407966783013277 0 0.00035742519407107803 -0.10408592628647108 0 -0.00035920474395353919 -0.10460290049453379 0 -0.00011039019513642365 -0.10447870916434565 0 -0.0003651559494430443 -0.10439414924550652 0 -0.00025132307299316237 -0.10374754758853562 0 -0.00030224738152148748 -0.10372801415348634 0 -0.00031823484265769354 -0.10380605108920445 0 0.00038874727881769462 -0.1047282367246918 0 0.00056499525760043468 -0.10482745666922301 0 0.00019666094778235317 -0.10488270100614291 0 0.00066250042290475213 -0.10407966783013277 0 0.00018747073310517896 -0.10446319950622478 0 0.00019666094778235317 -0.10488270100614291 0 8.9300063401709652e-05 -0.10483515785968414 0 0.00012533296816781111 -0.10479107422282552 0 0.00019666094778235317 -0.10488270100614291 0 0.00012533296816781111 -0.10479107422282552 0 0.00023145260038109878 -0.10477574455712965 0 0.00019666094778235317 -0.10488270100614291 0 8.9300063401709652e-05 -0.10483515785968414 0 7.1552031041183142e-05 -0.10462786010774171 0 0.00012533296816781111 -0.10479107422282552 0 7.9731502441573887e-05 -0.10469253061461259 0 4.8648702522253057e-05 -0.10482363481731732 0 8.9300063401709652e-05 -0.10483515785968414 0 0.00012533296816781111 -0.10479107422282552 0 4.8648702522253057e-05 -0.10482363481731732 0 0.00012533296816781111 -0.10479107422282552 0 0.00023145260038109878 -0.10477574455712965 0 0.00023416173138016749 -0.1046272888791928 0 0.00023416173138016749 -0.1046272888791928 0 0.00012039593899891775 -0.10453262913851877 0 7.9731502441573887e-05 -0.10469253061461259 0 0.00023416173138016749 -0.1046272888791928 0 0.00012039593899891775 -0.10453262913851877 0 0.00021716373218079292 -0.10435610505155761 0 0.00012533296816781111 -0.10479107422282552 0 0.00023416173138016749 -0.1046272888791928 0 7.9731502441573887e-05 -0.10469253061461259 0 0.00037831481623411067 -0.10440281918772301 0 0.00023416173138016749 -0.1046272888791928 0 0.00021716373218079292 -0.10435610505155761 0 7.9731502441573887e-05 -0.10469253061461259 0 1.5113734424435832e-05 -0.10475667549326034 0 4.8648702522253057e-05 -0.10482363481731732 0 7.9731502441573887e-05 -0.10469253061461259 0 3.0181022583380324e-05 -0.10459459083033829 0 1.5113734424435832e-05 -0.10475667549326034 0 0.00012039593899891775 -0.10453262913851877 0 7.9731502441573887e-05 -0.10469253061461259 0 3.0181022583380324e-05 -0.10459459083033829 0 0.00012039593899891775 -0.10453262913851877 0 3.0181022583380324e-05 -0.10459459083033829 0 9.5474113142880076e-05 -0.1043215256207929 0 6.4893281293533488e-06 -0.10449233378017315 0 3.0181022583380324e-05 -0.10459459083033829 0 9.5474113142880076e-05 -0.1043215256207929 0 0.00021571342335504319 -0.1041019000974083 0 9.5474113142880076e-05 -0.1043215256207929 0 0.00021716373218079292 -0.10435610505155761 0 0.00021571342335504319 -0.1041019000974083 0 0.00038016130235564308 -0.10404501733119403 0 0.00021716373218079292 -0.10435610505155761 0 0.00012039593899891775 -0.10453262913851877 0 9.5474113142880076e-05 -0.1043215256207929 0 0.00021716373218079292 -0.10435610505155761 0 -8.5550042513755131e-08 -0.10499940191386604 0 -2.789733112784232e-05 -0.10476612240144113 0 -2.8294959045595509e-08 -0.10499976865232907 0 3.0181022583380324e-05 -0.10459459083033829 0 -2.789733112784232e-05 -0.10476612240144113 0 1.5113734424435832e-05 -0.10475667549326034 0 6.4893281293533488e-06 -0.10449233378017315 0 3.0181022583380324e-05 -0.10459459083033829 0 -2.789733112784232e-05 -0.10476612240144113 0 -2.789733112784232e-05 -0.10476612240144113 0 1.5113734424435832e-05 -0.10475667549326034 0 3.1519770847136828e-06 -0.10490859356578604 0 -2.789733112784232e-05 -0.10476612240144113 0 -2.8294959045595509e-08 -0.10499976865232907 0 3.1519770847136828e-06 -0.10490859356578604 0 2.1502472896446544e-08 -0.10499983685000958 0 3.1519770847136828e-06 -0.10490859356578604 0 4.5081228141790335e-05 -0.10490078546033527 0 -2.8294959045595509e-08 -0.10499976865232907 0 2.1502472896446544e-08 -0.10499983685000958 0 3.1519770847136828e-06 -0.10490859356578604 0 3.1519770847136828e-06 -0.10490859356578604 0 4.8648702522253057e-05 -0.10482363481731732 0 4.5081228141790335e-05 -0.10490078546033527 0 1.5113734424435832e-05 -0.10475667549326034 0 3.1519770847136828e-06 -0.10490859356578604 0 4.8648702522253057e-05 -0.10482363481731732 0 8.9300063401709652e-05 -0.10483515785968414 0 4.8648702522253057e-05 -0.10482363481731732 0 4.5081228141790335e-05 -0.10490078546033527 0 8.9300063401709652e-05 -0.10483515785968414 0 4.5081228141790335e-05 -0.10490078546033527 0 9.6688727610780105e-05 -0.104888251975502 0 2.1502472896446544e-08 -0.10499983685000958 0 4.5081228141790335e-05 -0.10490078546033527 0 1.7271033507380561e-08 -0.10499988053796956 0 4.5081228141790335e-05 -0.10490078546033527 0 1.7271033507380561e-08 -0.10499988053796956 0 9.6688727610780105e-05 -0.104888251975502 0 1.7271033507380561e-08 -0.10499988053796956 0 9.6688727610780105e-05 -0.104888251975502 0 6.4099460728101704e-05 -0.10495943448594171 0 9.6688727610780105e-05 -0.104888251975502 0 6.4099460728101704e-05 -0.10495943448594171 0 5.1855679440647988e-05 -0.10495868396819513 0 1.7271033507380561e-08 -0.10499988053796956 0 6.4099460728101704e-05 -0.10495943448594171 0 8.9160818084994054e-08 -0.10499999983520644 0 -0.00011039019513642365 -0.10447870916434565 0 -6.9444557567584477e-05 -0.10440137945432969 0 7.1552031041183142e-05 -0.10462786010774171 0 0.00018747073310517896 -0.10446319950622478 0 0.00015206717239762908 -0.10451041762144207 0 8.9300063401709652e-05 -0.10483515785968414 0 9.6688727610780105e-05 -0.104888251975502 0 7.1552031041183142e-05 -0.10462786010774171 0 9.6688727610780105e-05 -0.104888251975502 0 7.1552031041183142e-05 -0.10462786010774171 0 9.7411881518031184e-05 -0.10431478720851831 0 4.644595424220301e-05 -0.10466650853307187 0 3.7656113492458497e-07 -0.10457826298799441 0 6.4099460728101704e-05 -0.10495943448594171 0 5.1855679440647988e-05 -0.10495868396819513 0 5.6549544600496512e-05 -0.104889295601962 0 -6.9444557567584477e-05 -0.10440137945432969 0 7.1552031041183142e-05 -0.10462786010774171 0 9.7411881518031184e-05 -0.10431478720851831 0 -6.9444557567584477e-05 -0.10440137945432969 0 9.7411881518031184e-05 -0.10431478720851831 0 -0.0001587034510789565 -0.10419710502871014 0 5.1855679440647988e-05 -0.10495868396819513 0 5.6549544600496512e-05 -0.104889295601962 0 -0.00011246943120977372 -0.10479941536651682 0 3.7656113492458497e-07 -0.10457826298799441 0 -9.4542891762269162e-05 -0.10442760344568597 0 5.6549544600496512e-05 -0.104889295601962 0 2.7700353469253412e-05 -0.10477288685530339 0 -0.00011246943120977372 -0.10479941536651682 0 9.7411881518031184e-05 -0.10431478720851831 0 -0.00017910505759167764 -0.10393786436386349 0 -0.0001587034510789565 -0.10419710502871014 0 5.6549544600496512e-05 -0.104889295601962 0 2.7700353469253412e-05 -0.10477288685530339 0 7.5929586808757047e-05 -0.10492711939760481 0 -6.1397639781179107e-05 -0.10478364470094716 0 -3.7190967116470415e-07 -0.10490046845621748 0 -2.7216779128389831e-05 -0.10478513620219829 0 -7.790801284241638e-05 -0.10472043863112462 0 -7.6819856498077774e-06 -0.10490121723838855 0 -2.7216779128389831e-05 -0.10478513620219829 0 -7.790801284241638e-05 -0.10472043863112462 0 -5.9169479643141206e-05 -0.10465758770629996 0 2.7700353469253412e-05 -0.10477288685530339 0 -0.00011246943120977372 -0.10479941536651682 0 -0.00017410301675232411 -0.10440658548256132 0 -6.1397639781179107e-05 -0.10478364470094716 0 -0.00013186237886715727 -0.10470532103950185 0 -7.790801284241638e-05 -0.10472043863112462 0 -0.00010642897563131122 -0.10456017123333768 0 -0.00017410301675232411 -0.10440658548256132 0 -7.790801284241638e-05 -0.10472043863112462 0 -5.9169479643141206e-05 -0.10465758770629996 0 -0.00010642897563131122 -0.10456017123333768 0 4.0987796590725308e-08 -0.10499982037311324 0 -3.7190967116470415e-07 -0.10490046845621748 0 1.787143414640061e-08 -0.10499997682091375 0 -7.6819856498077774e-06 -0.10490121723838855 0 2.5639128793915265e-06 -0.10489412774164353 0 6.4099460728101704e-05 -0.10495943448594171 0 8.9160818084994054e-08 -0.10499999983520644 0 7.5929586808757047e-05 -0.10492711939760481 0 6.4099460728101704e-05 -0.10495943448594171 0 5.6549544600496512e-05 -0.104889295601962 0 7.5929586808757047e-05 -0.10492711939760481 0 -2.7216779128389831e-05 -0.10478513620219829 0 -7.6819856498077774e-06 -0.10490121723838855 0 2.5639128793915265e-06 -0.10489412774164353 0 -2.7216779128389831e-05 -0.10478513620219829 0 2.5639128793915265e-06 -0.10489412774164353 0 -2.2585284257977659e-05 -0.10475550810528711 0 1.787143414640061e-08 -0.10499997682091375 0 2.5639128793915265e-06 -0.10489412774164353 0 1.0771179506293607e-08 -0.10499974893650471 0 2.5639128793915265e-06 -0.10489412774164353 0 1.0771179506293607e-08 -0.10499974893650471 0 -2.5989111418711834e-06 -0.10486582328800058 0 1.0771179506293607e-08 -0.10499974893650471 0 -2.5989111418711834e-06 -0.10486582328800058 0 -5.0193249637889266e-09 -0.10499976791297411 0 -1.0638583327707534e-05 -0.10479994672128969 0 -2.5989111418711834e-06 -0.10486582328800058 0 -5.0193249637889266e-09 -0.10499976791297411 0 -1.0638583327707534e-05 -0.10479994672128969 0 -2.5989111418711834e-06 -0.10486582328800058 0 -2.722951995411082e-05 -0.10471878261495111 0 -2.5989111418711834e-06 -0.10486582328800058 0 -2.2585284257977659e-05 -0.10475550810528711 0 -2.722951995411082e-05 -0.10471878261495111 0 2.5639128793915265e-06 -0.10489412774164353 0 -2.5989111418711834e-06 -0.10486582328800058 0 -2.2585284257977659e-05 -0.10475550810528711 0 -2.7216779128389831e-05 -0.10478513620219829 0 -2.2585284257977659e-05 -0.10475550810528711 0 -5.9169479643141206e-05 -0.10465758770629996 0 -2.2585284257977659e-05 -0.10475550810528711 0 -5.9169479643141206e-05 -0.10465758770629996 0 -5.729548523386293e-05 -0.10461248557275123 0 -2.2585284257977659e-05 -0.10475550810528711 0 -5.729548523386293e-05 -0.10461248557275123 0 -2.722951995411082e-05 -0.10471878261495111 0 -0.00010642897563131122 -0.10456017123333768 0 -9.8649975916416957e-05 -0.10451791982525463 0 -0.00013610069688401615 -0.10444500368327395 0 -5.9169479643141206e-05 -0.10465758770629996 0 -0.00010642897563131122 -0.10456017123333768 0 -9.8649975916416957e-05 -0.10451791982525463 0 -5.729548523386293e-05 -0.10461248557275123 0 -9.8649975916416957e-05 -0.10451791982525463 0 -0.00011040667865302488 -0.10445479452834126 0 -5.9169479643141206e-05 -0.10465758770629996 0 -5.729548523386293e-05 -0.10461248557275123 0 -9.8649975916416957e-05 -0.10451791982525463 0 -9.8649975916416957e-05 -0.10451791982525463 0 -0.00011040667865302488 -0.10445479452834126 0 -0.00017397237913855071 -0.10429316492217089 0 0.00022472759528595167 -0.10434402625495684 0 0.00016178778561056698 -0.10415854992441759 0 5.9262879372779241e-05 -0.10413339439629875 0 2.8017221936274117e-05 -0.10456219411743051 0 -5.5025610780113337e-05 -0.10441112422615291 0 -0.00011040667865302488 -0.10445479452834126 0 -6.496375250380907e-05 -0.10455887764608206 0 -0.00016233466106769292 -0.10429084125142016 0 -5.729548523386293e-05 -0.10461248557275123 0 -0.00011040667865302488 -0.10445479452834126 0 -6.496375250380907e-05 -0.10455887764608206 0 -1.0638583327707534e-05 -0.10479994672128969 0 -2.722951995411082e-05 -0.10471878261495111 0 -6.496375250380907e-05 -0.10455887764608206 0 4.3114692589577304e-05 -0.10476722222294792 0 2.8017221936274117e-05 -0.10456219411743051 0 -5.729548523386293e-05 -0.10461248557275123 0 -2.722951995411082e-05 -0.10471878261495111 0 -6.496375250380907e-05 -0.10455887764608206 0 8.8182539196667015e-05 -0.10463614529604534 0 0.00022472759528595167 -0.10434402625495684 0 0.00021207947690947315 -0.10448442927536629 0 0.00022472759528595167 -0.10434402625495684 0 0.00021207947690947315 -0.10448442927536629 0 0.00016178778561056698 -0.10415854992441759 0 0.00021207947690947315 -0.10448442927536629 0 0.00016178778561056698 -0.10415854992441759 0 0.00016669067189313186 -0.10381571783781365 0 0.00031816517086660149 -0.10471785792723036 0 0.00018050088558515905 -0.10474184619845829 0 0.000218631304472499 -0.10480671123407781 0 0.0012873067994138981 -0.10250311051282615 0 0.0015237019449340246 -0.10186871788950259 0 0.00021207947690947315 -0.10448442927536629 0 0.00018050088558515905 -0.10474184619845829 0 4.6033943400451716e-05 -0.10480909977274044 0 0.00021207947690947315 -0.10448442927536629 0 0.00031816517086660149 -0.10471785792723036 0 0.00018050088558515905 -0.10474184619845829 0 4.6033943400451716e-05 -0.10480909977274044 0 9.8896107800889332e-05 -0.10485622056426623 0 3.565935415120228e-05 -0.10492355596239783 0 0.00018050088558515905 -0.10474184619845829 0 4.6033943400451716e-05 -0.10480909977274044 0 9.8896107800889332e-05 -0.10485622056426623 0 4.6033943400451716e-05 -0.10480909977274044 0 -3.2360902551616527e-09 -0.10499990972464578 0 3.565935415120228e-05 -0.10492355596239783 0 8.8182539196667015e-05 -0.10463614529604534 0 4.6033943400451716e-05 -0.10480909977274044 0 -3.8062296923321547e-08 -0.10499948689506645 0 4.3114692589577304e-05 -0.10476722222294792 0 5.9444387604441395e-08 -0.10499948987232494 0 4.6033943400451716e-05 -0.10480909977274044 0 -3.2360902551616527e-09 -0.10499990972464578 0 -3.8062296923321547e-08 -0.10499948689506645 0 8.8182539196667015e-05 -0.10463614529604534 0 0.00021207947690947315 -0.10448442927536629 0 4.6033943400451716e-05 -0.10480909977274044 0 -0.00026389152074948421 -0.10360820741812946 0 -0.00017041775918882267 -0.1038317777966869 0 -0.00030670976118381125 -0.10371200691042413 0 -0.00036517070416663749 -0.10350691296310637 0 -0.00026389152074948421 -0.10360820741812946 0 -0.00030670976118381125 -0.10371200691042413 0 -0.00036517070416663749 -0.10350691296310637 0 -0.00030670976118381125 -0.10371200691042413 0 -0.00041044112612678821 -0.10344891488539887 0 -0.00036517070416663749 -0.10350691296310637 0 -0.00030986931572105471 -0.10345691182775682 0 -0.00026389152074948421 -0.10360820741812946 0 -0.00036517070416663749 -0.10350691296310637 0 -0.00044934017217410506 -0.10339605083878468 0 -0.00038662680457443013 -0.10337674714804762 0 -0.00036517070416663749 -0.10350691296310637 0 -0.00030986931572105471 -0.10345691182775682 0 -0.00038662680457443013 -0.10337674714804762 0 -0.00030986931572105471 -0.10345691182775682 0 -0.00026389152074948421 -0.10360820741812946 0 -0.00020771319161519059 -0.10352262871750656 0 -0.00026389152074948421 -0.10360820741812946 0 -0.00020771319161519059 -0.10352262871750656 0 -0.0001117639635205492 -0.10369647450587487 0 -0.00026389152074948421 -0.10360820741812946 0 -0.0001117639635205492 -0.10369647450587487 0 -0.00017041775918882267 -0.1038317777966869 0 -0.00020771319161519059 -0.10352262871750656 0 -0.0001117639635205492 -0.10369647450587487 0 -5.797901559120899e-05 -0.10344074146135668 0 0.00016669067189313186 -0.10381571783781365 0 -0.0001117639635205492 -0.10369647450587487 0 2.3448503716412175e-05 -0.10394056537230977 0 0.00016669067189313186 -0.10381571783781365 0 -0.0001117639635205492 -0.10369647450587487 0 -5.797901559120899e-05 -0.10344074146135668 0 0.00016178778561056698 -0.10415854992441759 0 2.3448503716412175e-05 -0.10394056537230977 0 5.9262879372779241e-05 -0.10413339439629875 0 0.00016178778561056698 -0.10415854992441759 0 0.00016669067189313186 -0.10381571783781365 0 2.3448503716412175e-05 -0.10394056537230977 0 2.3448503716412175e-05 -0.10394056537230977 0 -0.00017041775918882267 -0.1038317777966869 0 5.9262879372779241e-05 -0.10413339439629875 0 -0.0001117639635205492 -0.10369647450587487 0 2.3448503716412175e-05 -0.10394056537230977 0 -0.00017041775918882267 -0.1038317777966869 0 -0.0001158295052698349 -0.10434844801419969 0 -5.5025610780113337e-05 -0.10441112422615291 0 -0.00017041775918882267 -0.1038317777966869 0 -0.00020822271402325397 -0.10396687476831322 0 5.9262879372779241e-05 -0.10413339439629875 0 -0.00020822271402325397 -0.10396687476831322 0 -0.00016233466106769292 -0.10429084125142016 0 -0.00017397237913855071 -0.10429316492217089 0 -0.00011040667865302488 -0.10445479452834126 0 -0.00016233466106769292 -0.10429084125142016 0 -0.00017397237913855071 -0.10429316492217089 0 -0.00010642897563131122 -0.10456017123333768 0 -0.00013610069688401615 -0.10444500368327395 0 -0.00017410301675232411 -0.10440658548256132 0 -9.8649975916416957e-05 -0.10451791982525463 0 -0.00017397237913855071 -0.10429316492217089 0 -0.00013610069688401615 -0.10444500368327395 0 -0.00017397237913855071 -0.10429316492217089 0 -0.00024356042315141921 -0.10412060000086111 0 -0.00017410301675232411 -0.10440658548256132 0 -0.00017397237913855071 -0.10429316492217089 0 -0.00013610069688401615 -0.10444500368327395 0 -0.00017410301675232411 -0.10440658548256132 0 -0.00024356042315141921 -0.10412060000086111 0 -0.00023117410793376751 -0.10386250749278925 0 -0.00022272772240997164 -0.10394832555689618 0 -0.00020822271402325397 -0.10396687476831322 0 -0.00017397237913855071 -0.10429316492217089 0 -0.00024356042315141921 -0.10412060000086111 0 -0.00020822271402325397 -0.10396687476831322 0 -0.00024356042315141921 -0.10412060000086111 0 -0.00023117410793376751 -0.10386250749278925 0 -0.00020822271402325397 -0.10396687476831322 0 -0.00023117410793376751 -0.10386250749278925 0 -0.00030670976118381125 -0.10371200691042413 0 -0.00017041775918882267 -0.1038317777966869 0 -0.00020822271402325397 -0.10396687476831322 0 -0.00030670976118381125 -0.10371200691042413 0 -0.00030670976118381125 -0.10371200691042413 0 -0.00026966491629946206 -0.10366121411851058 0 -0.00039721548097840584 -0.10358260890717057 0 -0.00023117410793376751 -0.10386250749278925 0 -0.00030670976118381125 -0.10371200691042413 0 -0.00026966491629946206 -0.10366121411851058 0 -0.00023117410793376751 -0.10386250749278925 0 -0.00026966491629946206 -0.10366121411851058 0 -0.0002165366150223037 -0.1037630098375843 0 -0.00023117410793376751 -0.10386250749278925 0 -0.00023078586333822034 -0.10388088981439568 0 -0.00022272772240997164 -0.10394832555689618 0 -0.00023117410793376751 -0.10386250749278925 0 -0.0002165366150223037 -0.1037630098375843 0 -0.00023078586333822034 -0.10388088981439568 0 -0.00023078586333822034 -0.10388088981439568 0 -0.0002630424526374527 -0.10394698734263993 0 -0.00022321754832720658 -0.10386720374809864 0 -0.0002165366150223037 -0.1037630098375843 0 -0.00023078586333822034 -0.10388088981439568 0 -0.00022321754832720658 -0.10386720374809864 0 -0.0002165366150223037 -0.1037630098375843 0 -0.00022321754832720658 -0.10386720374809864 0 -0.00017925151543160119 -0.10373547450502006 0 -0.00024356042315141921 -0.10412060000086111 0 -0.00011246943120977372 -0.10479941536651682 0 -0.00017410301675232411 -0.10440658548256132 0 -0.0001472919163708967 -0.10434136148302406 0 -9.4542891762269162e-05 -0.10442760344568597 0 -0.00017910505759167764 -0.10393786436386349 0 -0.00022764978048633703 -0.10399844638754292 0 -0.00022647359849903236 -0.10396861667830271 0 -0.00024356042315141921 -0.10412060000086111 0 -0.00017910505759167764 -0.10393786436386349 0 -0.00022764978048633703 -0.10399844638754292 0 -0.00022764978048633703 -0.10399844638754292 0 -0.00023931134904948048 -0.10394805010270178 0 -0.00022647359849903236 -0.10396861667830271 0 -0.00024356042315141921 -0.10412060000086111 0 -0.00022764978048633703 -0.10399844638754292 0 -0.00022272772240997164 -0.10394832555689618 0 -0.00022764978048633703 -0.10399844638754292 0 -0.00022272772240997164 -0.10394832555689618 0 -0.00023931134904948048 -0.10394805010270178 0 -0.00023078586333822034 -0.10388088981439568 0 -0.00022272772240997164 -0.10394832555689618 0 -0.00023931134904948048 -0.10394805010270178 0 -0.00023078586333822034 -0.10388088981439568 0 -0.00023931134904948048 -0.10394805010270178 0 -0.0002630424526374527 -0.10394698734263993 0 -0.0002630424526374527 -0.10394698734263993 0 -0.00024180658916424802 -0.10400775956639537 0 -0.00031494752361141214 -0.10402320639868541 0 -0.00023931134904948048 -0.10394805010270178 0 -0.00022647359849903236 -0.10396861667830271 0 -0.00024180658916424802 -0.10400775956639537 0 -0.00023931134904948048 -0.10394805010270178 0 -0.0002630424526374527 -0.10394698734263993 0 -0.00024180658916424802 -0.10400775956639537 0 -0.00017910505759167764 -0.10393786436386349 0 -0.00024180658916424802 -0.10400775956639537 0 -0.0001587034510789565 -0.10419710502871014 0 -0.00017910505759167764 -0.10393786436386349 0 -0.00022647359849903236 -0.10396861667830271 0 -0.00024180658916424802 -0.10400775956639537 0 -6.9444557567584477e-05 -0.10440137945432969 0 -0.0001587034510789565 -0.10419710502871014 0 -0.0002069181304478644 -0.10428039987704124 0 -0.0001587034510789565 -0.10419710502871014 0 -0.00031494752361141214 -0.10402320639868541 0 -0.0002069181304478644 -0.10428039987704124 0 -0.00024180658916424802 -0.10400775956639537 0 -0.0001587034510789565 -0.10419710502871014 0 -0.00031494752361141214 -0.10402320639868541 0 0.00026610059551283844 -0.10407410695140215 0 0.00035742519407107803 -0.10408592628647108 0 -0.00031494752361141214 -0.10402320639868541 0 -0.0003651559494430443 -0.10439414924550652 0 -0.0002069181304478644 -0.10428039987704124 0 -0.00031494752361141214 -0.10402320639868541 0 -0.00031823484265769354 -0.10380605108920445 0 -0.00023445420579774114 -0.10387035746972791 0 -0.00011039019513642365 -0.10447870916434565 0 -0.0003651559494430443 -0.10439414924550652 0 -0.0002069181304478644 -0.10428039987704124 0 -0.00011039019513642365 -0.10447870916434565 0 -6.9444557567584477e-05 -0.10440137945432969 0 -0.0002069181304478644 -0.10428039987704124 0 -0.00022321754832720658 -0.10386720374809864 0 -0.0001928746192352508 -0.1038056777865583 0 -0.00017925151543160119 -0.10373547450502006 0 -0.00022321754832720658 -0.10386720374809864 0 -0.00023445420579774114 -0.10387035746972791 0 -0.0001928746192352508 -0.1038056777865583 0 -0.0002630424526374527 -0.10394698734263993 0 -0.00031494752361141214 -0.10402320639868541 0 -0.00022321754832720658 -0.10386720374809864 0 -0.00031494752361141214 -0.10402320639868541 0 -0.00022321754832720658 -0.10386720374809864 0 -0.00023445420579774114 -0.10387035746972791 0 -0.00023445420579774114 -0.10387035746972791 0 -0.00022738697399862719 -0.10379207238467479 0 -0.0001928746192352508 -0.1038056777865583 0 -0.00031823484265769354 -0.10380605108920445 0 -0.00023445420579774114 -0.10387035746972791 0 -0.00022738697399862719 -0.10379207238467479 0 -0.00019297474266841881 -0.1037479407258185 0 -0.00022738697399862719 -0.10379207238467479 0 -0.0001928746192352508 -0.1038056777865583 0 -0.00019297474266841881 -0.1037479407258185 0 -0.0001928746192352508 -0.1038056777865583 0 -0.00017905353218238801 -0.1037666098126804 0 -0.0001928746192352508 -0.1038056777865583 0 -0.00017905353218238801 -0.1037666098126804 0 -0.00018416464252749948 -0.10375871425821942 0 -0.00017905353218238801 -0.1037666098126804 0 -0.00018416464252749948 -0.10375871425821942 0 -0.00018076259595291804 -0.10375974122076742 0 -0.00018416464252749948 -0.10375871425821942 0 -0.00017925151543160119 -0.10373547450502006 0 -0.00022102385898381278 -0.10370369915077243 0 -0.0001928746192352508 -0.1038056777865583 0 -0.00018416464252749948 -0.10375871425821942 0 -0.00017925151543160119 -0.10373547450502006 0 -0.0025851654030241149 -0.091188109878436216 0 -0.0036841394789664536 -0.085806256572105111 0 -0.0013623804851081659 -0.087252294255103877 0 -0.00018416464252749948 -0.10375871425821942 0 -0.00022102385898381278 -0.10370369915077243 0 -0.00018076259595291804 -0.10375974122076742 0 0.00016504768469984436 -0.097432505198628713 0 0.0011256594121114652 -0.095805239753201613 0 -0.00098323140957615488 -0.084456129866003218 0 -0.0036841394789664536 -0.085806256572105111 0 -0.0013623804851081659 -0.087252294255103877 0 -0.00098323140957615488 -0.084456129866003218 0 -0.0013623804851081659 -0.087252294255103877 0 0.00023365486718432383 -0.086357089403668721 0 0.0010798511828173899 -0.084965259118279679 0 0.00023365486718432383 -0.086357089403668721 0 0.0024500459441189225 -0.08701390009181581 0 0.00036167358932836136 -0.088951513660950193 0 0.0024500459441189225 -0.08701390009181581 0 0.002645460143687545 -0.089693194593623335 0 0.00023365486718432383 -0.086357089403668721 0 0.00036167358932836136 -0.088951513660950193 0 0.0024500459441189225 -0.08701390009181581 0 -0.0013623804851081659 -0.087252294255103877 0 0.00023365486718432383 -0.086357089403668721 0 0.00036167358932836136 -0.088951513660950193 0 0.0037472250254132998 -0.084773195121388076 0 0.0057065035377316109 -0.086882863131681226 0 0.0077504646444719588 -0.086529644210351142 0 0.0032448832758111062 -0.0852643258395481 0 0.0044779373178343348 -0.085753527594871926 0 0.0037472250254132998 -0.084773195121388076 0 0.0057065035377316109 -0.086882863131681226 0 0.0041477868742843963 -0.08675922714420331 0 0.0037472250254132998 -0.084773195121388076 0 0.0024500459441189225 -0.08701390009181581 0 0.0041477868742843963 -0.08675922714420331 0 0.0010798511828173899 -0.084965259118279679 0 0.0037472250254132998 -0.084773195121388076 0 0.0024500459441189225 -0.08701390009181581 0 0.0024500459441189225 -0.08701390009181581 0 0.0041477868742843963 -0.08675922714420331 0 0.0046946330454435761 -0.088399975463461802 0 0.0024500459441189225 -0.08701390009181581 0 0.0046946330454435761 -0.088399975463461802 0 0.002645460143687545 -0.089693194593623335 0 0.0057065035377316109 -0.086882863131681226 0 0.0046946330454435761 -0.088399975463461802 0 0.0068155033514515307 -0.088022414332009496 0 0.0057065035377316109 -0.086882863131681226 0 0.0041477868742843963 -0.08675922714420331 0 0.0046946330454435761 -0.088399975463461802 0 0.0041559345678809454 -0.091871572399548157 0 0.006929582400056253 -0.090526645667050473 0 0.0066853273300719884 -0.094545559269304066 0 0.0046946330454435761 -0.088399975463461802 0 0.0041559345678809454 -0.091871572399548157 0 0.006929582400056253 -0.090526645667050473 0 0.0046946330454435761 -0.088399975463461802 0 0.002645460143687545 -0.089693194593623335 0 0.0041559345678809454 -0.091871572399548157 0 0.002645460143687545 -0.089693194593623335 0 0.0041559345678809454 -0.091871572399548157 0 0.0011428337275561319 -0.092267964453149789 0 -0.0025851654030241149 -0.091188109878436216 0 0.00036167358932836136 -0.088951513660950193 0 0.0011428337275561319 -0.092267964453149789 0 -0.0025851654030241149 -0.091188109878436216 0 -0.0013623804851081659 -0.087252294255103877 0 0.00036167358932836136 -0.088951513660950193 0 0.00036167358932836136 -0.088951513660950193 0 0.002645460143687545 -0.089693194593623335 0 0.0011428337275561319 -0.092267964453149789 0 0.0011428337275561319 -0.092267964453149789 0 0.0034133580843939055 -0.095243474231658895 0 -0.0013702630671054386 -0.096764365434876098 0 -0.0025851654030241149 -0.091188109878436216 0 0.0011428337275561319 -0.092267964453149789 0 -0.0013702630671054386 -0.096764365434876098 0 0.0041559345678809454 -0.091871572399548157 0 0.0034133580843939055 -0.095243474231658895 0 0.0066853273300719884 -0.094545559269304066 0 0.0041559345678809454 -0.091871572399548157 0 0.0011428337275561319 -0.092267964453149789 0 0.0034133580843939055 -0.095243474231658895 0 0.0034133580843939055 -0.095243474231658895 0 0.0050190603823672391 -0.098248123695777984 0 0.0066853273300719884 -0.094545559269304066 0 0.0034133580843939055 -0.095243474231658895 0 0.0050190603823672391 -0.098248123695777984 0 0.0020367270839939436 -0.098386373756462545 0 0.0050190603823672391 -0.098248123695777984 0 0.0020367270839939436 -0.098386373756462545 0 0.0032609872623561476 -0.10093392008293604 0 0.00010137411014812839 -0.099647681033969024 0 0.00026102407101853144 -0.10090747895660976 0 0.0020367270839939436 -0.098386373756462545 0 -0.0013702630671054386 -0.096764365434876098 0 0.00031816376583893269 -0.10277213508386362 0 0.0034133580843939055 -0.095243474231658895 0 0.0020367270839939436 -0.098386373756462545 0 -0.0013702630671054386 -0.096764365434876098 0 -0.00017677533256097014 -0.10346207147522893 0 -0.00017996043984634758 -0.10359039160229128 0 -0.00019318757014290882 -0.10343556407973245 0 -0.00017677533256097014 -0.10346207147522893 0 -0.00019318757014290882 -0.10343556407973245 0 0.00031816376583893269 -0.10277213508386362 0 -0.00026966491629946206 -0.10366121411851058 0 -0.0002165366150223037 -0.1037630098375843 0 -0.00017996043984634758 -0.10359039160229128 0 -0.00026966491629946206 -0.10366121411851058 0 -0.00017996043984634758 -0.10359039160229128 0 -0.00019318757014290882 -0.10343556407973245 0 -0.00017925151543160119 -0.10373547450502006 0 -0.00022102385898381278 -0.10370369915077243 0 -0.00017996043984634758 -0.10359039160229128 0 -0.0002165366150223037 -0.1037630098375843 0 -0.00017925151543160119 -0.10373547450502006 0 -0.00017996043984634758 -0.10359039160229128 0 -0.00022102385898381278 -0.10370369915077243 0 -0.00017677533256097014 -0.10346207147522893 0 -0.00017996043984634758 -0.10359039160229128 0 0.00016504768469984436 -0.097432505198628713 0 0.00010137411014812839 -0.099647681033969024 0 0.015689334990909819 -0.0025211557732708542 0 0.017681360805822759 -0.00070366882644014794 0 0.01553133161972337 0.0012126990907606367 0 0.017681360805822759 -0.00070366882644014794 0 0.018353554977621173 0.0011861684807843132 0 0.01553133161972337 0.0012126990907606367 0 0.015689334990909819 -0.0025211557732708542 0 0.018966909197925243 -0.0024940714412932034 0 0.017681360805822759 -0.00070366882644014794 0 0.018333914407876007 -0.0046251838551930879 0 0.015689334990909819 -0.0025211557732708542 0 0.018966909197925243 -0.0024940714412932034 0 0.018966909197925243 -0.0024940714412932034 0 0.017681360805822759 -0.00070366882644014794 0 0.019880279143477071 -0.00095065580133095885 0 0.020676165442392837 0.0010235566464821481 0 0.019880279143477071 -0.00095065580133095885 0 0.018353554977621173 0.0011861684807843132 0 0.017681360805822759 -0.00070366882644014794 0 0.019880279143477071 -0.00095065580133095885 0 0.018353554977621173 0.0011861684807843132 0 0.020676165442392837 0.0010235566464821481 0 0.019880279143477071 -0.00095065580133095885 0 0.022887914789814834 -0.001886683917520781 0 0.013575643525498983 -0.045983770147267344 0 0.012706239638731888 -0.04726050647130247 0 0.011939473571344691 -0.092425882053579281 0 0.0088117054447591301 -0.087640002623036867 0 0.0088792538448643037 -0.092381496749832065 0 0.018966909197925243 -0.0024940714412932034 0 0.019880279143477071 -0.00095065580133095885 0 0.021269562654743501 -0.0029360881785291575 0 0.019880279143477071 -0.00095065580133095885 0 0.021269562654743501 -0.0029360881785291575 0 0.022887914789814834 -0.001886683917520781 0 0.020166464052238434 -0.0041908265521644434 0 0.018966909197925243 -0.0024940714412932034 0 0.021269562654743501 -0.0029360881785291575 0 0.0053911998277897007 -0.082157859775144296 0 0.0088117054447591301 -0.087640002623036867 0 0.0077504646444719588 -0.086529644210351142 0 0.02301826461761361 -0.0040915086348315517 0 0.021269562654743501 -0.0029360881785291575 0 0.022887914789814834 -0.001886683917520781 0 0.0088117054447591301 -0.087640002623036867 0 0.0068155033514515307 -0.088022414332009496 0 0.006929582400056253 -0.090526645667050473 0 0.0057065035377316109 -0.086882863131681226 0 0.0077504646444719588 -0.086529644210351142 0 0.0068155033514515307 -0.088022414332009496 0 0.0088117054447591301 -0.087640002623036867 0 0.0077504646444719588 -0.086529644210351142 0 0.0068155033514515307 -0.088022414332009496 0 0.0046946330454435761 -0.088399975463461802 0 0.0068155033514515307 -0.088022414332009496 0 0.006929582400056253 -0.090526645667050473 0 0.006929582400056253 -0.090526645667050473 0 0.0088792538448643037 -0.092381496749832065 0 0.0066853273300719884 -0.094545559269304066 0 0.0088117054447591301 -0.087640002623036867 0 0.006929582400056253 -0.090526645667050473 0 0.0088792538448643037 -0.092381496749832065 0 0.0088792538448643037 -0.092381496749832065 0 0.0066853273300719884 -0.094545559269304066 0 0.010029387910211626 -0.096724007503852974 0 0.0066853273300719884 -0.094545559269304066 0 0.0073373644938144397 -0.097145991721165406 0 0.010029387910211626 -0.096724007503852974 0 0.0050190603823672391 -0.098248123695777984 0 0.0066853273300719884 -0.094545559269304066 0 0.0073373644938144397 -0.097145991721165406 0 0.0077510229031839328 -0.099561662027880415 0 0.010029387910211626 -0.096724007503852974 0 0.010085533820947731 -0.10178292606032802 0 0.0050190603823672391 -0.098248123695777984 0 0.0073373644938144397 -0.097145991721165406 0 0.0077510229031839328 -0.099561662027880415 0 0.0050190603823672391 -0.098248123695777984 0 0.0077510229031839328 -0.099561662027880415 0 0.0053277494307895521 -0.10175282026186321 0 0.0073373644938144397 -0.097145991721165406 0 0.0077510229031839328 -0.099561662027880415 0 0.010029387910211626 -0.096724007503852974 0 0.011221194012371507 -0.042257011631620635 0 0.0061531476070807107 -0.051417065730197671 0 0.010029387910211626 -0.096724007503852974 0 0.015150916961780937 -0.097141258119498669 0 0.010085533820947731 -0.10178292606032802 0 0.011939473571344691 -0.092425882053579281 0 0.010029387910211626 -0.096724007503852974 0 0.015150916961780937 -0.097141258119498669 0 0.011939473571344691 -0.092425882053579281 0 0.0088792538448643037 -0.092381496749832065 0 0.010029387910211626 -0.096724007503852974 0 0.018353554977621173 0.0011861684807843132 0 0.018605329296331803 0.0039029012430787258 0 0.01553133161972337 0.0012126990907606367 0 0.020676165442392837 0.0010235566464821481 0 0.018353554977621173 0.0011861684807843132 0 0.018605329296331803 0.0039029012430787258 0 0.013575643525498983 -0.045983770147267344 0 0.011221194012371507 -0.042257011631620635 0 0.011064784203519293 -0.0017012187132960719 0 0.012160930929835794 -0.0015998192375721468 0 0.008842979311348852 -0.0060031226722353625 0 0.011064784203519293 -0.0017012187132960719 0 0.010707273642538456 -0.0011433856678834274 0 0.008842979311348852 -0.0060031226722353625 0 0.011064784203519293 -0.0017012187132960719 0 0.011121128264669284 -0.0013798719541604726 0 0.012160930929835794 -0.0015998192375721468 0 0.010999268479131945 -0.041769447993758035 0 0.011221194012371507 -0.042257011631620635 0 0.011121128264669284 -0.0013798719541604726 0 0.012160930929835794 -0.0015998192375721468 0 0.012187052061649804 -0.0014012273026316416 0 0.012160930929835794 -0.0015998192375721468 0 0.012120982373753824 -0.0012871627161449737 0 0.012162320472467715 -0.0011497646688126224 0 0.012160930929835794 -0.0015998192375721468 0 0.012120982373753824 -0.0012871627161449737 0 0.012187052061649804 -0.0014012273026316416 0 0.012120982373753824 -0.0012871627161449737 0 0.012187052061649804 -0.0014012273026316416 0 0.012082231271110452 -0.0012184501659604405 0 0.011121128264669284 -0.0013798719541604726 0 0.012187052061649804 -0.0014012273026316416 0 0.012377707537425937 -0.0012585309589510751 0 0.012187052061649804 -0.0014012273026316416 0 0.012377707537425937 -0.0012585309589510751 0 0.012082231271110452 -0.0012184501659604405 0 0.011221194012371507 -0.042257011631620635 0 0.020009715539497281 -0.014444160739852888 0 0.012342183392821468 -0.00078253298106850341 0 0.012156445371660095 -0.00086660667154313199 0 0.011938361443925146 -0.00045789808180298213 0 0.012342183392821468 -0.00078253298106850341 0 0.012522322286307491 -0.00069795866202122618 0 0.011938361443925146 -0.00045789808180298213 0 0.012342183392821468 -0.00078253298106850341 0 0.012156445371660095 -0.00086660667154313199 0 0.012326082372087524 -0.00098994581356024315 0 0.012156445371660095 -0.00086660667154313199 0 0.012162320472467715 -0.0011497646688126224 0 0.011994955521540415 -0.00093269219374518769 0 0.012120982373753824 -0.0012871627161449737 0 0.012162320472467715 -0.0011497646688126224 0 0.011994955521540415 -0.00093269219374518769 0 0.012160930929835794 -0.0015998192375721468 0 0.012162320472467715 -0.0011497646688126224 0 0.012357885829411653 -0.0012334569493723808 0 0.012156445371660095 -0.00086660667154313199 0 0.012162320472467715 -0.0011497646688126224 0 0.012326082372087524 -0.00098994581356024315 0 0.012162320472467715 -0.0011497646688126224 0 0.012326082372087524 -0.00098994581356024315 0 0.012357885829411653 -0.0012334569493723808 0 0.012160930929835794 -0.0015998192375721468 0 0.012357885829411653 -0.0012334569493723808 0 0.0127280364094489 -0.0011149948358769488 0 0.012326082372087524 -0.00098994581356024315 0 0.012490146882179712 -0.0010621776509834981 0 0.012556672426282944 -0.00092836413286720887 0 0.017266252530326431 -0.011996354792344044 0 0.016517059541251034 -0.017543258848806767 0 0.012326082372087524 -0.00098994581356024315 0 0.012490146882179712 -0.0010621776509834981 0 0.012357885829411653 -0.0012334569493723808 0 0.012490146882179712 -0.0010621776509834981 0 0.012357885829411653 -0.0012334569493723808 0 0.0127280364094489 -0.0011149948358769488 0 0.012490146882179712 -0.0010621776509834981 0 0.012556672426282944 -0.00092836413286720887 0 0.0127280364094489 -0.0011149948358769488 0 0.012556672426282944 -0.00092836413286720887 0 0.012697511977110467 -0.00096006157016161086 0 0.0127280364094489 -0.0011149948358769488 0 0.012556672426282944 -0.00092836413286720887 0 0.012692218491202757 -0.00085594291484416521 0 0.012697511977110467 -0.00096006157016161086 0 0.012342183392821468 -0.00078253298106850341 0 0.012326082372087524 -0.00098994581356024315 0 0.012556672426282944 -0.00092836413286720887 0 0.012342183392821468 -0.00078253298106850341 0 0.012556672426282944 -0.00092836413286720887 0 0.012549176720287492 -0.00081275046779788116 0 0.012342183392821468 -0.00078253298106850341 0 0.012549176720287492 -0.00081275046779788116 0 0.012522322286307491 -0.00069795866202122618 0 0.012549176720287492 -0.00081275046779788116 0 0.012692218491202757 -0.00085594291484416521 0 0.012522322286307491 -0.00069795866202122618 0 0.012556672426282944 -0.00092836413286720887 0 0.012549176720287492 -0.00081275046779788116 0 0.012692218491202757 -0.00085594291484416521 0 0.012692218491202757 -0.00085594291484416521 0 0.012806276804325192 -0.00093860354748532898 0 0.013040198215888836 -0.00090913330613719829 0 0.012692218491202757 -0.00085594291484416521 0 0.013040198215888836 -0.00090913330613719829 0 0.012522322286307491 -0.00069795866202122618 0 0.0080117494983134776 -0.042788523658239763 0 0.011906589996200541 -0.018767261217982494 0 0.012806276804325192 -0.00093860354748532898 0 0.0127280364094489 -0.0011149948358769488 0 0.013040198215888836 -0.00090913330613719829 0 0.016517059541251034 -0.017543258848806767 0 0.0080117494983134776 -0.042788523658239763 0 0.012806276804325192 -0.00093860354748532898 0 0.012697511977110467 -0.00096006157016161086 0 0.0127280364094489 -0.0011149948358769488 0 0.012692218491202757 -0.00085594291484416521 0 0.012806276804325192 -0.00093860354748532898 0 0.012697511977110467 -0.00096006157016161086 0 0.008842979311348852 -0.0060031226722353625 0 0.0060979051552927412 -0.0054873854773775993 0 0.0039144326360097195 -0.010898486966430998 0 0.010707273642538456 -0.0011433856678834274 0 0.008842979311348852 -0.0060031226722353625 0 0.0060979051552927412 -0.0054873854773775993 0 0.010085533820947731 -0.10178292606032802 0 0.0070199406256270152 -0.10228486222345425 0 0.0049232449415623431 -0.10586263542048371 0 0.0077510229031839328 -0.099561662027880415 0 0.010085533820947731 -0.10178292606032802 0 0.0070199406256270152 -0.10228486222345425 0 0.0077510229031839328 -0.099561662027880415 0 0.0070199406256270152 -0.10228486222345425 0 0.0053277494307895521 -0.10175282026186321 0 0.0061531476070807107 -0.051417065730197671 0 -0.00014980477293611896 -0.058767578599386326 0 0.0060979051552927412 -0.0054873854773775993 0 0.0039144326360097195 -0.010898486966430998 0 0.00064275660316733332 -0.010606887772428311 0 0.0080117494983134776 -0.042788523658239763 0 -0.00014980477293611896 -0.058767578599386326 0 0.0037251143256278887 -0.0051332913313812036 0 0.0027035897160876945 -0.0082841298568403308 0 -0.0043438072937835408 -0.007919421963908645 0 0.0046860066496206493 0.00044238980032389798 0 0.0037251143256278887 -0.0051332913313812036 0 -0.0043438072937835408 -0.007919421963908645 0 0.0046860066496206493 0.00044238980032389798 0 0.0037251143256278887 -0.0051332913313812036 0 0.008232410243620954 -0.0033178346561378532 0 0.0073713280374605328 -0.0065932663522000057 0 0.0037251143256278887 -0.0051332913313812036 0 0.008232410243620954 -0.0033178346561378532 0 0.0073713280374605328 -0.0065932663522000057 0 0.0037251143256278887 -0.0051332913313812036 0 0.0027035897160876945 -0.0082841298568403308 0 0.0027035897160876945 -0.0082841298568403308 0 0.0061761204068493973 -0.010959155697765385 0 0.00025232213619735637 -0.012886569265865172 0 0.0061761204068493973 -0.010959155697765385 0 0.00025232213619735637 -0.012886569265865172 0 0.0064225546070663239 -0.016152091952550317 0 0.0073713280374605328 -0.0065932663522000057 0 0.0027035897160876945 -0.0082841298568403308 0 0.0061761204068493973 -0.010959155697765385 0 0.0073713280374605328 -0.0065932663522000057 0 0.0061761204068493973 -0.010959155697765385 0 0.010963841281061901 -0.0082658074772185546 0 0.0061761204068493973 -0.010959155697765385 0 0.010963841281061901 -0.0082658074772185546 0 0.01068715082364011 -0.012930986690139709 0 0.0061761204068493973 -0.010959155697765385 0 0.01068715082364011 -0.012930986690139709 0 0.0064225546070663239 -0.016152091952550317 0 0.01068715082364011 -0.012930986690139709 0 0.01519664750248104 -0.0096349602340535419 0 0.014988638240423331 -0.014812692722004309 0 0.01068715082364011 -0.012930986690139709 0 0.014988638240423331 -0.014812692722004309 0 0.011798806137992118 -0.017747031766370689 0 0.010963841281061901 -0.0082658074772185546 0 0.01068715082364011 -0.012930986690139709 0 0.01519664750248104 -0.0096349602340535419 0 0.0046860066496206493 0.00044238980032389798 0 0.012377870191290153 -0.0031167450317839164 0 0.01863879610064699 -0.0015715727577457173 0 0.010963841281061901 -0.0082658074772185546 0 0.014261014450615683 -0.0055439661360196547 0 0.01519664750248104 -0.0096349602340535419 0 0.0046860066496206493 0.00044238980032389798 0 0.008232410243620954 -0.0033178346561378532 0 0.012377870191290153 -0.0031167450317839164 0 0.014261014450615683 -0.0055439661360196547 0 0.011201205561977619 -0.0052047674009681813 0 0.012377870191290153 -0.0031167450317839164 0 0.010963841281061901 -0.0082658074772185546 0 0.014261014450615683 -0.0055439661360196547 0 0.011201205561977619 -0.0052047674009681813 0 0.0073713280374605328 -0.0065932663522000057 0 0.011201205561977619 -0.0052047674009681813 0 0.008232410243620954 -0.0033178346561378532 0 0.0073713280374605328 -0.0065932663522000057 0 0.010963841281061901 -0.0082658074772185546 0 0.011201205561977619 -0.0052047674009681813 0 0.011201205561977619 -0.0052047674009681813 0 0.008232410243620954 -0.0033178346561378532 0 0.012377870191290153 -0.0031167450317839164 0 0.014261014450615683 -0.0055439661360196547 0 0.012377870191290153 -0.0031167450317839164 0 0.016872613764372327 -0.0031652286564496312 0 0.012377870191290153 -0.0031167450317839164 0 0.016872613764372327 -0.0031652286564496312 0 0.01863879610064699 -0.0015715727577457173 0 0.016872613764372327 -0.0031652286564496312 0 0.018003123675842805 -0.0023966563588460345 0 0.017962197667471133 -0.0037854408450799675 0 0.016872613764372327 -0.0031652286564496312 0 0.018003123675842805 -0.0023966563588460345 0 0.01863879610064699 -0.0015715727577457173 0 0.017962197667471133 -0.0037854408450799675 0 0.018580116174466293 -0.0015652402998480119 0 0.019715091007221922 -0.0062182088382277938 0 0.018003123675842805 -0.0023966563588460345 0 0.01863879610064699 -0.0015715727577457173 0 0.018580116174466293 -0.0015652402998480119 0 0.018003123675842805 -0.0023966563588460345 0 0.017962197667471133 -0.0037854408450799675 0 0.018580116174466293 -0.0015652402998480119 0 0.017962197667471133 -0.0037854408450799675 0 0.019715091007221922 -0.0062182088382277938 0 0.017096623004522457 -0.0060986455607530826 0 0.019715091007221922 -0.0062182088382277938 0 0.017096623004522457 -0.0060986455607530826 0 0.018540051107730698 -0.0088828878497254904 0 0.014261014450615683 -0.0055439661360196547 0 0.017096623004522457 -0.0060986455607530826 0 0.01519664750248104 -0.0096349602340535419 0 0.016872613764372327 -0.0031652286564496312 0 0.017962197667471133 -0.0037854408450799675 0 0.017096623004522457 -0.0060986455607530826 0 0.014261014450615683 -0.0055439661360196547 0 0.016872613764372327 -0.0031652286564496312 0 0.017096623004522457 -0.0060986455607530826 0 0.01519664750248104 -0.0096349602340535419 0 0.018913853524318361 -0.012993135913512253 0 0.018540051107730698 -0.0088828878497254904 0 0.017096623004522457 -0.0060986455607530826 0 0.01519664750248104 -0.0096349602340535419 0 0.018540051107730698 -0.0088828878497254904 0 0.01519664750248104 -0.0096349602340535419 0 0.014988638240423331 -0.014812692722004309 0 0.018913853524318361 -0.012993135913512253 0 0.018913853524318361 -0.012993135913512253 0 0.021894855136182029 -0.010170082445635765 0 0.023879468195586031 -0.013590447230762109 0 0.019715091007221922 -0.0062182088382277938 0 0.018540051107730698 -0.0088828878497254904 0 0.021894855136182029 -0.010170082445635765 0 0.018913853524318361 -0.012993135913512253 0 0.018540051107730698 -0.0088828878497254904 0 0.021894855136182029 -0.010170082445635765 0 0.021894855136182029 -0.010170082445635765 0 0.023879468195586031 -0.013590447230762109 0 0.026508852112455572 -0.009188603619218725 0 0.019715091007221922 -0.0062182088382277938 0 0.021894855136182029 -0.010170082445635765 0 0.026508852112455572 -0.009188603619218725 0 0.023879468195586031 -0.013590447230762109 0 0.026508852112455572 -0.009188603619218725 0 0.033838210108989998 -0.016586339634774315 0 0.018580116174466293 -0.0015652402998480119 0 0.017191833640250863 0.00083226819994310292 0 0.015771504977612889 -0.00099969246039359385 0 0.01863879610064699 -0.0015715727577457173 0 0.018580116174466293 -0.0015652402998480119 0 0.015771504977612889 -0.00099969246039359385 0 0.011906589996200541 -0.018767261217982494 0 0.012709528211607507 -0.0092162914578962987 0 0.017741461837277036 -0.0067356828704459226 0 0.018413640862125751 -0.0086662299362469941 0 0.018580116174466293 -0.0015652402998480119 0 0.019715091007221922 -0.0062182088382277938 0 0.026508852112455572 -0.009188603619218725 0 -0.00039721548097840584 -0.10358260890717057 0 -0.00029266432670948199 -0.10310980797411573 0 -0.00037512440533010478 -0.10332071457418995 0 0.0017674106357387705 -0.085614860949577584 0 0.0020307651283175006 -0.079906000463754928 0 -0.00039721548097840584 -0.10358260890717057 0 -0.00015304587068750203 -0.10353360813440257 0 0.00012456492473709782 -0.10444550188129283 0 -0.00039721548097840584 -0.10358260890717057 0 -0.00037512440533010478 -0.10332071457418995 0 -0.00041044112612678821 -0.10344891488539887 0 -0.00030670976118381125 -0.10371200691042413 0 -0.00039721548097840584 -0.10358260890717057 0 -0.00041044112612678821 -0.10344891488539887 0 -0.00026966491629946206 -0.10366121411851058 0 -0.00039721548097840584 -0.10358260890717057 0 -0.00019318757014290882 -0.10343556407973245 0 -0.00039721548097840584 -0.10358260890717057 0 -0.00019318757014290882 -0.10343556407973245 0 -0.00015304587068750203 -0.10353360813440257 0 -0.00019318757014290882 -0.10343556407973245 0 -0.00015304587068750203 -0.10353360813440257 0 0.00031816376583893269 -0.10277213508386362 0 -0.00015304587068750203 -0.10353360813440257 0 0.00031816376583893269 -0.10277213508386362 0 0.00012456492473709782 -0.10444550188129283 0 0.0020367270839939436 -0.098386373756462545 0 0.00031816376583893269 -0.10277213508386362 0 0.0032609872623561476 -0.10093392008293604 0 0.00031816376583893269 -0.10277213508386362 0 0.0032609872623561476 -0.10093392008293604 0 0.0026379519328906908 -0.10330450035021167 0 0.00031816376583893269 -0.10277213508386362 0 0.0026379519328906908 -0.10330450035021167 0 0.00012456492473709782 -0.10444550188129283 0 0.0070199406256270152 -0.10228486222345425 0 0.0053277494307895521 -0.10175282026186321 0 0.0049232449415623431 -0.10586263542048371 0 0.0050190603823672391 -0.098248123695777984 0 0.0053277494307895521 -0.10175282026186321 0 0.0032609872623561476 -0.10093392008293604 0 0.0053277494307895521 -0.10175282026186321 0 0.0032609872623561476 -0.10093392008293604 0 0.0026379519328906908 -0.10330450035021167 0 0.0053277494307895521 -0.10175282026186321 0 0.0026379519328906908 -0.10330450035021167 0 0.0049232449415623431 -0.10586263542048371 0 0.0026379519328906908 -0.10330450035021167 0 0.0049232449415623431 -0.10586263542048371 0 0.00012456492473709782 -0.10444550188129283 0 -0.00014317157390195012 -0.10286828914298179 0 -0.00029266432670948199 -0.10310980797411573 0 -0.00016402377247255111 -0.10297257210772932 0 -0.00014980477293611896 -0.058767578599386326 0 0.0020307651283175006 -0.079906000463754928 0 -0.00029266432670948199 -0.10310980797411573 0 -0.00030388057632261216 -0.10317430113722149 0 -0.00016402377247255111 -0.10297257210772932 0 -0.00016402377247255111 -0.10297257210772932 0 0.00026707507442646133 -0.10330320600214131 0 -0.00013371691410055196 -0.10325121666376189 0 -0.00016402377247255111 -0.10297257210772932 0 -0.00027957841258082692 -0.10325241949768865 0 -0.00013371691410055196 -0.10325121666376189 0 -0.00030388057632261216 -0.10317430113722149 0 -0.00016402377247255111 -0.10297257210772932 0 -0.00027957841258082692 -0.10325241949768865 0 0.0080117494983134776 -0.042788523658239763 0 0.00054476205829160392 -0.055489061111192714 0 0.00090878165408363979 -0.10163414717684811 0 -0.00016402377247255111 -0.10297257210772932 0 0.00026707507442646133 -0.10330320600214131 0 0.0020301579359374836 -0.10168067098871351 0 0.00090878165408363979 -0.10163414717684811 0 0.00026707507442646133 -0.10330320600214131 0 -0.00014980477293611896 -0.058767578599386326 0 -0.0063009730040171942 -0.070168228816643294 0 -0.0043438072937835408 -0.007919421963908645 0 -0.0052020198710083137 -0.014165213915333383 0 0.00025232213619735637 -0.012886569265865172 0 0.0027035897160876945 -0.0082841298568403308 0 -0.0043438072937835408 -0.007919421963908645 0 0.00025232213619735637 -0.012886569265865172 0 -0.0043438072937835408 -0.007919421963908645 0 -0.0052020198710083137 -0.014165213915333383 0 -0.010500269067242425 -0.013600266807686655 0 -0.0052020198710083137 -0.014165213915333383 0 -0.010500269067242425 -0.013600266807686655 0 -0.013512532941199267 -0.016372500741526224 0 -0.00027957841258082692 -0.10325241949768865 0 -0.00027310705502719794 -0.10340858753919306 0 -0.00035709233259741081 -0.10335914616058894 0 -0.00027957841258082692 -0.10325241949768865 0 -0.00013371691410055196 -0.10325121666376189 0 -0.00027310705502719794 -0.10340858753919306 0 0.00054476205829160392 -0.055489061111192714 0 -0.0013300401460158862 -0.061855289085752968 0 0.00026707507442646133 -0.10330320600214131 0 -0.00013371691410055196 -0.10325121666376189 0 -0.00027310705502719794 -0.10340858753919306 0 -0.0013300401460158862 -0.061855289085752968 0 -0.0016828189158738175 -0.065065233094048783 0 -0.00027310705502719794 -0.10340858753919306 0 -0.00035709233259741081 -0.10335914616058894 0 -0.00032836965385347024 -0.10340198203546629 0 -0.00035709233259741081 -0.10335914616058894 0 -0.00044934017217410506 -0.10339605083878468 0 -0.00032836965385347024 -0.10340198203546629 0 0.0031204284704421763 -0.074448382064909266 0 -0.0016828189158738175 -0.065065233094048783 0 -0.00035709233259741081 -0.10335914616058894 0 -0.00038287705956380192 -0.10332302810890376 0 -0.00044934017217410506 -0.10339605083878468 0 -0.00027957841258082692 -0.10325241949768865 0 -0.00035709233259741081 -0.10335914616058894 0 -0.00038287705956380192 -0.10332302810890376 0 -0.00030388057632261216 -0.10317430113722149 0 -0.00027957841258082692 -0.10325241949768865 0 -0.00038287705956380192 -0.10332302810890376 0 -0.00038287705956380192 -0.10332302810890376 0 -0.00037512440533010478 -0.10332071457418995 0 -0.00041044112612678821 -0.10344891488539887 0 -0.00029266432670948199 -0.10310980797411573 0 -0.00030388057632261216 -0.10317430113722149 0 -0.00037512440533010478 -0.10332071457418995 0 -0.00030388057632261216 -0.10317430113722149 0 -0.00038287705956380192 -0.10332302810890376 0 -0.00037512440533010478 -0.10332071457418995 0 -0.00038287705956380192 -0.10332302810890376 0 -0.00041044112612678821 -0.10344891488539887 0 -0.00044934017217410506 -0.10339605083878468 0 -0.00036517070416663749 -0.10350691296310637 0 -0.00041044112612678821 -0.10344891488539887 0 -0.00044934017217410506 -0.10339605083878468 0 -0.00044934017217410506 -0.10339605083878468 0 -0.00046757370343055528 -0.10327910910662137 0 -0.00062052447321228664 -0.10322746082895412 0 -0.00044934017217410506 -0.10339605083878468 0 -0.00046757370343055528 -0.10327910910662137 0 -0.00038662680457443013 -0.10337674714804762 0 -0.0031187277972722612 -0.080384669079239024 0 -0.00023868138273548081 -0.088179000193589485 0 -0.00046757370343055528 -0.10327910910662137 0 -0.00050656268270150211 -0.10316176409460168 0 -0.00039259309342467045 -0.10326154925497631 0 -0.00094916004068101867 -0.083504201242958001 0 -0.0030889034146840285 -0.08358389162329713 0 -0.0024176710461116047 -0.084163006886664393 0 -0.00094916004068101867 -0.083504201242958001 0 -0.0020002508587064374 -0.0846558808387399 0 -0.0024176710461116047 -0.084163006886664393 0 -0.0034869931229042123 -0.070724761944427103 0 -0.0037900506652366554 -0.071990890516082234 0 -0.0051649623005864485 -0.072573573106188491 0 -0.0034869931229042123 -0.070724761944427103 0 -0.0037900506652366554 -0.071990890516082234 0 -0.0026057704091848421 -0.071723736139217939 0 -0.0031187277972722612 -0.080384669079239024 0 -0.0017346524611768534 -0.082483092124751398 0 -0.0031187277972722612 -0.080384669079239024 0 -0.0015882580795817587 -0.077938985364738561 0 -0.0035988104112527472 -0.070667624694551748 0 -0.0010874114538485353 -0.070565487846473873 0 -0.0012740314248574401 -0.068118325360367493 0 -0.0034869931229042123 -0.070724761944427103 0 -0.0026057704091848421 -0.071723736139217939 0 -0.0010443499444710135 -0.070610242754281585 0 -0.0026057704091848421 -0.071723736139217939 0 -0.0010443499444710135 -0.070610242754281585 0 -0.00040509299078370949 -0.072055729335281996 0 -0.00046757370343055528 -0.10327910910662137 0 -0.00050656268270150211 -0.10316176409460168 0 -0.00062052447321228664 -0.10322746082895412 0 -0.0031187277972722612 -0.080384669079239024 0 -0.0027994517669532697 -0.069766713494454222 0 -0.00044934017217410506 -0.10339605083878468 0 -0.00062052447321228664 -0.10322746082895412 0 -0.00065291778635317695 -0.10324215174334125 0 -0.0010874114538485353 -0.070565487846473873 0 -0.0012740314248574401 -0.068118325360367493 0 -0.00070131376170710609 -0.067491680138743793 0 -0.0027994517669532697 -0.069766713494454222 0 -0.0016828189158738175 -0.065065233094048783 0 -0.0010874114538485353 -0.070565487846473873 0 0.00049721861349398685 -0.068892914081397014 0 -0.00070131376170710609 -0.067491680138743793 0 -0.0016828189158738175 -0.065065233094048783 0 0.00066692315284715457 -0.053788363395093332 0 0.00049721861349398685 -0.068892914081397014 0 -0.00070131376170710609 -0.067491680138743793 0 0.0034622864912511051 -0.068533687941123703 0 -0.0052020198710083137 -0.014165213915333383 0 -0.013512532941199267 -0.016372500741526224 0 -0.0010316451479695 -0.019453225930019174 0 0.00049721861349398685 -0.068892914081397014 0 0.0034622864912511051 -0.068533687941123703 0 0.0014263930078597853 -0.070463489787297828 0 -0.0052020198710083137 -0.014165213915333383 0 0.00025232213619735637 -0.012886569265865172 0 -0.0010316451479695 -0.019453225930019174 0 0.0034622864912511051 -0.068533687941123703 0 0.0035574742819381457 -0.07083331696774435 0 0.0014263930078597853 -0.070463489787297828 0 0.0048158736606442078 -0.062947654970085407 0 0.0016570608194104457 -0.070669562240565309 0 0.0077766843329161259 -0.06444661755556079 0 0.0029896269383089913 -0.065935309938050871 0 0.0052040691255045811 -0.066954819556349535 0 0.0035574742819381457 -0.07083331696774435 0 0.0014263930078597853 -0.070463489787297828 0 -0.00040509299078370949 -0.072055729335281996 0 -0.0015882580795817587 -0.077938985364738561 0 -0.00079093638301674766 -0.077168277713448835 0 -0.0010443499444710135 -0.070610242754281585 0 0.0014263930078597853 -0.070463489787297828 0 -0.00040509299078370949 -0.072055729335281996 0 -0.0010874114538485353 -0.070565487846473873 0 0.00049721861349398685 -0.068892914081397014 0 0.0014263930078597853 -0.070463489787297828 0 0.0029896269383089913 -0.065935309938050871 0 0.0052040691255045811 -0.066954819556349535 0 0.0034109977000383045 -0.068178419021601322 0 0.0052040691255045811 -0.066954819556349535 0 0.0034109977000383045 -0.068178419021601322 0 0.005048367874847126 -0.068769132216946888 0 0.0029896269383089913 -0.065935309938050871 0 0.0034109977000383045 -0.068178419021601322 0 0.0014229852421119426 -0.068319481304513957 0 0.0077766843329161259 -0.06444661755556079 0 0.0069344127472629816 -0.067286149432747688 0 0.0083957677941290127 -0.066040482730003097 0 0.0077766843329161259 -0.06444661755556079 0 0.0052040691255045811 -0.066954819556349535 0 0.0069344127472629816 -0.067286149432747688 0 0.0069344127472629816 -0.067286149432747688 0 0.0067078359250133867 -0.068862130911725578 0 0.005048367874847126 -0.068769132216946888 0 0.0052040691255045811 -0.066954819556349535 0 0.0069344127472629816 -0.067286149432747688 0 0.005048367874847126 -0.068769132216946888 0 0.0069344127472629816 -0.067286149432747688 0 0.0067078359250133867 -0.068862130911725578 0 0.0086882938117631026 -0.068511906796010935 0 0.0069344127472629816 -0.067286149432747688 0 0.0083957677941290127 -0.066040482730003097 0 0.0086882938117631026 -0.068511906796010935 0 0.0059514276080107958 -0.070699509457415349 0 0.0086882938117631026 -0.068511906796010935 0 0.0068605888627072328 -0.073005783429242965 0 0.0054694287697876678 -0.064518724247651579 0 0.0041077996847953841 -0.058343060006164835 0 0.0067078359250133867 -0.068862130911725578 0 0.0059514276080107958 -0.070699509457415349 0 0.0086882938117631026 -0.068511906796010935 0 0.0067078359250133867 -0.068862130911725578 0 0.0059514276080107958 -0.070699509457415349 0 0.005048367874847126 -0.068769132216946888 0 0.0059514276080107958 -0.070699509457415349 0 0.0030484512237293816 -0.070142815352853244 0 0.0031431529735693651 -0.072985546298043866 0 0.0059514276080107958 -0.070699509457415349 0 0.005048367874847126 -0.068769132216946888 0 0.0030484512237293816 -0.070142815352853244 0 0.0034109977000383045 -0.068178419021601322 0 0.005048367874847126 -0.068769132216946888 0 0.0030484512237293816 -0.070142815352853244 0 0.0034109977000383045 -0.068178419021601322 0 0.0030484512237293816 -0.070142815352853244 0 0.0014229852421119426 -0.068319481304513957 0 0.0030484512237293816 -0.070142815352853244 0 0.00024687252302139483 -0.070831392163538731 0 0.0031431529735693651 -0.072985546298043866 0 0.0030484512237293816 -0.070142815352853244 0 0.00024687252302139483 -0.070831392163538731 0 0.0014229852421119426 -0.068319481304513957 0 0.00024687252302139483 -0.070831392163538731 0 -0.0004081022210405817 -0.069030266840937729 0 0.0014229852421119426 -0.068319481304513957 0 0.00024687252302139483 -0.070831392163538731 0 -0.0016186356588807306 -0.06954168001454844 0 -0.0020648474861042977 -0.072303691200376066 0 -0.0016186356588807306 -0.06954168001454844 0 -0.0020648474861042977 -0.072303691200376066 0 -0.0040873352866906913 -0.068151052494798539 0 0.00024687252302139483 -0.070831392163538731 0 -0.0016186356588807306 -0.06954168001454844 0 -0.0004081022210405817 -0.069030266840937729 0 -0.0016186356588807306 -0.06954168001454844 0 -0.0004081022210405817 -0.069030266840937729 0 -0.0016760354331655939 -0.067448203861829453 0 -0.001061275936682873 -0.080631457388972094 0 -0.0016928149645895525 -0.080444332111254832 0 -0.0021589865424172 -0.080952772011278928 0 -0.0016186356588807306 -0.06954168001454844 0 -0.0016760354331655939 -0.067448203861829453 0 -0.0040873352866906913 -0.068151052494798539 0 -0.0016800654903380622 -0.079625427117785835 0 -0.0012234905528686021 -0.082771612817572185 0 -0.0037900506652366554 -0.071990890516082234 0 -0.0043009246408326832 -0.073234564313937392 0 -0.0051568041681488109 -0.072570226642362332 0 -0.0016763992721457548 -0.08201875695338029 0 -0.0017346524611768534 -0.082483092124751398 0 -0.0043009246408326832 -0.073234564313937392 0 -0.0051568041681488109 -0.072570226642362332 0 -0.0054533463982539719 -0.072896256316778069 0 -0.0016800654903380622 -0.079625427117785835 0 -0.0016132301419154462 -0.08249762115779545 0 -0.0017346524611768534 -0.082483092124751398 0 -0.0016132301419154462 -0.08249762115779545 0 -0.0037900506652366554 -0.071990890516082234 0 -0.0026057704091848421 -0.071723736139217939 0 -0.0043009246408326832 -0.073234564313937392 0 0.0016570608194104457 -0.070669562240565309 0 -0.0016800654903380622 -0.079625427117785835 0 -0.0004081022210405817 -0.069030266840937729 0 -0.0016760354331655939 -0.067448203861829453 0 0.0014229852421119426 -0.068319481304513957 0 0.0029896269383089913 -0.065935309938050871 0 -0.0017804186375545493 -0.067401050633376064 0 0.0014229852421119426 -0.068319481304513957 0 -0.0016800654903380622 -0.079625427117785835 0 -0.0017794519309422346 -0.07809166239978034 0 -0.0026057704091848421 -0.071723736139217939 0 -0.00040509299078370949 -0.072055729335281996 0 -0.0043009246408326832 -0.073234564313937392 0 0.011912342037253311 -0.024841132989597121 0 0.011003656952078458 -0.028062662080409053 0 0.015819783501597372 -0.025742414757094337 0 0.011912342037253311 -0.024841132989597121 0 0.012767758344212598 -0.022010015332064935 0 0.015819783501597372 -0.025742414757094337 0 0.023879468195586031 -0.013590447230762109 0 0.025865237231976795 -0.018915989471572876 0 0.017796991242290627 -0.021292609876214556 0 0.023879468195586031 -0.013590447230762109 0 0.025865237231976795 -0.018915989471572876 0 0.033838210108989998 -0.016586339634774315 0 0.011912342037253311 -0.024841132989597121 0 0.012767758344212598 -0.022010015332064935 0 0.0091112729894451856 -0.023082680411344668 0 0.01864974858819269 -0.024602222484458518 0 0.016742600671943757 -0.037087156150488201 0 0.014988638240423331 -0.014812692722004309 0 0.018913853524318361 -0.012993135913512253 0 0.018105085542001433 -0.020803233241679365 0 0.021223305809656666 -0.029300858060997474 0 0.016742600671943757 -0.037087156150488201 0 0.018913853524318361 -0.012993135913512253 0 0.023879468195586031 -0.013590447230762109 0 0.018105085542001433 -0.020803233241679365 0 0.014988638240423331 -0.014812692722004309 0 0.018105085542001433 -0.020803233241679365 0 0.011798806137992118 -0.017747031766370689 0 0.016742600671943757 -0.037087156150488201 0 0.0090568670826434161 -0.051647111272354808 0 0.0091112729894451856 -0.023082680411344668 0 0.0056859133008865083 -0.027412100887937212 0 0.011003656952078458 -0.028062662080409053 0 0.011912342037253311 -0.024841132989597121 0 0.0091112729894451856 -0.023082680411344668 0 0.011003656952078458 -0.028062662080409053 0 0.014161708339420976 -0.062262955204784053 0 0.012703201775189412 -0.063178548077726965 0 0.011669590629660524 -0.065156487251716383 0 0.016742600671943757 -0.037087156150488201 0 0.010449557458967387 -0.045651063251910984 0 0.011889226581805593 -0.062978143810061449 0 0.010131521698749197 -0.063969700030266613 0 0.011669590629660524 -0.065156487251716383 0 0.014161708339420976 -0.062262955204784053 0 0.011767999187758515 -0.06290341612360692 0 0.012703201775189412 -0.063178548077726965 0 0.0090568670826434161 -0.051647111272354808 0 0.0093785881503523419 -0.051898224417671689 0 0.011889226581805593 -0.062978143810061449 0 0.012703201775189412 -0.063178548077726965 0 0.011669590629660524 -0.065156487251716383 0 0.018105085542001433 -0.020803233241679365 0 0.011188078844958149 -0.022807434342372746 0 0.011798806137992118 -0.017747031766370689 0 0.01068715082364011 -0.012930986690139709 0 0.011798806137992118 -0.017747031766370689 0 0.0064225546070663239 -0.016152091952550317 0 0.011188078844958149 -0.022807434342372746 0 0.011798806137992118 -0.017747031766370689 0 0.0064225546070663239 -0.016152091952550317 0 -0.0010316451479695 -0.019453225930019174 0 0.011188078844958149 -0.022807434342372746 0 0.0064225546070663239 -0.016152091952550317 0 0.00066692315284715457 -0.053788363395093332 0 0.0090568670826434161 -0.051647111272354808 0 0.00025232213619735637 -0.012886569265865172 0 -0.0010316451479695 -0.019453225930019174 0 0.0064225546070663239 -0.016152091952550317 0 0.0034622864912511051 -0.068533687941123703 0 0.0035574742819381457 -0.07083331696774435 0 0.0075335327012393365 -0.06961746903857513 0 0.0048158736606442078 -0.062947654970085407 0 0.0090568670826434161 -0.051647111272354808 0 0.0077766843329161259 -0.06444661755556079 0 0.011889226581805593 -0.062978143810061449 0 0.010131521698749197 -0.063969700030266613 0 0.0077766843329161259 -0.06444661755556079 0 0.010131521698749197 -0.063969700030266613 0 0.0083957677941290127 -0.066040482730003097 0 0.0090611637515258855 -0.06682692096020125 0 0.0096937745698612455 -0.067343346042993205 0 0.011669590629660524 -0.065156487251716383 0 0.010131521698749197 -0.063969700030266613 0 0.0090611637515258855 -0.06682692096020125 0 0.011669590629660524 -0.065156487251716383 0 0.010131521698749197 -0.063969700030266613 0 0.0083957677941290127 -0.066040482730003097 0 0.0086882938117631026 -0.068511906796010935 0 0.0065779250903188194 -0.064365049277738881 0 0.0054694287697876678 -0.064518724247651579 0 0.0090611637515258855 -0.06682692096020125 0 0.0096937745698612455 -0.067343346042993205 0 0.0080119315041800154 -0.069299689937118214 0 0.0072858743968427352 -0.051118993672303617 0 0.0041077996847953841 -0.058343060006164835 0 0.0022336758487441224 -0.031768880271829704 0 0.0065286556499375018 -0.032311136109744877 0 0.0028015062484673006 -0.035795089230533622 0 0.0022336758487441224 -0.031768880271829704 0 0.0065286556499375018 -0.032311136109744877 0 0.0056859133008865083 -0.027412100887937212 0 0.0072858743968427352 -0.051118993672303617 0 0.010449557458967387 -0.045651063251910984 0 0.0065286556499375018 -0.032311136109744877 0 0.0056859133008865083 -0.027412100887937212 0 0.011003656952078458 -0.028062662080409053 0 0.0065286556499375018 -0.032311136109744877 0 0.011190568621524455 -0.033977559520613286 0 0.011003656952078458 -0.028062662080409053 0 0.008423371311532658 -0.020862868119381751 0 0.01248404472945089 -0.014747614135804558 0 0.011190568621524455 -0.033977559520613286 0 0.011003656952078458 -0.028062662080409053 0 0.016135248762827927 -0.031083603733760377 0 0.0023917443443392779 -0.015378342027088383 0 -0.0021732342344833312 -0.010899608097385294 0 -0.0010660990413398903 -0.021475879767912896 0 0.0094771794781436294 -0.014716873449199773 0 0.006372563339375679 -0.014876896238439394 0 0.0086011415300385318 -0.017457697386429487 0 0.006372563339375679 -0.014876896238439394 0 0.0048165199927094789 -0.017843378036547793 0 0.0086011415300385318 -0.017457697386429487 0 0.006372563339375679 -0.014876896238439394 0 0.0083721673018217826 -0.012071039734513246 0 0.0034417590570148043 -0.011579291682730536 0 0.0094771794781436294 -0.014716873449199773 0 0.006372563339375679 -0.014876896238439394 0 0.0083721673018217826 -0.012071039734513246 0 0.0052912862986931831 -0.0064292598476870617 0 0.0083721673018217826 -0.012071039734513246 0 0.012168864349729875 -0.0085607166226634411 0 0.0052912862986931831 -0.0064292598476870617 0 0.0083721673018217826 -0.012071039734513246 0 0.0034417590570148043 -0.011579291682730536 0 0.008423371311532658 -0.020862868119381751 0 0.0041020696686615418 -0.027558043160991683 0 0.0065286556499375018 -0.032311136109744877 0 0.011190568621524455 -0.033977559520613286 0 0.0062081811657859641 -0.036897661802173153 0 0.0052912862986931831 -0.0064292598476870617 0 0.0034417590570148043 -0.011579291682730536 0 -0.0021732342344833312 -0.010899608097385294 0 0.0034417590570148043 -0.011579291682730536 0 0.0023917443443392779 -0.015378342027088383 0 -0.0021732342344833312 -0.010899608097385294 0 0.006372563339375679 -0.014876896238439394 0 0.0034417590570148043 -0.011579291682730536 0 0.0023917443443392779 -0.015378342027088383 0 0.006372563339375679 -0.014876896238439394 0 0.0023917443443392779 -0.015378342027088383 0 0.0048165199927094789 -0.017843378036547793 0 -0.0021732342344833312 -0.010899608097385294 0 -0.0094356599948855618 -0.015236589564266576 0 -0.0010660990413398903 -0.021475879767912896 0 0.0065286556499375018 -0.032311136109744877 0 0.0062081811657859641 -0.036897661802173153 0 0.0028015062484673006 -0.035795089230533622 0 0.0022336758487441224 -0.031768880271829704 0 0.0028015062484673006 -0.035795089230533622 0 -0.0012425965314967445 -0.036160621056337938 0 0.0028015062484673006 -0.035795089230533622 0 0.0011788675180809589 -0.039830241350777729 0 -0.0012425965314967445 -0.036160621056337938 0 0.0062081811657859641 -0.036897661802173153 0 0.0028015062484673006 -0.035795089230533622 0 0.0011788675180809589 -0.039830241350777729 0 0.0041020696686615418 -0.027558043160991683 0 0.00087051508850293597 -0.036473983375122601 0 -0.0094356599948855618 -0.015236589564266576 0 -0.0098493625384574422 -0.02293641280246415 0 -0.0010660990413398903 -0.021475879767912896 0 -0.005821521424519094 -0.044672470921291153 0 -0.0070523871132770651 -0.046418598805089424 0 -0.0047729809300246697 -0.04638866239241015 0 -0.005821521424519094 -0.044672470921291153 0 -0.0029680193119157572 -0.044154980525416193 0 -0.0047729809300246697 -0.04638866239241015 0 -0.0029680193119157572 -0.044154980525416193 0 -0.0026879523010724538 -0.045912687927151856 0 -0.0047729809300246697 -0.04638866239241015 0 -0.0052272498475373543 -0.041452279630460366 0 -0.00094897204274126026 -0.036033134404516547 0 0.0023917443443392779 -0.015378342027088383 0 -0.0010660990413398903 -0.021475879767912896 0 0.0048165199927094789 -0.017843378036547793 0 -0.0010660990413398903 -0.021475879767912896 0 0.0076991999146784271 -0.020030444046971893 0 0.0048165199927094789 -0.017843378036547793 0 -0.00094897204274126026 -0.036033134404516547 0 0.0059386431398625811 -0.032464039473555799 0 -0.0029680193119157572 -0.044154980525416193 0 -0.0016427982260418777 -0.04512047413609431 0 -2.3689955782391413e-05 -0.043653396615645164 0 -0.0029680193119157572 -0.044154980525416193 0 -0.0026879523010724538 -0.045912687927151856 0 -0.0016427982260418777 -0.04512047413609431 0 -0.0026879523010724538 -0.045912687927151856 0 -0.0016427982260418777 -0.04512047413609431 0 -0.001156518816002026 -0.046732067875244789 0 0.0079115433325150815 -0.023988943563368108 0 0.0071126654593309854 -0.020607040700317811 0 0.0031559694893510859 -0.031772346524988199 0 -0.0016427982260418777 -0.04512047413609431 0 -2.3689955782391413e-05 -0.043653396615645164 0 -0.001156518816002026 -0.046732067875244789 0 0.0059386431398625811 -0.032464039473555799 0 0.0020685227174018772 -0.039408544703914562 0 0.0079115433325150815 -0.023988943563368108 0 0.010209654504107442 -0.026334899303783132 0 0.0031559694893510859 -0.031772346524988199 0 0.0079115433325150815 -0.023988943563368108 0 0.010236365406926653 -0.022057989648579905 0 0.010209654504107442 -0.026334899303783132 0 0.0079115433325150815 -0.023988943563368108 0 0.0071126654593309854 -0.020607040700317811 0 0.0077322616094317757 -0.020505389310379693 0 0.0079115433325150815 -0.023988943563368108 0 0.0077322616094317757 -0.020505389310379693 0 0.010236365406926653 -0.022057989648579905 0 0.0077322616094317757 -0.020505389310379693 0 0.010194490755358089 -0.019212886942016331 0 0.010236365406926653 -0.022057989648579905 0 0.0059386431398625811 -0.032464039473555799 0 0.0059490920225204729 -0.032452049729266449 0 0.0076991999146784271 -0.020030444046971893 0 0.0048165199927094789 -0.017843378036547793 0 0.0086011415300385318 -0.017457697386429487 0 0.0059386431398625811 -0.032464039473555799 0 0.006379730822346134 -0.031043163052740103 0 0.0071275553452834796 -0.020593230756787786 0 0.0077322616094317757 -0.020505389310379693 0 0.0086011415300385318 -0.017457697386429487 0 0.0077322616094317757 -0.020505389310379693 0 0.0086011415300385318 -0.017457697386429487 0 0.010194490755358089 -0.019212886942016331 0 0.0018152381813718932 -0.075438395136865094 0 0.00019073257171512266 -0.076486218160424335 0 0.00072085448357068029 -0.073574969845131219 0 0.0018152381813718932 -0.075438395136865094 0 0.0038150085499864496 -0.076636254152217115 0 0.0012774201030116192 -0.077299657147239964 0 0.0018152381813718932 -0.075438395136865094 0 0.00019073257171512266 -0.076486218160424335 0 0.0012774201030116192 -0.077299657147239964 0 0.00019073257171512266 -0.076486218160424335 0 -0.0014183599326955546 -0.075950972352409732 0 -0.00033211843145096004 -0.078452578600609266 0 -0.0020121973923490884 -0.075995022011366195 0 -0.0025710501650683332 -0.075997073395971226 0 0.00019073257171512266 -0.076486218160424335 0 -0.0014183599326955546 -0.075950972352409732 0 -0.001180209691553145 -0.07406304011556844 0 -0.0014183599326955546 -0.075950972352409732 0 -0.001180209691553145 -0.07406304011556844 0 -0.0022163723847794851 -0.074064047812547038 0 0.00019073257171512266 -0.076486218160424335 0 -0.0020648474861042977 -0.072303691200376066 0 0.00072085448357068029 -0.073574969845131219 0 0.00024687252302139483 -0.070831392163538731 0 -0.0020648474861042977 -0.072303691200376066 0 0.00072085448357068029 -0.073574969845131219 0 0.00024687252302139483 -0.070831392163538731 0 0.00072085448357068029 -0.073574969845131219 0 0.0031431529735693651 -0.072985546298043866 0 0.0018152381813718932 -0.075438395136865094 0 0.00072085448357068029 -0.073574969845131219 0 0.0031431529735693651 -0.072985546298043866 0 0.0059514276080107958 -0.070699509457415349 0 0.0031431529735693651 -0.072985546298043866 0 0.0068605888627072328 -0.073005783429242965 0 0.0031431529735693651 -0.072985546298043866 0 0.0068605888627072328 -0.073005783429242965 0 0.0038150085499864496 -0.076636254152217115 0 0.0041077996847953841 -0.058343060006164835 0 0.0024027471651127496 -0.053186831552278248 0 0.0041077996847953841 -0.058343060006164835 0 0.0012017583428052293 -0.06482358957105834 0 0.00087051508850293597 -0.036473983375122601 0 0.00028149939596484717 -0.050793832708553512 0 0.0045211567590811505 -0.057189115770302223 0 0.0037561305145290347 -0.059034731646258179 0 0.0024313993685167574 -0.059778351044161515 0 0.0011788675180809589 -0.039830241350777729 0 -0.0012425965314967445 -0.036160621056337938 0 -0.0025689670902730049 -0.039451096714511469 0 0.0011788675180809589 -0.039830241350777729 0 -0.0025689670902730049 -0.039451096714511469 0 -0.0038894767296935636 -0.04276053443192921 0 0.0018152381813718932 -0.075438395136865094 0 0.0031431529735693651 -0.072985546298043866 0 0.0038150085499864496 -0.076636254152217115 0 0.0024027471651127496 -0.053186831552278248 0 0.00028149939596484717 -0.050793832708553512 0 0.0037561305145290347 -0.059034731646258179 0 0.0024313993685167574 -0.059778351044161515 0 0.0029976328469921605 -0.060890420168840227 0 0.00028149939596484717 -0.050793832708553512 0 -0.00058837327659760452 -0.066449263400009395 0 0.0024313993685167574 -0.059778351044161515 0 0.0029976328469921605 -0.060890420168840227 0 0.00033515847563538308 -0.06240086462413074 0 0.0039720984841950533 -0.058226641323080482 0 0.0028607959479651523 -0.061009294712546895 0 -0.0018665489734446454 -0.061588172617069441 0 -0.016678578637862755 -0.019542750032413805 0 -0.015325297136438975 -0.020296989196856376 0 -0.017957528115057728 -0.02282750808854098 0 0.00028149939596484717 -0.050793832708553512 0 -0.0020686907282354071 -0.050357691523016952 0 -0.0018758503308136901 -0.048216256867354312 0 -0.0020686907282354071 -0.050357691523016952 0 -0.0094356599948855618 -0.015236589564266576 0 -0.0098493625384574422 -0.02293641280246415 0 -0.015325297136438975 -0.020296989196856376 0 -0.0094356599948855618 -0.015236589564266576 0 -0.016678578637862755 -0.019542750032413805 0 -0.015325297136438975 -0.020296989196856376 0 -0.0098493625384574422 -0.02293641280246415 0 -0.015325297136438975 -0.020296989196856376 0 -0.017918043830474649 -0.022728350060499523 0 -0.0052272498475373543 -0.041452279630460366 0 -0.0030661645020735881 -0.051247467266410988 0 -0.0098493625384574422 -0.02293641280246415 0 -0.01856602780566538 -0.024378170990917675 0 -0.017918043830474649 -0.022728350060499523 0 -0.005821521424519094 -0.044672470921291153 0 -0.0086482783815179758 -0.045150927828846957 0 -0.0070523871132770651 -0.046418598805089424 0 -0.00024621933383698453 -0.059309561667550727 0 -0.0013281421216266099 -0.059478438742421369 0 -0.0021028195240237824 -0.063957051483193389 0 -0.0030661645020735881 -0.051247467266410988 0 -0.0028196877540237371 -0.058267743062861914 0 0.0011015203453011641 -0.062631276109337275 0 0.0028607959479651523 -0.061009294712546895 0 -0.0018665489734446454 -0.061588172617069441 0 -0.0030661645020735881 -0.051247467266410988 0 -0.0023273630246566043 -0.053269729421563793 0 -0.0016526295352839232 -0.053189189698109006 0 -0.0017600674538807487 -0.053207451552990975 0 -0.0016002003321937293 -0.053056300700516763 0 -0.0023273630246566043 -0.053269729421563793 0 -0.0020686907282354071 -0.050357691523016952 0 -0.0030661645020735881 -0.051247467266410988 0 -0.0020686907282354071 -0.050357691523016952 0 -0.0086482783815179758 -0.045150927828846957 0 -0.0082554881345711043 -0.046602731295800705 0 -0.0070523871132770651 -0.046418598805089424 0 -0.0023273630246566043 -0.053269729421563793 0 -0.0026386769585214609 -0.054426319353187501 0 0.0011015203453011641 -0.062631276109337275 0 -0.0037813018354295835 -0.063406036212518932 0 -0.0018665489734446454 -0.061588172617069441 0 0.0011023919542166682 -0.062634297447281453 0 -0.0037813018354295835 -0.063406036212518932 0 -0.0049524162504091069 -0.068245153980437442 0 0.0038150085499864496 -0.076636254152217115 0 0.00099245672313139663 -0.079363276784183645 0 0.0012774201030116192 -0.077299657147239964 0 0.00099245672313139663 -0.079363276784183645 0 0.0012774201030116192 -0.077299657147239964 0 -0.00033211843145096004 -0.078452578600609266 0 0.0012017583428052293 -0.06482358957105834 0 -0.00058837327659760452 -0.066449263400009395 0 0.00019073257171512266 -0.076486218160424335 0 0.0012774201030116192 -0.077299657147239964 0 -0.00033211843145096004 -0.078452578600609266 0 -0.00091916447154156403 -0.077447916586862398 0 -0.00033211843145096004 -0.078452578600609266 0 -0.0012398063530832041 -0.078275980605918186 0 -0.00033211843145096004 -0.078452578600609266 0 -0.00097644255221649703 -0.079977284619447586 0 -0.0012398063530832041 -0.078275980605918186 0 -0.0018433551573204924 -0.078205881474502775 0 -0.0016207121790098634 -0.078236395745817991 0 0.00099245672313139663 -0.079363276784183645 0 -0.00033211843145096004 -0.078452578600609266 0 -0.00097644255221649703 -0.079977284619447586 0 -0.00058837327659760452 -0.066449263400009395 0 -0.00045014684563296714 -0.080648777146316228 0 -0.0037813018354295835 -0.063406036212518932 0 -0.0018665489734446454 -0.061588172617069441 0 -0.0074361175859046684 -0.064805581425183181 0 -0.00045014684563296714 -0.080648777146316228 0 0.00056383802096909017 -0.089357502232927169 0 0.00034634310411236319 -0.10463975516292691 0 0.00032829532804154189 -0.10467680489615071 0 0.00034334996772087653 -0.10465215408258778 0 0.00032829532804154189 -0.10467680489615071 0 0.00030955107565566585 -0.10470114971444142 0 0.00031460168491699808 -0.10469267588679196 0 0.00032829532804154189 -0.10467680489615071 0 0.00031460168491699808 -0.10469267588679196 0 0.00034334996772087653 -0.10465215408258778 0 0.00031460168491699808 -0.10469267588679196 0 0.00034334996772087653 -0.10465215408258778 0 0.00029072519747228492 -0.10462794429776791 0 -0.00097644255221649703 -0.079977284619447586 0 -0.0017421546847421669 -0.07826438551112011 0 -0.0012398063530832041 -0.078275980605918186 0 -0.0017421546847421669 -0.07826438551112011 0 -0.0012398063530832041 -0.078275980605918186 0 -0.0015489662113068047 -0.078178316095221578 0 -0.0012398063530832041 -0.078275980605918186 0 -0.0015649000865450146 -0.078118169030610446 0 -0.0015489662113068047 -0.078178316095221578 0 -0.0016980699068894539 -0.078613017982916034 0 -0.0017286789868185546 -0.078793186975496574 0 -0.00091916447154156403 -0.077447916586862398 0 -0.0012398063530832041 -0.078275980605918186 0 -0.0013192595144156873 -0.07731531337345586 0 -0.0015649000865450146 -0.078118169030610446 0 -0.0016229050164315532 -0.078171420112760223 0 -0.001595661504457515 -0.078158769637355213 0 -0.0015649000865450146 -0.078118169030610446 0 -0.0016229050164315532 -0.078171420112760223 0 -0.0015489662113068047 -0.078178316095221578 0 -0.0017421546847421669 -0.07826438551112011 0 -0.0016229050164315532 -0.078171420112760223 0 -0.0015489662113068047 -0.078178316095221578 0 0.00056383802096909017 -0.089357502232927169 0 -0.00062602255356269986 -0.091897614418402704 0 -0.0016229050164315532 -0.078171420112760223 0 -0.0015850697353486361 -0.078166197441636553 0 -0.0015560254385406621 -0.078144986389875201 0 -0.0017421546847421669 -0.07826438551112011 0 -0.0016229050164315532 -0.078171420112760223 0 -0.0015560254385406621 -0.078144986389875201 0 0.00034334996772087653 -0.10465215408258778 0 0.00029072519747228492 -0.10462794429776791 0 0.00028736667769631557 -0.10451870200535381 0 -0.0016229050164315532 -0.078171420112760223 0 -0.0015850697353486361 -0.078166197441636553 0 -0.001595661504457515 -0.078158769637355213 0 -0.0015850697353486361 -0.078166197441636553 0 -0.0015789132548022571 -0.078200343760166088 0 -0.001595661504457515 -0.078158769637355213 0 -0.0015789132548022571 -0.078200343760166088 0 -0.0015223049962524964 -0.078199986052244888 0 -0.001597675508665753 -0.078292136456634645 0 -0.0015850697353486361 -0.078166197441636553 0 -0.0015789132548022571 -0.078200343760166088 0 -0.0015290520132669831 -0.07819073115720758 0 -0.0015789132548022571 -0.078200343760166088 0 -0.0015223049962524964 -0.078199986052244888 0 -0.0015290520132669831 -0.07819073115720758 0 -0.0010867730070920703 -0.091262152109320885 0 -0.00062602255356269986 -0.091897614418402704 0 -0.00091916447154156403 -0.077447916586862398 0 -0.0013192595144156873 -0.07731531337345586 0 -0.0014169345028575996 -0.07641208987610193 0 -0.0017286789868185546 -0.078793186975496574 0 -0.0017563457871487482 -0.079906349925088771 0 -0.0018433551573204924 -0.078205881474502775 0 -0.0017563457871487482 -0.079906349925088771 0 -0.0015649000865450146 -0.078118169030610446 0 -0.0016251056713604871 -0.078205243186250106 0 -0.001595661504457515 -0.078158769637355213 0 -0.0015789132548022571 -0.078200343760166088 0 -0.0016251056713604871 -0.078205243186250106 0 -0.001595661504457515 -0.078158769637355213 0 -0.0002956418343913689 -0.096065526550929731 0 -3.8472764811647282e-05 -0.096134796861801264 0 -0.00035346038791138899 -0.096256010077223716 0 -0.0002076175336499388 -0.096771170144920246 0 -0.00051700051446226932 -0.099342308608988919 0 0.00012223721323280172 -0.10473509381335913 0 0.00011446368970351711 -0.10477111177927924 0 9.7733134965563161e-05 -0.10476626421975083 0 -0.0002956418343913689 -0.096065526550929731 0 -0.00043414665801725012 -0.096119973304241879 0 -0.00035346038791138899 -0.096256010077223716 0 -0.0002956418343913689 -0.096065526550929731 0 -0.00043414665801725012 -0.096119973304241879 0 -0.00057262238239373089 -0.096014687282872629 0 0.00012223721323280172 -0.10473509381335913 0 0.00015146833641304825 -0.10471447997812926 0 0.00012992949483707193 -0.10476018237434626 0 -0.0002076175336499388 -0.096771170144920246 0 -0.00046072175445779705 -0.092613898921667867 0 -0.00046072175445779705 -0.092613898921667867 0 -0.00028670762562702797 -0.094254943191887874 0 -0.00043414665801725012 -0.096119973304241879 0 -0.00057262238239373089 -0.096014687282872629 0 -0.0003940653501838952 -0.096267272715626379 0 0.00027792430899379331 -0.10450263407657943 0 0.00028736667769631557 -0.10451870200535381 0 0.00026132069289419823 -0.10458065941641496 0 -0.00046072175445779705 -0.092613898921667867 0 -0.00062602255356269986 -0.091897614418402704 0 -0.00046072175445779705 -0.092613898921667867 0 -0.002273799585227723 -0.098260239662820881 0 0.00029072519747228492 -0.10462794429776791 0 0.00028736667769631557 -0.10451870200535381 0 0.00026132069289419823 -0.10458065941641496 0 0.00027792430899379331 -0.10450263407657943 0 0.00026132069289419823 -0.10458065941641496 0 0.00019115399987537532 -0.10460785320707555 0 0.00029072519747228492 -0.10462794429776791 0 0.00026132069289419823 -0.10458065941641496 0 0.00022943790210035845 -0.10469097465007912 0 0.00026132069289419823 -0.10458065941641496 0 0.00019115399987537532 -0.10460785320707555 0 0.00022943790210035845 -0.10469097465007912 0 0.00012223721323280172 -0.10473509381335913 0 0.00012992949483707193 -0.10476018237434626 0 0.00011446368970351711 -0.10477111177927924 0 -0.002273799585227723 -0.098260239662820881 0 -0.0025338547317256153 -0.099520858962780387 0 0.00012992949483707193 -0.10476018237434626 0 0.00011446368970351711 -0.10477111177927924 0 0.00012197478889433427 -0.1047756299870098 0 0.00011446368970351711 -0.10477111177927924 0 0.00012197478889433427 -0.1047756299870098 0 9.430728499410586e-05 -0.10480111746627108 0 0.00012197478889433427 -0.1047756299870098 0 0.00022943790210035845 -0.10469097465007912 0 0.000165154932969987 -0.10485109238972688 0 0.00012197478889433427 -0.1047756299870098 0 0.000165154932969987 -0.10485109238972688 0 8.2544487295096081e-05 -0.10484861708190182 0 0.00019115399987537532 -0.10460785320707555 0 0.00012197478889433427 -0.1047756299870098 0 0.00022943790210035845 -0.10469097465007912 0 0.00031460168491699808 -0.10469267588679196 0 0.00022943790210035845 -0.10469097465007912 0 0.000165154932969987 -0.10485109238972688 0 0.00031460168491699808 -0.10469267588679196 0 0.00029072519747228492 -0.10462794429776791 0 0.00022943790210035845 -0.10469097465007912 0 0.00030955107565566585 -0.10470114971444142 0 0.00031460168491699808 -0.10469267588679196 0 0.00027334537727305929 -0.10469365989739211 0 0.00023955022483000449 -0.10477314556597926 0 0.0001960368454824092 -0.1047991986683343 0 0.00030955107565566585 -0.10470114971444142 0 0.00027334537727305929 -0.10469365989739211 0 0.00029391251985121255 -0.10473314927214437 0 0.0001960368454824092 -0.1047991986683343 0 0.00012111886541012848 -0.10484790494595855 0 0.00027334537727305929 -0.10469365989739211 0 0.00015300654644122776 -0.10475530749328245 0 0.0002611665730071753 -0.10476976934908803 0 0.000165154932969987 -0.10485109238972688 0 6.8602171764158674e-05 -0.10493579211569551 0 8.2544487295096081e-05 -0.10484861708190182 0 6.8602171764158674e-05 -0.10493579211569551 0 3.5556515242663791e-05 -0.10491262475166714 0 8.2544487295096081e-05 -0.10484861708190182 0 6.8602171764158674e-05 -0.10493579211569551 0 3.5556515242663791e-05 -0.10491262475166714 0 9.3936274681608306e-06 -0.10498248654769896 0 3.5556515242663791e-05 -0.10491262475166714 0 2.1848632527512665e-05 -0.10489456304274894 0 5.9588211360795876e-05 -0.10484871267618824 0 3.5556515242663791e-05 -0.10491262475166714 0 5.9588211360795876e-05 -0.10484871267618824 0 8.2544487295096081e-05 -0.10484861708190182 0 5.9588211360795876e-05 -0.10484871267618824 0 8.2544487295096081e-05 -0.10484861708190182 0 9.430728499410586e-05 -0.10480111746627108 0 0.00012197478889433427 -0.1047756299870098 0 8.2544487295096081e-05 -0.10484861708190182 0 9.430728499410586e-05 -0.10480111746627108 0 -1.7803356831829187e-08 -0.10499994424346741 0 3.4405922103312907e-06 -0.10494921102555192 0 -7.6928178130488058e-07 -0.10498727312213482 0 3.4405922103312907e-06 -0.10494921102555192 0 9.3936274681608306e-06 -0.10498248654769896 0 -7.6928178130488058e-07 -0.10498727312213482 0 3.5556515242663791e-05 -0.10491262475166714 0 3.4405922103312907e-06 -0.10494921102555192 0 9.3936274681608306e-06 -0.10498248654769896 0 3.5556515242663791e-05 -0.10491262475166714 0 2.1848632527512665e-05 -0.10489456304274894 0 3.4405922103312907e-06 -0.10494921102555192 0 2.1848632527512665e-05 -0.10489456304274894 0 3.4405922103312907e-06 -0.10494921102555192 0 -1.3817600013528707e-06 -0.10492865379970784 0 -1.7803356831829187e-08 -0.10499994424346741 0 -1.3817600013528707e-06 -0.10492865379970784 0 -1.3153007440013736e-05 -0.10493833838779973 0 -1.7803356831829187e-08 -0.10499994424346741 0 3.4405922103312907e-06 -0.10494921102555192 0 -1.3817600013528707e-06 -0.10492865379970784 0 -1.7803356831829187e-08 -0.10499994424346741 0 8.559312740513051e-09 -0.10499990274870555 0 -1.3153007440013736e-05 -0.10493833838779973 0 8.559312740513051e-09 -0.10499990274870555 0 -1.3153007440013736e-05 -0.10493833838779973 0 -1.4968672747227761e-05 -0.1049739452415237 0 -0.00086612333264923509 -0.10296931752855232 0 -0.00079115361440105852 -0.10262127154203816 0 -1.3153007440013736e-05 -0.10493833838779973 0 -3.6067165691897755e-05 -0.10496701302800444 0 -1.4968672747227761e-05 -0.1049739452415237 0 -1.3817600013528707e-06 -0.10492865379970784 0 -1.3153007440013736e-05 -0.10493833838779973 0 1.1346243434424438e-05 -0.1048735324310144 0 2.1848632527512665e-05 -0.10489456304274894 0 -1.3817600013528707e-06 -0.10492865379970784 0 1.1346243434424438e-05 -0.1048735324310144 0 1.1346243434424438e-05 -0.1048735324310144 0 -2.1180903618738773e-06 -0.10480709219366116 0 3.0663213587955856e-05 -0.10481796904526577 0 -1.3153007440013736e-05 -0.10493833838779973 0 1.1346243434424438e-05 -0.1048735324310144 0 -2.1180903618738773e-06 -0.10480709219366116 0 -3.6067165691897755e-05 -0.10496701302800444 0 -3.3488993627661075e-05 -0.10497524103147172 0 -1.4968672747227761e-05 -0.1049739452415237 0 -3.6067165691897755e-05 -0.10496701302800444 0 -3.3488993627661075e-05 -0.10497524103147172 0 -4.1739491920996079e-05 -0.10497408573555725 0 -3.3488993627661075e-05 -0.10497524103147172 0 -2.2057406921225403e-05 -0.10498448904448905 0 -4.1092910857327489e-05 -0.10498393468963092 0 -2.2057406921225403e-05 -0.10498448904448905 0 -1.4968672747227761e-05 -0.1049739452415237 0 -7.0541855694656883e-06 -0.10499105151128864 0 -3.3488993627661075e-05 -0.10497524103147172 0 -2.2057406921225403e-05 -0.10498448904448905 0 -1.4968672747227761e-05 -0.1049739452415237 0 -2.2057406921225403e-05 -0.10498448904448905 0 -7.0541855694656883e-06 -0.10499105151128864 0 -1.4018239540818723e-05 -0.10499783907227785 0 8.559312740513051e-09 -0.10499990274870555 0 -7.0541855694656883e-06 -0.10499105151128864 0 -1.0464838692150004e-08 -0.10500003744817614 0 8.559312740513051e-09 -0.10499990274870555 0 -1.4968672747227761e-05 -0.1049739452415237 0 -7.0541855694656883e-06 -0.10499105151128864 0 7.5538709747077917e-05 -0.10479099301352508 0 9.430728499410586e-05 -0.10480111746627108 0 9.7733134965563161e-05 -0.10476626421975083 0 0.00011446368970351711 -0.10477111177927924 0 9.430728499410586e-05 -0.10480111746627108 0 9.7733134965563161e-05 -0.10476626421975083 0 5.9588211360795876e-05 -0.10484871267618824 0 7.5538709747077917e-05 -0.10479099301352508 0 9.430728499410586e-05 -0.10480111746627108 0 5.9588211360795876e-05 -0.10484871267618824 0 7.5538709747077917e-05 -0.10479099301352508 0 4.4258087921695459e-05 -0.1048352124214592 0 2.1848632527512665e-05 -0.10489456304274894 0 5.9588211360795876e-05 -0.10484871267618824 0 4.4258087921695459e-05 -0.1048352124214592 0 2.1848632527512665e-05 -0.10489456304274894 0 1.1346243434424438e-05 -0.1048735324310144 0 4.4258087921695459e-05 -0.1048352124214592 0 1.1346243434424438e-05 -0.1048735324310144 0 4.4258087921695459e-05 -0.1048352124214592 0 3.0663213587955856e-05 -0.10481796904526577 0 4.4258087921695459e-05 -0.1048352124214592 0 3.0663213587955856e-05 -0.10481796904526577 0 5.5600667490477018e-05 -0.10479359032347303 0 7.5538709747077917e-05 -0.10479099301352508 0 4.4258087921695459e-05 -0.1048352124214592 0 5.5600667490477018e-05 -0.10479359032347303 0 7.5538709747077917e-05 -0.10479099301352508 0 7.2601082010089588e-05 -0.10477292356322182 0 5.5600667490477018e-05 -0.10479359032347303 0 7.2601082010089588e-05 -0.10477292356322182 0 5.5600667490477018e-05 -0.10479359032347303 0 3.3904787496888885e-05 -0.10477033090271747 0 3.3904787496888885e-05 -0.10477033090271747 0 8.8338993153816504e-05 -0.10469056953009252 0 0.0001924227724589789 -0.10466475394786051 0 -0.00088392206752257194 -0.10040338243562778 0 -0.00051700051446226932 -0.099342308608988919 0 7.2601082010089588e-05 -0.10477292356322182 0 3.3904787496888885e-05 -0.10477033090271747 0 9.0289726887400466e-05 -0.10473879168217483 0 -0.00079115361440105852 -0.10262127154203816 0 -0.00039989218874353377 -0.10137813785415552 0 -2.1180903618738773e-06 -0.10480709219366116 0 3.3904787496888885e-05 -0.10477033090271747 0 8.8338993153816504e-05 -0.10469056953009252 0 -2.1180903618738773e-06 -0.10480709219366116 0 3.0663213587955856e-05 -0.10481796904526577 0 3.3904787496888885e-05 -0.10477033090271747 0 3.0663213587955856e-05 -0.10481796904526577 0 5.5600667490477018e-05 -0.10479359032347303 0 3.3904787496888885e-05 -0.10477033090271747 0 -3.3488993627661075e-05 -0.10497524103147172 0 -4.1739491920996079e-05 -0.10497408573555725 0 -4.1092910857327489e-05 -0.10498393468963092 0 -3.6067165691897755e-05 -0.10496701302800444 0 -4.1739491920996079e-05 -0.10497408573555725 0 -4.8400578129479454e-05 -0.10497301462353846 0 -0.00042387346820328193 -0.1014461247994452 0 -0.00039989218874353377 -0.10137813785415552 0 0.00011144966404496451 -0.10314224839406742 0 6.830541177464451e-05 -0.10305258789285382 0 -4.1739491920996079e-05 -0.10497408573555725 0 -4.2119329195729888e-05 -0.10497097203986294 0 -4.1092910857327489e-05 -0.10498393468963092 0 -4.1739491920996079e-05 -0.10497408573555725 0 -4.2119329195729888e-05 -0.10497097203986294 0 -4.0048998861323156e-05 -0.10496989279805784 0 -4.2119329195729888e-05 -0.10497097203986294 0 -3.0140105230989622e-05 -0.10496115540231454 0 -5.3799960795824151e-05 -0.10495345236868388 0 -4.2119329195729888e-05 -0.10497097203986294 0 -4.0048998861323156e-05 -0.10496989279805784 0 -3.0140105230989622e-05 -0.10496115540231454 0 -0.00039989218874353377 -0.10137813785415552 0 -0.00023501729187390169 -0.10146389076543959 0 -0.00039989218874353377 -0.10137813785415552 0 -0.0003400198119347158 -0.10043627679469941 0 -0.00075794777772333465 -0.10042285376693613 0 -0.00043007145067282612 -0.10013286104004497 0 -6.0742796112245092e-05 -0.1002201296336635 0 -0.00023501729187390169 -0.10146389076543959 0 -0.0003400198119347158 -0.10043627679469941 0 0.00012223721323280172 -0.10473509381335913 0 9.0289726887400466e-05 -0.10473879168217483 0 9.7733134965563161e-05 -0.10476626421975083 0 8.8338993153816504e-05 -0.10469056953009252 0 0.00014821484071781741 -0.10466136886123324 0 0.0001924227724589789 -0.10466475394786051 0 -0.0003400198119347158 -0.10043627679469941 0 -0.00051700051446226932 -0.099342308608988919 0 7.2601082010089588e-05 -0.10477292356322182 0 9.0289726887400466e-05 -0.10473879168217483 0 9.7733134965563161e-05 -0.10476626421975083 0 7.5538709747077917e-05 -0.10479099301352508 0 7.2601082010089588e-05 -0.10477292356322182 0 9.7733134965563161e-05 -0.10476626421975083 0 -0.0003400198119347158 -0.10043627679469941 0 -0.00031022442759378482 -0.095408074476537125 0 0.0015645794042224441 -0.1031561975996852 0 0.0013690313315075726 -0.10311064250825604 0 0.00070432704160892316 -0.10393249899106274 0 7.4677875442084212e-05 -0.10474439825111491 0 2.0967138339145394e-05 -0.10473860710352524 0 8.5982341836158342e-05 -0.10478002189053419 0 0.0013690313315075726 -0.10311064250825604 0 0.00070432704160892316 -0.10393249899106274 0 -6.509192351367534e-05 -0.10353537142068202 0 -0.0010693062746565359 -0.098146369254220406 0 -0.00080949362868612616 -0.098203998089408759 0 0.00030338791991143702 -0.097720858397397456 0 -0.00023501729187390169 -0.10146389076543959 0 -0.00046041543602768877 -0.10294358302514126 0 -0.00023501729187390169 -0.10146389076543959 0 6.830541177464451e-05 -0.10305258789285382 0 7.4677875442084212e-05 -0.10474439825111491 0 0.00010006050873253894 -0.10475415255171028 0 8.5982341836158342e-05 -0.10478002189053419 0 8.7366298385592347e-05 -0.10481026178049005 0 0.00010855990542890296 -0.10487566613221898 0 0.00011823135338985365 -0.10488179858230888 0 8.5982341836158342e-05 -0.10478002189053419 0 8.7366298385592347e-05 -0.10481026178049005 0 0.00010855990542890296 -0.10487566613221898 0 8.7366298385592347e-05 -0.10481026178049005 0 5.2381918696872102e-05 -0.10479749102062946 0 0.00011823135338985365 -0.10488179858230888 0 2.0967138339145394e-05 -0.10473860710352524 0 8.7366298385592347e-05 -0.10481026178049005 0 5.2381918696872102e-05 -0.10479749102062946 0 2.0967138339145394e-05 -0.10473860710352524 0 8.5982341836158342e-05 -0.10478002189053419 0 8.7366298385592347e-05 -0.10481026178049005 0 5.2381918696872102e-05 -0.10479749102062946 0 3.2788393292206167e-05 -0.10483725225773008 0 -6.7990178682894698e-06 -0.10475622919226295 0 2.0967138339145394e-05 -0.10473860710352524 0 5.2381918696872102e-05 -0.10479749102062946 0 -6.7990178682894698e-06 -0.10475622919226295 0 3.7729370825868218e-07 -0.10499778629371485 0 7.5782940940030197e-05 -0.10415136007524302 0 -7.0541855694656883e-06 -0.10499105151128864 0 -1.0464838692150004e-08 -0.10500003744817614 0 -1.4018239540818723e-05 -0.10499783907227785 0 3.5706095235148272e-09 -0.10499999026935937 0 -1.7606336117434126e-06 -0.1049932674530803 0 -1.0247011355326727e-06 -0.10499859587528239 0 6.830541177464451e-05 -0.10305258789285382 0 7.5782940940030197e-05 -0.10415136007524302 0 -2.2057406921225403e-05 -0.10498448904448905 0 -4.1092910857327489e-05 -0.10498393468963092 0 -1.4018239540818723e-05 -0.10499783907227785 0 0.00010006050873253894 -0.10475415255171028 0 8.5982341836158342e-05 -0.10478002189053419 0 0.00010855990542890296 -0.10487566613221898 0 -6.9819689201223727e-06 -0.10498780157528095 0 -1.7606336117434126e-06 -0.1049932674530803 0 -1.0247011355326727e-06 -0.10499859587528239 0 6.830541177464451e-05 -0.10305258789285382 0 0.00021513058810112431 -0.10448218170600662 0 3.5706095235148272e-09 -0.10499999026935937 0 -1.0247011355326727e-06 -0.10499859587528239 0 -2.0387795764998912e-09 -0.10500000018282765 0 -1.0247011355326727e-06 -0.10499859587528239 0 -2.0387795764998912e-09 -0.10500000018282765 0 1.5378050298818522e-09 -0.10500000051833611 0 0.00021513058810112431 -0.10448218170600662 0 5.0986458260130873e-07 -0.10499934974786092 0 0.00010855990542890296 -0.10487566613221898 0 1.3441918897986992e-07 -0.10499977602607539 0 7.4989645712153488e-05 -0.10491813108454497 0 0.00010855990542890296 -0.10487566613221898 0 7.4989645712153488e-05 -0.10491813108454497 0 0.00011823135338985365 -0.10488179858230888 0 7.4989645712153488e-05 -0.10491813108454497 0 9.8896107800889332e-05 -0.10485622056426623 0 0.00011823135338985365 -0.10488179858230888 0 7.4989645712153488e-05 -0.10491813108454497 0 9.8896107800889332e-05 -0.10485622056426623 0 3.565935415120228e-05 -0.10492355596239783 0 -3.2360902551616527e-09 -0.10499990972464578 0 1.3441918897986992e-07 -0.10499977602607539 0 3.565935415120228e-05 -0.10492355596239783 0 1.3441918897986992e-07 -0.10499977602607539 0 7.4989645712153488e-05 -0.10491813108454497 0 3.565935415120228e-05 -0.10492355596239783 0 0.00026249593606767716 -0.098448748836303293 0 0.00012970054673631741 -0.099537291747879647 0 0.00028264709019520273 -0.10485579999387863 0 0.00011823135338985365 -0.10488179858230888 0 0.000218631304472499 -0.10480671123407781 0 5.2381918696872102e-05 -0.10479749102062946 0 3.2788393292206167e-05 -0.10483725225773008 0 0.00011823135338985365 -0.10488179858230888 0 9.8896107800889332e-05 -0.10485622056426623 0 0.00011823135338985365 -0.10488179858230888 0 0.000218631304472499 -0.10480671123407781 0 0.00018050088558515905 -0.10474184619845829 0 9.8896107800889332e-05 -0.10485622056426623 0 0.000218631304472499 -0.10480671123407781 0 0.00031816517086660149 -0.10471785792723036 0 0.000218631304472499 -0.10480671123407781 0 0.0003223508889319658 -0.10478976974850482 0 0.00028264709019520273 -0.10485579999387863 0 0.000218631304472499 -0.10480671123407781 0 0.0003223508889319658 -0.10478976974850482 0 0.0015237019449340246 -0.10186871788950259 0 0.0019901853647070612 -0.099386787593559844 0 0.00031816517086660149 -0.10471785792723036 0 0.0003223508889319658 -0.10478976974850482 0 0.00036334829862561425 -0.10476872067846461 0 0.0003223508889319658 -0.10478976974850482 0 0.00036118902098287997 -0.10477920507363728 0 0.00036334829862561425 -0.10476872067846461 0 3.2788393292206167e-05 -0.10483725225773008 0 -0.00027295309596292152 -0.10487422891632753 0 -0.00016111563454276464 -0.10467408864502947 0 3.2788393292206167e-05 -0.10483725225773008 0 -6.7990178682894698e-06 -0.10475622919226295 0 -0.00016111563454276464 -0.10467408864502947 0 0.00028264709019520273 -0.10485579999387863 0 0.0003223508889319658 -0.10478976974850482 0 0.00034674832008268298 -0.1048020037089516 0 0.00026249593606767716 -0.098448748836303293 0 0.0010181488967940207 -0.094738740390441056 0 0.00028264709019520273 -0.10485579999387863 0 0.00034674832008268298 -0.1048020037089516 0 0.00038039458571795568 -0.10478894481089536 0 0.0003223508889319658 -0.10478976974850482 0 0.00034674832008268298 -0.1048020037089516 0 0.00036118902098287997 -0.10477920507363728 0 0.0010181488967940207 -0.094738740390441056 0 0.00068826173306128964 -0.091981582471578741 0 0.0019901853647070612 -0.099386787593559844 0 0.00068826173306128964 -0.091981582471578741 0 -0.00027295309596292152 -0.10487422891632753 0 -0.0010953119254187194 -0.10465679126543874 0 -0.0005924000328426382 -0.10445186642608664 0 0.00036231162559268712 -0.10478112309067165 0 0.00036118902098287997 -0.10477920507363728 0 0.00038023713326451185 -0.10474695724948356 0 0.0010181488967940207 -0.094738740390441056 0 0.00097943654593456511 -0.090111474576233044 0 0.00036118902098287997 -0.10477920507363728 0 0.00036334829862561425 -0.10476872067846461 0 0.00038023713326451185 -0.10474695724948356 0 0.00034674832008268298 -0.1048020037089516 0 0.00036231162559268712 -0.10478112309067165 0 0.00036118902098287997 -0.10477920507363728 0 0.0011485300858660647 -0.095025836576469347 0 0.0010181488967940207 -0.094738740390441056 0 -0.00020771319161519059 -0.10352262871750656 0 -5.797901559120899e-05 -0.10344074146135668 0 -0.00024952017753074166 -0.103374903740944 0 -5.797901559120899e-05 -0.10344074146135668 0 -0.00024952017753074166 -0.103374903740944 0 -0.00025792429779168696 -0.10319795181039713 0 -0.00030986931572105471 -0.10345691182775682 0 -0.00020771319161519059 -0.10352262871750656 0 -0.00024952017753074166 -0.103374903740944 0 -0.00030986931572105471 -0.10345691182775682 0 -0.00024952017753074166 -0.103374903740944 0 -0.00033261180182780019 -0.10333659064491603 0 -0.00024952017753074166 -0.103374903740944 0 -0.00033261180182780019 -0.10333659064491603 0 -0.00029419278342075387 -0.10327351461534648 0 -0.00030986931572105471 -0.10345691182775682 0 -0.00038662680457443013 -0.10337674714804762 0 -0.00033261180182780019 -0.10333659064491603 0 -0.00033261180182780019 -0.10333659064491603 0 -0.00039259309342467045 -0.10326154925497631 0 -0.00033796227000620584 -0.10326050631509073 0 -0.00033261180182780019 -0.10333659064491603 0 -0.00033796227000620584 -0.10326050631509073 0 -0.00029419278342075387 -0.10327351461534648 0 -0.00038662680457443013 -0.10337674714804762 0 -0.00033261180182780019 -0.10333659064491603 0 -0.00039259309342467045 -0.10326154925497631 0 -0.00046757370343055528 -0.10327910910662137 0 -0.00038662680457443013 -0.10337674714804762 0 -0.00039259309342467045 -0.10326154925497631 0 -0.00050656268270150211 -0.10316176409460168 0 -0.00039259309342467045 -0.10326154925497631 0 -0.00035508778109511651 -0.10320813416030077 0 -0.00039259309342467045 -0.10326154925497631 0 -0.00035508778109511651 -0.10320813416030077 0 -0.00033796227000620584 -0.10326050631509073 0 -0.00023868138273548081 -0.088179000193589485 0 0.00038556673939371835 -0.090016810234131717 0 -0.00035508778109511651 -0.10320813416030077 0 -0.00033796227000620584 -0.10326050631509073 0 -0.00031275179138698459 -0.1032077071995596 0 -0.00023868138273548081 -0.088179000193589485 0 -0.00051588795674983477 -0.086599675073757612 0 -0.00044192832889014208 -0.087622273119426913 0 -0.0019061119986521202 -0.087671137865717591 0 -0.00094199685085766109 -0.089653478654566438 0 -0.00044192832889014208 -0.087622273119426913 0 -0.00018448405476497256 -0.090202223197279205 0 -0.00094199685085766109 -0.089653478654566438 0 0.00038556673939371835 -0.090016810234131717 0 -0.00017815031895383209 -0.087838224427163228 0 -0.0030889034146840285 -0.08358389162329713 0 -0.0024176710461116047 -0.084163006886664393 0 -0.0029959226529076184 -0.084524313270058424 0 0.0014384603071136795 -0.091102469090207736 0 0.00074454114357253097 -0.09111259511319561 0 0.00082038299731540282 -0.091052589296311034 0 0.0014384603071136795 -0.091102469090207736 0 0.00074178323722770253 -0.090880925649182639 0 0.00082038299731540282 -0.091052589296311034 0 -0.00024952017753074166 -0.103374903740944 0 -0.00029419278342075387 -0.10327351461534648 0 -0.00025792429779168696 -0.10319795181039713 0 -0.00033796227000620584 -0.10326050631509073 0 -0.00029419278342075387 -0.10327351461534648 0 -0.00031275179138698459 -0.1032077071995596 0 -0.00029419278342075387 -0.10327351461534648 0 -0.00025792429779168696 -0.10319795181039713 0 -0.00033381677132961115 -0.10319199037688745 0 0.00065175835730315657 -0.090847533064611158 0 0.00038556673939371835 -0.090016810234131717 0 0.00074454114357253097 -0.09111259511319561 0 0.00074052239526360968 -0.090869812514765891 0 0.00082038299731540282 -0.091052589296311034 0 0.00074454114357253097 -0.09111259511319561 0 0.00074052239526360968 -0.090869812514765891 0 0.00037234558244441117 -0.090836011312217829 0 -0.00011152092287051378 -0.090394584978651604 0 0.0002216891382064115 -0.090381116817755069 0 0.0004107094728331628 -0.09076839675186027 0 0.00068826173306128964 -0.091981582471578741 0 -0.00017815031895383209 -0.087838224427163228 0 0.00068826173306128964 -0.091981582471578741 0 0.00038556673939371835 -0.090016810234131717 0 0.00097943654593456511 -0.090111474576233044 0 0.00098766171123634101 -0.090144711722325507 0 -0.0010953119254187194 -0.10465679126543874 0 -0.0009413596532727741 -0.1043097170520314 0 -0.0005924000328426382 -0.10445186642608664 0 -0.0010953119254187194 -0.10465679126543874 0 -0.0013183504170631581 -0.10417751037410702 0 -0.0009413596532727741 -0.1043097170520314 0 -0.0007382945073450874 -0.086205158410689986 0 -0.0001310378819208743 -0.08752586113746369 0 0.00054608752810609694 -0.086585050201821764 0 0.00097943654593456511 -0.090111474576233044 0 -0.00058481330888950371 -0.088121216080762316 0 0.00097943654593456511 -0.090111474576233044 0 -0.00044101542115201735 -0.086952676799942466 0 0.00099555489104766171 -0.089909971277944617 0 0.0011563424708619394 -0.090258695880362505 0 -0.00038678014274216616 -0.090715944352403016 0 -0.00058481330888950371 -0.088121216080762316 0 -0.00085863954480073319 -0.086444414135393721 0 -0.00058481330888950371 -0.088121216080762316 0 -0.00091956806985534704 -0.091972205443683147 0 -0.0013183504170631581 -0.10417751037410702 0 -0.0009413596532727741 -0.1043097170520314 0 -0.00075327766104375544 -0.10394857108245829 0 -0.0009413596532727741 -0.1043097170520314 0 -0.00075327766104375544 -0.10394857108245829 0 -0.0005924000328426382 -0.10445186642608664 0 -0.0017346524611768534 -0.082483092124751398 0 -0.0014286860364896201 -0.083414999109864413 0 -0.0011491791116816869 -0.081964279308939181 0 4.478428290445912e-05 -0.082321140757356526 0 -0.0035535213673350079 -0.086230208476241813 0 -0.00048383489587326293 -0.083466842588715909 0 -0.0025055716740170213 -0.08430067030470513 0 -0.0015207607986219645 -0.084594985120588981 0 -0.0014286860364896201 -0.083414999109864413 0 -0.0016132301419154462 -0.08249762115779545 0 -0.0020002508587064374 -0.0846558808387399 0 -0.0024176710461116047 -0.084163006886664393 0 -0.0023661243032772942 -0.084808409801942097 0 -0.0014286860364896201 -0.083414999109864413 0 -0.00051588795674983477 -0.086599675073757612 0 -0.0024176710461116047 -0.084163006886664393 0 -0.0023661243032772942 -0.084808409801942097 0 -0.0029959226529076184 -0.084524313270058424 0 -0.0014286860364896201 -0.083414999109864413 0 -0.00073756369724432846 -0.085176223880925231 0 0.0011536274894418167 -0.083872707490522905 0 -0.0026271724534953555 -0.08501923243444047 0 -0.0029270429699799101 -0.082022340954167036 0 -0.0001310378819208743 -0.08752586113746369 0 0.00078316405417240217 -0.087072113616825209 0 0.00054608752810609694 -0.086585050201821764 0 0.00074052239526360968 -0.090869812514765891 0 0.00032516840439115151 -0.090738157818090887 0 0.00037234558244441117 -0.090836011312217829 0 -0.00073756369724432846 -0.085176223880925231 0 -0.00051588795674983477 -0.086599675073757612 0 -0.00073756369724432846 -0.085176223880925231 0 -0.00044101542115201735 -0.086952676799942466 0 -0.00064958420754963192 -0.087801686298771123 0 -0.00083095216700778914 -0.085984899736706422 0 -0.0014349725460959752 -0.086187848984073376 0 0.00065085947920038819 -0.087039875242976461 0 -0.00067909649461514996 -0.087487200779853655 0 -0.0017398103118223141 -0.085306444884085064 0 -0.00044101542115201735 -0.086952676799942466 0 -0.00017815031895383209 -0.087838224427163228 0 -0.00051588795674983477 -0.086599675073757612 0 -0.00017815031895383209 -0.087838224427163228 0 -0.00051588795674983477 -0.086599675073757612 0 -0.00044101542115201735 -0.086952676799942466 0 -0.00058481330888950371 -0.088121216080762316 0 -0.00073756369724432846 -0.085176223880925231 0 -0.0027568043238935767 -0.086448603852311637 0 0.001129718080672902 -0.084525075932318949 0 0.001387454149450635 -0.087100210713000031 0 -0.0027568043238935767 -0.086448603852311637 0 -0.0020048036561776915 -0.088081803547791215 0 0.001387454149450635 -0.087100210713000031 0 -0.0027784801778389444 -0.085041763944177631 0 -0.001881688550782197 -0.084781154020404662 0 -0.0025026576384101565 -0.085641735967959987 0 -0.00085863954480073319 -0.086444414135393721 0 -0.00089455638053756957 -0.083615078295949302 0 -0.00073756369724432846 -0.085176223880925231 0 -0.00089455638053756957 -0.083615078295949302 0 -0.0011491791116816869 -0.081964279308939181 0 -0.0050570408147455909 -0.083148604070843998 0 -0.0035535213673350079 -0.086230208476241813 0 -0.00020131866892841136 -0.081849803710499477 0 4.2232379584860077e-05 -0.084290744602264475 0 0.00087335535636063753 -0.084052073105837274 0 -0.00073756369724432846 -0.085176223880925231 0 -0.0012234905528686021 -0.082771612817572185 0 -0.00089455638053756957 -0.083615078295949302 0 -0.0012234905528686021 -0.082771612817572185 0 -0.0016132301419154462 -0.08249762115779545 0 -0.0012234905528686021 -0.082771612817572185 0 -0.0015789132548022571 -0.078200343760166088 0 -0.0016251056713604871 -0.078205243186250106 0 -0.001597675508665753 -0.078292136456634645 0 -0.0017563457871487482 -0.079906349925088771 0 -0.0010259399004563803 -0.085252854830448949 0 -0.0025710501650683332 -0.075997073395971226 0 -0.0012234905528686021 -0.082771612817572185 0 -0.001180209691553145 -0.07406304011556844 0 -0.0024104219420948234 -0.072044904083825967 0 -0.0022422185065849674 -0.07199744083871247 0 -0.001642078099025498 -0.081677975304198749 0 -0.0013359617397592036 -0.084638554177861827 0 -0.00068967219046850274 -0.083736974388813432 0 -0.0017563457871487482 -0.079906349925088771 0 -0.00089455638053756957 -0.083615078295949302 0 -0.001180209691553145 -0.07406304011556844 0 -0.0022163723847794851 -0.074064047812547038 0 -0.0024104219420948234 -0.072044904083825967 0 -0.00089455638053756957 -0.083615078295949302 0 -0.0010259399004563803 -0.085252854830448949 0 -0.00085863954480073319 -0.086444414135393721 0 -0.0010259399004563803 -0.085252854830448949 0 -0.00023595207567518112 -0.089537135120301009 0 -0.00012733221312239668 -0.089773786147545775 0 -0.00098749994113682535 -0.089762230972899884 0 -0.00046072175445779705 -0.092613898921667867 0 -0.0010259399004563803 -0.085252854830448949 0 -0.0011113645972605668 -0.090853425090875864 0 -0.00012733221312239668 -0.089773786147545775 0 -0.00098749994113682535 -0.089762230972899884 0 0.00099555489104766171 -0.089909971277944617 0 -0.00038678014274216616 -0.090715944352403016 0 -0.00047668159970408431 -0.090528687249525952 0 -0.00085863954480073319 -0.086444414135393721 0 -0.00060103810017321025 -0.090344284798135305 0 -0.0011113645972605668 -0.090853425090875864 0 -0.00098749994113682535 -0.089762230972899884 0 -0.0017370596003740972 -0.089986231270463526 0 -0.00091956806985534704 -0.091972205443683147 0 -0.00028670762562702797 -0.094254943191887874 0 -0.00060103810017321025 -0.090344284798135305 0 -0.00028670762562702797 -0.094254943191887874 0 -0.00038678014274216616 -0.090715944352403016 0 -0.00047668159970408431 -0.090528687249525952 0 -0.0019092112269612496 -0.091176440534750006 0 -0.000173789090750204 -0.10366745162313085 0 4.7631006132002585e-05 -0.10394786181180049 0 -0.0002609737510497227 -0.10400990149476431 0 -0.00075327766104375544 -0.10394857108245829 0 -0.000173789090750204 -0.10366745162313085 0 -0.0002609737510497227 -0.10400990149476431 0 -0.00043414665801725012 -0.096119973304241879 0 -0.0003940653501838952 -0.096267272715626379 0 -0.00035346038791138899 -0.096256010077223716 0 -0.00051700051446226932 -0.099342308608988919 0 -0.00031022442759378482 -0.095408074476537125 0 -0.00028670762562702797 -0.094254943191887874 0 -0.00031022442759378482 -0.095408074476537125 0 0.00070432704160892316 -0.10393249899106274 0 -6.509192351367534e-05 -0.10353537142068202 0 4.7631006132002585e-05 -0.10394786181180049 0 -0.00021781260192234786 -0.10357675556557844 0 -6.509192351367534e-05 -0.10353537142068202 0 4.7631006132002585e-05 -0.10394786181180049 0 -0.00028670762562702797 -0.094254943191887874 0 9.7756087120109267e-05 -0.095057335212717115 0 4.7631006132002585e-05 -0.10394786181180049 0 -3.9120816194497566e-05 -0.10422611889001357 0 -0.0002609737510497227 -0.10400990149476431 0 0.00070432704160892316 -0.10393249899106274 0 -3.9120816194497566e-05 -0.10422611889001357 0 -0.00016111563454276464 -0.10467408864502947 0 2.0967138339145394e-05 -0.10473860710352524 0 -6.7990178682894698e-06 -0.10475622919226295 0 -0.00016111563454276464 -0.10467408864502947 0 -0.00046041543602768877 -0.10294358302514126 0 -0.00057899781317964324 -0.10341273854462446 0 0.00070432704160892316 -0.10393249899106274 0 4.7631006132002585e-05 -0.10394786181180049 0 -3.9120816194497566e-05 -0.10422611889001357 0 -0.00027295309596292152 -0.10487422891632753 0 -0.00016111563454276464 -0.10467408864502947 0 -0.0005924000328426382 -0.10445186642608664 0 -3.9120816194497566e-05 -0.10422611889001357 0 -0.00016111563454276464 -0.10467408864502947 0 -0.00036540737165730323 -0.10425955253026271 0 -0.00016111563454276464 -0.10467408864502947 0 -0.0005924000328426382 -0.10445186642608664 0 -0.00036540737165730323 -0.10425955253026271 0 -0.00075327766104375544 -0.10394857108245829 0 -0.0005924000328426382 -0.10445186642608664 0 -0.00036540737165730323 -0.10425955253026271 0 -0.00075327766104375544 -0.10394857108245829 0 -0.0002609737510497227 -0.10400990149476431 0 -0.00036540737165730323 -0.10425955253026271 0 -3.9120816194497566e-05 -0.10422611889001357 0 -0.0002609737510497227 -0.10400990149476431 0 -0.00036540737165730323 -0.10425955253026271 0 0.0069565422914695954 0.016131131195290947 0 0.0063111513585679627 0.015730639193662143 0 0.0064116287961641337 0.016172590685126661 0 0.0069565422914695954 0.016131131195290947 0 0.0064116287961641337 0.016172590685126661 0 0.0067234357279028793 0.016486721077268 0 0.0069565422914695954 0.016131131195290947 0 0.0067234357279028793 0.016486721077268 0 0.0071477664573973325 0.016598414058020577 0 0.0069565422914695954 0.016131131195290947 0 0.0074296196063185225 0.0164272303134292 0 0.00746059854852924 0.016093310064958233 0 0.0069565422914695954 0.016131131195290947 0 0.0074296196063185225 0.0164272303134292 0 0.0071477664573973325 0.016598414058020577 0 0.0074296196063185225 0.0164272303134292 0 0.0071477664573973325 0.016598414058020577 0 0.0074763972197852326 0.01669358118829951 0 0.0074296196063185225 0.0164272303134292 0 0.00746059854852924 0.016093310064958233 0 0.0076572358524695308 0.016293164674133557 0 0.0069565422914695954 0.016131131195290947 0 0.00746059854852924 0.016093310064958233 0 0.0073556191800858784 0.015768337462578899 0 0.0073556191800858784 0.015768337462578899 0 0.007760991549957367 0.015887838451811815 0 0.0075352914128902562 0.015454297121042274 0 0.00746059854852924 0.016093310064958233 0 0.0073556191800858784 0.015768337462578899 0 0.007760991549957367 0.015887838451811815 0 0.0073556191800858784 0.015768337462578899 0 0.0069828379477064528 0.015591065599646996 0 0.0075352914128902562 0.015454297121042274 0 0.0069565422914695954 0.016131131195290947 0 0.0069828379477064528 0.015591065599646996 0 0.0063111513585679627 0.015730639193662143 0 0.0069565422914695954 0.016131131195290947 0 0.0073556191800858784 0.015768337462578899 0 0.0069828379477064528 0.015591065599646996 0 0.0069828379477064528 0.015591065599646996 0 0.0063111513585679627 0.015730639193662143 0 0.0062949604811796045 0.015111008430207537 0 0.0063111513585679627 0.015730639193662143 0 0.0055802564714303639 0.015266947544063891 0 0.0062949604811796045 0.015111008430207537 0 0.0063111513585679627 0.015730639193662143 0 0.0055802564714303639 0.015266947544063891 0 0.0055932587279617285 0.015767554906801279 0 0.0055802564714303639 0.015266947544063891 0 0.0046121803278311958 0.014908932709158121 0 0.0049618331802817207 0.015497999126956661 0 0.0055932587279617285 0.015767554906801279 0 0.0050518621431872857 0.015943276003694478 0 0.0049618331802817207 0.015497999126956661 0 0.0055802564714303639 0.015266947544063891 0 0.0055932587279617285 0.015767554906801279 0 0.0049618331802817207 0.015497999126956661 0 0.0055932587279617285 0.015767554906801279 0 0.0050518621431872857 0.015943276003694478 0 0.0058451030454108252 0.016129963003104028 0 0.0050518621431872857 0.015943276003694478 0 0.0058451030454108252 0.016129963003104028 0 0.0053463789027087009 0.016324574573483366 0 0.0050518621431872857 0.015943276003694478 0 0.0053463789027087009 0.016324574573483366 0 0.0046871060796998282 0.016208275752719756 0 0.0064116287961641337 0.016172590685126661 0 0.0058451030454108252 0.016129963003104028 0 0.006114795420436369 0.016662020895335101 0 0.0063111513585679627 0.015730639193662143 0 0.0064116287961641337 0.016172590685126661 0 0.0058451030454108252 0.016129963003104028 0 0.0063111513585679627 0.015730639193662143 0 0.0055932587279617285 0.015767554906801279 0 0.0058451030454108252 0.016129963003104028 0 0.0064116287961641337 0.016172590685126661 0 0.006114795420436369 0.016662020895335101 0 0.0067234357279028793 0.016486721077268 0 0.0058451030454108252 0.016129963003104028 0 0.006114795420436369 0.016662020895335101 0 0.0053463789027087009 0.016324574573483366 0 0.006114795420436369 0.016662020895335101 0 0.0053463789027087009 0.016324574573483366 0 0.0053188616933936908 0.016751034044408825 0 0.0053463789027087009 0.016324574573483366 0 0.0053188616933936908 0.016751034044408825 0 0.0046871060796998282 0.016208275752719756 0 0.0053188616933936908 0.016751034044408825 0 0.005984050530937193 0.017249136879586711 0 0.0052699774942591322 0.017576156745324006 0 0.006114795420436369 0.016662020895335101 0 0.005984050530937193 0.017249136879586711 0 0.0066865047171119291 0.017270871954354027 0 0.006114795420436369 0.016662020895335101 0 0.0053188616933936908 0.016751034044408825 0 0.005984050530937193 0.017249136879586711 0 0.0066865047171119291 0.017270871954354027 0 0.0069142581251707795 0.016855557369351262 0 0.0072446036859350749 0.017108221641757692 0 0.006114795420436369 0.016662020895335101 0 0.0066865047171119291 0.017270871954354027 0 0.0069142581251707795 0.016855557369351262 0 0.006114795420436369 0.016662020895335101 0 0.0069142581251707795 0.016855557369351262 0 0.0067234357279028793 0.016486721077268 0 0.0069142581251707795 0.016855557369351262 0 0.0067234357279028793 0.016486721077268 0 0.0071477664573973325 0.016598414058020577 0 0.0071477664573973325 0.016598414058020577 0 0.0072769132654058235 0.016839275690258355 0 0.0074763972197852326 0.01669358118829951 0 0.0069142581251707795 0.016855557369351262 0 0.0072769132654058235 0.016839275690258355 0 0.0072446036859350749 0.017108221641757692 0 0.0069142581251707795 0.016855557369351262 0 0.0071477664573973325 0.016598414058020577 0 0.0072769132654058235 0.016839275690258355 0 0.0072769132654058235 0.016839275690258355 0 0.0074763972197852326 0.01669358118829951 0 0.0075297242878872303 0.016942174512191131 0 0.0072769132654058235 0.016839275690258355 0 0.0072446036859350749 0.017108221641757692 0 0.0075297242878872303 0.016942174512191131 0 0.0066865047171119291 0.017270871954354027 0 0.0072446036859350749 0.017108221641757692 0 0.0072527839751100704 0.017571970315229134 0 0.0072446036859350749 0.017108221641757692 0 0.0075544406220045442 0.017140105058775473 0 0.0072527839751100704 0.017571970315229134 0 0.0075544406220045442 0.017140105058775473 0 0.0077691665655675078 0.01717078585637194 0 0.0072527839751100704 0.017571970315229134 0 -0.002190600408406147 0.026312354043742249 0 -0.0021093212976710852 0.025733849836049878 0 -0.0012593535626832834 0.027028853318779539 0 0.0075544406220045442 0.017140105058775473 0 0.0076975760589808344 0.017014977701455349 0 0.0075297242878872303 0.016942174512191131 0 0.0072446036859350749 0.017108221641757692 0 0.0075544406220045442 0.017140105058775473 0 0.0075297242878872303 0.016942174512191131 0 0.0075544406220045442 0.017140105058775473 0 0.0076975760589808344 0.017014977701455349 0 0.0077154443091844334 0.017096063811674903 0 0.0075544406220045442 0.017140105058775473 0 0.0077154443091844334 0.017096063811674903 0 0.0077691665655675078 0.01717078585637194 0 -0.002190600408406147 0.026312354043742249 0 -0.0021093212976710852 0.025733849836049878 0 0.0011171091122195984 0.024204002680485212 0 0.0077763596436024084 0.017076577930598916 0 0.0077924700847351643 0.017035779533756498 0 0.0077792860542622837 0.017040780691252977 0 0.003828211532314039 0.020252323567577293 0 0.005349949996644736 0.019434702230599239 0 0.0077691665655675078 0.01717078585637194 0 0.0077763596436024084 0.017076577930598916 0 0.0077792860542622837 0.017040780691252977 0 -0.0023641458813310596 0.027333380919765664 0 -0.001707902542512661 0.027615578528181674 0 0.0077154443091844334 0.017096063811674903 0 0.0077691665655675078 0.01717078585637194 0 0.0077763596436024084 0.017076577930598916 0 0.0076975760589808344 0.017014977701455349 0 0.0077154443091844334 0.017096063811674903 0 0.0077763596436024084 0.017076577930598916 0 0.0076975760589808344 0.017014977701455349 0 0.0077763596436024084 0.017076577930598916 0 0.0077778707333759269 0.016972410615792188 0 0.0076975760589808344 0.017014977701455349 0 0.0077778707333759269 0.016972410615792188 0 0.0076917008482556577 0.016837965544739146 0 0.0077778707333759269 0.016972410615792188 0 0.0077924700847351643 0.017035779533756498 0 0.0078073207735325266 0.01703238411994212 0 0.0077763596436024084 0.017076577930598916 0 0.0077778707333759269 0.016972410615792188 0 0.0077924700847351643 0.017035779533756498 0 0.0077835678669506119 0.016864050700455407 0 0.0078073207735325266 0.01703238411994212 0 0.0078114195469476183 0.016849234969895301 0 0.0077778707333759269 0.016972410615792188 0 0.0077835678669506119 0.016864050700455407 0 0.0078073207735325266 0.01703238411994212 0 0.0077778707333759269 0.016972410615792188 0 0.0077835678669506119 0.016864050700455407 0 0.0076917008482556577 0.016837965544739146 0 0.0077835678669506119 0.016864050700455407 0 0.0076917008482556577 0.016837965544739146 0 0.0077800146965695044 0.01661345862027646 0 0.0076917008482556577 0.016837965544739146 0 0.0074763972197852326 0.01669358118829951 0 0.0075297242878872303 0.016942174512191131 0 0.0076917008482556577 0.016837965544739146 0 0.0074763972197852326 0.01669358118829951 0 0.0076318842108522274 0.016573913853952266 0 0.0076975760589808344 0.017014977701455349 0 0.0076917008482556577 0.016837965544739146 0 0.0075297242878872303 0.016942174512191131 0 0.0066603254576197302 0.022861191655830365 0 0.0017266473334386818 0.021234345486796313 0 0.0073999219210834138 0.018054913405998504 0 -0.0011016952956077954 0.028730360462217813 0 -0.001707902542512661 0.027615578528181674 0 0.0066603254576197302 0.022861191655830365 0 0.0017266473334386818 0.021234345486796313 0 0.0011171091122195984 0.024204002680485212 0 -0.0021093212976710852 0.025733849836049878 0 0.0017266473334386818 0.021234345486796313 0 0.0011171091122195984 0.024204002680485212 0 0.0077924700847351643 0.017035779533756498 0 0.0077792860542622837 0.017040780691252977 0 0.0078073207735325266 0.01703238411994212 0 0.0078073207735325266 0.01703238411994212 0 0.0077726645990827282 0.016987053589255154 0 0.0078114195469476183 0.016849234969895301 0 0.0078073207735325266 0.01703238411994212 0 0.0076897661163504291 0.017281363563269248 0 0.0077726645990827282 0.016987053589255154 0 0.0076897661163504291 0.017281363563269248 0 0.0076805122834570231 0.017249109168092854 0 0.0077726645990827282 0.016987053589255154 0 0.0077792860542622837 0.017040780691252977 0 0.0078073207735325266 0.01703238411994212 0 0.0076897661163504291 0.017281363563269248 0 0.0076897661163504291 0.017281363563269248 0 0.0076805122834570231 0.017249109168092854 0 0.0073999219210834138 0.018054913405998504 0 0.0077792860542622837 0.017040780691252977 0 0.0076897661163504291 0.017281363563269248 0 0.0073999219210834138 0.018054913405998504 0 0.0076805122834570231 0.017249109168092854 0 0.0073999219210834138 0.018054913405998504 0 0.0078865550472207429 0.017104492262656073 0 0.005349949996644736 0.019434702230599239 0 0.0064130042997498004 0.018925788391810729 0 0.0076805122834570231 0.017249109168092854 0 0.0078418973275139713 0.016770475783555373 0 0.0078865550472207429 0.017104492262656073 0 0.0076805122834570231 0.017249109168092854 0 0.0077726645990827282 0.016987053589255154 0 0.0078418973275139713 0.016770475783555373 0 0.0077726645990827282 0.016987053589255154 0 0.0078886888465286714 0.016529876206346911 0 0.0078418973275139713 0.016770475783555373 0 0.0077726645990827282 0.016987053589255154 0 0.0078886888465286714 0.016529876206346911 0 0.0078432177907784371 0.016617559126279487 0 0.0077726645990827282 0.016987053589255154 0 0.0078114195469476183 0.016849234969895301 0 0.0078432177907784371 0.016617559126279487 0 0.0078886888465286714 0.016529876206346911 0 0.0078418973275139713 0.016770475783555373 0 0.0079645143287214483 0.016366732048585336 0 0.0078886888465286714 0.016529876206346911 0 0.0079645143287214483 0.016366732048585336 0 0.0079884983072030392 0.016176671409634552 0 0.0078418973275139713 0.016770475783555373 0 0.0078865550472207429 0.017104492262656073 0 0.0080123639137087699 0.016574759272132356 0 0.0078418973275139713 0.016770475783555373 0 0.0079645143287214483 0.016366732048585336 0 0.0080123639137087699 0.016574759272132356 0 0.0076572358524695308 0.016293164674133557 0 0.0077800146965695044 0.01661345862027646 0 0.0078217745955580942 0.016281047048766643 0 0.0076572358524695308 0.016293164674133557 0 0.0076318842108522274 0.016573913853952266 0 0.0077800146965695044 0.01661345862027646 0 0.0074296196063185225 0.0164272303134292 0 0.0076572358524695308 0.016293164674133557 0 0.0076318842108522274 0.016573913853952266 0 0.0074296196063185225 0.0164272303134292 0 0.0074763972197852326 0.01669358118829951 0 0.0076318842108522274 0.016573913853952266 0 0.0076917008482556577 0.016837965544739146 0 0.0076318842108522274 0.016573913853952266 0 0.0077800146965695044 0.01661345862027646 0 0.0077835678669506119 0.016864050700455407 0 0.0077800146965695044 0.01661345862027646 0 0.0078114195469476183 0.016849234969895301 0 0.0077800146965695044 0.01661345862027646 0 0.0078114195469476183 0.016849234969895301 0 0.0078432177907784371 0.016617559126279487 0 0.0077800146965695044 0.01661345862027646 0 0.0078432177907784371 0.016617559126279487 0 0.0078217745955580942 0.016281047048766643 0 0.0078432177907784371 0.016617559126279487 0 0.0079093939313362831 0.016319465268711142 0 0.0078217745955580942 0.016281047048766643 0 0.0078886888465286714 0.016529876206346911 0 0.0078432177907784371 0.016617559126279487 0 0.0079093939313362831 0.016319465268711142 0 0.0078886888465286714 0.016529876206346911 0 0.0079093939313362831 0.016319465268711142 0 0.0079884983072030392 0.016176671409634552 0 0.0079093939313362831 0.016319465268711142 0 0.0079752853558189216 0.016012526560917513 0 0.0079884983072030392 0.016176671409634552 0 0.0079093939313362831 0.016319465268711142 0 0.0078217745955580942 0.016281047048766643 0 0.0079752853558189216 0.016012526560917513 0 0.0078217745955580942 0.016281047048766643 0 0.007760991549957367 0.015887838451811815 0 0.0079752853558189216 0.016012526560917513 0 0.0076572358524695308 0.016293164674133557 0 0.0078217745955580942 0.016281047048766643 0 0.007760991549957367 0.015887838451811815 0 0.00746059854852924 0.016093310064958233 0 0.0076572358524695308 0.016293164674133557 0 0.007760991549957367 0.015887838451811815 0 0.007760991549957367 0.015887838451811815 0 0.0080676342556527253 0.015676693475381497 0 0.0078499918405099765 0.015553145592817206 0 0.007760991549957367 0.015887838451811815 0 0.0080676342556527253 0.015676693475381497 0 0.0079752853558189216 0.016012526560917513 0 0.0080676342556527253 0.015676693475381497 0 0.0080198553710418181 0.015248795037449876 0 0.0078499918405099765 0.015553145592817206 0 0.0079752853558189216 0.016012526560917513 0 0.0080980828188107704 0.015843391121099712 0 0.0079884983072030392 0.016176671409634552 0 0.0080676342556527253 0.015676693475381497 0 0.0079752853558189216 0.016012526560917513 0 0.0080980828188107704 0.015843391121099712 0 0.0080980828188107704 0.015843391121099712 0 0.0082966169564406955 0.01543565419085938 0 0.0081551302698293898 0.015932412861930929 0 0.0082966169564406955 0.01543565419085938 0 0.0084828122913019992 0.015824153042304862 0 0.0081551302698293898 0.015932412861930929 0 0.0080980828188107704 0.015843391121099712 0 0.0080405596789207331 0.016142058415862817 0 0.0081551302698293898 0.015932412861930929 0 0.0082966169564406955 0.01543565419085938 0 0.0085614868126819687 0.015076815520599862 0 0.0084828122913019992 0.015824153042304862 0 0.0082966169564406955 0.01543565419085938 0 0.0085614868126819687 0.015076815520599862 0 0.0080198553710418181 0.015248795037449876 0 0.0080676342556527253 0.015676693475381497 0 0.0082966169564406955 0.01543565419085938 0 0.0080198553710418181 0.015248795037449876 0 0.0080676342556527253 0.015676693475381497 0 0.0080980828188107704 0.015843391121099712 0 0.0082966169564406955 0.01543565419085938 0 0.0079645143287214483 0.016366732048585336 0 0.0080405596789207331 0.016142058415862817 0 0.0080120179198485166 0.016332124129913212 0 0.0079645143287214483 0.016366732048585336 0 0.0080120179198485166 0.016332124129913212 0 0.0080123639137087699 0.016574759272132356 0 0.0080980828188107704 0.015843391121099712 0 0.0079884983072030392 0.016176671409634552 0 0.0080405596789207331 0.016142058415862817 0 0.0079645143287214483 0.016366732048585336 0 0.0079884983072030392 0.016176671409634552 0 0.0080405596789207331 0.016142058415862817 0 0.0080405596789207331 0.016142058415862817 0 0.0080355783984408548 0.016349479297883902 0 0.0081551302698293898 0.015932412861930929 0 0.0080405596789207331 0.016142058415862817 0 0.0080120179198485166 0.016332124129913212 0 0.0080355783984408548 0.016349479297883902 0 0.0080355783984408548 0.016349479297883902 0 0.0081809188779599189 0.016523538424235745 0 0.0080123936861956173 0.016666104174092883 0 0.0080355783984408548 0.016349479297883902 0 0.0080123936861956173 0.016666104174092883 0 0.0079051033206685353 0.016643463577091757 0 0.0080355783984408548 0.016349479297883902 0 0.0081809188779599189 0.016523538424235745 0 0.0081551302698293898 0.015932412861930929 0 0.0078540322836524873 0.016980137817087085 0 0.0080602893005286766 0.016618877174045782 0 0.0076968836579612869 0.01679373411197891 0 0.0068682367723766928 0.018053074570723152 0 0.0081900988435415142 0.017659559682372688 0 0.0076968836579612869 0.01679373411197891 0 0.0084564279538306905 0.016759975492814851 0 0.0081900988435415142 0.017659559682372688 0 0.0081809188779599189 0.016523538424235745 0 0.0080123936861956173 0.016666104174092883 0 0.0080557721187250915 0.016954671608906027 0 0.0078540322836524873 0.016980137817087085 0 0.0073228602858735874 0.017871543181383013 0 0.0084828122913019992 0.015824153042304862 0 0.0084564279538306905 0.016759975492814851 0 0.0091941429490940488 0.016399070638179001 0 0.009763435323836625 0.014761745551457425 0 0.0098641612837025629 0.014558585102573282 0 0.0085614868126819687 0.015076815520599862 0 0.0084828122913019992 0.015824153042304862 0 0.0091941429490940488 0.016399070638179001 0 0.0084828122913019992 0.015824153042304862 0 0.0081551302698293898 0.015932412861930929 0 0.0084564279538306905 0.016759975492814851 0 0.0076968836579612869 0.01679373411197891 0 0.0081551302698293898 0.015932412861930929 0 0.0084564279538306905 0.016759975492814851 0 0.0084564279538306905 0.016759975492814851 0 0.0087719928071830419 0.017896586596075539 0 0.0093963169100532064 0.017257827683512462 0 0.0084564279538306905 0.016759975492814851 0 0.0091941429490940488 0.016399070638179001 0 0.0093963169100532064 0.017257827683512462 0 0.0098641612837025629 0.014558585102573282 0 0.010151109759984997 0.013879381883299558 0 0.01009383055415931 0.010642527563848462 0 0.010268447445078545 0.0081713389058857434 0 0.01308300190690031 0.0090270340438930261 0 0.0091103376172393183 0.013162523736716078 0 0.010151109759984997 0.013879381883299558 0 0.008557090136624779 0.013556195112421073 0 0.0072952941268147851 0.013252123331913874 0 0.0085317099807202829 0.012704867647264194 0 0.01009383055415931 0.010642527563848462 0 0.0081104824112831798 0.0087009879229274743 0 0.010268447445078545 0.0081713389058857434 0 0.0072952941268147851 0.013252123331913874 0 0.0071400453419796055 0.01371425935609796 0 0.0066662339804345232 0.012548591425077076 0 0.0072952941268147851 0.013252123331913874 0 0.0071400453419796055 0.01371425935609796 0 0.0076579408045278985 0.014091278258450775 0 0.008557090136624779 0.013556195112421073 0 0.0072952941268147851 0.013252123331913874 0 0.0076579408045278985 0.014091278258450775 0 0.0085614868126819687 0.015076815520599862 0 0.008557090136624779 0.013556195112421073 0 0.0076579408045278985 0.014091278258450775 0 0.0085614868126819687 0.015076815520599862 0 0.0076579408045278985 0.014091278258450775 0 0.0075214492416175258 0.01471793594045679 0 0.0085614868126819687 0.015076815520599862 0 0.0080198553710418181 0.015248795037449876 0 0.0075214492416175258 0.01471793594045679 0 0.0071400453419796055 0.01371425935609796 0 0.0076579408045278985 0.014091278258450775 0 0.0075214492416175258 0.01471793594045679 0 0.0071400453419796055 0.01371425935609796 0 0.0075214492416175258 0.01471793594045679 0 0.0066961344665486004 0.014544994156807132 0 0.0075214492416175258 0.01471793594045679 0 0.0071047900001260569 0.015070269891725475 0 0.0075352914128902562 0.015454297121042274 0 0.0075214492416175258 0.01471793594045679 0 0.0071047900001260569 0.015070269891725475 0 0.0066961344665486004 0.014544994156807132 0 0.0069828379477064528 0.015591065599646996 0 0.0071047900001260569 0.015070269891725475 0 0.0062949604811796045 0.015111008430207537 0 0.0069828379477064528 0.015591065599646996 0 0.0071047900001260569 0.015070269891725475 0 0.0075352914128902562 0.015454297121042274 0 0.0080198553710418181 0.015248795037449876 0 0.0075214492416175258 0.01471793594045679 0 0.0075352914128902562 0.015454297121042274 0 0.007760991549957367 0.015887838451811815 0 0.0075352914128902562 0.015454297121042274 0 0.0078499918405099765 0.015553145592817206 0 0.0080198553710418181 0.015248795037449876 0 0.0075352914128902562 0.015454297121042274 0 0.0078499918405099765 0.015553145592817206 0 0.0055802564714303639 0.015266947544063891 0 0.0055526139988165005 0.014330449700929783 0 0.0062949604811796045 0.015111008430207537 0 0.0055802564714303639 0.015266947544063891 0 0.0055526139988165005 0.014330449700929783 0 0.0046121803278311958 0.014908932709158121 0 0.0055526139988165005 0.014330449700929783 0 0.0062949604811796045 0.015111008430207537 0 0.0066961344665486004 0.014544994156807132 0 0.0071047900001260569 0.015070269891725475 0 0.0062949604811796045 0.015111008430207537 0 0.0066961344665486004 0.014544994156807132 0 0.0055526139988165005 0.014330449700929783 0 0.0066961344665486004 0.014544994156807132 0 0.0066662339804345232 0.012548591425077076 0 0.0071400453419796055 0.01371425935609796 0 0.0066961344665486004 0.014544994156807132 0 0.0066662339804345232 0.012548591425077076 0 0.0055526139988165005 0.014330449700929783 0 0.0066662339804345232 0.012548591425077076 0 0.0042503077656411503 0.012649392121058955 0 0.0066662339804345232 0.012548591425077076 0 0.0046063347262494652 0.010525308943843662 0 0.0042503077656411503 0.012649392121058955 0 0.0091103376172393183 0.013162523736716078 0 0.0081553274195411331 0.013268537078116129 0 0.0066662339804345232 0.012548591425077076 0 0.0057980210053219239 0.0085256041209136706 0 0.0081104824112831798 0.0087009879229274743 0 0.01009383055415931 0.010642527563848462 0 0.0066662339804345232 0.012548591425077076 0 0.0081104824112831798 0.0087009879229274743 0 0.0066662339804345232 0.012548591425077076 0 0.0046063347262494652 0.010525308943843662 0 0.0057980210053219239 0.0085256041209136706 0 0.0046063347262494652 0.010525308943843662 0 0.0022981269267892171 0.01062435885089482 0 0.0033153411190057556 0.0064077935159776132 0 0.0046063347262494652 0.010525308943843662 0 0.0033153411190057556 0.0064077935159776132 0 0.0057980210053219239 0.0085256041209136706 0 0.0046063347262494652 0.010525308943843662 0 0.0042503077656411503 0.012649392121058955 0 0.0022981269267892171 0.01062435885089482 0 0.0047859399299394288 0.0044122536908081187 0 0.0061279134762398839 0.0031833431424729158 0 0.0042503077656411503 0.012649392121058955 0 0.0022981269267892171 0.01062435885089482 0 0.0023368694179838785 0.013088256646333746 0 0.0047859399299394288 0.0044122536908081187 0 0.0043653698215900243 0.0049967446847434026 0 0.0037499588530090062 -0.00080063948528117399 0 0.0058140114844855567 0.0038208203140326874 0 0.0033153411190057556 0.0064077935159776132 0 0.0037499588530090062 -0.00080063948528117399 0 0.011675275713677361 0.0023638899328768327 0 0.0058140114844855567 0.0038208203140326874 0 0.0037499588530090062 -0.00080063948528117399 0 0.011675275713677361 0.0023638899328768327 0 0.011988714889336571 -0.0064574681756559065 0 0.023279780152089369 -0.014696847719750852 0 0.022404524556424905 -0.013027845469482728 0 0.011675275713677361 0.0023638899328768327 0 0.011988714889336571 -0.0064574681756559065 0 0.017692881455894038 -0.0045730328010817629 0 0.0037499588530090062 -0.00080063948528117399 0 0.011988714889336571 -0.0064574681756559065 0 0.0060840414333690092 -0.0078146185203754152 0 0.0061279134762398839 0.0031833431424729158 0 0.008316115776674321 0.0024456753100292957 0 0.011988714889336571 -0.0064574681756559065 0 0.0060840414333690092 -0.0078146185203754152 0 0.0086411393984737635 -0.014002241121788704 0 0.011988714889336571 -0.0064574681756559065 0 0.014589437102868148 -0.011700142418966976 0 0.01569411271747187 -0.0080628823755527958 0 0.011988714889336571 -0.0064574681756559065 0 0.014589437102868148 -0.011700142418966976 0 0.0086411393984737635 -0.014002241121788704 0 0.014589437102868148 -0.011700142418966976 0 0.0086411393984737635 -0.014002241121788704 0 0.012823823987329262 -0.015538549136762668 0 0.0023368694179838785 0.013088256646333746 0 0.0023677166528888976 0.014556476534313464 0 0.0034993038964020885 0.014826828039407748 0 0.0023368694179838785 0.013088256646333746 0 0.0034993038964020885 0.014826828039407748 0 0.0040564822301283193 0.013998876496408021 0 0.0055526139988165005 0.014330449700929783 0 0.0040564822301283193 0.013998876496408021 0 0.0046121803278311958 0.014908932709158121 0 0.0034993038964020885 0.014826828039407748 0 0.0040564822301283193 0.013998876496408021 0 0.0046121803278311958 0.014908932709158121 0 0.0055526139988165005 0.014330449700929783 0 0.0042503077656411503 0.012649392121058955 0 0.0040564822301283193 0.013998876496408021 0 0.0042503077656411503 0.012649392121058955 0 0.0023368694179838785 0.013088256646333746 0 0.0040564822301283193 0.013998876496408021 0 0.0086011415300385318 -0.017457697386429487 0 0.010194490755358089 -0.019212886942016331 0 0.011786388999340388 -0.016441450694796064 0 0.010194490755358089 -0.019212886942016331 0 0.012496083071022459 -0.019785334126621673 0 0.011786388999340388 -0.016441450694796064 0 0.014760767533754958 -0.017736595625217833 0 0.012496083071022459 -0.019785334126621673 0 0.016173541190542061 -0.021334834686783041 0 0.014760767533754958 -0.017736595625217833 0 0.012496083071022459 -0.019785334126621673 0 0.011786388999340388 -0.016441450694796064 0 0.012496083071022459 -0.019785334126621673 0 0.01313574419230313 -0.022939271580959486 0 0.016173541190542061 -0.021334834686783041 0 0.012496083071022459 -0.019785334126621673 0 0.01313574419230313 -0.022939271580959486 0 0.010236365406926653 -0.022057989648579905 0 0.010194490755358089 -0.019212886942016331 0 0.012496083071022459 -0.019785334126621673 0 0.010236365406926653 -0.022057989648579905 0 0.01313574419230313 -0.022939271580959486 0 0.010236365406926653 -0.022057989648579905 0 0.010209654504107442 -0.026334899303783132 0 0.010209654504107442 -0.026334899303783132 0 0.014477738762608879 -0.026166935196062231 0 0.012034569136360565 -0.031689313580039895 0 0.01313574419230313 -0.022939271580959486 0 0.014477738762608879 -0.026166935196062231 0 0.016173541190542061 -0.021334834686783041 0 0.01313574419230313 -0.022939271580959486 0 0.010209654504107442 -0.026334899303783132 0 0.014477738762608879 -0.026166935196062231 0 0.014477738762608879 -0.026166935196062231 0 0.021158533387220214 -0.02661624896321399 0 0.016993280875218193 -0.030791774288691325 0 0.014477738762608879 -0.026166935196062231 0 0.021158533387220214 -0.02661624896321399 0 0.016173541190542061 -0.021334834686783041 0 0.021158533387220214 -0.02661624896321399 0 0.016173541190542061 -0.021334834686783041 0 0.021113088368610828 -0.019672810137117244 0 0.014760767533754958 -0.017736595625217833 0 0.016173541190542061 -0.021334834686783041 0 0.018148234394197417 -0.016728962433012563 0 0.016173541190542061 -0.021334834686783041 0 0.021113088368610828 -0.019672810137117244 0 0.018148234394197417 -0.016728962433012563 0 0.021158533387220214 -0.02661624896321399 0 0.021113088368610828 -0.019672810137117244 0 0.029362769699155675 -0.021136459074461114 0 0.021113088368610828 -0.019672810137117244 0 0.029362769699155675 -0.021136459074461114 0 0.020969569586578723 -0.012055973857825282 0 0.021158533387220214 -0.02661624896321399 0 0.029362769699155675 -0.021136459074461114 0 0.028547496610625216 -0.031016343653859049 0 0.036889817262522731 -0.029255907278344744 0 0.029362769699155675 -0.021136459074461114 0 0.028547496610625216 -0.031016343653859049 0 0.011988714889336571 -0.0064574681756559065 0 0.017692881455894038 -0.0045730328010817629 0 0.01569411271747187 -0.0080628823755527958 0 0.017692881455894038 -0.0045730328010817629 0 0.01569411271747187 -0.0080628823755527958 0 0.018246055198239457 -0.010392172815924767 0 0.014589437102868148 -0.011700142418966976 0 0.01569411271747187 -0.0080628823755527958 0 0.018246055198239457 -0.010392172815924767 0 0.014589437102868148 -0.011700142418966976 0 0.018011511864167527 -0.01412126300338511 0 0.012823823987329262 -0.015538549136762668 0 0.014589437102868148 -0.011700142418966976 0 0.018246055198239457 -0.010392172815924767 0 0.018011511864167527 -0.01412126300338511 0 0.018011511864167527 -0.01412126300338511 0 0.020726015329778431 -0.011612876322326495 0 0.021496128630546937 -0.015944102506404021 0 0.018246055198239457 -0.010392172815924767 0 0.018011511864167527 -0.01412126300338511 0 0.020726015329778431 -0.011612876322326495 0 0.014813171186589617 -0.007571791558204327 0 0.013645245880582399 -0.0048506494135132742 0 0.020726015329778431 -0.011612876322326495 0 0.019472162680495616 -0.010709551100136543 0 0.02102961027753077 -0.0062044606785308784 0 0.022404524556424905 -0.013027845469482728 0 0.021535669886020382 -0.01214829274430102 0 0.017692881455894038 -0.0045730328010817629 0 0.018246055198239457 -0.010392172815924767 0 0.020969569586578723 -0.012055973857825282 0 0.018246055198239457 -0.010392172815924767 0 0.020726015329778431 -0.011612876322326495 0 0.020969569586578723 -0.012055973857825282 0 0.020726015329778431 -0.011612876322326495 0 0.020969569586578723 -0.012055973857825282 0 0.019472162680495616 -0.010709551100136543 0 0.021113088368610828 -0.019672810137117244 0 0.018148234394197417 -0.016728962433012563 0 0.020969569586578723 -0.012055973857825282 0 0.018148234394197417 -0.016728962433012563 0 0.020969569586578723 -0.012055973857825282 0 0.018134284885360681 -0.013054284729280989 0 0.018148234394197417 -0.016728962433012563 0 0.018134284885360681 -0.013054284729280989 0 0.015271915266590105 -0.014510892047778926 0 0.014760767533754958 -0.017736595625217833 0 0.018148234394197417 -0.016728962433012563 0 0.015271915266590105 -0.014510892047778926 0 0.018134284885360681 -0.013054284729280989 0 0.016769541583099453 -0.010049469380534061 0 0.015271915266590105 -0.014510892047778926 0 0.020969569586578723 -0.012055973857825282 0 0.018134284885360681 -0.013054284729280989 0 0.019472162680495616 -0.010709551100136543 0 0.018134284885360681 -0.013054284729280989 0 0.019472162680495616 -0.010709551100136543 0 0.016769541583099453 -0.010049469380534061 0 0.014203064126727916 -0.0055967488403491621 0 0.013645245880582399 -0.0048506494135132742 0 0.019472162680495616 -0.010709551100136543 0 0.016769541583099453 -0.010049469380534061 0 0.02102961027753077 -0.0062044606785308784 0 0.016769541583099453 -0.010049469380534061 0 0.012168864349729875 -0.0085607166226634411 0 0.02102961027753077 -0.0062044606785308784 0 0.016769541583099453 -0.010049469380534061 0 0.012168864349729875 -0.0085607166226634411 0 0.012474214466136075 -0.012354230957860493 0 0.0083721673018217826 -0.012071039734513246 0 0.012168864349729875 -0.0085607166226634411 0 0.012474214466136075 -0.012354230957860493 0 0.0094771794781436294 -0.014716873449199773 0 0.0083721673018217826 -0.012071039734513246 0 0.012474214466136075 -0.012354230957860493 0 0.016769541583099453 -0.010049469380534061 0 0.012474214466136075 -0.012354230957860493 0 0.015271915266590105 -0.014510892047778926 0 0.014760767533754958 -0.017736595625217833 0 0.015271915266590105 -0.014510892047778926 0 0.011786388999340388 -0.016441450694796064 0 0.012474214466136075 -0.012354230957860493 0 0.015271915266590105 -0.014510892047778926 0 0.011786388999340388 -0.016441450694796064 0 0.0094771794781436294 -0.014716873449199773 0 0.0086011415300385318 -0.017457697386429487 0 0.011786388999340388 -0.016441450694796064 0 0.0094771794781436294 -0.014716873449199773 0 0.012474214466136075 -0.012354230957860493 0 0.011786388999340388 -0.016441450694796064 0 0.016135248762827927 -0.031083603733760377 0 0.018407014262029835 -0.027041059440789446 0 0.015819783501597372 -0.025742414757094337 0 0.011003656952078458 -0.028062662080409053 0 0.016135248762827927 -0.031083603733760377 0 0.015819783501597372 -0.025742414757094337 0 0.0052912862986931831 -0.0064292598476870617 0 0.012168864349729875 -0.0085607166226634411 0 0.012853069069274194 -0.0022282914361903411 0 0.012168864349729875 -0.0085607166226634411 0 0.012853069069274194 -0.0022282914361903411 0 0.017644875802456991 -0.0022775633558591133 0 0.012168864349729875 -0.0085607166226634411 0 0.017644875802456991 -0.0022775633558591133 0 0.021117777091118419 -0.0055605872341229464 0 0.017644875802456991 -0.0022775633558591133 0 0.020053640587947046 0.001821348353678689 0 0.021117777091118419 -0.0055605872341229464 0 0.012853069069274194 -0.0022282914361903411 0 0.017644875802456991 -0.0022775633558591133 0 0.020053640587947046 0.001821348353678689 0 0.01248404472945089 -0.014747614135804558 0 0.013667578753969874 -0.0084858053064022828 0 0.016135248762827927 -0.031083603733760377 0 0.021044987669556904 -0.028217309502096524 0 0.018407014262029835 -0.027041059440789446 0 0.012342987459018878 0.0054623724307436136 0 0.012710293243652405 0.0054667671135359584 0 0.012408333334462656 0.0047523328391853381 0 0.012342987459018878 0.0054623724307436136 0 0.012482429300075511 0.0055277623889266759 0 0.012710293243652405 0.0054667671135359584 0 0.013667578753969874 -0.0084858053064022828 0 0.013815916336915037 -0.0082404200409145079 0 0.013667578753969874 -0.0084858053064022828 0 0.013645245880582399 -0.0048506494135132742 0 0.018011511864167527 -0.01412126300338511 0 0.021496128630546937 -0.015944102506404021 0 0.016390142083976086 -0.01778661987449227 0 0.013645245880582399 -0.0048506494135132742 0 0.012849341471424396 -0.0011514341418176787 0 0.012710293243652405 0.0054667671135359584 0 0.012408333334462656 0.0047523328391853381 0 0.013069866029267097 0.0049767293424817184 0 0.018011511864167527 -0.01412126300338511 0 0.016390142083976086 -0.01778661987449227 0 0.012823823987329262 -0.015538549136762668 0 0.012710293243652405 0.0054667671135359584 0 0.013069866029267097 0.0049767293424817184 0 0.013234781103499356 0.0054622497184923608 0 0.012710293243652405 0.0054667671135359584 0 0.013234781103499356 0.0054622497184923608 0 0.012999813241780714 0.0057738496790914248 0 0.013234781103499356 0.0054622497184923608 0 0.012999813241780714 0.0057738496790914248 0 0.013465330250176504 0.0059208512547051836 0 0.012710293243652405 0.0054667671135359584 0 0.012999813241780714 0.0057738496790914248 0 0.012715646604067434 0.0058988472031924139 0 0.012999813241780714 0.0057738496790914248 0 0.012926396888014556 0.0061218948137011665 0 0.012715646604067434 0.0058988472031924139 0 0.012999813241780714 0.0057738496790914248 0 0.012926396888014556 0.0061218948137011665 0 0.013465330250176504 0.0059208512547051836 0 0.011192671086816496 0.008076536751176781 0 0.011595977663332382 0.0078838900055460941 0 0.012926396888014556 0.0061218948137011665 0 0.012872543930436797 0.006258542889507627 0 0.012835627708326783 0.0070708667120604552 0 0.012926396888014556 0.0061218948137011665 0 0.013465330250176504 0.0059208512547051836 0 0.012835627708326783 0.0070708667120604552 0 0.012926396888014556 0.0061218948137011665 0 0.012634714036833873 0.005860363499859295 0 0.012872543930436797 0.006258542889507627 0 0.012872543930436797 0.006258542889507627 0 0.012502136185319944 0.0054673746248201094 0 0.01325310727410625 0.0066159706968708966 0 0.012422329091526017 0.0043360406189833509 0 0.012163768040654832 0.0035836938107066912 0 0.012502136185319944 0.0054673746248201094 0 0.013216836025985111 0.0033162591950294576 0 0.010936264550523751 0.0018317341469875968 0 0.012634714036833873 0.005860363499859295 0 0.012872543930436797 0.006258542889507627 0 0.012502136185319944 0.0054673746248201094 0 0.012634714036833873 0.005860363499859295 0 0.012648547126913361 0.0062595734630650829 0 0.012502136185319944 0.0054673746248201094 0 0.012634714036833873 0.005860363499859295 0 0.012715646604067434 0.0058988472031924139 0 0.012648547126913361 0.0062595734630650829 0 0.012926396888014556 0.0061218948137011665 0 0.012634714036833873 0.005860363499859295 0 0.012715646604067434 0.0058988472031924139 0 0.012482429300075511 0.0055277623889266759 0 0.012710293243652405 0.0054667671135359584 0 0.012319334034308583 0.0057598526712135303 0 0.012384775678434717 0.0054641542064464048 0 0.012482429300075511 0.0055277623889266759 0 0.012319334034308583 0.0057598526712135303 0 0.012051565030450189 -0.0016084557281956025 0 0.014426865458700198 -0.0055266100580630678 0 0.012710293243652405 0.0054667671135359584 0 0.012715646604067434 0.0058988472031924139 0 0.012648547126913361 0.0062595734630650829 0 0.018407014262029835 -0.027041059440789446 0 0.02060334470978116 -0.025130599528324277 0 0.015819783501597372 -0.025742414757094337 0 0.013667578753969874 -0.0084858053064022828 0 0.014426865458700198 -0.0055266100580630678 0 0.021044987669556904 -0.028217309502096524 0 0.018407014262029835 -0.027041059440789446 0 0.02060334470978116 -0.025130599528324277 0 0.014426865458700198 -0.0055266100580630678 0 0.018889838473143305 -0.013576673378651346 0 0.01285564008030444 0.0057511395075615698 0 0.013216836025985111 0.0033162591950294576 0 0.014591776640703919 0.0032167102746650483 0 0.01285564008030444 0.0057511395075615698 0 0.015208837232998961 0.0033865873056757056 0 0.014591776640703919 0.0032167102746650483 0 0.014426865458700198 -0.0055266100580630678 0 0.013760047487740538 -0.00083725021071204286 0 0.012648547126913361 0.0062595734630650829 0 0.012502136185319944 0.0054673746248201094 0 0.013216836025985111 0.0033162591950294576 0 0.012767758344212598 -0.022010015332064935 0 0.016407822838164859 -0.020938403886409863 0 0.015819783501597372 -0.025742414757094337 0 0.01864974858819269 -0.024602222484458518 0 0.018889838473143305 -0.013576673378651346 0 0.018889838473143305 -0.013576673378651346 0 0.018865909337023454 -0.013387065195337259 0 0.02060334470978116 -0.025130599528324277 0 0.016407822838164859 -0.020938403886409863 0 0.015819783501597372 -0.025742414757094337 0 0.0039226851602574067 0.016399474167509295 0 0.0043686092726567261 0.016033903278464576 0 0.0038350507605138312 0.015748437347492757 0 0.0039226851602574067 0.016399474167509295 0 0.0038350507605138312 0.015748437347492757 0 0.0031369051909025739 0.015498209665296666 0 0.0039226851602574067 0.016399474167509295 0 0.0061871686528924344 0.015777698802448729 0 0.0040641626848673274 0.015358835860124887 0 0.0039226851602574067 0.016399474167509295 0 0.0043686092726567261 0.016033903278464576 0 0.0041734492155200949 0.015997556324053624 0 0.0043686092726567261 0.016033903278464576 0 0.0046871060796998282 0.016208275752719756 0 0.0041734492155200949 0.015997556324053624 0 0.0050518621431872857 0.015943276003694478 0 0.0043686092726567261 0.016033903278464576 0 0.0046871060796998282 0.016208275752719756 0 0.0050518621431872857 0.015943276003694478 0 0.0043686092726567261 0.016033903278464576 0 0.0043251957580008491 0.015569494537279804 0 0.0043686092726567261 0.016033903278464576 0 0.0043251957580008491 0.015569494537279804 0 0.0038350507605138312 0.015748437347492757 0 0.0034993038964020885 0.014826828039407748 0 0.0046121803278311958 0.014908932709158121 0 0.0043251957580008491 0.015569494537279804 0 0.0050518621431872857 0.015943276003694478 0 0.0043251957580008491 0.015569494537279804 0 0.0049618331802817207 0.015497999126956661 0 0.0046121803278311958 0.014908932709158121 0 0.0043251957580008491 0.015569494537279804 0 0.0049618331802817207 0.015497999126956661 0 0.0034993038964020885 0.014826828039407748 0 0.0043251957580008491 0.015569494537279804 0 0.0038350507605138312 0.015748437347492757 0 0.0023677166528888976 0.014556476534313464 0 0.0034993038964020885 0.014826828039407748 0 0.0031369051909025739 0.015498209665296666 0 0.0034993038964020885 0.014826828039407748 0 0.0038350507605138312 0.015748437347492757 0 0.0031369051909025739 0.015498209665296666 0 0.008316115776674321 0.0024456753100292957 0 0.011142593059678038 0.0047264744076708221 0 0.0023677166528888976 0.014556476534313464 0 0.0031369051909025739 0.015498209665296666 0 0.001946802732174699 0.015949327187651532 0 0.012849341471424396 -0.0011514341418176787 0 0.011142593059678038 0.0047264744076708221 0 0.0086411393984737635 -0.014002241121788704 0 0.012823823987329262 -0.015538549136762668 0 0.011008964416352162 -0.019639363902268853 0 0.016390142083976086 -0.01778661987449227 0 0.012823823987329262 -0.015538549136762668 0 0.011008964416352162 -0.019639363902268853 0 0.013069866029267097 0.0049767293424817184 0 0.013234781103499356 0.0054622497184923608 0 0.013710252222645349 0.0051925855963724258 0 0.011142593059678038 0.0047264744076708221 0 0.011192671086816496 0.008076536751176781 0 0.013234781103499356 0.0054622497184923608 0 0.013710252222645349 0.0051925855963724258 0 0.013465330250176504 0.0059208512547051836 0 0.0084986570640857035 0.0074038646442260341 0 0.011142593059678038 0.0047264744076708221 0 0.0092429987149088254 0.018691142634019615 0 0.0061871686528924344 0.015777698802448729 0 0.0079054577703138243 0.014736756352802461 0 0.0039226851602574067 0.016399474167509295 0 0.0092429987149088254 0.018691142634019615 0 0.0061871686528924344 0.015777698802448729 0 0.0039226851602574067 0.016399474167509295 0 0.0031369051909025739 0.015498209665296666 0 0.001946802732174699 0.015949327187651532 0 0.0061871686528924344 0.015777698802448729 0 0.0079054577703138243 0.014736756352802461 0 0.0062135097141149077 0.01400655653065778 0 0.0079054577703138243 0.014736756352802461 0 0.011465467552308022 0.013224409070404891 0 0.0070275018617804502 0.011445809879443058 0 0.0079054577703138243 0.014736756352802461 0 0.0062135097141149077 0.01400655653065778 0 0.0070275018617804502 0.011445809879443058 0 0.0092429987149088254 0.018691142634019615 0 0.0079054577703138243 0.014736756352802461 0 0.011465467552308022 0.013224409070404891 0 0.011465467552308022 0.013224409070404891 0 0.0097587578536914247 0.0097767441413653088 0 0.0070275018617804502 0.011445809879443058 0 0.011465467552308022 0.013224409070404891 0 0.0097587578536914247 0.0097767441413653088 0 0.012835627708326783 0.0070708667120604552 0 0.0062135097141149077 0.01400655653065778 0 0.0070275018617804502 0.011445809879443058 0 0.0037014170999603892 0.010309013095048548 0 0.0097587578536914247 0.0097767441413653088 0 0.0070275018617804502 0.011445809879443058 0 0.0072459505369152633 0.0084619649322894026 0 0.0070275018617804502 0.011445809879443058 0 0.0046147755558921524 0.010271130347755642 0 0.0072459505369152633 0.0084619649322894026 0 0.0054456190999190345 0.01386339096034395 0 0.0054447894426429702 0.014112957371045428 0 0.0062135097141149077 0.01400655653065778 0 0.0037014170999603892 0.010309013095048548 0 0.0040641626848673274 0.015358835860124887 0 0.0054447894426429702 0.014112957371045428 0 0.0052713086309176278 0.01436411487301556 0 0.0038405931400967313 0.016924169982967634 0 0.0040641626848673274 0.015358835860124887 0 0.0044441413725414486 0.016398784228571418 0 0.0039226851602574067 0.016399474167509295 0 0.0040641626848673274 0.015358835860124887 0 0.0041734492155200949 0.015997556324053624 0 0.0040641626848673274 0.015358835860124887 0 0.0041734492155200949 0.015997556324053624 0 0.0044441413725414486 0.016398784228571418 0 0.0061871686528924344 0.015777698802448729 0 0.0062135097141149077 0.01400655653065778 0 0.0040641626848673274 0.015358835860124887 0 0.0053188616933936908 0.016751034044408825 0 0.0046871060796998282 0.016208275752719756 0 0.0044441413725414486 0.016398784228571418 0 0.0046871060796998282 0.016208275752719756 0 0.0041734492155200949 0.015997556324053624 0 0.0044441413725414486 0.016398784228571418 0 0.0053188616933936908 0.016751034044408825 0 0.0044441413725414486 0.016398784228571418 0 0.0052699774942591322 0.017576156745324006 0 0.0038405931400967313 0.016924169982967634 0 0.0044441413725414486 0.016398784228571418 0 0.0052699774942591322 0.017576156745324006 0 0.0054447894426429702 0.014112957371045428 0 0.0052688194476191389 0.016536270923345191 0 0.0055922553902657537 0.015644518055566381 0 0.0054514111954269105 0.015754287468528645 0 0.0054459064858134003 0.015543421159844611 0 0.0057410516757302726 0.015854302589781218 0 0.0055922553902657537 0.015644518055566381 0 0.0054514111954269105 0.015754287468528645 0 0.0072263680950445056 0.01263570781478375 0 0.0054235390987185141 0.017205009218114499 0 0.0055922553902657537 0.015644518055566381 0 0.0057376089418430965 0.015432752816504238 0 0.0054459064858134003 0.015543421159844611 0 0.0048366046287978554 0.0064601991329127969 0 0.0065801798603278856 0.0037518935033322874 0 0.0049391699282503804 0.0029915920320758142 0 0.0055922553902657537 0.015644518055566381 0 0.0057385249092192477 0.01564593940123616 0 0.0057376089418430965 0.015432752816504238 0 0.006165958741886907 0.012372039905983848 0 0.0072263680950445056 0.01263570781478375 0 0.0054447894426429702 0.014112957371045428 0 0.006165958741886907 0.012372039905983848 0 0.0046147755558921524 0.010271130347755642 0 0.0048366046287978554 0.0064601991329127969 0 0.0072459505369152633 0.0084619649322894026 0 0.0057410516757302726 0.015854302589781218 0 0.0055922553902657537 0.015644518055566381 0 0.0057385249092192477 0.01564593940123616 0 0.0097587578536914247 0.0097767441413653088 0 0.0072459505369152633 0.0084619649322894026 0 0.0097161278227451808 0.0071972126277882031 0 0.0072459505369152633 0.0084619649322894026 0 0.0097161278227451808 0.0071972126277882031 0 0.0076231166839739132 0.0056979331128475001 0 0.0097161278227451808 0.0071972126277882031 0 0.0093355771953573651 0.0049764384870527763 0 0.0076231166839739132 0.0056979331128475001 0 0.0048366046287978554 0.0064601991329127969 0 0.0072459505369152633 0.0084619649322894026 0 0.0076231166839739132 0.0056979331128475001 0 0.0097587578536914247 0.0097767441413653088 0 0.0097161278227451808 0.0071972126277882031 0 0.012835627708326783 0.0070708667120604552 0 0.0097161278227451808 0.0071972126277882031 0 0.011163737175711447 0.0057346127350112889 0 0.012835627708326783 0.0070708667120604552 0 0.0097161278227451808 0.0071972126277882031 0 0.011163737175711447 0.0057346127350112889 0 0.0093355771953573651 0.0049764384870527763 0 0.011163737175711447 0.0057346127350112889 0 0.010576630513208552 0.0045163812286063039 0 0.011639040426581058 0.004330965216468286 0 0.011163737175711447 0.0057346127350112889 0 0.010576630513208552 0.0045163812286063039 0 0.0093355771953573651 0.0049764384870527763 0 0.010576630513208552 0.0045163812286063039 0 0.0093355771953573651 0.0049764384870527763 0 0.0098223914568152677 0.0031682056089378918 0 0.010576630513208552 0.0045163812286063039 0 0.010801755254403453 0.0033394017125556704 0 0.0098223914568152677 0.0031682056089378918 0 0.0093355771953573651 0.0049764384870527763 0 0.0084330653894749766 0.0037902391064294143 0 0.0098223914568152677 0.0031682056089378918 0 0.010576630513208552 0.0045163812286063039 0 0.010801755254403453 0.0033394017125556704 0 0.011639040426581058 0.004330965216468286 0 0.010801755254403453 0.0033394017125556704 0 0.011520921751073027 0.0027402187157296322 0 0.011639040426581058 0.004330965216468286 0 0.0048366046287978554 0.0064601991329127969 0 0.0076231166839739132 0.0056979331128475001 0 0.0065801798603278856 0.0037518935033322874 0 0.0093355771953573651 0.0049764384870527763 0 0.0076231166839739132 0.0056979331128475001 0 0.0084330653894749766 0.0037902391064294143 0 0.0084330653894749766 0.0037902391064294143 0 0.0065801798603278856 0.0037518935033322874 0 0.008284896038107805 0.0023277790797974636 0 0.0076231166839739132 0.0056979331128475001 0 0.0084330653894749766 0.0037902391064294143 0 0.0065801798603278856 0.0037518935033322874 0 0.0065801798603278856 0.0037518935033322874 0 0.008284896038107805 0.0023277790797974636 0 0.0081559896026407661 0.00199740517646329 0 0.0083192836597743569 0.0088744884168611426 0 0.0072263680950445056 0.01263570781478375 0 0.0065801798603278856 0.0037518935033322874 0 0.0081559896026407661 0.00199740517646329 0 0.0049391699282503804 0.0029915920320758142 0 0.0091569343039226044 0.0027247605415739247 0 0.008284896038107805 0.0023277790797974636 0 0.01011101106783702 0.0016247529045160536 0 0.0084330653894749766 0.0037902391064294143 0 0.0091569343039226044 0.0027247605415739247 0 0.008284896038107805 0.0023277790797974636 0 0.008284896038107805 0.0023277790797974636 0 0.0081679762979878969 0.0020053771684919132 0 0.01011101106783702 0.0016247529045160536 0 0.0084330653894749766 0.0037902391064294143 0 0.0091569343039226044 0.0027247605415739247 0 0.0098223914568152677 0.0031682056089378918 0 0.0083093640807370781 0.008837606013259303 0 0.0083192836597743569 0.0088744884168611426 0 0.0094830592798155356 0.0017565367731882174 0 0.01011101106783702 0.0016247529045160536 0 0.010083953915948522 0.00059421114786594267 0 0.0083192836597743569 0.0088744884168611426 0 0.0087597093607633906 0.0084312664886551023 0 0.010801755254403453 0.0033394017125556704 0 0.011520921751073027 0.0027402187157296322 0 0.01011101106783702 0.0016247529045160536 0 0.010801755254403453 0.0033394017125556704 0 0.0098223914568152677 0.0031682056089378918 0 0.01011101106783702 0.0016247529045160536 0 0.0091569343039226044 0.0027247605415739247 0 0.0098223914568152677 0.0031682056089378918 0 0.01011101106783702 0.0016247529045160536 0 0.011520921751073027 0.0027402187157296322 0 0.01011101106783702 0.0016247529045160536 0 0.01150173527466364 0.00075687161089137698 0 0.011097184122535986 0.0006201195234134772 0 0.010828907393817576 2.475219533761254e-05 0 0.010083953915948522 0.00059421114786594267 0 0.01150173527466364 0.00075687161089137698 0 0.010420435076460469 -0.00073692803429016638 0 0.01011101106783702 0.0016247529045160536 0 0.010083953915948522 0.00059421114786594267 0 0.01150173527466364 0.00075687161089137698 0 0.0083192836597743569 0.0088744884168611426 0 0.0083965766915410599 0.0055348942738951377 0 0.0093244523502965925 0.0099519228571410268 0 0.0083418685591649788 0.0087170016976790467 0 0.0088197883807481139 0.0085459466991469214 0 0.0094830592798155356 0.0017565367731882174 0 0.010083953915948522 0.00059421114786594267 0 0.0092779533204116176 -0.00023636253100045639 0 0.012180103306910266 0.018877860633655409 0 0.0083304234975157647 0.022557957600799837 0 0.0067363242167092089 0.019187400630066652 0 0.0083304234975157647 0.022557957600799837 0 0.011852099593167612 0.024288434528028219 0 0.0066167838244596397 0.025770293607822774 0 0.012180103306910266 0.018877860633655409 0 0.0083304234975157647 0.022557957600799837 0 0.011852099593167612 0.024288434528028219 0 0.0087875070984324011 0.012253924226168385 0 0.0072263680950445056 0.01263570781478375 0 0.0093244523502965925 0.0099519228571410268 0 0.0083418685591649788 0.0087170016976790467 0 0.0083719264838059675 0.010291795617608535 0 0.017191833640250863 0.00083226819994310292 0 0.015771504977612889 -0.00099969246039359385 0 0.015106053167176382 0.0015465728254928973 0 0.015771504977612889 -0.00099969246039359385 0 0.015106053167176382 0.0015465728254928973 0 0.013805071923166583 0.00085535684269591353 0 0.017191833640250863 0.00083226819994310292 0 0.015313825879826649 0.0033572756267792733 0 0.015106053167176382 0.0015465728254928973 0 0.018413640862125751 -0.0086662299362469941 0 0.018889838473143305 -0.013576673378651346 0 0.014591776640703919 0.0032167102746650483 0 0.015106053167176382 0.0015465728254928973 0 0.013838856975483168 0.0021517919326259258 0 0.015313825879826649 0.0033572756267792733 0 0.014591776640703919 0.0032167102746650483 0 0.015106053167176382 0.0015465728254928973 0 0.015106053167176382 0.0015465728254928973 0 0.013805071923166583 0.00085535684269591353 0 0.013838856975483168 0.0021517919326259258 0 0.013216836025985111 0.0033162591950294576 0 0.014591776640703919 0.0032167102746650483 0 0.013838856975483168 0.0021517919326259258 0 0.013216836025985111 0.0033162591950294576 0 0.013838856975483168 0.0021517919326259258 0 0.012491618439288766 0.0016988673991616742 0 0.013805071923166583 0.00085535684269591353 0 0.013838856975483168 0.0021517919326259258 0 0.012491618439288766 0.0016988673991616742 0 0.013805071923166583 0.00085535684269591353 0 0.012491618439288766 0.0016988673991616742 0 0.011494917761589684 -0.00010254398781546869 0 0.012709528211607507 -0.0092162914578962987 0 0.011993374757320324 -0.0065670149511342585 0 0.011938361443925146 -0.00045789808180298213 0 0.011494917761589684 -0.00010254398781546869 0 0.011622462895339709 -0.00062357220111713117 0 0.015771504977612889 -0.00099969246039359385 0 0.013805071923166583 0.00085535684269591353 0 0.011494917761589684 -0.00010254398781546869 0 0.011494917761589684 -0.00010254398781546869 0 0.010936264550523751 0.0018317341469875968 0 0.010658943393718829 -0.00030946976111941873 0 0.012163768040654832 0.0035836938107066912 0 0.011641077396864419 0.0020188046633417773 0 0.012491618439288766 0.0016988673991616742 0 0.011494917761589684 -0.00010254398781546869 0 0.010936264550523751 0.0018317341469875968 0 0.013216836025985111 0.0033162591950294576 0 0.012491618439288766 0.0016988673991616742 0 0.010936264550523751 0.0018317341469875968 0 0.012872543930436797 0.006258542889507627 0 0.01325310727410625 0.0066159706968708966 0 0.012835627708326783 0.0070708667120604552 0 0.01325310727410625 0.0066159706968708966 0 0.012835627708326783 0.0070708667120604552 0 0.01255531971092878 0.0056758701586969405 0 0.011163737175711447 0.0057346127350112889 0 0.012835627708326783 0.0070708667120604552 0 0.01255531971092878 0.0056758701586969405 0 0.01325310727410625 0.0066159706968708966 0 0.01255531971092878 0.0056758701586969405 0 0.01311881526014291 0.0038860367765169092 0 0.01255531971092878 0.0056758701586969405 0 0.01311881526014291 0.0038860367765169092 0 0.011639040426581058 0.004330965216468286 0 0.011163737175711447 0.0057346127350112889 0 0.01255531971092878 0.0056758701586969405 0 0.011639040426581058 0.004330965216468286 0 0.011520921751073027 0.0027402187157296322 0 0.01311881526014291 0.0038860367765169092 0 0.011639040426581058 0.004330965216468286 0 0.011520921751073027 0.0027402187157296322 0 0.01311881526014291 0.0038860367765169092 0 0.01150173527466364 0.00075687161089137698 0 0.010658943393718829 -0.00030946976111941873 0 0.010663858590518308 -0.00070556125143244502 0 0.011102517740687743 -0.00064131252377163848 0 0.011641077396864419 0.0020188046633417773 0 0.011097184122535986 0.0006201195234134772 0 0.010663858590518308 -0.00070556125143244502 0 0.010936838576140247 -0.00081811794063758869 0 0.011102517740687743 -0.00064131252377163848 0 0.010663858590518308 -0.00070556125143244502 0 0.010936838576140247 -0.00081811794063758869 0 0.010697493248512602 -0.00081538306805401309 0 0.010936838576140247 -0.00081811794063758869 0 0.011102517740687743 -0.00064131252377163848 0 0.011483305517455956 -0.0010049968122277356 0 0.011494917761589684 -0.00010254398781546869 0 0.010658943393718829 -0.00030946976111941873 0 0.011102517740687743 -0.00064131252377163848 0 0.011494917761589684 -0.00010254398781546869 0 0.011102517740687743 -0.00064131252377163848 0 0.011622462895339709 -0.00062357220111713117 0 0.011102517740687743 -0.00064131252377163848 0 0.011622462895339709 -0.00062357220111713117 0 0.011483305517455956 -0.0010049968122277356 0 0.011622462895339709 -0.00062357220111713117 0 0.011483305517455956 -0.0010049968122277356 0 0.011994955521540415 -0.00093269219374518769 0 0.011787860707935286 -0.0008939010569501512 0 0.011994955521540415 -0.00093269219374518769 0 0.012082231271110452 -0.0012184501659604405 0 0.011451321805518534 -0.00087261086287972764 0 0.011646400478535109 -0.00082042687705077377 0 0.011938361443925146 -0.00045789808180298213 0 0.011622462895339709 -0.00062357220111713117 0 0.011994955521540415 -0.00093269219374518769 0 0.012156445371660095 -0.00086660667154313199 0 0.011938361443925146 -0.00045789808180298213 0 0.011994955521540415 -0.00093269219374518769 0 0.012377707537425937 -0.0012585309589510751 0 0.012082231271110452 -0.0012184501659604405 0 0.011801518294743945 -0.0012569900383080886 0 0.012120982373753824 -0.0012871627161449737 0 0.011994955521540415 -0.00093269219374518769 0 0.012082231271110452 -0.0012184501659604405 0 0.011787860707935286 -0.0008939010569501512 0 0.012082231271110452 -0.0012184501659604405 0 0.011801518294743945 -0.0012569900383080886 0 0.011801518294743945 -0.0012569900383080886 0 0.011191662647363763 -0.00083674426078793752 0 0.010946757298063497 -0.0012684643178138169 0 0.011451321805518534 -0.00087261086287972764 0 0.011030421630489172 -0.00097855285803273898 0 0.010936838576140247 -0.00081811794063758869 0 0.011483305517455956 -0.0010049968122277356 0 0.010958258667964486 -0.0010320600300723494 0 0.011787860707935286 -0.0008939010569501512 0 0.011801518294743945 -0.0012569900383080886 0 0.011191662647363763 -0.00083674426078793752 0 0.010958258667964486 -0.0010320600300723494 0 0.010697493248512602 -0.00081538306805401309 0 0.010507084570780532 -0.0010533431738628464 0 0.010936838576140247 -0.00081811794063758869 0 0.010958258667964486 -0.0010320600300723494 0 0.010697493248512602 -0.00081538306805401309 0 0.010946757298063497 -0.0012684643178138169 0 0.01036494213860752 -0.001032432394881177 0 0.01023069041293187 -0.0015987307381248226 0 0.011191662647363763 -0.00083674426078793752 0 0.010946757298063497 -0.0012684643178138169 0 0.01036494213860752 -0.001032432394881177 0 0.011030421630489172 -0.00097855285803273898 0 0.010566988875144231 -0.0011115555417678022 0 0.010946757298063497 -0.0012684643178138169 0 0.01089160831871867 -0.0018698034538931953 0 0.01023069041293187 -0.0015987307381248226 0 0.010396870817434116 -0.0022485077011825112 0 0.010489751596119035 -0.0031841561387983023 0 0.010144625405540222 -0.0023326022841834381 0 0.010396870817434116 -0.0022485077011825112 0 0.01089160831871867 -0.0018698034538931953 0 0.010489751596119035 -0.0031841561387983023 0 0.010396870817434116 -0.0022485077011825112 0 0.01089160831871867 -0.0018698034538931953 0 0.01023069041293187 -0.0015987307381248226 0 0.01089160831871867 -0.0018698034538931953 0 0.012320034702079785 -0.0018105145376298463 0 0.011452133556124986 -0.0035256157324333611 0 0.01089160831871867 -0.0018698034538931953 0 0.011452133556124986 -0.0035256157324333611 0 0.010489751596119035 -0.0031841561387983023 0 0.011801518294743945 -0.0012569900383080886 0 0.010946757298063497 -0.0012684643178138169 0 0.01089160831871867 -0.0018698034538931953 0 0.011801518294743945 -0.0012569900383080886 0 0.01089160831871867 -0.0018698034538931953 0 0.012320034702079785 -0.0018105145376298463 0 0.015689334990909819 -0.0025211557732708542 0 0.012320034702079785 -0.0018105145376298463 0 0.013842659391428612 -0.0043305195816129962 0 0.015689334990909819 -0.0025211557732708542 0 0.01553133161972337 0.0012126990907606367 0 0.012320034702079785 -0.0018105145376298463 0 0.012377707537425937 -0.0012585309589510751 0 0.011801518294743945 -0.0012569900383080886 0 0.012320034702079785 -0.0018105145376298463 0 0.020009715539497281 -0.014444160739852888 0 0.019229131972338977 -0.0098940668626973875 0 0.0095452788029887752 -0.0010651162705798071 0 0.0092779533204116176 -0.00023636253100045639 0 0.0096287158420920206 -0.00095902832128628936 0 0.0096287158420920206 -0.00095902832128628936 0 0.0097610228974616443 -0.0011586182084268161 0 0.0096037835619683688 -0.0010888147873564927 0 0.0095452788029887752 -0.0010651162705798071 0 0.0096287158420920206 -0.00095902832128628936 0 0.0096037835619683688 -0.0010888147873564927 0 0.0090192892283965931 0.0058895381619298521 0 0.0090202718605757997 0.0056469843092378314 0 0.008649517562489677 0.015161520625384161 0 0.0084538218750134127 0.0075632588681642946 0 0.0052088896214460027 0.012675493345018163 0 0.013404072665709935 0.01099242735533695 0 0.008649517562489677 0.015161520625384161 0 0.0084538218750134127 0.0075632588681642946 0 0.012180103306910266 0.018877860633655409 0 0.008649517562489677 0.015161520625384161 0 0.0067363242167092089 0.019187400630066652 0 0.0090192892283965931 0.0058895381619298521 0 0.0083965766915410599 0.0055348942738951377 0 0.0083418685591649788 0.0087170016976790467 0 0.0083234427852322788 0.0071245386664293038 0 0.0088197883807481139 0.0085459466991469214 0 0.0087875070984324011 0.012253924226168385 0 0.0090192892283965931 0.0058895381619298521 0 0.012180103306910266 0.018877860633655409 0 0.013404072665709935 0.01099242735533695 0 0.008649517562489677 0.015161520625384161 0 0.010083953915948522 0.00059421114786594267 0 0.0092779533204116176 -0.00023636253100045639 0 0.010420435076460469 -0.00073692803429016638 0 0.0092779533204116176 -0.00023636253100045639 0 0.010420435076460469 -0.00073692803429016638 0 0.0099649102213267993 -0.00090089732606564226 0 0.0092779533204116176 -0.00023636253100045639 0 0.0099649102213267993 -0.00090089732606564226 0 0.0096287158420920206 -0.00095902832128628936 0 0.010697493248512602 -0.00081538306805401309 0 0.010420435076460469 -0.00073692803429016638 0 0.010507084570780532 -0.0010533431738628464 0 0.010663858590518308 -0.00070556125143244502 0 0.010697493248512602 -0.00081538306805401309 0 0.010420435076460469 -0.00073692803429016638 0 0.010566988875144231 -0.0011115555417678022 0 0.010305227568270608 -0.0011989227285428752 0 0.010507084570780532 -0.0010533431738628464 0 0.0099649102213267993 -0.00090089732606564226 0 0.0097610228974616443 -0.0011586182084268161 0 0.010420435076460469 -0.00073692803429016638 0 0.010507084570780532 -0.0010533431738628464 0 0.0099649102213267993 -0.00090089732606564226 0 0.0099649102213267993 -0.00090089732606564226 0 0.0096287158420920206 -0.00095902832128628936 0 0.0097610228974616443 -0.0011586182084268161 0 0.0097610228974616443 -0.0011586182084268161 0 0.0098991774678885425 -0.0015824407480746177 0 0.0096161410901441386 -0.00091761116269633148 0 0.0097610228974616443 -0.0011586182084268161 0 0.01023069041293187 -0.0015987307381248226 0 0.0098991774678885425 -0.0015824407480746177 0 0.01036494213860752 -0.001032432394881177 0 0.0097610228974616443 -0.0011586182084268161 0 0.01023069041293187 -0.0015987307381248226 0 0.01023069041293187 -0.0015987307381248226 0 0.0098991774678885425 -0.0015824407480746177 0 0.010144625405540222 -0.0023326022841834381 0 0.010396870817434116 -0.0022485077011825112 0 0.01023069041293187 -0.0015987307381248226 0 0.010144625405540222 -0.0023326022841834381 0 0.0098991774678885425 -0.0015824407480746177 0 0.010144625405540222 -0.0023326022841834381 0 0.0099575457067270796 -0.0024082076279826948 0 0.0098991774678885425 -0.0015824407480746177 0 0.0097945875423715092 -0.0015497267551753892 0 0.0099575457067270796 -0.0024082076279826948 0 0.0098991774678885425 -0.0015824407480746177 0 0.0097945875423715092 -0.0015497267551753892 0 0.0096161410901441386 -0.00091761116269633148 0 0.0097945875423715092 -0.0015497267551753892 0 0.0096106187916833105 0.00042626268585858434 0 0.0096055270077841249 -0.0020836672092246953 0 0.0097945875423715092 -0.0015497267551753892 0 0.0096161410901441386 -0.00091761116269633148 0 0.0096106187916833105 0.00042626268585858434 0 0.0097084568120480996 -0.0014383018512224596 0 0.0096037835619683688 -0.0010888147873564927 0 0.0096106187916833105 0.00042626268585858434 0 0.0097610228974616443 -0.0011586182084268161 0 0.0096161410901441386 -0.00091761116269633148 0 0.0096037835619683688 -0.0010888147873564927 0 0.0090192892283965931 0.0058895381619298521 0 0.0088032935451336815 0.0035510217912263766 0 0.0096161410901441386 -0.00091761116269633148 0 0.0096037835619683688 -0.0010888147873564927 0 0.0096106187916833105 0.00042626268585858434 0 0.013404072665709935 0.01099242735533695 0 0.0084538218750134127 0.0075632588681642946 0 0.0096106187916833105 0.00042626268585858434 0 0.0084538218750134127 0.0075632588681642946 0 0.0096106187916833105 0.00042626268585858434 0 0.0042219408617976944 0.0025685960699002169 0 0.0096106187916833105 0.00042626268585858434 0 0.0042219408617976944 0.0025685960699002169 0 0.0071921637655485643 -0.0012195774254688382 0 0.0047238034664303687 0.010952954232775026 0 0.003491634600552772 0.0097658880286772311 0 0.0046969297296903549 0.0087669726633727105 0 0.0039870822794006357 0.006418170486797126 0 0.0035032553667269056 0.0023385502712209971 0 0.0042219408617976944 0.0025685960699002169 0 0.0052193171942056093 -0.0032542085462581288 0 0.0071921637655485643 -0.0012195774254688382 0 0.0047238034664303687 0.010952954232775026 0 0.003491634600552772 0.0097658880286772311 0 0.003464744641643475 0.01088582522162455 0 0.0022608014343669042 0.010601550675594982 0 0.003464744641643475 0.01088582522162455 0 0.0033541517910650265 0.012009241852457879 0 0.003491634600552772 0.0097658880286772311 0 0.0022608014343669042 0.010601550675594982 0 0.0022050240898822534 0.0091047615267540981 0 0.003491634600552772 0.0097658880286772311 0 0.0022608014343669042 0.010601550675594982 0 0.003464744641643475 0.01088582522162455 0 0.0033541517910650265 0.012009241852457879 0 0.0014187598116740469 0.011967464744030858 0 0.0019450578801109178 0.014562439906345603 0 0.0022608014343669042 0.010601550675594982 0 0.0033541517910650265 0.012009241852457879 0 0.0014187598116740469 0.011967464744030858 0 0.0084538218750134127 0.0075632588681642946 0 0.0042219408617976944 0.0025685960699002169 0 0.0052088896214460027 0.012675493345018163 0 0.0039870822794006357 0.006418170486797126 0 0.0041578670453074184 0.0087178408136483927 0 0.0047238034664303687 0.010952954232775026 0 0.003464744641643475 0.01088582522162455 0 0.0033541517910650265 0.012009241852457879 0 0.0047238034664303687 0.010952954232775026 0 0.0033541517910650265 0.012009241852457879 0 0.0052088896214460027 0.012675493345018163 0 -0.00041334955969689303 0.01028975080622388 0 -0.00028565292993471166 0.011632906180792185 0 -0.0011397138578848303 0.01090941371900472 0 -0.00041334955969689303 0.01028975080622388 0 0.00081316135793020898 0.010912519740277399 0 0.00098776751723583496 0.009716815301812981 0 -0.00041334955969689303 0.01028975080622388 0 0.00081316135793020898 0.010912519740277399 0 -0.00028565292993471166 0.011632906180792185 0 0.0022608014343669042 0.010601550675594982 0 0.00098776751723583496 0.009716815301812981 0 0.0022050240898822534 0.0091047615267540981 0 0.0022608014343669042 0.010601550675594982 0 0.00081316135793020898 0.010912519740277399 0 0.00098776751723583496 0.009716815301812981 0 0.0022608014343669042 0.010601550675594982 0 0.00081316135793020898 0.010912519740277399 0 0.0014187598116740469 0.011967464744030858 0 0.0006106782634281026 0.012921368036020106 0 0.0014187598116740469 0.011967464744030858 0 -0.00028565292993471166 0.011632906180792185 0 0.00081316135793020898 0.010912519740277399 0 0.0014187598116740469 0.011967464744030858 0 -0.00028565292993471166 0.011632906180792185 0 0.0006106782634281026 0.012921368036020106 0 0.0014187598116740469 0.011967464744030858 0 0.0019450578801109178 0.014562439906345603 0 -0.00028565292993471166 0.011632906180792185 0 -0.00051672707939737976 0.013660932717909555 0 -0.003147955380639369 0.013114844716954224 0 0.0006106782634281026 0.012921368036020106 0 -0.00028565292993471166 0.011632906180792185 0 -0.00051672707939737976 0.013660932717909555 0 -0.00028565292993471166 0.011632906180792185 0 -0.0013472430297214648 0.011629811177915145 0 -0.0011397138578848303 0.01090941371900472 0 -0.0041491175557522315 0.016047728223816445 0 -0.0025451493566507051 0.013868260097461971 0 -0.0012221127433613105 0.016270338484529096 0 -0.0025451493566507051 0.013868260097461971 0 0.0019450578801109178 0.014562439906345603 0 -0.0012221127433613105 0.016270338484529096 0 -0.0015695415013028153 0.014375594079621468 0 -0.00021213016359887088 0.014548877188350276 0 0.0006106782634281026 0.012921368036020106 0 -0.00051672707939737976 0.013660932717909555 0 0.0019450578801109178 0.014562439906345603 0 0.0019450578801109178 0.014562439906345603 0 -0.00027554607844406878 0.019449362600541788 0 -0.0012221127433613105 0.016270338484529096 0 0.0019450578801109178 0.014562439906345603 0 -0.00027554607844406878 0.019449362600541788 0 0.002599186239246164 0.019436429630223104 0 -0.0041491175557522315 0.016047728223816445 0 -0.00027554607844406878 0.019449362600541788 0 -0.0012221127433613105 0.016270338484529096 0 -0.0019909664219794542 0.016409167972987169 0 -0.0011773742482958905 0.01742243032396797 0 -0.00146256933428783 0.019349949597350393 0 -0.00027554607844406878 0.019449362600541788 0 -0.0017135649604731694 0.020817348514987045 0 0.0033541517910650265 0.012009241852457879 0 0.0052088896214460027 0.012675493345018163 0 0.0039436068376932278 0.015942453348376993 0 0.008649517562489677 0.015161520625384161 0 0.0052088896214460027 0.012675493345018163 0 0.0039436068376932278 0.015942453348376993 0 0.0033541517910650265 0.012009241852457879 0 0.0019450578801109178 0.014562439906345603 0 0.0039436068376932278 0.015942453348376993 0 0.0019450578801109178 0.014562439906345603 0 0.0039436068376932278 0.015942453348376993 0 0.002599186239246164 0.019436429630223104 0 0.008649517562489677 0.015161520625384161 0 0.0039436068376932278 0.015942453348376993 0 0.0067363242167092089 0.019187400630066652 0 0.0039436068376932278 0.015942453348376993 0 0.0067363242167092089 0.019187400630066652 0 0.002599186239246164 0.019436429630223104 0 0.0083304234975157647 0.022557957600799837 0 0.0067363242167092089 0.019187400630066652 0 0.0047522791616789323 0.022467854828379121 0 0.0067363242167092089 0.019187400630066652 0 0.0047522791616789323 0.022467854828379121 0 0.002599186239246164 0.019436429630223104 0 0.0083304234975157647 0.022557957600799837 0 0.0047522791616789323 0.022467854828379121 0 0.0066167838244596397 0.025770293607822774 0 0.0047522791616789323 0.022467854828379121 0 0.0021430421007729459 0.022722818389505805 0 0.0025765145449571361 0.024758486153104567 0 0.0047522791616789323 0.022467854828379121 0 0.0021430421007729459 0.022722818389505805 0 0.002599186239246164 0.019436429630223104 0 0.0021430421007729459 0.022722818389505805 0 0.002599186239246164 0.019436429630223104 0 -0.00021470992990493037 0.02198282183231242 0 -0.00027554607844406878 0.019449362600541788 0 0.002599186239246164 0.019436429630223104 0 -0.00021470992990493037 0.02198282183231242 0 -0.00027554607844406878 0.019449362600541788 0 -0.00021470992990493037 0.02198282183231242 0 -0.0017135649604731694 0.020817348514987045 0 -0.00021470992990493037 0.02198282183231242 0 -0.0020857335691399936 0.023035636245369816 0 -0.0017135649604731694 0.020817348514987045 0 -0.00021470992990493037 0.02198282183231242 0 -0.0010758600094010332 0.024311829610415274 0 -0.0020857335691399936 0.023035636245369816 0 -0.00021470992990493037 0.02198282183231242 0 0.00069665485600781086 0.024335548348223532 0 -0.0010758600094010332 0.024311829610415274 0 0.0021430421007729459 0.022722818389505805 0 -0.00021470992990493037 0.02198282183231242 0 0.00069665485600781086 0.024335548348223532 0 0.0021430421007729459 0.022722818389505805 0 0.00069665485600781086 0.024335548348223532 0 0.0025765145449571361 0.024758486153104567 0 0.00069665485600781086 0.024335548348223532 0 -0.00043106996650392525 0.025704388815288835 0 0.0015236735516495619 0.02645272239650899 0 0.00069665485600781086 0.024335548348223532 0 0.0015236735516495619 0.02645272239650899 0 0.0025765145449571361 0.024758486153104567 0 0.0020380415476896063 0.026734438915713768 0 0.0015236735516495619 0.02645272239650899 0 0.0025765145449571361 0.024758486153104567 0 0.00069665485600781086 0.024335548348223532 0 -0.0010758600094010332 0.024311829610415274 0 -0.00043106996650392525 0.025704388815288835 0 -0.0010758600094010332 0.024311829610415274 0 -0.00043106996650392525 0.025704388815288835 0 -0.0018009324130735527 0.02614119901880262 0 -0.00043106996650392525 0.025704388815288835 0 -0.0012593535626832834 0.027028853318779539 0 -0.0018009324130735527 0.02614119901880262 0 0.0034258222165827017 0.020265028814465277 0 0.0045894853347690917 0.018705614213737429 0 -0.0012593535626832834 0.027028853318779539 0 0.0019648818413154053 0.026670812083255009 0 0.0015236735516495619 0.02645272239650899 0 0.0066865047171119291 0.017270871954354027 0 0.0072527839751100704 0.017571970315229134 0 0.0064188275333675266 0.017968763341350443 0 -0.00043106996650392525 0.025704388815288835 0 -0.0012593535626832834 0.027028853318779539 0 0.0015236735516495619 0.02645272239650899 0 0.0045894853347690917 0.018705614213737429 0 0.0045760664558812513 0.018746657788651078 0 0.005984050530937193 0.017249136879586711 0 0.0064188275333675266 0.017968763341350443 0 0.0052699774942591322 0.017576156745324006 0 0.0045894853347690917 0.018705614213737429 0 0.0052688194476191389 0.016536270923345191 0 0.005984050530937193 0.017249136879586711 0 0.0066865047171119291 0.017270871954354027 0 0.0064188275333675266 0.017968763341350443 0 0.005155118931737911 0.015655222688388735 0 0.0054514111954269105 0.015754287468528645 0 0.0054459064858134003 0.015543421159844611 0 0.0047522791616789323 0.022467854828379121 0 0.0066167838244596397 0.025770293607822774 0 0.0025765145449571361 0.024758486153104567 0 0.0020380415476896063 0.026734438915713768 0 0.0066167838244596397 0.025770293607822774 0 0.0025765145449571361 0.024758486153104567 0 0.0045894853347690917 0.018705614213737429 0 0.0054235390987185141 0.017205009218114499 0 -0.0040022100918986692 0.02629112229996549 0 -0.006905297469587692 0.024976888457982706 0 -0.0052655956019173862 0.024213278243039201 0 -0.0044766256699139357 0.026912484154022205 0 -0.0053685145556814067 0.026839588482008805 0 -0.0040022100918986692 0.02629112229996549 0 -0.0037589672260771858 0.027361042983379588 0 -0.0031565078919793248 0.026713028483652087 0 -0.0040090316779042966 0.028667622812493226 0 -0.003857154069216235 0.028356554985398446 0 -0.0041121104517083378 0.029515928839625647 0 -0.0040022100918986692 0.02629112229996549 0 -0.0040090316779042966 0.028667622812493226 0 -0.003857154069216235 0.028356554985398446 0 -0.0036502271775583186 0.028256408339938716 0 -0.0038312009002698664 0.027866091438971341 0 -0.003857154069216235 0.028356554985398446 0 -0.0039959248223865396 0.030564226705226006 0 -0.003857154069216235 0.028356554985398446 0 -0.0041121104517083378 0.029515928839625647 0 -0.0011016952956077954 0.028730360462217813 0 -0.0019787825968301418 0.029147356731428507 0 -0.0038312009002698664 0.027866091438971341 0 -0.003857154069216235 0.028356554985398446 0 -0.0037589672260771858 0.027361042983379588 0 -0.0040022100918986692 0.02629112229996549 0 -0.003857154069216235 0.028356554985398446 0 -0.0037589672260771858 0.027361042983379588 0 -0.0038312009002698664 0.027866091438971341 0 -0.0037589672260771858 0.027361042983379588 0 -0.0031565078919793248 0.026713028483652087 0 -0.002190600408406147 0.026312354043742249 0 -0.0038312009002698664 0.027866091438971341 0 -0.0028595177076899529 0.026783155917219935 0 -0.0038312009002698664 0.027866091438971341 0 -0.0028595177076899529 0.026783155917219935 0 -0.0031565078919793248 0.026713028483652087 0 -0.002190600408406147 0.026312354043742249 0 -0.0028595177076899529 0.026783155917219935 0 -0.0023660330869559828 0.026336966960882707 0 -0.0028595177076899529 0.026783155917219935 0 -0.0031565078919793248 0.026713028483652087 0 -0.0023660330869559828 0.026336966960882707 0 -0.0031565078919793248 0.026713028483652087 0 -0.0023660330869559828 0.026336966960882707 0 -0.00240964907672565 0.025525695757369769 0 -0.002190600408406147 0.026312354043742249 0 -0.0012593535626832834 0.027028853318779539 0 -0.0018009324130735527 0.02614119901880262 0 0.003828211532314039 0.020252323567577293 0 0.0034258222165827017 0.020265028814465277 0 -0.002190600408406147 0.026312354043742249 0 -0.0023660330869559828 0.026336966960882707 0 -0.0018009324130735527 0.02614119901880262 0 -0.0010758600094010332 0.024311829610415274 0 -0.0018009324130735527 0.02614119901880262 0 -0.00240964907672565 0.025525695757369769 0 -0.0023660330869559828 0.026336966960882707 0 -0.0018009324130735527 0.02614119901880262 0 -0.00240964907672565 0.025525695757369769 0 -0.0040022100918986692 0.02629112229996549 0 -0.00240964907672565 0.025525695757369769 0 -0.0035660483525381701 0.023928265970001424 0 -0.0040022100918986692 0.02629112229996549 0 -0.0031565078919793248 0.026713028483652087 0 -0.00240964907672565 0.025525695757369769 0 -0.00240964907672565 0.025525695757369769 0 -0.0035660483525381701 0.023928265970001424 0 -0.0020857335691399936 0.023035636245369816 0 -0.0035660483525381701 0.023928265970001424 0 -0.0020857335691399936 0.023035636245369816 0 -0.003191471071240827 0.021888073883488644 0 -0.0010758600094010332 0.024311829610415274 0 -0.00240964907672565 0.025525695757369769 0 -0.0020857335691399936 0.023035636245369816 0 -0.0020857335691399936 0.023035636245369816 0 -0.0017135649604731694 0.020817348514987045 0 -0.003191471071240827 0.021888073883488644 0 -0.0017135649604731694 0.020817348514987045 0 -0.003191471071240827 0.021888073883488644 0 -0.003022845651443601 0.020134181421207875 0 -0.0035660483525381701 0.023928265970001424 0 -0.003191471071240827 0.021888073883488644 0 -0.0050989868100674044 0.02258342471355344 0 -0.003191471071240827 0.021888073883488644 0 -0.0050989868100674044 0.02258342471355344 0 -0.0044037597377866765 0.020999104705999461 0 -0.0050989868100674044 0.02258342471355344 0 -0.0057929754137729314 0.021145521173867764 0 -0.0044037597377866765 0.020999104705999461 0 -0.0040022100918986692 0.02629112229996549 0 -0.0035660483525381701 0.023928265970001424 0 -0.0052655956019173862 0.024213278243039201 0 -0.0035660483525381701 0.023928265970001424 0 -0.0050989868100674044 0.02258342471355344 0 -0.0052655956019173862 0.024213278243039201 0 -0.0050989868100674044 0.02258342471355344 0 -0.0052655956019173862 0.024213278243039201 0 -0.0065519876402221249 0.023485935028244278 0 -0.006905297469587692 0.024976888457982706 0 -0.0065519876402221249 0.023485935028244278 0 -0.0078866880577916423 0.023255034427735063 0 -0.006905297469587692 0.024976888457982706 0 -0.0052655956019173862 0.024213278243039201 0 -0.0065519876402221249 0.023485935028244278 0 -0.0065519876402221249 0.023485935028244278 0 -0.0066407158583598833 0.022217387989598446 0 -0.0078866880577916423 0.023255034427735063 0 -0.0050989868100674044 0.02258342471355344 0 -0.0065519876402221249 0.023485935028244278 0 -0.0066407158583598833 0.022217387989598446 0 -0.0050989868100674044 0.02258342471355344 0 -0.0066407158583598833 0.022217387989598446 0 -0.0057929754137729314 0.021145521173867764 0 -0.0066407158583598833 0.022217387989598446 0 -0.0057929754137729314 0.021145521173867764 0 -0.0074075668021439866 0.02067687130274487 0 -0.0046951627163094659 0.016259859537796323 0 -0.005561000543150417 0.016066335710261264 0 -0.0057500510933178282 0.016826581787633327 0 -0.0057929754137729314 0.021145521173867764 0 -0.0049751388683913211 0.01932228493090981 0 -0.0074075668021439866 0.02067687130274487 0 -0.0050415795223931305 0.017097127600226723 0 -0.006767140906124413 0.018859479464900832 0 -0.0060285115453455945 0.016483461195843478 0 -0.006767140906124413 0.018859479464900832 0 -0.0057929754137729314 0.021145521173867764 0 -0.0044037597377866765 0.020999104705999461 0 -0.0049751388683913211 0.01932228493090981 0 -0.0046951627163094659 0.016259859537796323 0 -0.0050397547091796625 0.015779944559827747 0 -0.004530677244867499 0.015484326344840095 0 -0.0051420672151990298 0.017157795690753059 0 -0.0045032351645200612 0.014505736888984622 0 -0.0070174663102271799 0.016241426375930908 0 -0.005561000543150417 0.016066335710261264 0 -0.0050397547091796625 0.015779944559827747 0 -0.0053727649612728993 0.015309388896239165 0 -0.0046951627163094659 0.016259859537796323 0 -0.005561000543150417 0.016066335710261264 0 -0.0050397547091796625 0.015779944559827747 0 -0.0060285115453455945 0.016483461195843478 0 -0.0054647165731773282 0.014091256341435664 0 -0.00146256933428783 0.019349949597350393 0 -0.0017135649604731694 0.020817348514987045 0 -0.003022845651443601 0.020134181421207875 0 -0.003191471071240827 0.021888073883488644 0 -0.0044037597377866765 0.020999104705999461 0 -0.003022845651443601 0.020134181421207875 0 -0.0044037597377866765 0.020999104705999461 0 -0.0049751388683913211 0.01932228493090981 0 -0.003022845651443601 0.020134181421207875 0 -0.0050415795223931305 0.017097127600226723 0 -0.0028566041394540538 0.014506348120235331 0 -0.0046951627163094659 0.016259859537796323 0 -0.0036008392260849288 0.015674278823254041 0 -0.0036877959552738815 0.015656593799674275 0 -0.0049751388683913211 0.01932228493090981 0 -0.003022845651443601 0.020134181421207875 0 -0.0027353626497091136 0.018118054550773154 0 -0.0046951627163094659 0.016259859537796323 0 -0.0036877959552738815 0.015656593799674275 0 -0.004530677244867499 0.015484326344840095 0 -0.0015695415013028153 0.014375594079621468 0 -0.0028566041394540538 0.014506348120235331 0 -0.0041491175557522315 0.016047728223816445 0 -0.0025451493566507051 0.013868260097461971 0 -0.0074389960569847032 0.012841915803594301 0 -0.00146256933428783 0.019349949597350393 0 -0.003022845651443601 0.020134181421207875 0 -0.0027353626497091136 0.018118054550773154 0 -0.0019909664219794542 0.016409167972987169 0 -0.0028566041394540538 0.014506348120235331 0 -0.00028565292993471166 0.011632906180792185 0 -0.0020576479815384266 0.012510597899673482 0 -0.0013472430297214648 0.011629811177915145 0 -0.0013872961253089625 0.013343183706533368 0 -0.0028566041394540538 0.014506348120235331 0 -0.0020576479815384266 0.012510597899673482 0 -0.0013472430297214648 0.011629811177915145 0 -0.0020879935641894684 0.012081237808043785 0 -0.0013472430297214648 0.011629811177915145 0 -0.0018788355541930568 0.011546658139398385 0 -0.0018048581026736128 0.011034396886307996 0 -0.0013472430297214648 0.011629811177915145 0 -0.0020879935641894684 0.012081237808043785 0 -0.0018788355541930568 0.011546658139398385 0 -0.00223904712074999 0.012474113977155884 0 -0.0031407393937778051 0.011669568527190342 0 -0.0035308975620077167 0.012198616682620782 0 -0.0030184548072385528 0.01435436087545271 0 -0.0041757119488872703 0.014178992153839791 0 -0.0020879935641894684 0.012081237808043785 0 -0.0018788355541930568 0.011546658139398385 0 -0.002499133201105618 0.011318529704281191 0 -0.0020879935641894684 0.012081237808043785 0 -0.0031303836488532051 0.011653227385669731 0 -0.002499133201105618 0.011318529704281191 0 -0.0020879935641894684 0.012081237808043785 0 -0.0021937358560981442 0.012481424919868176 0 -0.0031303836488532051 0.011653227385669731 0 -0.0020576479815384266 0.012510597899673482 0 -0.0020879935641894684 0.012081237808043785 0 -0.0021937358560981442 0.012481424919868176 0 -0.0028566041394540538 0.014506348120235331 0 -0.0030184548072385528 0.01435436087545271 0 -0.0030184548072385528 0.01435436087545271 0 -0.0036135240976462612 0.013125001630528483 0 -0.0031303836488532051 0.011653227385669731 0 -0.002499133201105618 0.011318529704281191 0 -0.0032816352316904743 0.010902908730430269 0 -0.0028732208168303877 0.010445643655332964 0 -0.002499133201105618 0.011318529704281191 0 -0.0032816352316904743 0.010902908730430269 0 -0.0028732208168303877 0.010445643655332964 0 -0.0022604669686140865 0.010725384335465098 0 -0.002499133201105618 0.011318529704281191 0 -0.0028732208168303877 0.010445643655332964 0 -0.0022604669686140865 0.010725384335465098 0 -0.0017559712982528758 0.010064364668034467 0 -0.0022604669686140865 0.010725384335465098 0 -0.002499133201105618 0.011318529704281191 0 -0.0018048581026736128 0.011034396886307996 0 -0.00041334955969689303 0.01028975080622388 0 -0.0011397138578848303 0.01090941371900472 0 -0.0017559712982528758 0.010064364668034467 0 -0.0018788355541930568 0.011546658139398385 0 -0.002499133201105618 0.011318529704281191 0 -0.0018048581026736128 0.011034396886307996 0 -0.0018048581026736128 0.011034396886307996 0 -0.0011397138578848303 0.01090941371900472 0 -0.0017559712982528758 0.010064364668034467 0 -0.0022604669686140865 0.010725384335465098 0 -0.0018048581026736128 0.011034396886307996 0 -0.0017559712982528758 0.010064364668034467 0 -0.0013472430297214648 0.011629811177915145 0 -0.0018048581026736128 0.011034396886307996 0 -0.0011397138578848303 0.01090941371900472 0 -0.0050397547091796625 0.015779944559827747 0 -0.0053727649612728993 0.015309388896239165 0 -0.004530677244867499 0.015484326344840095 0 -0.0048265626154063669 0.011925407564055544 0 -0.0035308975620077167 0.012198616682620782 0 -0.0038479640254132381 0.011553826597068507 0 -0.0054647165731773282 0.014091256341435664 0 -0.0041757119488872703 0.014178992153839791 0 -0.0031407393937778051 0.011669568527190342 0 -0.0035308975620077167 0.012198616682620782 0 -0.0038479640254132381 0.011553826597068507 0 -0.0048265626154063669 0.011925407564055544 0 -0.0038479640254132381 0.011553826597068507 0 -0.0040460628134315803 0.010860630927587314 0 -0.0031303836488532051 0.011653227385669731 0 -0.0032816352316904743 0.010902908730430269 0 -0.0040460628134315803 0.010860630927587314 0 -0.0031407393937778051 0.011669568527190342 0 -0.0038479640254132381 0.011553826597068507 0 -0.0040460628134315803 0.010860630927587314 0 -0.0036135240976462612 0.013125001630528483 0 -0.0039048453632977661 0.012651759376481013 0 -0.0028732208168303877 0.010445643655332964 0 -0.0032816352316904743 0.010902908730430269 0 -0.0037025108557317077 0.010086884647026411 0 -0.0032816352316904743 0.010902908730430269 0 -0.0040460628134315803 0.010860630927587314 0 -0.0037025108557317077 0.010086884647026411 0 -0.0040460628134315803 0.010860630927587314 0 -0.004453096230273716 0.010456235554226258 0 -0.0037025108557317077 0.010086884647026411 0 -0.0051654662665723446 0.014317108517549314 0 -0.0046010714186937012 0.011723661366143215 0 -0.0065287580866216499 0.012011061225858958 0 -0.0048265626154063669 0.011925407564055544 0 -0.0040460628134315803 0.010860630927587314 0 -0.004453096230273716 0.010456235554226258 0 -0.0054647165731773282 0.014091256341435664 0 -0.0048313169099320399 0.011750370767075035 0 -0.0046010714186937012 0.011723661366143215 0 -0.0057085776998909267 0.010337850996872736 0 -0.0065287580866216499 0.012011061225858958 0 -0.0046010714186937012 0.011723661366143215 0 -0.0057085776998909267 0.010337850996872736 0 -0.0042082606413865707 0.0091129353642313959 0 -0.0048313169099320399 0.011750370767075035 0 -0.0045805355470838298 0.010756285140897652 0 -0.0037025108557317077 0.010086884647026411 0 -0.0042082606413865707 0.0091129353642313959 0 -0.0027143654970629072 0.0095058214015718064 0 -0.004453096230273716 0.010456235554226258 0 -0.0037025108557317077 0.010086884647026411 0 -0.0042082606413865707 0.0091129353642313959 0 -0.0042082606413865707 0.0091129353642313959 0 -0.0029831295935695296 0.0073046119434232162 0 -0.0026418529397878882 0.0084972286495615338 0 -0.0057085776998909267 0.010337850996872736 0 -0.0042082606413865707 0.0091129353642313959 0 -0.0060359983227832939 0.0088161455838483369 0 -0.0042082606413865707 0.0091129353642313959 0 -0.0060359983227832939 0.0088161455838483369 0 -0.0054143747652438861 0.0076284573930554059 0 -0.0054143747652438861 0.0076284573930554059 0 -0.00415849138159473 0.0066643055103167417 0 -0.0058492622093044618 0.0061193591222257222 0 -0.0054143747652438861 0.0076284573930554059 0 -0.0058492622093044618 0.0061193591222257222 0 -0.0068598316337800929 0.0074840237078524349 0 -0.0060359983227832939 0.0088161455838483369 0 -0.0054143747652438861 0.0076284573930554059 0 -0.0068598316337800929 0.0074840237078524349 0 -0.0042082606413865707 0.0091129353642313959 0 -0.0054143747652438861 0.0076284573930554059 0 -0.00415849138159473 0.0066643055103167417 0 -0.0042082606413865707 0.0091129353642313959 0 -0.00415849138159473 0.0066643055103167417 0 -0.0029831295935695296 0.0073046119434232162 0 -0.00415849138159473 0.0066643055103167417 0 -0.0029831295935695296 0.0073046119434232162 0 -0.0026509898174936772 0.0046652193800889733 0 -0.00415849138159473 0.0066643055103167417 0 -0.0046923916949243808 0.0049772717668785183 0 -0.0026509898174936772 0.0046652193800889733 0 -0.00415849138159473 0.0066643055103167417 0 -0.0058492622093044618 0.0061193591222257222 0 -0.0046923916949243808 0.0049772717668785183 0 -0.0014364416654936358 0.0053904601029682135 0 -0.0014735405349224587 0.0055900625302068825 0 -0.00041227667934423602 0.0050282985353236227 0 -0.0014364416654936358 0.0053904601029682135 0 -0.0019388831144068505 0.0059187211780423812 0 -0.0017592949812949344 0.0047790117541705104 0 -0.0014364416654936358 0.0053904601029682135 0 -0.0014735405349224587 0.0055900625302068825 0 -0.0019388831144068505 0.0059187211780423812 0 -0.0020707033378710542 0.0012684729338448622 0 -0.0018461364568381536 -5.2345593574297916e-05 0 -0.0014364416654936358 0.0053904601029682135 0 -0.00097086914618830752 0.0048489028954632066 0 -0.001217616123013532 0.004590975591134804 0 -0.0014364416654936358 0.0053904601029682135 0 -0.0017592949812949344 0.0047790117541705104 0 -0.0011328499479063246 0.004593123996809439 0 -0.0018424663890134892 0.0066455877877421117 0 -0.0022169169000012205 0.0057587376128704418 0 -0.0019388831144068505 0.0059187211780423812 0 -0.0026509898174936772 0.0046652193800889733 0 -0.0017592949812949344 0.0047790117541705104 0 -0.0029831295935695296 0.0073046119434232162 0 -0.0017630614628679152 0.0069466272899269361 0 -0.0026509898174936772 0.0046652193800889733 0 -0.0029831295935695296 0.0073046119434232162 0 -0.0017630614628679152 0.0069466272899269361 0 -0.0026418529397878882 0.0084972286495615338 0 -0.0018424663890134892 0.0066455877877421117 0 -0.0012064825332916362 0.0081931998807666297 0 -0.0019388831144068505 0.0059187211780423812 0 -0.00091451828179354489 0.0064991619873926085 0 -0.0012313411989992699 0.0078930955748659406 0 -0.0014735405349224587 0.0055900625302068825 0 -0.00091451828179354489 0.0064991619873926085 0 -0.0002484416005786419 0.005733462582930734 0 -0.0014735405349224587 0.0055900625302068825 0 -0.0019388831144068505 0.0059187211780423812 0 -0.00091451828179354489 0.0064991619873926085 0 -0.0017630614628679152 0.0069466272899269361 0 -0.001138713266444287 0.0088444566020596301 0 -0.0026418529397878882 0.0084972286495615338 0 -0.0042082606413865707 0.0091129353642313959 0 -0.0026418529397878882 0.0084972286495615338 0 -0.0027143654970629072 0.0095058214015718064 0 -0.001138713266444287 0.0088444566020596301 0 -0.0026418529397878882 0.0084972286495615338 0 -0.0027143654970629072 0.0095058214015718064 0 -0.0028732208168303877 0.010445643655332964 0 -0.0027143654970629072 0.0095058214015718064 0 -0.0017559712982528758 0.010064364668034467 0 -0.0028732208168303877 0.010445643655332964 0 -0.0037025108557317077 0.010086884647026411 0 -0.0027143654970629072 0.0095058214015718064 0 -0.001138713266444287 0.0088444566020596301 0 -0.0027143654970629072 0.0095058214015718064 0 -0.0017559712982528758 0.010064364668034467 0 -0.00041334955969689303 0.01028975080622388 0 -0.001138713266444287 0.0088444566020596301 0 -0.0017559712982528758 0.010064364668034467 0 -0.00041334955969689303 0.01028975080622388 0 -0.0012313411989992699 0.0078930955748659406 0 9.321152487832563e-05 0.0087895604678604917 0 -0.0008215236752974279 0.009121557881319806 0 -0.0012064825332916362 0.0081931998807666297 0 -0.00041334955969689303 0.01028975080622388 0 9.321152487832563e-05 0.0087895604678604917 0 0.00098776751723583496 0.009716815301812981 0 0.00098776751723583496 0.009716815301812981 0 0.0010915356555048603 0.0084457615264704137 0 0.0022050240898822534 0.0091047615267540981 0 0.0010915356555048603 0.0084457615264704137 0 0.0022050240898822534 0.0091047615267540981 0 0.0020974868299617751 0.0079588418056517497 0 9.321152487832563e-05 0.0087895604678604917 0 0.00098776751723583496 0.009716815301812981 0 0.0010915356555048603 0.0084457615264704137 0 0.0010915356555048603 0.0084457615264704137 0 0.0012494581067010863 0.0073571648226976732 0 9.0170452736144837e-05 0.007561631074941037 0 0.0010915356555048603 0.0084457615264704137 0 0.0012494581067010863 0.0073571648226976732 0 0.0020974868299617751 0.0079588418056517497 0 0.0012494581067010863 0.0073571648226976732 0 0.0020974868299617751 0.0079588418056517497 0 0.002502999734589078 0.0068220882769050384 0 0.0012494581067010863 0.0073571648226976732 0 9.0170452736144837e-05 0.007561631074941037 0 0.00032893228981626993 0.0064972150878315517 0 -0.00091451828179354489 0.0064991619873926085 0 -0.0012313411989992699 0.0078930955748659406 0 9.0170452736144837e-05 0.007561631074941037 0 -0.0012313411989992699 0.0078930955748659406 0 9.321152487832563e-05 0.0087895604678604917 0 9.0170452736144837e-05 0.007561631074941037 0 9.321152487832563e-05 0.0087895604678604917 0 0.0010915356555048603 0.0084457615264704137 0 9.0170452736144837e-05 0.007561631074941037 0 0.003491634600552772 0.0097658880286772311 0 0.0046969297296903549 0.0087669726633727105 0 0.0033017759249472172 0.0082739143927517151 0 0.003491634600552772 0.0097658880286772311 0 0.0033017759249472172 0.0082739143927517151 0 0.0022050240898822534 0.0091047615267540981 0 0.0033017759249472172 0.0082739143927517151 0 0.0022050240898822534 0.0091047615267540981 0 0.0020974868299617751 0.0079588418056517497 0 0.0033017759249472172 0.0082739143927517151 0 0.0036799963284787776 0.0069671260543932257 0 0.0024367767465607341 0.0063623486999769838 0 0.0033017759249472172 0.0082739143927517151 0 0.0020974868299617751 0.0079588418056517497 0 0.002502999734589078 0.0068220882769050384 0 0.002749072848174289 0.0055998503243930272 0 0.0022692759628786439 0.0042812383521698954 0 0.0052193171942056093 -0.0032542085462581288 0 0.0053089012238819022 -0.0075977939939580923 0 0.0072117523539578831 -0.0043973609428357837 0 0.0046969297296903549 0.0087669726633727105 0 0.0036799963284787776 0.0069671260543932257 0 0.0047817181159187979 0.0061945370447420772 0 0.0035032553667269056 0.0023385502712209971 0 0.002368583229894462 -0.0033157743589093099 0 0.0046969297296903549 0.0087669726633727105 0 0.0033017759249472172 0.0082739143927517151 0 0.0036799963284787776 0.0069671260543932257 0 0.002368583229894462 -0.0033157743589093099 0 0.00054739860689017401 -0.0086579501055770811 0 0.0011748487384298913 -0.0042012164383355118 0 0.00067260737736904799 -0.0044746699584433062 0 0.0011856012892308683 -0.0050738560267118097 0 0.0036799963284787776 0.0069671260543932257 0 0.0047817181159187979 0.0061945370447420772 0 0.0032104445665239335 0.005306826149679489 0 0.002368583229894462 -0.0033157743589093099 0 0.0018673867651811868 -0.0012581425912739643 0 0.0032104445665239335 0.005306826149679489 0 0.0024367767465607341 0.0063623486999769838 0 0.0015923555867118769 0.0044138567270184028 0 0.0022692759628786439 0.0042812383521698954 0 0.00078981592374278791 0.00013392017803261704 0 0.0036799963284787776 0.0069671260543932257 0 0.0032104445665239335 0.005306826149679489 0 0.0024367767465607341 0.0063623486999769838 0 0.0018673867651811868 -0.0012581425912739643 0 0.00078981592374278791 0.00013392017803261704 0 0.00059278095955970199 -0.0050282069827937616 0 0.00017211914295254708 -0.0047464230825272728 0 -5.9666680546717519e-05 -0.0052791728530425545 0 0.00067260737736904799 -0.0044746699584433062 0 0.00059278095955970199 -0.0050282069827937616 0 0.00017211914295254708 -0.0047464230825272728 0 -0.0052843861218955512 -0.01019789448637632 0 -0.0052329236975288207 -0.014446000222303582 0 -0.003786255603116902 -0.013286589319264845 0 0.00067260737736904799 -0.0044746699584433062 0 0.00059278095955970199 -0.0050282069827937616 0 0.0011856012892308683 -0.0050738560267118097 0 -0.0002484416005786419 0.005733462582930734 0 0.00032893228981626993 0.0064972150878315517 0 0.00069853385079646127 0.0057178363535896415 0 -0.00091451828179354489 0.0064991619873926085 0 -0.0002484416005786419 0.005733462582930734 0 0.00032893228981626993 0.0064972150878315517 0 -0.00091451828179354489 0.0064991619873926085 0 9.0170452736144837e-05 0.007561631074941037 0 0.00032893228981626993 0.0064972150878315517 0 0.0012494581067010863 0.0073571648226976732 0 0.00032893228981626993 0.0064972150878315517 0 0.0013902362843644376 0.0064224901092752454 0 0.002502999734589078 0.0068220882769050384 0 0.0013902362843644376 0.0064224901092752454 0 0.0017928324201367518 0.0053618570614557349 0 0.0012494581067010863 0.0073571648226976732 0 0.002502999734589078 0.0068220882769050384 0 0.0013902362843644376 0.0064224901092752454 0 0.0013902362843644376 0.0064224901092752454 0 0.00069853385079646127 0.0057178363535896415 0 0.0017928324201367518 0.0053618570614557349 0 0.00032893228981626993 0.0064972150878315517 0 0.0013902362843644376 0.0064224901092752454 0 0.00069853385079646127 0.0057178363535896415 0 0.00069853385079646127 0.0057178363535896415 0 0.0017928324201367518 0.0053618570614557349 0 0.00022641158916419802 0.0045579908507385669 0 0.00078981592374278791 0.00013392017803261704 0 -0.00091233821328482703 -0.00039350462840924069 0 -0.0011517726137643834 -0.00096088700487986789 0 0.00013121546959129332 -0.00026699121658601372 0 -0.00067156064815689065 0.00014761566190571112 0 0.00078981592374278791 0.00013392017803261704 0 -0.00050025932507503619 -0.0025913816628000915 0 -0.00091233821328482703 -0.00039350462840924069 0 -0.00050025932507503619 -0.0025913816628000915 0 -0.0014364416654936358 0.0053904601029682135 0 -0.00041227667934423602 0.0050282985353236227 0 -0.00097086914618830752 0.0048489028954632066 0 -0.0014735405349224587 0.0055900625302068825 0 -0.0002484416005786419 0.005733462582930734 0 0.00022641158916419802 0.0045579908507385669 0 -0.00091233821328482703 -0.00039350462840924069 0 -0.0014996800257433532 -0.00057655428844182084 0 -0.0017217869658722143 0.00097779664767775492 0 -0.00091233821328482703 -0.00039350462840924069 0 -0.0002484416005786419 0.005733462582930734 0 0.00069853385079646127 0.0057178363535896415 0 0.00022641158916419802 0.0045579908507385669 0 -0.00041227667934423602 0.0050282985353236227 0 -0.00097086914618830752 0.0048489028954632066 0 -0.00085562446061167221 0.0047888544465415836 0 -0.0015099720919359164 -0.00055863551172964101 0 -0.0014996800257433532 -0.00057655428844182084 0 -0.0014996800257433532 -0.00057655428844182084 0 -0.00073397582552202009 -0.0027920026933040379 0 -0.0012293249077895837 -0.0016420627218821204 0 -0.0014977043144727266 -0.0015059811583486959 0 -0.0011556425366811684 -0.0014614278556184699 0 -0.00097086914618830752 0.0048489028954632066 0 -0.00085178008905665605 0.0047867202494317794 0 -0.001217616123013532 0.004590975591134804 0 -0.00079365790910924418 -0.0020728092765194884 0 -0.00030601545993526422 -0.0018072901565464139 0 -0.0012702109941387918 -0.0013144162784972234 0 -0.0014996800257433532 -0.00057655428844182084 0 -0.0018461364568381536 -5.2345593574297916e-05 0 -0.0012293249077895837 -0.0016420627218821204 0 -0.0011204310617919345 -0.0015831768129194131 0 -0.0011556425366811684 -0.0014614278556184699 0 -0.00073397582552202009 -0.0027920026933040379 0 -0.00031630051198335739 -0.0061280171401763631 0 -0.00079365790910924418 -0.0020728092765194884 0 -0.001452131056570029 -0.0017338033245110347 0 -0.0012702109941387918 -0.0013144162784972234 0 -0.0015288139620014121 -0.0055427754089562723 0 -0.0017780684930368707 -0.0061173652251293896 0 -5.4123316849107461e-05 -0.0063150013410238383 0 -0.00050025932507503619 -0.0025913816628000915 0 -0.00073397582552202009 -0.0027920026933040379 0 -0.00097903755499871938 4.4170909848254686e-05 0 -0.00019040099978417376 -0.0017476769918243625 0 0.0012093427252308289 -0.0010661055548743196 0 -0.00097903755499871938 4.4170909848254686e-05 0 -0.00019040099978417376 -0.0017476769918243625 0 -0.0021703064708519649 -0.0026971069747847836 0 -0.0014977043144727266 -0.0015059811583486959 0 -0.0013191929349160444 -0.0010925253251928742 0 -0.0011556425366811684 -0.0014614278556184699 0 -0.0012598088805268507 -0.0011023472566684791 0 -0.0013191929349160444 -0.0010925253251928742 0 -0.0011556425366811684 -0.0014614278556184699 0 -0.0019063739724722118 -0.00095065367302588316 0 -0.0018648766301126202 2.1591506337201412e-05 0 -0.00073397582552202009 -0.0027920026933040379 0 -0.0015694336906158944 -0.0013329868265880627 0 0.0011856012892308683 -0.0050738560267118097 0 0.00056605648003873869 -0.0056129179441491393 0 0.0011973309525059111 -0.0059505244322802684 0 0.00054739860689017401 -0.0086579501055770811 0 2.4566304997199624e-05 -0.011024690258859956 0 -0.0052329236975288207 -0.014446000222303582 0 -0.0045340971548642698 -0.016501291710244011 0 -0.0051619054114358555 -0.01860765773497957 0 0.00059278095955970199 -0.0050282069827937616 0 0.0011856012892308683 -0.0050738560267118097 0 0.00056605648003873869 -0.0056129179441491393 0 -0.00015212574841271055 -0.0066935093806191675 0 2.4566304997199624e-05 -0.011024690258859956 0 -0.00078244877624931552 -0.013642395079522867 0 -0.00046544070650299761 -0.012277923672265521 0 0.00059278095955970199 -0.0050282069827937616 0 -5.9666680546717519e-05 -0.0052791728530425545 0 0.00056605648003873869 -0.0056129179441491393 0 -0.0017780684930368707 -0.0061173652251293896 0 -5.4123316849107461e-05 -0.0063150013410238383 0 -0.00017460218851904612 -0.006951941414739502 0 -0.00050025932507503619 -0.0025913816628000915 0 -0.00015212574841271055 -0.0066935093806191675 0 -5.4123316849107461e-05 -0.0063150013410238383 0 -0.00017460218851904612 -0.006951941414739502 0 0.0014257640117107766 -0.0070889638562015109 0 -0.00019040099978417376 -0.0017476769918243625 0 0.0012093427252308289 -0.0010661055548743196 0 0.0011837948407443402 -0.0032739552725331066 0 0.0012093427252308289 -0.0010661055548743196 0 0.002394293846204681 -0.0029805697505581137 0 0.0011837948407443402 -0.0032739552725331066 0 -0.00031630051198335739 -0.0061280171401763631 0 6.7321438385981841e-05 -0.010471137084471267 0 -0.00017460218851904612 -0.006951941414739502 0 0.0014345486984828255 -0.0077885224455737463 0 0.0014257640117107766 -0.0070889638562015109 0 0.0012093427252308289 -0.0010661055548743196 0 0.0034465086082094885 -0.0021922562126978169 0 0.002394293846204681 -0.0029805697505581137 0 -0.00026190026544680031 -0.011097811411160867 0 -0.00013588165208339883 -0.011162450543020591 0 -0.00026243775987426542 -0.011384894767298839 0 6.7321438385981841e-05 -0.010471137084471267 0 2.4566304997199624e-05 -0.011024690258859956 0 -0.00017363110607641994 -0.011973014149947512 0 -0.00046544070650299761 -0.012277923672265521 0 -0.00017363110607641994 -0.011973014149947512 0 6.7321438385981841e-05 -0.010471137084471267 0 -0.0045340971548642698 -0.016501291710244011 0 -0.0045203195232763694 -0.018935683155948676 0 -0.0051619054114358555 -0.01860765773497957 0 -0.00013588165208339883 -0.011162450543020591 0 -0.00026243775987426542 -0.011384894767298839 0 -0.0001328246604959705 -0.011451882610947485 0 -0.00046544070650299761 -0.012277923672265521 0 2.4566304997199624e-05 -0.011024690258859956 0 0.0038528315212572857 -0.0024313659962691787 0 0.0034899148001286294 -0.003758216681048553 0 0.0039531561168372571 -0.0054438505178114934 0 -0.00017363110607641994 -0.011973014149947512 0 0.00046020147904114842 -0.015154149438639927 0 6.7321438385981841e-05 -0.010471137084471267 0 0.00028807034363668895 -0.0087139842035768855 0 0.0034465086082094885 -0.0021922562126978169 0 0.0034899148001286294 -0.003758216681048553 0 0.002394293846204681 -0.0029805697505581137 0 0.0038528315212572857 -0.0024313659962691787 0 0.0034338190121237316 -0.0022209208657986285 0 0.0034899148001286294 -0.003758216681048553 0 0.0034899148001286294 -0.003758216681048553 0 0.002394293846204681 -0.0029805697505581137 0 0.0024538207851847334 -0.0046653318718474857 0 0.002394293846204681 -0.0029805697505581137 0 0.0011837948407443402 -0.0032739552725331066 0 0.0024538207851847334 -0.0046653318718474857 0 0.00099252863287250864 -0.0059859998164997312 0 0.0024538207851847334 -0.0046653318718474857 0 0.0024990962673292231 -0.0066593971246229986 0 0.0011837948407443402 -0.0032739552725331066 0 0.00099252863287250864 -0.0059859998164997312 0 -0.00041929082527580408 -0.0052326246495447808 0 0.0011837948407443402 -0.0032739552725331066 0 0.00099252863287250864 -0.0059859998164997312 0 0.0024538207851847334 -0.0046653318718474857 0 0.0024538207851847334 -0.0046653318718474857 0 0.0039531561168372571 -0.0054438505178114934 0 0.0024990962673292231 -0.0066593971246229986 0 0.0034899148001286294 -0.003758216681048553 0 0.0024538207851847334 -0.0046653318718474857 0 0.0039531561168372571 -0.0054438505178114934 0 -0.0024808624230455859 -0.0032189472753506587 0 -0.0011578462425241498 -0.0039696566546595993 0 -0.0018448488865335502 -0.0053299872897152557 0 -0.0016135475203971242 0.00079125027190489841 0 -0.0029559439175645156 -0.0024191349930525654 0 -0.0032171317576457537 -0.00019433265118133698 0 -0.0018207222509994466 -0.0016674320537660907 0 -0.0015012857214556465 -0.003894781326199249 0 -0.0018207222509994466 -0.0016674320537660907 0 -0.0026341161958908297 -0.0029985402295064465 0 -0.0016135475203971242 0.00079125027190489841 0 -0.0019175807784843201 0.0018071812063683041 0 -0.0032171317576457537 -0.00019433265118133698 0 -0.0018207222509994466 -0.0016674320537660907 0 -0.0019063739724722118 -0.00095065367302588316 0 -0.0014319101761052192 2.3914857213388768e-05 0 -0.00071322469809622356 -0.0024303362823790121 0 -0.0023744668107940304 -0.0021489428151128796 0 -0.0018207222509994466 -0.0016674320537660907 0 -0.0015694336906158944 -0.0013329868265880627 0 -0.0024808624230455859 -0.0032189472753506587 0 -0.0022550352751963907 -0.0026873945695707249 0 -0.0011578462425241498 -0.0039696566546595993 0 -0.0019063739724722118 -0.00095065367302588316 0 -0.0015694336906158944 -0.0013329868265880627 0 0.0011837948407443402 -0.0032739552725331066 0 -0.0011578462425241498 -0.0039696566546595993 0 -0.00041929082527580408 -0.0052326246495447808 0 0.0011837948407443402 -0.0032739552725331066 0 -0.0022550352751963907 -0.0026873945695707249 0 -0.0011578462425241498 -0.0039696566546595993 0 -0.00019040099978417376 -0.0017476769918243625 0 0.0011837948407443402 -0.0032739552725331066 0 -0.0021703064708519649 -0.0026971069747847836 0 -0.00026555592250325201 -0.0019837914173702997 0 -0.0015694336906158944 -0.0013329868265880627 0 -0.00041929082527580408 -0.0052326246495447808 0 -0.0018448488865335502 -0.0053299872897152557 0 -0.0013113770977279066 -0.0073210893836040221 0 -0.0011578462425241498 -0.0039696566546595993 0 -0.00041929082527580408 -0.0052326246495447808 0 -0.0018448488865335502 -0.0053299872897152557 0 -0.0027643383539427582 -0.0018465033701536156 0 -0.0020185764460893679 -0.0043713215057297706 0 -0.0037285208159831143 -0.0040711790881755869 0 -0.0020185764460893679 -0.0043713215057297706 0 -0.0037285208159831143 -0.0040711790881755869 0 -0.0030853884282813428 -0.0059545794397569971 0 -0.0029559439175645156 -0.0024191349930525654 0 -0.0055938488734320101 -0.0034128736146400891 0 -0.0046235278399192328 -0.005980821287118002 0 -0.0026341161958908297 -0.0029985402295064465 0 -0.0030684198284568996 -0.0038249975914618757 0 -0.0055938488734320101 -0.0034128736146400891 0 -0.0046629695961795036 -0.0015481120239507265 0 -0.0072867948465306148 -0.0018277426501173558 0 -0.0029559439175645156 -0.0024191349930525654 0 -0.0046629695961795036 -0.0015481120239507265 0 -0.0032171317576457537 -0.00019433265118133698 0 -0.0029559439175645156 -0.0024191349930525654 0 -0.0055938488734320101 -0.0034128736146400891 0 -0.0046629695961795036 -0.0015481120239507265 0 -0.0046629695961795036 -0.0015481120239507265 0 -0.0032171317576457537 -0.00019433265118133698 0 -0.0049503114340107082 0.00035731202226697601 0 -0.0019175807784843201 0.0018071812063683041 0 -0.0049503114340107082 0.00035731202226697601 0 -0.0072986155275565753 0.0027275195054498359 0 -0.0046629695961795036 -0.0015481120239507265 0 -0.0049503114340107082 0.00035731202226697601 0 -0.0072867948465306148 -0.0018277426501173558 0 -0.0019175807784843201 0.0018071812063683041 0 -0.0032171317576457537 -0.00019433265118133698 0 -0.0049503114340107082 0.00035731202226697601 0 -0.0049503114340107082 0.00035731202226697601 0 -0.0085257847130862652 0.00037815394931892154 0 -0.0072867948465306148 -0.0018277426501173558 0 -0.0049503114340107082 0.00035731202226697601 0 -0.0085257847130862652 0.00037815394931892154 0 -0.0072986155275565753 0.0027275195054498359 0 -0.0085257847130862652 0.00037815394931892154 0 -0.010783141062267403 0.0015653252259457738 0 -0.0072986155275565753 0.0027275195054498359 0 -0.0085257847130862652 0.00037815394931892154 0 -0.0072867948465306148 -0.0018277426501173558 0 -0.0093309542568164282 -0.0013753216712197804 0 -0.0072867948465306148 -0.0018277426501173558 0 -0.0093294032790671531 -0.0031219920512457564 0 -0.0093309542568164282 -0.0013753216712197804 0 -0.0055938488734320101 -0.0034128736146400891 0 -0.0072867948465306148 -0.0018277426501173558 0 -0.0077555674085875237 -0.0039807658776190623 0 -0.0072867948465306148 -0.0018277426501173558 0 -0.0077555674085875237 -0.0039807658776190623 0 -0.0093294032790671531 -0.0031219920512457564 0 -0.0077555674085875237 -0.0039807658776190623 0 -0.0093294032790671531 -0.0031219920512457564 0 -0.0095843364252427548 -0.0045605734249784639 0 -0.0093294032790671531 -0.0031219920512457564 0 -0.010508796573521707 -0.00387353947540233 0 -0.0095843364252427548 -0.0045605734249784639 0 -0.0093294032790671531 -0.0031219920512457564 0 -0.010508796573521707 -0.00387353947540233 0 -0.010595626430125902 -0.0024633361399292891 0 -0.010508796573521707 -0.00387353947540233 0 -0.011512716554848939 -0.0043946414427408096 0 -0.010595626430125902 -0.0024633361399292891 0 -0.011512716554848939 -0.0043946414427408096 0 -0.010595626430125902 -0.0024633361399292891 0 -0.011531652522674258 -0.00093427690059484734 0 -0.010595626430125902 -0.0024633361399292891 0 -0.011531652522674258 -0.00093427690059484734 0 -0.010630459730142131 -0.00033400038633964429 0 -0.010595626430125902 -0.0024633361399292891 0 -0.0093309542568164282 -0.0013753216712197804 0 -0.010630459730142131 -0.00033400038633964429 0 -0.0093294032790671531 -0.0031219920512457564 0 -0.010595626430125902 -0.0024633361399292891 0 -0.0093309542568164282 -0.0013753216712197804 0 -0.011512716554848939 -0.0043946414427408096 0 -0.011531652522674258 -0.00093427690059484734 0 -0.013319194640663177 0.0017601780536844818 0 -0.013529906137335561 0.0021879347080862319 0 -0.013392635846775023 0.0019285872031588364 0 -0.013319194640663177 0.0017601780536844818 0 -0.012328802530769614 -0.00017573741748508752 0 -0.01265844185582614 0.00050116055816647599 0 -0.013330469979148139 0.0021663046208458036 0 -0.013400085296792886 0.002100461003182375 0 -0.013340351513325159 0.0020668141418125029 0 -0.013330469979148139 0.0021663046208458036 0 -0.013404251956081633 0.0021900745587307025 0 -0.013330238283106517 0.0022420653888630699 0 -0.013330469979148139 0.0021663046208458036 0 -0.013404251956081633 0.0021900745587307025 0 -0.013400085296792886 0.002100461003182375 0 -0.013529906137335561 0.0021879347080862319 0 -0.013400085296792886 0.002100461003182375 0 -0.013392635846775023 0.0019285872031588364 0 -0.013529906137335561 0.0021879347080862319 0 -0.013404251956081633 0.0021900745587307025 0 -0.013400085296792886 0.002100461003182375 0 -0.013400085296792886 0.002100461003182375 0 -0.013392635846775023 0.0019285872031588364 0 -0.013340351513325159 0.0020668141418125029 0 -0.013392635846775023 0.0019285872031588364 0 -0.013340351513325159 0.0020668141418125029 0 -0.013317562276430345 0.0019951840693163965 0 -0.013392635846775023 0.0019285872031588364 0 -0.01342706723047791 0.0017248301819976571 0 -0.013319194640663177 0.0017601780536844818 0 -0.013392635846775023 0.0019285872031588364 0 -0.013352458590147942 0.0018905784813419656 0 -0.013317562276430345 0.0019951840693163965 0 -0.013392635846775023 0.0019285872031588364 0 -0.013352458590147942 0.0018905784813419656 0 -0.01342706723047791 0.0017248301819976571 0 -0.011531652522674258 -0.00093427690059484734 0 -0.013319194640663177 0.0017601780536844818 0 -0.011733735913908449 0.00070754926106519488 0 -0.013319194640663177 0.0017601780536844818 0 -0.012133068446765196 0.0018458354126341758 0 -0.011733735913908449 0.00070754926106519488 0 -0.0085257847130862652 0.00037815394931892154 0 -0.0093309542568164282 -0.0013753216712197804 0 -0.010630459730142131 -0.00033400038633964429 0 -0.0085257847130862652 0.00037815394931892154 0 -0.010630459730142131 -0.00033400038633964429 0 -0.010783141062267403 0.0015653252259457738 0 -0.010630459730142131 -0.00033400038633964429 0 -0.011733735913908449 0.00070754926106519488 0 -0.010783141062267403 0.0015653252259457738 0 -0.011531652522674258 -0.00093427690059484734 0 -0.010630459730142131 -0.00033400038633964429 0 -0.011733735913908449 0.00070754926106519488 0 -0.012133068446765196 0.0018458354126341758 0 -0.011733735913908449 0.00070754926106519488 0 -0.010783141062267403 0.0015653252259457738 0 -0.0048470148439958942 0.003118724092384294 0 -0.0026509898174936772 0.0046652193800889733 0 -0.0024906529332997039 0.0028106257344079955 0 -0.0083249729719450192 0.0025607094566450542 0 -0.0051101928322740504 0.0013186148560734405 0 -0.010783141062267403 0.0015653252259457738 0 -0.012463818123321011 0.0034575714369752338 0 -0.0072986155275565753 0.0027275195054498359 0 -0.012133068446765196 0.0018458354126341758 0 -0.010783141062267403 0.0015653252259457738 0 -0.012463818123321011 0.0034575714369752338 0 -0.0048470148439958942 0.003118724092384294 0 -0.0059710836382589711 0.0044675364814278935 0 -0.0074343256819536128 0.003501840562949114 0 -0.013319194640663177 0.0017601780536844818 0 -0.012463818123321011 0.0034575714369752338 0 -0.015530206626568909 0.0036836614373612631 0 -0.013319194640663177 0.0017601780536844818 0 -0.012133068446765196 0.0018458354126341758 0 -0.012463818123321011 0.0034575714369752338 0 -0.0058492622093044618 0.0061193591222257222 0 -0.0046923916949243808 0.0049772717668785183 0 -0.0059710836382589711 0.0044675364814278935 0 -0.0048470148439958942 0.003118724092384294 0 -0.0046923916949243808 0.0049772717668785183 0 -0.0059710836382589711 0.0044675364814278935 0 -0.0048470148439958942 0.003118724092384294 0 -0.0046923916949243808 0.0049772717668785183 0 -0.0026509898174936772 0.0046652193800889733 0 -0.0026509898174936772 0.0046652193800889733 0 -0.0017969233126416098 0.0038597715529761416 0 -0.0024906529332997039 0.0028106257344079955 0 -0.0026509898174936772 0.0046652193800889733 0 -0.0017592949812949344 0.0047790117541705104 0 -0.0017969233126416098 0.0038597715529761416 0 -0.0017592949812949344 0.0047790117541705104 0 -0.0011328499479063246 0.004593123996809439 0 -0.00094826121908410952 0.0040857996363887405 0 -0.0018461364568381536 -5.2345593574297916e-05 0 -0.0018648766301126202 2.1591506337201412e-05 0 -0.00094826121908410952 0.0040857996363887405 0 -0.0017969233126416098 0.0038597715529761416 0 -0.0014139436414968463 0.0033271579561720208 0 -0.0017592949812949344 0.0047790117541705104 0 -0.00094826121908410952 0.0040857996363887405 0 -0.0017969233126416098 0.0038597715529761416 0 -0.00045214707013215602 0.0025246038001037162 0 -0.00094826121908410952 0.0040857996363887405 0 -0.0014139436414968463 0.0033271579561720208 0 -0.00045214707013215602 0.0025246038001037162 0 -0.0014139436414968463 0.0033271579561720208 0 -0.0024906529332997039 0.0028106257344079955 0 -0.0017969233126416098 0.0038597715529761416 0 -0.0014139436414968463 0.0033271579561720208 0 -0.0024906529332997039 0.0028106257344079955 0 -0.0019063739724722118 -0.00095065367302588316 0 -0.0051101928322740504 0.0013186148560734405 0 0.016255940063966481 -0.0093040792808257791 0 0.014474916784893111 -0.012030057828185068 0 0.013632907607347696 -0.0092546461513472646 0 0.014474916784893111 -0.012030057828185068 0 0.012093902940389603 -0.012068550384642671 0 0.013632907607347696 -0.0092546461513472646 0 0.012093902940389603 -0.012068550384642671 0 0.010766441425021044 -0.0091275626375474494 0 0.0085294118804680324 -0.012953843567282351 0 0.012093902940389603 -0.012068550384642671 0 0.010766441425021044 -0.0091275626375474494 0 0.013632907607347696 -0.0092546461513472646 0 0.010766441425021044 -0.0091275626375474494 0 0.013632907607347696 -0.0092546461513472646 0 0.012799486538838993 -0.0065295233041352428 0 0.010766441425021044 -0.0091275626375474494 0 0.012799486538838993 -0.0065295233041352428 0 0.010635605989942875 -0.0053065068979678493 0 0.016255940063966481 -0.0093040792808257791 0 0.013632907607347696 -0.0092546461513472646 0 0.01508672168899197 -0.0068722151430864412 0 0.013632907607347696 -0.0092546461513472646 0 0.01508672168899197 -0.0068722151430864412 0 0.012799486538838993 -0.0065295233041352428 0 0.01508672168899197 -0.0068722151430864412 0 0.013842659391428612 -0.0043305195816129962 0 0.012799486538838993 -0.0065295233041352428 0 0.016151035332720453 -0.0051033424134828212 0 0.01508672168899197 -0.0068722151430864412 0 0.013842659391428612 -0.0043305195816129962 0 0.013842659391428612 -0.0043305195816129962 0 0.011452133556124986 -0.0035256157324333611 0 0.012799486538838993 -0.0065295233041352428 0 0.012320034702079785 -0.0018105145376298463 0 0.013842659391428612 -0.0043305195816129962 0 0.011452133556124986 -0.0035256157324333611 0 0.011452133556124986 -0.0035256157324333611 0 0.012799486538838993 -0.0065295233041352428 0 0.010635605989942875 -0.0053065068979678493 0 0.010635605989942875 -0.0053065068979678493 0 0.010489751596119035 -0.0031841561387983023 0 0.010368112401962941 -0.0038703115434067874 0 0.009154603329554414 -0.0057891759971141462 0 0.0079269431389663702 -0.0061006257052825417 0 0.011452133556124986 -0.0035256157324333611 0 0.010635605989942875 -0.0053065068979678493 0 0.010489751596119035 -0.0031841561387983023 0 0.010489751596119035 -0.0031841561387983023 0 0.010368112401962941 -0.0038703115434067874 0 0.010165201150529646 -0.0030872432921377467 0 0.0054789390988241133 -0.0061206041861169378 0 0.0072274427527599687 -0.0093064137398420465 0 0.0035703868882568895 -0.0092791045822572076 0 0.010635605989942875 -0.0053065068979678493 0 0.0054789390988241133 -0.0061206041861169378 0 0.0072274427527599687 -0.0093064137398420465 0 0.010766441425021044 -0.0091275626375474494 0 0.010635605989942875 -0.0053065068979678493 0 0.0072274427527599687 -0.0093064137398420465 0 0.010766441425021044 -0.0091275626375474494 0 0.0072274427527599687 -0.0093064137398420465 0 0.0085294118804680324 -0.012953843567282351 0 0.0072274427527599687 -0.0093064137398420465 0 0.0049458793185520079 -0.011854897270406091 0 0.0035703868882568895 -0.0092791045822572076 0 0.0072274427527599687 -0.0093064137398420465 0 0.0049458793185520079 -0.011854897270406091 0 0.0085294118804680324 -0.012953843567282351 0 0.0025308856116932101 -0.011513429795141198 0 0.00031859460173128481 -0.0098318344541776011 0 0.0035703868882568895 -0.0092791045822572076 0 0.0049458793185520079 -0.011854897270406091 0 0.0025308856116932101 -0.011513429795141198 0 0.0035703868882568895 -0.0092791045822572076 0 0.0049458793185520079 -0.011854897270406091 0 0.0025308856116932101 -0.011513429795141198 0 0.0032805942068010333 -0.013289760811910549 0 0.0025308856116932101 -0.011513429795141198 0 0.00046420120455628323 -0.01278416147891303 0 0.00031859460173128481 -0.0098318344541776011 0 0.0025308856116932101 -0.011513429795141198 0 0.00046420120455628323 -0.01278416147891303 0 0.0032805942068010333 -0.013289760811910549 0 0.0011278673486693012 -0.014073059052602713 0 -0.00130755454890239 -0.011438207816868776 0 -0.00018922380958539441 -0.014502071339886657 0 0.002085469852019232 -0.013107595680440327 0 0.0016893552376875526 -0.011077971414606062 0 0.00046420120455628323 -0.01278416147891303 0 0.00031859460173128481 -0.0098318344541776011 0 -0.0026024362806940176 -0.0094819290925628932 0 0.0055811003512879157 -0.0070614971205467583 0 0.0025229490784243833 -0.0090027262133675536 0 0.00031859460173128481 -0.0098318344541776011 0 0.0010667346470489144 -0.0069613943047185153 0 -0.0026024362806940176 -0.0094819290925628932 0 0.0010667346470489144 -0.0069613943047185153 0 -0.0032604265436260017 -0.0076903428486749048 0 -0.0026024362806940176 -0.0094819290925628932 0 0.0054789390988241133 -0.0061206041861169378 0 0.0010667346470489144 -0.0069613943047185153 0 0.0035703868882568895 -0.0092791045822572076 0 0.00031859460173128481 -0.0098318344541776011 0 0.0010667346470489144 -0.0069613943047185153 0 0.0035703868882568895 -0.0092791045822572076 0 0.0079269431389663702 -0.0061006257052825417 0 0.0055811003512879157 -0.0070614971205467583 0 0.010368112401962941 -0.0038703115434067874 0 0.010021700092801067 -0.0033504965244533485 0 0.010165201150529646 -0.0030872432921377467 0 0.010165201150529646 -0.0030872432921377467 0 0.010144625405540222 -0.0023326022841834381 0 0.0099575457067270796 -0.0024082076279826948 0 0.010489751596119035 -0.0031841561387983023 0 0.010165201150529646 -0.0030872432921377467 0 0.010144625405540222 -0.0023326022841834381 0 0.010165201150529646 -0.0030872432921377467 0 0.0099575457067270796 -0.0024082076279826948 0 0.0098604026678747285 -0.0029102243895954734 0 0.0097945875423715092 -0.0015497267551753892 0 0.0099575457067270796 -0.0024082076279826948 0 0.0097603275464809222 -0.0024648310790061048 0 0.0099575457067270796 -0.0024082076279826948 0 0.0097603275464809222 -0.0024648310790061048 0 0.0098604026678747285 -0.0029102243895954734 0 0.010021700092801067 -0.0033504965244533485 0 0.0095805388369458143 -0.00310536536519407 0 0.0094582491370501596 -0.0033658645966755159 0 0.010021700092801067 -0.0033504965244533485 0 0.010165201150529646 -0.0030872432921377467 0 0.0098604026678747285 -0.0029102243895954734 0 0.0097603275464809222 -0.0024648310790061048 0 0.0098604026678747285 -0.0029102243895954734 0 0.0095347170762411591 -0.0028039166595964487 0 0.010021700092801067 -0.0033504965244533485 0 0.0098604026678747285 -0.0029102243895954734 0 0.0095805388369458143 -0.00310536536519407 0 0.0095805388369458143 -0.00310536536519407 0 0.0092914576782660158 -0.0029522610803689731 0 0.0094582491370501596 -0.0033658645966755159 0 -0.001278827057545706 -0.0080233482589175051 0 -0.0015410488694056804 -0.010716096886115844 0 -0.00035564699637230681 -0.010524743893520193 0 0.0027776763340299571 -0.0048626992895177247 0 0.0025229490784243833 -0.0090027262133675536 0 0.0091886315458068919 -0.0030101380013806654 0 0.0095347170762411591 -0.0028039166595964487 0 0.0089310225893186861 -0.0025531064952863652 0 0.0027776763340299571 -0.0048626992895177247 0 0.0033991549394869485 -0.0045686608316147723 0 0.0095805388369458143 -0.00310536536519407 0 0.0092914576782660158 -0.0029522610803689731 0 0.0095347170762411591 -0.0028039166595964487 0 0.0098604026678747285 -0.0029102243895954734 0 0.0095805388369458143 -0.00310536536519407 0 0.0095347170762411591 -0.0028039166595964487 0 0.0096106187916833105 0.00042626268585858434 0 0.0096055270077841249 -0.0020836672092246953 0 0.0089310225893186861 -0.0025531064952863652 0 0.0097603275464809222 -0.0024648310790061048 0 0.0095347170762411591 -0.0028039166595964487 0 0.0096055270077841249 -0.0020836672092246953 0 0.0027776763340299571 -0.0048626992895177247 0 0.0032170364442037297 -0.0048107492446469516 0 0.0095347170762411591 -0.0028039166595964487 0 0.0096055270077841249 -0.0020836672092246953 0 0.0089310225893186861 -0.0025531064952863652 0 0.0097945875423715092 -0.0015497267551753892 0 0.0097603275464809222 -0.0024648310790061048 0 0.0096055270077841249 -0.0020836672092246953 0 0.0052193171942056093 -0.0032542085462581288 0 0.0071921637655485643 -0.0012195774254688382 0 0.0072117523539578831 -0.0043973609428357837 0 0.0071921637655485643 -0.0012195774254688382 0 0.0089310225893186861 -0.0025531064952863652 0 0.0072117523539578831 -0.0043973609428357837 0 0.0096106187916833105 0.00042626268585858434 0 0.0071921637655485643 -0.0012195774254688382 0 0.0089310225893186861 -0.0025531064952863652 0 0.0053089012238819022 -0.0075977939939580923 0 0.0098325675463507619 -0.0052064381114825141 0 0.0072117523539578831 -0.0043973609428357837 0 -0.0052843861218955512 -0.01019789448637632 0 -0.001278827057545706 -0.0080233482589175051 0 -0.0028546231959027685 -0.010456437810882792 0 0.002368583229894462 -0.0033157743589093099 0 0.0027776763340299571 -0.0048626992895177247 0 0.0098325675463507619 -0.0052064381114825141 0 0.0089310225893186861 -0.0025531064952863652 0 0.0072117523539578831 -0.0043973609428357837 0 -0.001278827057545706 -0.0080233482589175051 0 -0.0028546231959027685 -0.010456437810882792 0 -0.0015410488694056804 -0.010716096886115844 0 -0.0052843861218955512 -0.01019789448637632 0 -0.0028692253972825844 -0.01216057492856224 0 -0.0028546231959027685 -0.010456437810882792 0 -0.0052843861218955512 -0.01019789448637632 0 -0.0028692253972825844 -0.01216057492856224 0 -0.003786255603116902 -0.013286589319264845 0 -0.0028692253972825844 -0.01216057492856224 0 -0.0020969844565300708 -0.011525694935080325 0 -0.0028546231959027685 -0.010456437810882792 0 -0.0019242319529686259 -0.012448089333868369 0 -0.0028692253972825844 -0.01216057492856224 0 -0.0020969844565300708 -0.011525694935080325 0 -0.0020969844565300708 -0.011525694935080325 0 -0.0028546231959027685 -0.010456437810882792 0 -0.0015410488694056804 -0.010716096886115844 0 0.0022487458913142033 -0.0090667260157884753 0 0.0025229490784243833 -0.0090027262133675536 0 -0.0015410488694056804 -0.010716096886115844 0 -0.00036994134726603688 -0.010531487686746837 0 -0.00084469404230849308 -0.011194952847238366 0 -0.00036994134726603688 -0.010531487686746837 0 -0.00020203838555980536 -0.011696180364350196 0 -0.00084469404230849308 -0.011194952847238366 0 -0.00036994134726603688 -0.010531487686746837 0 -0.00020203838555980536 -0.011696180364350196 0 0.00023043591755997182 -0.01216385794961999 0 0.0025229490784243833 -0.0090027262133675536 0 0.0016893552376875526 -0.011077971414606062 0 -0.00020203838555980536 -0.011696180364350196 0 0.00022942969617859133 -0.012166137526946548 0 -0.00053880789347477863 -0.012379285020328755 0 0.0016730942341700108 -0.011074818836810413 0 0.0016893552376875526 -0.011077971414606062 0 -0.0020969844565300708 -0.011525694935080325 0 -0.0015410488694056804 -0.010716096886115844 0 -0.0012973254055994579 -0.011844632478681436 0 -0.0015410488694056804 -0.010716096886115844 0 -0.00084469404230849308 -0.011194952847238366 0 -0.0012973254055994579 -0.011844632478681436 0 -0.00020203838555980536 -0.011696180364350196 0 -0.00084469404230849308 -0.011194952847238366 0 -0.0012973254055994579 -0.011844632478681436 0 -0.00053880789347477863 -0.012379285020328755 0 -0.0012973254055994579 -0.011844632478681436 0 -0.0011128848052855377 -0.012967904178229397 0 -0.00020203838555980536 -0.011696180364350196 0 -0.00053880789347477863 -0.012379285020328755 0 -0.0012973254055994579 -0.011844632478681436 0 -0.0019242319529686259 -0.012448089333868369 0 -0.0020969844565300708 -0.011525694935080325 0 -0.0012973254055994579 -0.011844632478681436 0 -0.0019242319529686259 -0.012448089333868369 0 -0.0012973254055994579 -0.011844632478681436 0 -0.0011128848052855377 -0.012967904178229397 0 -0.0011128848052855377 -0.012967904178229397 0 -0.00073846615342497315 -0.014010021097216132 0 -0.0021263833881690424 -0.013836515299254382 0 0.00022942969617859133 -0.012166137526946548 0 0.00028854544176153802 -0.014127308872966274 0 0.0014997817105382055 -0.015659493695882883 0 0.0016893552376875526 -0.011077971414606062 0 0.0018808375440717132 -0.014797497740918077 0 -0.0019242319529686259 -0.012448089333868369 0 -0.0011128848052855377 -0.012967904178229397 0 -0.0021263833881690424 -0.013836515299254382 0 -0.00053880789347477863 -0.012379285020328755 0 -0.0011128848052855377 -0.012967904178229397 0 -0.00035951194236886634 -0.013136896867382957 0 -0.0011128848052855377 -0.012967904178229397 0 -0.00035951194236886634 -0.013136896867382957 0 -0.00073846615342497315 -0.014010021097216132 0 0.00022942969617859133 -0.012166137526946548 0 -0.00035951194236886634 -0.013136896867382957 0 0.00028854544176153802 -0.014127308872966274 0 0.00022942969617859133 -0.012166137526946548 0 -0.00053880789347477863 -0.012379285020328755 0 -0.00035951194236886634 -0.013136896867382957 0 -0.00035951194236886634 -0.013136896867382957 0 0.00028854544176153802 -0.014127308872966274 0 -0.00073846615342497315 -0.014010021097216132 0 0.00028854544176153802 -0.014127308872966274 0 0.0004604702361252348 -0.015158281876365252 0 0.0014997817105382055 -0.015659493695882883 0 0.00028854544176153802 -0.014127308872966274 0 -0.00017199360587144414 -0.014911452252714914 0 -0.00073846615342497315 -0.014010021097216132 0 0.00028854544176153802 -0.014127308872966274 0 -0.00017199360587144414 -0.014911452252714914 0 0.0004604702361252348 -0.015158281876365252 0 -0.0010815065947870934 -0.015214353751126636 0 -0.0021602501017858817 -0.015209377466640776 0 -0.0021263833881690424 -0.013836515299254382 0 -0.00073846615342497315 -0.014010021097216132 0 -0.0010815065947870934 -0.015214353751126636 0 -0.0021263833881690424 -0.013836515299254382 0 -0.00017199360587144414 -0.014911452252714914 0 -0.00073846615342497315 -0.014010021097216132 0 -0.0010815065947870934 -0.015214353751126636 0 -0.003786255603116902 -0.013286589319264845 0 -0.0021263833881690424 -0.013836515299254382 0 -0.0033523448872438072 -0.01526294035406656 0 -0.0021602501017858817 -0.015209377466640776 0 -0.0021263833881690424 -0.013836515299254382 0 -0.0033523448872438072 -0.01526294035406656 0 -0.0052329236975288207 -0.014446000222303582 0 -0.003786255603116902 -0.013286589319264845 0 -0.0033523448872438072 -0.01526294035406656 0 -0.0019242319529686259 -0.012448089333868369 0 -0.0028692253972825844 -0.01216057492856224 0 -0.0021263833881690424 -0.013836515299254382 0 -0.0028692253972825844 -0.01216057492856224 0 -0.003786255603116902 -0.013286589319264845 0 -0.0021263833881690424 -0.013836515299254382 0 -0.0029865498971851723 -0.016975594966789423 0 -0.0020582153129006259 -0.016266813703948488 0 -0.0018382133971302571 -0.017399524918543144 0 -0.0029865498971851723 -0.016975594966789423 0 -0.0018382133971302571 -0.017399524918543144 0 -0.0024765334832506196 -0.018332828541711747 0 -0.0029865498971851723 -0.016975594966789423 0 -0.0036915518234542444 -0.017903792979471252 0 -0.0024765334832506196 -0.018332828541711747 0 -0.0045340971548642698 -0.016501291710244011 0 -0.0045466984933529098 -0.019004515687091921 0 -0.0036915518234542444 -0.017903792979471252 0 -0.0045340971548642698 -0.016501291710244011 0 -0.0029865498971851723 -0.016975594966789423 0 -0.0036915518234542444 -0.017903792979471252 0 -0.0045340971548642698 -0.016501291710244011 0 -0.0029865498971851723 -0.016975594966789423 0 -0.0033523448872438072 -0.01526294035406656 0 -0.0052329236975288207 -0.014446000222303582 0 -0.0045340971548642698 -0.016501291710244011 0 -0.0033523448872438072 -0.01526294035406656 0 -0.0029865498971851723 -0.016975594966789423 0 -0.0033523448872438072 -0.01526294035406656 0 -0.0020582153129006259 -0.016266813703948488 0 -0.0021602501017858817 -0.015209377466640776 0 -0.0033523448872438072 -0.01526294035406656 0 -0.0020582153129006259 -0.016266813703948488 0 -0.0010815065947870934 -0.015214353751126636 0 -0.0021602501017858817 -0.015209377466640776 0 -0.0020582153129006259 -0.016266813703948488 0 -0.0010815065947870934 -0.015214353751126636 0 -0.0020582153129006259 -0.016266813703948488 0 -0.0010785271173204796 -0.016693228502228069 0 -0.0010815065947870934 -0.015214353751126636 0 0.00021190486928830652 -0.016050886942374613 0 -0.0010785271173204796 -0.016693228502228069 0 0.0004604702361252348 -0.015158281876365252 0 0.00021190486928830652 -0.016050886942374613 0 0.0014997817105382055 -0.015659493695882883 0 -0.00017199360587144414 -0.014911452252714914 0 -0.0010815065947870934 -0.015214353751126636 0 0.00021190486928830652 -0.016050886942374613 0 -0.00017199360587144414 -0.014911452252714914 0 0.0004604702361252348 -0.015158281876365252 0 0.00021190486928830652 -0.016050886942374613 0 -0.0010785271173204796 -0.016693228502228069 0 -0.0018382133971302571 -0.017399524918543144 0 -0.00065659809742456526 -0.018337695150541143 0 0.00021190486928830652 -0.016050886942374613 0 -0.0010785271173204796 -0.016693228502228069 0 -0.00065659809742456526 -0.018337695150541143 0 -0.0020582153129006259 -0.016266813703948488 0 -0.0010785271173204796 -0.016693228502228069 0 -0.0018382133971302571 -0.017399524918543144 0 -0.00065659809742456526 -0.018337695150541143 0 0.00080166367747206411 -0.019697158914261881 0 -0.002019809422094032 -0.020325815650903543 0 -0.0018382133971302571 -0.017399524918543144 0 -0.00065659809742456526 -0.018337695150541143 0 -0.0024765334832506196 -0.018332828541711747 0 0.00021190486928830652 -0.016050886942374613 0 -0.00065659809742456526 -0.018337695150541143 0 0.00080166367747206411 -0.019697158914261881 0 -0.00065659809742456526 -0.018337695150541143 0 -0.002019809422094032 -0.020325815650903543 0 -0.0024765334832506196 -0.018332828541711747 0 0.00080166367747206411 -0.019697158914261881 0 -0.002019809422094032 -0.020325815650903543 0 0.00047861296523957675 -0.021646087698875289 0 -0.002019809422094032 -0.020325815650903543 0 -0.0031832048317636686 -0.018892398348693981 0 -0.0024765334832506196 -0.018332828541711747 0 -0.0036915518234542444 -0.017903792979471252 0 -0.0031832048317636686 -0.018892398348693981 0 -0.0024765334832506196 -0.018332828541711747 0 -0.0045466984933529098 -0.019004515687091921 0 -0.0036915518234542444 -0.017903792979471252 0 -0.0031832048317636686 -0.018892398348693981 0 -0.00046544070650299761 -0.012277923672265521 0 7.8707941635298994e-05 -0.014740891150921719 0 -0.0043908093602583534 -0.020449100858844587 0 -0.0043899099371393609 -0.01905527428756465 0 -0.0019465067219982908 -0.020345771665597537 0 -0.0045466984933529098 -0.019004515687091921 0 -0.002019809422094032 -0.020325815650903543 0 -0.0031832048317636686 -0.018892398348693981 0 -0.00017363110607641994 -0.011973014149947512 0 0.0016778945441976582 -0.01755269335685106 0 -0.0021415261883554453 -0.021724398000862174 0 -0.0011902426500353372 -0.023300777609974035 0 0.00045235515747963398 -0.023089752496657789 0 -0.0043908093602583534 -0.020449100858844587 0 -0.0019465067219982908 -0.020345771665597537 0 -0.00068328942998975074 -0.022401482940875166 0 -0.0021415261883554453 -0.021724398000862174 0 -0.0021279768605367557 -0.024835799040140723 0 -0.0011902426500353372 -0.023300777609974035 0 -0.0011902426500353372 -0.023300777609974035 0 -0.00020085961103029226 -0.024335127295455547 0 0.00045235515747963398 -0.023089752496657789 0 -0.0021279768605367557 -0.024835799040140723 0 -0.0011902426500353372 -0.023300777609974035 0 -0.00020085961103029226 -0.024335127295455547 0 -0.0021279768605367557 -0.024835799040140723 0 -0.00020085961103029226 -0.024335127295455547 0 0.00067499582598151242 -0.025869205736374266 0 0.001236614988082719 -0.024669389427200782 0 0.0020250399774757277 -0.02573167127041814 0 0.00067499582598151242 -0.025869205736374266 0 0.001236614988082719 -0.024669389427200782 0 -0.00020085961103029226 -0.024335127295455547 0 0.00067499582598151242 -0.025869205736374266 0 0.001236614988082719 -0.024669389427200782 0 -0.00020085961103029226 -0.024335127295455547 0 0.00045235515747963398 -0.023089752496657789 0 -0.00068328942998975074 -0.022401482940875166 0 0.00047861296523957675 -0.021646087698875289 0 0.001757600673675537 -0.022480061877469374 0 7.8707941635298994e-05 -0.014740891150921719 0 0.00057797749926339281 -0.015676819654543539 0 -0.0019465067219982908 -0.020345771665597537 0 -0.00068328942998975074 -0.022401482940875166 0 0.00047861296523957675 -0.021646087698875289 0 0.00080166367747206411 -0.019697158914261881 0 0.00047861296523957675 -0.021646087698875289 0 0.0019502654904561499 -0.021148197980574882 0 0.0019502654904561499 -0.021148197980574882 0 0.0039148955232294544 -0.02314684885423 0 0.0027015933256117571 -0.019179350310770768 0 0.00047861296523957675 -0.021646087698875289 0 0.0019502654904561499 -0.021148197980574882 0 0.001757600673675537 -0.022480061877469374 0 -0.00068328942998975074 -0.022401482940875166 0 0.001757600673675537 -0.022480061877469374 0 0.0030017598367636606 -0.024288442747643142 0 0.0032610895669540987 -0.020522556633070503 0 0.0026302795730519654 -0.018627079664177204 0 0.0019502654904561499 -0.021148197980574882 0 0.001757600673675537 -0.022480061877469374 0 0.0039148955232294544 -0.02314684885423 0 0.001757600673675537 -0.022480061877469374 0 0.0030017598367636606 -0.024288442747643142 0 0.0039148955232294544 -0.02314684885423 0 0.0016778945441976582 -0.01755269335685106 0 0.0028132164484278581 -0.019437536584634488 0 0.001236614988082719 -0.024669389427200782 0 0.00045235515747963398 -0.023089752496657789 0 0.0030017598367636606 -0.024288442747643142 0 0.001236614988082719 -0.024669389427200782 0 0.0030017598367636606 -0.024288442747643142 0 0.0020250399774757277 -0.02573167127041814 0 0.0045264481943890593 -0.024796015524100164 0 0.0047788617100075047 -0.022638432989713485 0 0.0066407411724986303 -0.025046482004195906 0 0.0030017598367636606 -0.024288442747643142 0 0.0045264481943890593 -0.024796015524100164 0 0.0033112987619847768 -0.02659903571639749 0 0.0045264481943890593 -0.024796015524100164 0 0.0047788617100075047 -0.022638432989713485 0 0.0039148955232294544 -0.02314684885423 0 0.0030017598367636606 -0.024288442747643142 0 0.0045264481943890593 -0.024796015524100164 0 0.0039148955232294544 -0.02314684885423 0 0.0043569058373309462 -0.02135130239473854 0 0.0026302795730519654 -0.018627079664177204 0 0.0047788617100075047 -0.022638432989713485 0 0.0039148955232294544 -0.02314684885423 0 0.0028665977904863875 -0.020332327997343226 0 0.0033363297490505831 -0.020585198060063089 0 0.0036152522924487685 -0.01673605668641185 0 0.00093116706340404698 -0.017611374536033876 0 0.00021190486928830652 -0.016050886942374613 0 0.00080166367747206411 -0.019697158914261881 0 0.0027015933256117571 -0.019179350310770768 0 0.00080166367747206411 -0.019697158914261881 0 0.0019502654904561499 -0.021148197980574882 0 0.0027015933256117571 -0.019179350310770768 0 0.0018250638342157787 -0.017726086284638915 0 0.0026302795730519654 -0.018627079664177204 0 0.00021190486928830652 -0.016050886942374613 0 0.0027862966891614425 -0.019148162070903637 0 0.0014997817105382055 -0.015659493695882883 0 0.0011278673486693012 -0.014073059052602713 0 0.00093116706340404698 -0.017611374536033876 0 -0.00018922380958539441 -0.014502071339886657 0 0.0026302795730519654 -0.018627079664177204 0 0.0018808375440717132 -0.014797497740918077 0 0.00046420120455628323 -0.01278416147891303 0 0.0035069378614463217 -0.015989841431203959 0 0.0032805942068010333 -0.013289760811910549 0 0.002085469852019232 -0.013107595680440327 0 0.0040018945641939491 -0.015960486396873422 0 0.0011278673486693012 -0.014073059052602713 0 0.0036152522924487685 -0.01673605668641185 0 0.00093116706340404698 -0.017611374536033876 0 0.0035069378614463217 -0.015989841431203959 0 0.0032805942068010333 -0.013289760811910549 0 0.0049462078380434699 -0.0142680157397978 0 0.0049458793185520079 -0.011854897270406091 0 0.0049462078380434699 -0.0142680157397978 0 0.0085294118804680324 -0.012953843567282351 0 0.0035069378614463217 -0.015989841431203959 0 0.0049462078380434699 -0.0142680157397978 0 0.0069224927835207836 -0.015289771797268254 0 0.0049462078380434699 -0.0142680157397978 0 0.0085294118804680324 -0.012953843567282351 0 0.0069224927835207836 -0.015289771797268254 0 0.0049458793185520079 -0.011854897270406091 0 0.0032805942068010333 -0.013289760811910549 0 0.0049462078380434699 -0.0142680157397978 0 0.0085294118804680324 -0.012953843567282351 0 0.0069224927835207836 -0.015289771797268254 0 0.0096162788755258816 -0.016445957217091287 0 0.0096162788755258816 -0.016445957217091287 0 0.006322416088093117 -0.019089864177865051 0 0.010450669803528352 -0.019510896342903532 0 0.0069224927835207836 -0.015289771797268254 0 0.0096162788755258816 -0.016445957217091287 0 0.006322416088093117 -0.019089864177865051 0 0.0033363297490505831 -0.020585198060063089 0 0.0036152522924487685 -0.01673605668641185 0 0.0061983046039578143 -0.019459211173278233 0 0.0035069378614463217 -0.015989841431203959 0 0.0069224927835207836 -0.015289771797268254 0 0.006322416088093117 -0.019089864177865051 0 0.0040018945641939491 -0.015960486396873422 0 0.0061445966612721148 -0.018633393265609977 0 0.0033363297490505831 -0.020585198060063089 0 0.0060595217159111663 -0.021520594738948493 0 0.0061983046039578143 -0.019459211173278233 0 0.0043569058373309462 -0.02135130239473854 0 0.0061760784392158579 -0.023857253027903192 0 0.0033363297490505831 -0.020585198060063089 0 0.0060595217159111663 -0.021520594738948493 0 0.0058269274979281761 -0.023775335614398305 0 0.0058269274979281761 -0.023775335614398305 0 0.0089714740046730468 -0.022281333018993175 0 0.0099259314300973907 -0.024796823875140112 0 0.0060595217159111663 -0.021520594738948493 0 0.0058269274979281761 -0.023775335614398305 0 0.0089714740046730468 -0.022281333018993175 0 0.006322416088093117 -0.019089864177865051 0 0.0089714740046730468 -0.022281333018993175 0 0.010450669803528352 -0.019510896342903532 0 0.0061445966612721148 -0.018633393265609977 0 0.00735482816709039 -0.020047990510551165 0 0.0060595217159111663 -0.021520594738948493 0 0.0061983046039578143 -0.019459211173278233 0 0.0089714740046730468 -0.022281333018993175 0 0.010450669803528352 -0.019510896342903532 0 0.011830858132506176 -0.022927725875991817 0 0.013949093580714906 -0.020222846996343063 0 0.0089714740046730468 -0.022281333018993175 0 0.011830858132506176 -0.022927725875991817 0 0.0099259314300973907 -0.024796823875140112 0 0.0089714740046730468 -0.022281333018993175 0 0.010450669803528352 -0.019510896342903532 0 0.011830858132506176 -0.022927725875991817 0 0.015344481739222916 -0.024255830400871873 0 0.011830858132506176 -0.022927725875991817 0 0.013949093580714906 -0.020222846996343063 0 0.010450669803528352 -0.019510896342903532 0 0.013949093580714906 -0.020222846996343063 0 0.012605787538639756 -0.017076954165949336 0 0.015576482923315508 -0.017156506953095875 0 0.012605787538639756 -0.017076954165949336 0 0.014105975052248608 -0.014620507668310296 0 0.015576482923315508 -0.017156506953095875 0 0.013949093580714906 -0.020222846996343063 0 0.012605787538639756 -0.017076954165949336 0 0.0096162788755258816 -0.016445957217091287 0 0.012605787538639756 -0.017076954165949336 0 0.011512278161636802 -0.014630332829613369 0 0.0096162788755258816 -0.016445957217091287 0 0.010450669803528352 -0.019510896342903532 0 0.012605787538639756 -0.017076954165949336 0 0.012093902940389603 -0.012068550384642671 0 0.0085294118804680324 -0.012953843567282351 0 0.011512278161636802 -0.014630332829613369 0 0.0085294118804680324 -0.012953843567282351 0 0.0096162788755258816 -0.016445957217091287 0 0.011512278161636802 -0.014630332829613369 0 0.014474916784893111 -0.012030057828185068 0 0.012093902940389603 -0.012068550384642671 0 0.014105975052248608 -0.014620507668310296 0 0.012093902940389603 -0.012068550384642671 0 0.011512278161636802 -0.014630332829613369 0 0.014105975052248608 -0.014620507668310296 0 0.016383851435081441 -0.014212387040984376 0 0.014474916784893111 -0.012030057828185068 0 0.014105975052248608 -0.014620507668310296 0 0.012605787538639756 -0.017076954165949336 0 0.011512278161636802 -0.014630332829613369 0 0.014105975052248608 -0.014620507668310296 0 0.011905309405315591 -0.038504409731356694 0 0.0077622873000636576 -0.035473412544590993 0 0.012198813320080631 -0.033705120121068056 0 0.011905309405315591 -0.038504409731356694 0 0.0077622873000636576 -0.035473412544590993 0 0.0070260972552121841 -0.039245212430790634 0 0.0077622873000636576 -0.035473412544590993 0 0.0028974231210797939 -0.033589943527678863 0 0.0048670375869267098 -0.037081405369225627 0 0.0077622873000636576 -0.035473412544590993 0 0.0048670375869267098 -0.037081405369225627 0 0.0070260972552121841 -0.039245212430790634 0 0.0048670375869267098 -0.037081405369225627 0 0.0044081452101713313 -0.039360677507723429 0 0.0070260972552121841 -0.039245212430790634 0 0.0093897455655092381 -0.030498424230718722 0 0.0058044518622138164 -0.031787495404469575 0 0.0077622873000636576 -0.035473412544590993 0 0.008036830870194597 -0.03114895748942707 0 0.0028974231210797939 -0.033589943527678863 0 0.014746743956481874 -0.028633363773501432 0 0.012198813320080631 -0.033705120121068056 0 0.008036830870194597 -0.03114895748942707 0 0.0077622873000636576 -0.035473412544590993 0 0.012198813320080631 -0.033705120121068056 0 0.008036830870194597 -0.03114895748942707 0 0.014746743956481874 -0.028633363773501432 0 0.012170119718548802 -0.026347029667847254 0 0.011290472096610207 -0.029498953155504867 0 0.011501137419301944 -0.029746669233406273 0 0.0093897455655092381 -0.030498424230718722 0 0.015344481739222916 -0.024255830400871873 0 0.011830858132506176 -0.022927725875991817 0 0.012170119718548802 -0.026347029667847254 0 0.015344481739222916 -0.024255830400871873 0 0.014746743956481874 -0.028633363773501432 0 0.012170119718548802 -0.026347029667847254 0 0.011830858132506176 -0.022927725875991817 0 0.012170119718548802 -0.026347029667847254 0 0.0099259314300973907 -0.024796823875140112 0 0.012170119718548802 -0.026347029667847254 0 0.0099259314300973907 -0.024796823875140112 0 0.0085827913679082084 -0.027186893830319143 0 0.012170119718548802 -0.026347029667847254 0 0.011290472096610207 -0.029498953155504867 0 0.0085827913679082084 -0.027186893830319143 0 0.0085827913679082084 -0.027186893830319143 0 0.0062492634722160732 -0.028968706436175065 0 0.0080034923285353093 -0.030441592539131136 0 0.011290472096610207 -0.029498953155504867 0 0.0085827913679082084 -0.027186893830319143 0 0.0080034923285353093 -0.030441592539131136 0 0.0061760784392158579 -0.023857253027903192 0 0.0072186152003477387 -0.025202001402502467 0 0.0058269274979281761 -0.023775335614398305 0 0.0099259314300973907 -0.024796823875140112 0 0.0085827913679082084 -0.027186893830319143 0 0.0045264481943890593 -0.024796015524100164 0 0.0066407411724986303 -0.025046482004195906 0 0.0054663912072756646 -0.026901760700636129 0 0.0066407411724986303 -0.025046482004195906 0 0.0085827913679082084 -0.027186893830319143 0 0.0054663912072756646 -0.026901760700636129 0 0.0054663912072756646 -0.026901760700636129 0 0.0062492634722160732 -0.028968706436175065 0 0.0041987326555571322 -0.028925838277892916 0 0.0085827913679082084 -0.027186893830319143 0 0.0054663912072756646 -0.026901760700636129 0 0.0062492634722160732 -0.028968706436175065 0 0.0058044518622138164 -0.031787495404469575 0 0.0026119943469491572 -0.032894289504434342 0 0.0062492634722160732 -0.028968706436175065 0 0.0080034923285353093 -0.030441592539131136 0 0.0051122364381417356 -0.031382994070390732 0 0.0028974231210797939 -0.033589943527678863 0 0.0048670375869267098 -0.037081405369225627 0 0.0023478106814770867 -0.037596974323057086 0 0.0048670375869267098 -0.037081405369225627 0 0.0023478106814770867 -0.037596974323057086 0 0.0044081452101713313 -0.039360677507723429 0 0.0026119943469491572 -0.032894289504434342 0 0.0025627863367964328 -0.036500307168783601 0 0.0028974231210797939 -0.033589943527678863 0 0.0023478106814770867 -0.037596974323057086 0 -0.0017068970747532791 -0.035529082025637863 0 0.0023478106814770867 -0.037596974323057086 0 -0.0017068970747532791 -0.035529082025637863 0 0.00063011796714570296 -0.040472754688928934 0 -0.00010218413377020086 -0.032028548019521076 0 -0.00074801327020445208 -0.033585570423142697 0 0.0015796313064781625 -0.034825825763558901 0 0.0026119943469491572 -0.032894289504434342 0 0.0016710759071903965 -0.032831260837979832 0 -0.00010218413377020086 -0.032028548019521076 0 -0.00070405476119504565 -0.032983149065511891 0 -0.00074801327020445208 -0.033585570423142697 0 -0.00070405476119504565 -0.032983149065511891 0 0.00019625081756363623 -0.032411987794309469 0 -0.00028727162195121082 -0.032650263809117265 0 0.0016710759071903965 -0.032831260837979832 0 0.0012039323806934123 -0.032871562127528724 0 0.0026494852595007313 -0.031797638949506372 0 0.0024109950015316251 -0.029918098306257478 0 0.00061877974762836933 -0.030880670116484963 0 0.0048877604972498434 -0.031032511008910881 0 0.0026494852595007313 -0.031797638949506372 0 0.0024109950015316251 -0.029918098306257478 0 0.0062492634722160732 -0.028968706436175065 0 0.0051122364381417356 -0.031382994070390732 0 0.0041987326555571322 -0.028925838277892916 0 0.0026119943469491572 -0.032894289504434342 0 0.0026257984999458975 -0.030304338175472491 0 0.0048877604972498434 -0.031032511008910881 0 0.0024109950015316251 -0.029918098306257478 0 0.0040669235670036611 -0.02884921593442908 0 0.0054663912072756646 -0.026901760700636129 0 0.0041987326555571322 -0.028925838277892916 0 0.0033112987619847768 -0.02659903571639749 0 0.0026257984999458975 -0.030304338175472491 0 0.0024914501677134929 -0.029168474114545782 0 0.0045264481943890593 -0.024796015524100164 0 0.0054663912072756646 -0.026901760700636129 0 0.0033112987619847768 -0.02659903571639749 0 0.0030017598367636606 -0.024288442747643142 0 0.0033112987619847768 -0.02659903571639749 0 0.0020250399774757277 -0.02573167127041814 0 0.0033112987619847768 -0.02659903571639749 0 0.0020250399774757277 -0.02573167127041814 0 0.0017106215100514556 -0.027609311200043962 0 0.0040669235670036611 -0.02884921593442908 0 0.0033112987619847768 -0.02659903571639749 0 0.0017106215100514556 -0.027609311200043962 0 0.0024109950015316251 -0.029918098306257478 0 0.0017106215100514556 -0.027609311200043962 0 0.00019690267111212526 -0.029274642961877498 0 0.0024109950015316251 -0.029918098306257478 0 0.0040669235670036611 -0.02884921593442908 0 0.0017106215100514556 -0.027609311200043962 0 0.0017106215100514556 -0.027609311200043962 0 -0.00023017441134848244 -0.027571426576157979 0 0.00019690267111212526 -0.029274642961877498 0 0.0017106215100514556 -0.027609311200043962 0 -0.00023017441134848244 -0.027571426576157979 0 0.00067499582598151242 -0.025869205736374266 0 0.0020250399774757277 -0.02573167127041814 0 0.0017106215100514556 -0.027609311200043962 0 0.00067499582598151242 -0.025869205736374266 0 -0.0021279768605367557 -0.024835799040140723 0 -0.00023017441134848244 -0.027571426576157979 0 0.00067499582598151242 -0.025869205736374266 0 -0.0021279768605367557 -0.024835799040140723 0 -0.00023017441134848244 -0.027571426576157979 0 -0.0019841283807457422 -0.028015218767631543 0 -0.00023017441134848244 -0.027571426576157979 0 0.00019690267111212526 -0.029274642961877498 0 -0.0019841283807457422 -0.028015218767631543 0 0.00019690267111212526 -0.029274642961877498 0 -0.0019841283807457422 -0.028015218767631543 0 -0.001427175888897121 -0.031060661967044493 0 0.00019690267111212526 -0.029274642961877498 0 0.00061877974762836933 -0.030880670116484963 0 -0.001427175888897121 -0.031060661967044493 0 0.0024109950015316251 -0.029918098306257478 0 0.00019690267111212526 -0.029274642961877498 0 0.00061877974762836933 -0.030880670116484963 0 0.00061877974762836933 -0.030880670116484963 0 0.00019625081756363623 -0.032411987794309469 0 -0.001427175888897121 -0.031060661967044493 0 0.0026494852595007313 -0.031797638949506372 0 0.00061877974762836933 -0.030880670116484963 0 0.00019625081756363623 -0.032411987794309469 0 0.00019625081756363623 -0.032411987794309469 0 -0.001427175888897121 -0.031060661967044493 0 -0.00034202287458619246 -0.032475817508636179 0 0.00019625081756363623 -0.032411987794309469 0 -0.00014052977694561507 -0.032396797922295509 0 -0.00034202287458619246 -0.032475817508636179 0 0.00019625081756363623 -0.032411987794309469 0 -0.00014052977694561507 -0.032396797922295509 0 -0.00028727162195121082 -0.032650263809117265 0 -0.00014052977694561507 -0.032396797922295509 0 -0.00036391491263315564 -0.032205563768149988 0 -0.00028727162195121082 -0.032650263809117265 0 -0.00014052977694561507 -0.032396797922295509 0 -0.00064296477268384442 -0.031357434854562972 0 -0.00036391491263315564 -0.032205563768149988 0 -0.00014052977694561507 -0.032396797922295509 0 -0.00034202287458619246 -0.032475817508636179 0 0.00065833510611947195 -0.031707828984074524 0 -0.00030443995938746448 -0.029677696305300452 0 -0.00064296477268384442 -0.031357434854562972 0 0.00065833510611947195 -0.031707828984074524 0 -0.00014052977694561507 -0.032396797922295509 0 -0.00064296477268384442 -0.031357434854562972 0 0.00065833510611947195 -0.031707828984074524 0 -0.00030443995938746448 -0.029677696305300452 0 -2.0932748182271067e-06 -0.03008430367251274 0 3.696212548651448e-06 -0.026252648722577706 0 -0.00030443995938746448 -0.029677696305300452 0 0.00065833510611947195 -0.031707828984074524 0 3.696212548651448e-06 -0.026252648722577706 0 -2.0932748182271067e-06 -0.03008430367251274 0 -0.00064296477268384442 -0.031357434854562972 0 -4.1245015161971438e-07 -0.033908483620984725 0 -0.00030443995938746448 -0.029677696305300452 0 -2.0932748182271067e-06 -0.03008430367251274 0 -0.00064296477268384442 -0.031357434854562972 0 -0.00064296477268384442 -0.031357434854562972 0 -0.00016255208470515893 -0.032120597004770275 0 -0.00036391491263315564 -0.032205563768149988 0 -0.00016255208470515893 -0.032120597004770275 0 -4.1245015161971438e-07 -0.033908483620984725 0 4.7334127944512594e-05 -0.032547116289336528 0 2.3075491745506066e-07 -0.033924691425324692 0 -0.00010461566251512697 -0.036994295034831134 0 -0.00064296477268384442 -0.031357434854562972 0 -0.00016255208470515893 -0.032120597004770275 0 -4.1245015161971438e-07 -0.033908483620984725 0 2.2314594462975794e-06 -0.033921316695018057 0 -2.2335715448681683e-06 -0.039101702734626091 0 -0.00012932242618534645 -0.0395029929257757 0 -2.2335715448681683e-06 -0.039101702734626091 0 -0.00012932242618534645 -0.0395029929257757 0 -0.00016084598835106796 -0.040536542008221335 0 -0.00016255208470515893 -0.032120597004770275 0 4.7334127944512594e-05 -0.032547116289336528 0 -0.00028766191115280445 -0.032328996921248354 0 -0.00016255208470515893 -0.032120597004770275 0 -0.00028766191115280445 -0.032328996921248354 0 -0.00038290543675044821 -0.032470734280208711 0 -0.00028766191115280445 -0.032328996921248354 0 -0.00038290543675044821 -0.032470734280208711 0 -0.00064171174811280618 -0.032533800581816624 0 -0.00016255208470515893 -0.032120597004770275 0 -0.00038290543675044821 -0.032470734280208711 0 -0.00036391491263315564 -0.032205563768149988 0 -0.00038290543675044821 -0.032470734280208711 0 -0.00036391491263315564 -0.032205563768149988 0 -0.00028727162195121082 -0.032650263809117265 0 -0.00070405476119504565 -0.032983149065511891 0 -0.00028727162195121082 -0.032650263809117265 0 -0.00074801327020445208 -0.033585570423142697 0 -0.00038290543675044821 -0.032470734280208711 0 -0.00028727162195121082 -0.032650263809117265 0 -0.00074801327020445208 -0.033585570423142697 0 -0.00038290543675044821 -0.032470734280208711 0 -0.00074801327020445208 -0.033585570423142697 0 -0.00064171174811280618 -0.032533800581816624 0 -0.00065090395705903856 -0.036848454268025986 0 -0.00036668731841116742 -0.037812671370300151 0 -0.00074801327020445208 -0.033585570423142697 0 0.0015796313064781625 -0.034825825763558901 0 -0.00040214169068246371 -0.039647558496019614 0 0.0023478106814770867 -0.037596974323057086 0 0.00063011796714570296 -0.040472754688928934 0 0.0026879713337993015 -0.04010462542512569 0 0.0023478106814770867 -0.037596974323057086 0 0.0026879713337993015 -0.04010462542512569 0 0.0044081452101713313 -0.039360677507723429 0 0.0026879713337993015 -0.04010462542512569 0 0.0044081452101713313 -0.039360677507723429 0 0.0037833321679540503 -0.04133317338353068 0 0.0037833321679540503 -0.04133317338353068 0 0.0045058636190886021 -0.04273092390714929 0 0.00538559093822869 -0.04150762027015234 0 0.0044081452101713313 -0.039360677507723429 0 0.0037833321679540503 -0.04133317338353068 0 0.00538559093822869 -0.04150762027015234 0 0.00063011796714570296 -0.040472754688928934 0 0.0026879713337993015 -0.04010462542512569 0 0.0027190322775830032 -0.041604873836154854 0 0.0026879713337993015 -0.04010462542512569 0 0.0037833321679540503 -0.04133317338353068 0 0.0027190322775830032 -0.041604873836154854 0 0.0027190322775830032 -0.041604873836154854 0 0.0035993145400265757 -0.042470810982544668 0 0.0030959503689184284 -0.043109015401790414 0 0.0037833321679540503 -0.04133317338353068 0 0.0027190322775830032 -0.041604873836154854 0 0.0035993145400265757 -0.042470810982544668 0 0.0037833321679540503 -0.04133317338353068 0 0.0035993145400265757 -0.042470810982544668 0 0.0045058636190886021 -0.04273092390714929 0 0.0035993145400265757 -0.042470810982544668 0 0.0045058636190886021 -0.04273092390714929 0 0.0042346286237462619 -0.043234848374177001 0 0.0035993145400265757 -0.042470810982544668 0 0.0042346286237462619 -0.043234848374177001 0 0.0030959503689184284 -0.043109015401790414 0 0.0015796313064781625 -0.034825825763558901 0 0.0030959503689184284 -0.043109015401790414 0 -0.00040214169068246371 -0.039647558496019614 0 0.00063011796714570296 -0.040472754688928934 0 0.0027190322775830032 -0.041604873836154854 0 0.0030959503689184284 -0.043109015401790414 0 -0.00036668731841116742 -0.037812671370300151 0 0.00036456428687354098 -0.040253937606736068 0 0.0025627863367964328 -0.036500307168783601 0 0.0029879455700829462 -0.038633461288129778 0 0.0030959503689184284 -0.043109015401790414 0 -0.00040214169068246371 -0.039647558496019614 0 0.0019642682648933442 -0.045031226142654715 0 -0.00028766191115280445 -0.032328996921248354 0 -0.00064171174811280618 -0.032533800581816624 0 -0.00041350971069217742 -0.032316759649274183 0 4.7334127944512594e-05 -0.032547116289336528 0 -0.00028766191115280445 -0.032328996921248354 0 -0.00041350971069217742 -0.032316759649274183 0 -0.00010461566251512697 -0.036994295034831134 0 0.00036456428687354098 -0.040253937606736068 0 0.00015569829705584508 -0.039678952762135733 0 -0.00016084598835106796 -0.040536542008221335 0 2.2290327633560369e-06 -0.044273016924137862 0 -0.00012932242618534645 -0.0395029929257757 0 0.00015569829705584508 -0.039678952762135733 0 -0.00016084598835106796 -0.040536542008221335 0 -2.2335715448681683e-06 -0.039101702734626091 0 -0.00016084598835106796 -0.040536542008221335 0 2.2290327633560369e-06 -0.044273016924137862 0 7.991988083518817e-06 -0.044293471815976489 0 0.0013187305901313654 -0.049431221218716404 0 0.0021113912688629512 -0.051769926841944681 0 0.00036456428687354098 -0.040253937606736068 0 2.610952732448064e-06 -0.044277060878585524 0 0.0034724428088393176 -0.050128054232776692 0 7.991988083518817e-06 -0.044293471815976489 0 0.0013187305901313654 -0.049431221218716404 0 0.00061654428120106624 -0.04936332518555045 0 0.0034724428088393176 -0.050128054232776692 0 0.0013187305901313654 -0.049431221218716404 0 0.0016049139550962206 -0.041501846858315136 0 0.00036456428687354098 -0.040253937606736068 0 0.0042346286237462619 -0.043234848374177001 0 0.0030959503689184284 -0.043109015401790414 0 0.0019642682648933442 -0.045031226142654715 0 0.00061654428120106624 -0.04936332518555045 0 0.0013187305901313654 -0.049431221218716404 0 0.0021113912688629512 -0.051769926841944681 0 0.00061654428120106624 -0.04936332518555045 0 0.0021113912688629512 -0.051769926841944681 0 0.0039228718161175603 -0.047467637856372348 0 0.0021113912688629512 -0.051769926841944681 0 0.00068591691903194458 -0.055016923504265285 0 0.0019135073961160831 -0.05868919697670065 0 7.991988083518817e-06 -0.044293471815976489 0 0.0021113912688629512 -0.051769926841944681 0 0.00058878855860148671 -0.052150941512339052 0 7.991988083518817e-06 -0.044293471815976489 0 -8.1919616707985371e-07 -0.050431726083095527 0 0.00058878855860148671 -0.052150941512339052 0 -0.00032732372409174378 -0.055878204118456273 0 -8.1919616707985371e-07 -0.050431726083095527 0 0.00058878855860148671 -0.052150941512339052 0 -0.00032732372409174378 -0.055878204118456273 0 0.00068591691903194458 -0.055016923504265285 0 0.00015194767792765912 -0.057830868381102053 0 -0.00032732372409174378 -0.055878204118456273 0 0.00058878855860148671 -0.052150941512339052 0 0.00068591691903194458 -0.055016923504265285 0 0.0021113912688629512 -0.051769926841944681 0 0.00058878855860148671 -0.052150941512339052 0 0.00068591691903194458 -0.055016923504265285 0 0.00068591691903194458 -0.055016923504265285 0 0.00015194767792765912 -0.057830868381102053 0 0.0019135073961160831 -0.05868919697670065 0 0.00015194767792765912 -0.057830868381102053 0 0.0019135073961160831 -0.05868919697670065 0 0.00055746267168271921 -0.059615675884095942 0 0.0021113912688629512 -0.051769926841944681 0 0.0087376960620182235 -0.043693259510819829 0 0.0039228718161175603 -0.047467637856372348 0 0.0052447251370792668 -0.052127662110057808 0 0.0061039476452763343 -0.051558443017080527 0 0.0016049139550962206 -0.041501846858315136 0 0.0025165938631672769 -0.041529143052490267 0 0.0045058636190886021 -0.04273092390714929 0 0.0042346286237462619 -0.043234848374177001 0 0.0057361812047740804 -0.044013371428507302 0 0.00061654428120106624 -0.04936332518555045 0 0.0039228718161175603 -0.047467637856372348 0 0.0057361812047740804 -0.044013371428507302 0 0.0045058636190886021 -0.04273092390714929 0 0.0057361812047740804 -0.044013371428507302 0 0.00538559093822869 -0.04150762027015234 0 0.0087376960620182235 -0.043693259510819829 0 0.0039228718161175603 -0.047467637856372348 0 0.0057361812047740804 -0.044013371428507302 0 0.0087376960620182235 -0.043693259510819829 0 0.0057361812047740804 -0.044013371428507302 0 0.0078195432208937789 -0.041295181227885593 0 0.0057361812047740804 -0.044013371428507302 0 0.0078195432208937789 -0.041295181227885593 0 0.00538559093822869 -0.04150762027015234 0 0.0078195432208937789 -0.041295181227885593 0 0.00538559093822869 -0.04150762027015234 0 0.0070260972552121841 -0.039245212430790634 0 0.0044081452101713313 -0.039360677507723429 0 0.00538559093822869 -0.04150762027015234 0 0.0070260972552121841 -0.039245212430790634 0 0.011905309405315591 -0.038504409731356694 0 0.0078195432208937789 -0.041295181227885593 0 0.0070260972552121841 -0.039245212430790634 0 0.00049172535513583257 -0.061423545311022364 0 0.0019135073961160831 -0.05868919697670065 0 0.00055746267168271921 -0.059615675884095942 0 0.011905309405315591 -0.038504409731356694 0 0.0087376960620182235 -0.043693259510819829 0 0.0078195432208937789 -0.041295181227885593 0 0.0077237250257919405 -0.050827344259105636 0 0.0061039476452763343 -0.051558443017080527 0 -0.01052327451903338 -0.0020308549797762986 0 -0.010249692350807573 -0.00065472030124686927 0 -0.010367007179392684 -0.003786002139687575 0 -0.01052327451903338 -0.0020308549797762986 0 -0.010888314021370082 -0.00076641571109727839 0 -0.010536957665461028 -0.0036363815644143214 0 -0.0081087752641010018 -0.0068764262081438153 0 -0.0091245586586930598 -0.0061424690968076966 0 -0.0072321957778659447 -0.010682382106823238 0 -0.0070682200389805272 -0.012808831328419455 0 -0.0091832604637790693 -0.0093322194252892666 0 -0.0062963339241669802 -0.011763301270448539 0 -0.0072321957778659447 -0.010682382106823238 0 -0.0070682200389805272 -0.012808831328419455 0 -0.01052327451903338 -0.0020308549797762986 0 -0.010888314021370082 -0.00076641571109727839 0 -0.010606755024023733 -0.00089975440410014886 0 -0.0072321957778659447 -0.010682382106823238 0 -0.0064427779563631651 -0.0096996635650190254 0 -0.0076334729604166417 -0.0093642478627565025 0 -0.0062963339241669802 -0.011763301270448539 0 -0.0072321957778659447 -0.010682382106823238 0 -0.0060902622275286165 -0.010790037751502324 0 -0.0072321957778659447 -0.010682382106823238 0 -0.0060902622275286165 -0.010790037751502324 0 -0.0064427779563631651 -0.0096996635650190254 0 -0.0060902622275286165 -0.010790037751502324 0 -0.0064427779563631651 -0.0096996635650190254 0 -0.0050266601324994182 -0.0098999404767604708 0 -0.0060902622275286165 -0.010790037751502324 0 -0.0051325447633178188 -0.01188604244768013 0 -0.0050266601324994182 -0.0098999404767604708 0 -0.0051325447633178188 -0.01188604244768013 0 -0.0050266601324994182 -0.0098999404767604708 0 -0.0036923810074548681 -0.011002074193576692 0 -0.0051325447633178188 -0.01188604244768013 0 -0.0036923810074548681 -0.011002074193576692 0 -0.0033090083679770993 -0.013170124922123652 0 -0.0062963339241669802 -0.011763301270448539 0 -0.0060902622275286165 -0.010790037751502324 0 -0.0051325447633178188 -0.01188604244768013 0 -0.0062963339241669802 -0.011763301270448539 0 -0.0051325447633178188 -0.01188604244768013 0 -0.0059187722043352693 -0.012551892778186953 0 -0.0059187722043352693 -0.012551892778186953 0 -0.0051969048620328188 -0.01373774538969526 0 -0.0070682200389805272 -0.012808831328419455 0 -0.0051325447633178188 -0.01188604244768013 0 -0.0059187722043352693 -0.012551892778186953 0 -0.0051969048620328188 -0.01373774538969526 0 -0.0051969048620328188 -0.01373774538969526 0 -0.0070682200389805272 -0.012808831328419455 0 -0.0051574440987110764 -0.015850131030024164 0 -0.0051325447633178188 -0.01188604244768013 0 -0.0051969048620328188 -0.01373774538969526 0 -0.0033090083679770993 -0.013170124922123652 0 -0.0051969048620328188 -0.01373774538969526 0 -0.0033090083679770993 -0.013170124922123652 0 -0.0035686506680183117 -0.014852492215998679 0 -0.010724172612717112 -0.00059028102624828437 0 -0.010652401399301939 -0.00042078439574039515 0 -0.010710149366600894 -0.00033561101844285519 0 -0.010888314021370082 -0.00076641571109727839 0 -0.010724172612717112 -0.00059028102624828437 0 -0.010710149366600894 -0.00033561101844285519 0 -0.0081087752641010018 -0.0068764262081438153 0 -0.0064243810882595618 -0.0080569231294698434 0 -0.0062963339241669802 -0.011763301270448539 0 -0.0059187722043352693 -0.012551892778186953 0 -0.0070682200389805272 -0.012808831328419455 0 -0.01052327451903338 -0.0020308549797762986 0 -0.010606755024023733 -0.00089975440410014886 0 -0.010249692350807573 -0.00065472030124686927 0 -0.010888314021370082 -0.00076641571109727839 0 -0.010606755024023733 -0.00089975440410014886 0 -0.010724172612717112 -0.00059028102624828437 0 -0.011706085136300347 0.00035148677116866167 0 -0.011734348833674012 0.0003653484264416038 0 -0.010606755024023733 -0.00089975440410014886 0 -0.010724172612717112 -0.00059028102624828437 0 -0.010249692350807573 -0.00065472030124686927 0 -0.010724172612717112 -0.00059028102624828437 0 -0.010612569913103331 -0.00045822123166570472 0 -0.010621710668727285 -0.00043765397283322075 0 -0.010724172612717112 -0.00059028102624828437 0 -0.010621710668727285 -0.00043765397283322075 0 -0.010652401399301939 -0.00042078439574039515 0 -0.010621710668727285 -0.00043765397283322075 0 -0.010652401399301939 -0.00042078439574039515 0 -0.010629106500132065 -0.00037291159803530094 0 -0.010612569913103331 -0.00045822123166570472 0 -0.010643324111140943 -0.00027413487949993196 0 -0.010726816587035769 0.0002816200016463899 0 -0.011734348833674012 0.0003653484264416038 0 -0.012303242938616487 0.0010926220332939599 0 -0.010652401399301939 -0.00042078439574039515 0 -0.010629106500132065 -0.00037291159803530094 0 -0.010641086485601017 -0.00036057861339086009 0 -0.010621710668727285 -0.00043765397283322075 0 -0.010629106500132065 -0.00037291159803530094 0 -0.010643324111140943 -0.00027413487949993196 0 -0.010646186027182225 -0.00031424054978421064 0 -0.010641086485601017 -0.00036057861339086009 0 -0.010675879245522242 -0.00024141611737240096 0 -0.010629106500132065 -0.00037291159803530094 0 -0.010646186027182225 -0.00031424054978421064 0 -0.010643324111140943 -0.00027413487949993196 0 -0.010629106500132065 -0.00037291159803530094 0 -0.010646186027182225 -0.00031424054978421064 0 -0.010641086485601017 -0.00036057861339086009 0 -0.010675879245522242 -0.00024141611737240096 0 -0.010735010111599013 -0.00024968919177286212 0 -0.010697047960065638 -0.00033880552937151978 0 -0.010641086485601017 -0.00036057861339086009 0 -0.010675879245522242 -0.00024141611737240096 0 -0.010697047960065638 -0.00033880552937151978 0 -0.010646186027182225 -0.00031424054978421064 0 -0.010675879245522242 -0.00024141611737240096 0 -0.010643324111140943 -0.00027413487949993196 0 -0.010675879245522242 -0.00024141611737240096 0 -0.010643324111140943 -0.00027413487949993196 0 -0.010726816587035769 0.0002816200016463899 0 -0.010612569913103331 -0.00045822123166570472 0 -0.010621710668727285 -0.00043765397283322075 0 -0.010643324111140943 -0.00027413487949993196 0 -0.010830245966968369 -0.00029233346967108136 0 -0.010788090863960308 -8.9849915630063021e-05 0 -0.011152553535160212 0.00012283116647002069 0 -0.010675879245522242 -0.00024141611737240096 0 -0.010735010111599013 -0.00024968919177286212 0 -0.010788090863960308 -8.9849915630063021e-05 0 -0.010830245966968369 -0.00029233346967108136 0 -0.010735010111599013 -0.00024968919177286212 0 -0.010697047960065638 -0.00033880552937151978 0 -0.010830245966968369 -0.00029233346967108136 0 -0.010735010111599013 -0.00024968919177286212 0 -0.010788090863960308 -8.9849915630063021e-05 0 -0.010675879245522242 -0.00024141611737240096 0 -0.010788090863960308 -8.9849915630063021e-05 0 -0.010726816587035769 0.0002816200016463899 0 -0.010788090863960308 -8.9849915630063021e-05 0 -0.010726816587035769 0.0002816200016463899 0 -0.011152553535160212 0.00012283116647002069 0 -0.013399382252549276 0.0025473903650046091 0 -0.013463436030214222 0.0024880783297605885 0 -0.013427962630413404 0.0024134750631519234 0 -0.013399382252549276 0.0025473903650046091 0 -0.013309994680302558 0.0024300830493556398 0 -0.013427962630413404 0.0024134750631519234 0 -0.013561632937970861 0.0025966156943319253 0 -0.013399382252549276 0.0025473903650046091 0 -0.013463436030214222 0.0024880783297605885 0 -0.013561632937970861 0.0025966156943319253 0 -0.013463436030214222 0.0024880783297605885 0 -0.013511806670627831 0.0024220017080121654 0 -0.011734348833674012 0.0003653484264416038 0 -0.012014793720761259 -9.8068335009990787e-05 0 -0.01052327451903338 -0.0020308549797762986 0 -0.010367007179392684 -0.003786002139687575 0 -0.010536957665461028 -0.0036363815644143214 0 -0.010367007179392684 -0.003786002139687575 0 -0.010536957665461028 -0.0036363815644143214 0 -0.011219648110792325 -0.0043621947913027063 0 -0.0091245586586930598 -0.0061424690968076966 0 -0.0096579787827928507 -0.0055063392371578037 0 -0.013463436030214222 0.0024880783297605885 0 -0.013511806670627831 0.0024220017080121654 0 -0.013427962630413404 0.0024134750631519234 0 -0.013511806670627831 0.0024220017080121654 0 -0.013427962630413404 0.0024134750631519234 0 -0.013461125923836135 0.0023110430073880707 0 -0.013309994680302558 0.0024300830493556398 0 -0.013427962630413404 0.0024134750631519234 0 -0.013323371746877238 0.0023680355570357106 0 -0.013427962630413404 0.0024134750631519234 0 -0.013323371746877238 0.0023680355570357106 0 -0.013392157017694202 0.0023361313747267591 0 -0.013427962630413404 0.0024134750631519234 0 -0.013392157017694202 0.0023361313747267591 0 -0.013461125923836135 0.0023110430073880707 0 -0.013323371746877238 0.0023680355570357106 0 -0.01333841874276072 0.0023024857276850675 0 -0.013392157017694202 0.0023361313747267591 0 -0.01333841874276072 0.0023024857276850675 0 -0.01341172776454278 0.0022839179645917124 0 -0.013392157017694202 0.0023361313747267591 0 -0.01341172776454278 0.0022839179645917124 0 -0.013461125923836135 0.0023110430073880707 0 -0.013446628287005366 0.0022378287669699648 0 -0.01341172776454278 0.0022839179645917124 0 -0.013392157017694202 0.0023361313747267591 0 -0.013461125923836135 0.0023110430073880707 0 -0.013529906137335561 0.0021879347080862319 0 -0.013404251956081633 0.0021900745587307025 0 -0.013446628287005366 0.0022378287669699648 0 -0.013529906137335561 0.0021879347080862319 0 -0.013461125923836135 0.0023110430073880707 0 -0.013446628287005366 0.0022378287669699648 0 -0.013404251956081633 0.0021900745587307025 0 -0.013446628287005366 0.0022378287669699648 0 -0.013384868248006542 0.0022491869051732899 0 -0.01341172776454278 0.0022839179645917124 0 -0.013446628287005366 0.0022378287669699648 0 -0.013384868248006542 0.0022491869051732899 0 -0.01333841874276072 0.0023024857276850675 0 -0.01341172776454278 0.0022839179645917124 0 -0.013384868248006542 0.0022491869051732899 0 -0.013404251956081633 0.0021900745587307025 0 -0.013384868248006542 0.0022491869051732899 0 -0.013330238283106517 0.0022420653888630699 0 -0.01333841874276072 0.0023024857276850675 0 -0.013384868248006542 0.0022491869051732899 0 -0.013330238283106517 0.0022420653888630699 0 -0.013529906137335561 0.0021879347080862319 0 -0.013511806670627831 0.0024220017080121654 0 -0.013461125923836135 0.0023110430073880707 0 -0.0091832604637790693 -0.0093322194252892666 0 -0.009351515299446965 -0.0062619329870931576 0 -0.011219648110792325 -0.0043621947913027063 0 -0.011512716554848939 -0.0043946414427408096 0 -0.010367007179392684 -0.003786002139687575 0 -0.011219648110792325 -0.0043621947913027063 0 -0.012328802530769614 -0.00017573741748508752 0 -0.012014793720761259 -9.8068335009990787e-05 0 -0.010508796573521707 -0.00387353947540233 0 -0.011512716554848939 -0.0043946414427408096 0 -0.011219648110792325 -0.0043621947913027063 0 -0.010508796573521707 -0.00387353947540233 0 -0.011219648110792325 -0.0043621947913027063 0 -0.0095843364252427548 -0.0045605734249784639 0 -0.009351515299446965 -0.0062619329870931576 0 -0.011219648110792325 -0.0043621947913027063 0 -0.0095843364252427548 -0.0045605734249784639 0 -0.0077555674085875237 -0.0039807658776190623 0 -0.0095843364252427548 -0.0045605734249784639 0 -0.0081629662210281166 -0.0057246880505497106 0 -0.0077555674085875237 -0.0039807658776190623 0 -0.0065419582110068696 -0.005196683317530499 0 -0.0081629662210281166 -0.0057246880505497106 0 -0.0055938488734320101 -0.0034128736146400891 0 -0.0077555674085875237 -0.0039807658776190623 0 -0.0065419582110068696 -0.005196683317530499 0 -0.0065419582110068696 -0.005196683317530499 0 -0.0065469704899979043 -0.0068827564113347357 0 -0.0081629662210281166 -0.0057246880505497106 0 -0.0065469704899979043 -0.0068827564113347357 0 -0.0081629662210281166 -0.0057246880505497106 0 -0.0084774463638218108 -0.007606828659473157 0 -0.009351515299446965 -0.0062619329870931576 0 -0.0081629662210281166 -0.0057246880505497106 0 -0.0084774463638218108 -0.007606828659473157 0 -0.009351515299446965 -0.0062619329870931576 0 -0.0095843364252427548 -0.0045605734249784639 0 -0.0081629662210281166 -0.0057246880505497106 0 -0.0091832604637790693 -0.0093322194252892666 0 -0.009351515299446965 -0.0062619329870931576 0 -0.0084774463638218108 -0.007606828659473157 0 -0.0084774463638218108 -0.007606828659473157 0 -0.0070633751598318138 -0.0083861060202817563 0 -0.0082009947958702843 -0.0086834276963413913 0 -0.0065469704899979043 -0.0068827564113347357 0 -0.0084774463638218108 -0.007606828659473157 0 -0.0070633751598318138 -0.0083861060202817563 0 -0.0070633751598318138 -0.0083861060202817563 0 -0.0064427779563631651 -0.0096996635650190254 0 -0.0076334729604166417 -0.0093642478627565025 0 -0.0070633751598318138 -0.0083861060202817563 0 -0.0076334729604166417 -0.0093642478627565025 0 -0.0082009947958702843 -0.0086834276963413913 0 -0.0091832604637790693 -0.0093322194252892666 0 -0.0084774463638218108 -0.007606828659473157 0 -0.0082009947958702843 -0.0086834276963413913 0 -0.0072321957778659447 -0.010682382106823238 0 -0.0091832604637790693 -0.0093322194252892666 0 -0.0076334729604166417 -0.0093642478627565025 0 -0.0091832604637790693 -0.0093322194252892666 0 -0.0076334729604166417 -0.0093642478627565025 0 -0.0082009947958702843 -0.0086834276963413913 0 -0.0050266601324994182 -0.0098999404767604708 0 -0.003574970021166122 -0.0082726273178982609 0 -0.0036923810074548681 -0.011002074193576692 0 -0.0050266601324994182 -0.0098999404767604708 0 -0.0052613276901896655 -0.0079789497939737573 0 -0.003574970021166122 -0.0082726273178982609 0 -0.0064427779563631651 -0.0096996635650190254 0 -0.0050266601324994182 -0.0098999404767604708 0 -0.0052613276901896655 -0.0079789497939737573 0 -0.0070633751598318138 -0.0083861060202817563 0 -0.0064427779563631651 -0.0096996635650190254 0 -0.0052613276901896655 -0.0079789497939737573 0 -0.0065469704899979043 -0.0068827564113347357 0 -0.0070633751598318138 -0.0083861060202817563 0 -0.0052613276901896655 -0.0079789497939737573 0 -0.0052613276901896655 -0.0079789497939737573 0 -0.0046235278399192328 -0.005980821287118002 0 -0.003574970021166122 -0.0082726273178982609 0 -0.0037285208159831143 -0.0040711790881755869 0 -0.0046235278399192328 -0.005980821287118002 0 -0.0030853884282813428 -0.0059545794397569971 0 -0.0065469704899979043 -0.0068827564113347357 0 -0.0052613276901896655 -0.0079789497939737573 0 -0.0046235278399192328 -0.005980821287118002 0 -0.0065419582110068696 -0.005196683317530499 0 -0.0065469704899979043 -0.0068827564113347357 0 -0.0046235278399192328 -0.005980821287118002 0 -0.0055938488734320101 -0.0034128736146400891 0 -0.0065419582110068696 -0.005196683317530499 0 -0.0046235278399192328 -0.005980821287118002 0 -0.0020185764460893679 -0.0043713215057297706 0 -0.0030853884282813428 -0.0059545794397569971 0 -0.0013113770977279066 -0.0073210893836040221 0 -0.0030853884282813428 -0.0059545794397569971 0 -0.0013113770977279066 -0.0073210893836040221 0 -0.003574970021166122 -0.0082726273178982609 0 -0.0046235278399192328 -0.005980821287118002 0 -0.0030853884282813428 -0.0059545794397569971 0 -0.003574970021166122 -0.0082726273178982609 0 0.00099252863287250864 -0.0059859998164997312 0 -0.00041929082527580408 -0.0052326246495447808 0 -0.0013113770977279066 -0.0073210893836040221 0 -0.0015012857214556465 -0.003894781326199249 0 -0.0013042620279513327 -0.0049266863540322189 0 -0.00065921417790785596 -0.0092559513875587768 0 0.0010266509919981352 -0.0085855864292041107 0 -0.00021533153335314041 -0.011209484343382396 0 -0.0013113770977279066 -0.0073210893836040221 0 -0.00065921417790785596 -0.0092559513875587768 0 -0.0022429622609171974 -0.010264718091865433 0 -0.0013113770977279066 -0.0073210893836040221 0 -0.00065921417790785596 -0.0092559513875587768 0 0.0010266509919981352 -0.0085855864292041107 0 -0.0013113770977279066 -0.0073210893836040221 0 -0.003574970021166122 -0.0082726273178982609 0 -0.0022429622609171974 -0.010264718091865433 0 -0.003574970021166122 -0.0082726273178982609 0 -0.0036923810074548681 -0.011002074193576692 0 -0.0022429622609171974 -0.010264718091865433 0 0.0039531561168372571 -0.0054438505178114934 0 0.0024990962673292231 -0.0066593971246229986 0 0.0040790952644653043 -0.0087355807106018341 0 0.00046020147904114842 -0.015154149438639927 0 0.00081239669263477999 -0.018255777538504034 0 0.0024990962673292231 -0.0066593971246229986 0 0.0010266509919981352 -0.0085855864292041107 0 0.0040790952644653043 -0.0087355807106018341 0 0.00099252863287250864 -0.0059859998164997312 0 -0.0013113770977279066 -0.0073210893836040221 0 0.0010266509919981352 -0.0085855864292041107 0 0.00099252863287250864 -0.0059859998164997312 0 0.0024990962673292231 -0.0066593971246229986 0 0.0010266509919981352 -0.0085855864292041107 0 0.0010266509919981352 -0.0085855864292041107 0 0.0040790952644653043 -0.0087355807106018341 0 0.0020359211286298316 -0.010962946559639131 0 0.0040081429412354725 -0.012381588648845534 0 0.0020359211286298316 -0.010962946559639131 0 0.0013098482751208781 -0.013973704276283859 0 0.00081239669263477999 -0.018255777538504034 0 0.0010113994065137071 -0.021145633397921838 0 0.0040790952644653043 -0.0087355807106018341 0 0.0040081429412354725 -0.012381588648845534 0 0.0020359211286298316 -0.010962946559639131 0 0.0010266509919981352 -0.0085855864292041107 0 0.0020359211286298316 -0.010962946559639131 0 -0.00021533153335314041 -0.011209484343382396 0 0.0020359211286298316 -0.010962946559639131 0 0.0013098482751208781 -0.013973704276283859 0 -0.00021533153335314041 -0.011209484343382396 0 0.0040081429412354725 -0.012381588648845534 0 0.0013098482751208781 -0.013973704276283859 0 0.0035470288301577657 -0.01595392764763208 0 0.0010113994065137071 -0.021145633397921838 0 0.0010344799957555991 -0.023430608884647638 0 -0.0020442945711391805 -0.01213766565845841 0 -0.0036923810074548681 -0.011002074193576692 0 -0.0033090083679770993 -0.013170124922123652 0 -0.0020442945711391805 -0.01213766565845841 0 -0.0036923810074548681 -0.011002074193576692 0 -0.0022429622609171974 -0.010264718091865433 0 -0.0020442945711391805 -0.01213766565845841 0 -0.0022429622609171974 -0.010264718091865433 0 -0.00021533153335314041 -0.011209484343382396 0 -0.00065921417790785596 -0.0092559513875587768 0 -0.0022429622609171974 -0.010264718091865433 0 -0.00021533153335314041 -0.011209484343382396 0 -0.0020442945711391805 -0.01213766565845841 0 -0.00021533153335314041 -0.011209484343382396 0 -0.0011245149585992055 -0.013642162546405512 0 0.0013098482751208781 -0.013973704276283859 0 -0.00021533153335314041 -0.011209484343382396 0 -0.0011245149585992055 -0.013642162546405512 0 0.0013098482751208781 -0.013973704276283859 0 -0.0011245149585992055 -0.013642162546405512 0 -0.00046180526613987449 -0.016177570434501496 0 -0.0011245149585992055 -0.013642162546405512 0 -0.0033090083679770993 -0.013170124922123652 0 -0.0020995028875994979 -0.014872482607648896 0 -0.0020442945711391805 -0.01213766565845841 0 -0.0011245149585992055 -0.013642162546405512 0 -0.0033090083679770993 -0.013170124922123652 0 -0.0033090083679770993 -0.013170124922123652 0 -0.0035686506680183117 -0.014852492215998679 0 -0.0020995028875994979 -0.014872482607648896 0 -0.0035686506680183117 -0.014852492215998679 0 -0.0023023606316354677 -0.016358918128261086 0 -0.0020995028875994979 -0.014872482607648896 0 -0.0011245149585992055 -0.013642162546405512 0 -0.0020995028875994979 -0.014872482607648896 0 -0.00046180526613987449 -0.016177570434501496 0 -0.0023023606316354677 -0.016358918128261086 0 -0.0020995028875994979 -0.014872482607648896 0 -0.00046180526613987449 -0.016177570434501496 0 -0.0023023606316354677 -0.016358918128261086 0 -0.00046180526613987449 -0.016177570434501496 0 -0.0012874635147162837 -0.018106469860895546 0 -0.00046180526613987449 -0.016177570434501496 0 -0.0012874635147162837 -0.018106469860895546 0 -0.00039345247467783195 -0.019226194139755154 0 -0.0012874635147162837 -0.018106469860895546 0 -0.0022800223303729582 -0.017779056586250036 0 -0.0015961776040048932 -0.018811348743829462 0 -0.0023023606316354677 -0.016358918128261086 0 -0.0022800223303729582 -0.017779056586250036 0 -0.0051574440987110764 -0.015850131030024164 0 -0.0022800223303729582 -0.017779056586250036 0 -0.0015961776040048932 -0.018811348743829462 0 -0.0031518262563345568 -0.018567759026078167 0 -0.0023023606316354677 -0.016358918128261086 0 -0.0012874635147162837 -0.018106469860895546 0 -0.0022800223303729582 -0.017779056586250036 0 0.0013098482751208781 -0.013973704276283859 0 0.0035470288301577657 -0.01595392764763208 0 0.0011401260669878911 -0.017642412615182859 0 0.0013098482751208781 -0.013973704276283859 0 -0.00046180526613987449 -0.016177570434501496 0 0.0011401260669878911 -0.017642412615182859 0 -0.00046180526613987449 -0.016177570434501496 0 0.0011401260669878911 -0.017642412615182859 0 -0.00039345247467783195 -0.019226194139755154 0 0.0010344799957555991 -0.023430608884647638 0 0.00073057118650139816 -0.024963182298274603 0 0.0035470288301577657 -0.01595392764763208 0 0.0011401260669878911 -0.017642412615182859 0 0.0028369613935205853 -0.019559528613166927 0 0.0011401260669878911 -0.017642412615182859 0 0.0028369613935205853 -0.019559528613166927 0 0.00011452088397457114 -0.021013930856240606 0 0.0011401260669878911 -0.017642412615182859 0 0.00011452088397457114 -0.021013930856240606 0 -0.00039345247467783195 -0.019226194139755154 0 0.00011452088397457114 -0.021013930856240606 0 -0.00039345247467783195 -0.019226194139755154 0 -0.00062188718632590111 -0.019719601242654757 0 0.00011452088397457114 -0.021013930856240606 0 -3.3826736904477059e-06 -0.021116592351669534 0 -0.00062188718632590111 -0.019719601242654757 0 0.0028369613935205853 -0.019559528613166927 0 0.00011452088397457114 -0.021013930856240606 0 6.8882828231646495e-06 -0.02623734956839819 0 0.00011452088397457114 -0.021013930856240606 0 -3.3826736904477059e-06 -0.021116592351669534 0 6.8882828231646495e-06 -0.02623734956839819 0 0.00073057118650139816 -0.024963182298274603 0 1.5697426722191634e-06 -0.026244626833230155 0 -0.0015961776040048932 -0.018811348743829462 0 -0.00091172389725458728 -0.019050397774158571 0 -0.00064580094555977314 -0.018863860724716679 0 -0.00091172389725458728 -0.019050397774158571 0 -0.0006167542469244149 -0.01853770678866596 0 -0.00064580094555977314 -0.018863860724716679 0 -0.0013691725222617155 -0.013841190649314696 0 -0.0032540347017013058 -0.010700656117179222 0 -1.5573812208121252e-06 -0.011933273739141022 0 -0.00022565805429083363 -0.011235405466331845 0 -0.0004829297549830927 -0.011163470971656772 0 -0.0015961776040048932 -0.018811348743829462 0 -0.00064580094555977314 -0.018863860724716679 0 -0.0018477918776006559 -0.018788793003388295 0 -0.002919323322335461 -0.011056775501725772 0 -0.0032540347017013058 -0.010700656117179222 0 -0.0012874635147162837 -0.018106469860895546 0 -0.0015961776040048932 -0.018811348743829462 0 -0.00091172389725458728 -0.019050397774158571 0 -0.0012874635147162837 -0.018106469860895546 0 -0.00039345247467783195 -0.019226194139755154 0 -0.00091172389725458728 -0.019050397774158571 0 -0.00039345247467783195 -0.019226194139755154 0 -0.00091172389725458728 -0.019050397774158571 0 -0.00062188718632590111 -0.019719601242654757 0 -3.3826736904477059e-06 -0.021116592351669534 0 -0.00062188718632590111 -0.019719601242654757 0 1.1051990471115811e-07 -0.015993609113499858 0 -0.0006167542469244149 -0.01853770678866596 0 -0.00062188718632590111 -0.019719601242654757 0 1.1051990471115811e-07 -0.015993609113499858 0 -0.00091172389725458728 -0.019050397774158571 0 -0.0006167542469244149 -0.01853770678866596 0 -0.00062188718632590111 -0.019719601242654757 0 -2.6156190998985634e-06 -0.015983096596906575 0 -0.0013691725222617155 -0.013841190649314696 0 3.639781064073994e-06 -0.015980566154074186 0 -1.5573812208121252e-06 -0.011933273739141022 0 -3.4916437712797862e-06 -0.011565685058111137 0 -0.0006167542469244149 -0.01853770678866596 0 1.1051990471115811e-07 -0.015993609113499858 0 -0.00064580094555977314 -0.018863860724716679 0 -1.5573812208121252e-06 -0.011933273739141022 0 -3.4916437712797862e-06 -0.011565685058111137 0 -0.00022565805429083363 -0.011235405466331845 0 -3.4916437712797862e-06 -0.011565685058111137 0 -0.00027730245064462768 -0.010526968212689001 0 -0.00022565805429083363 -0.011235405466331845 0 -3.4916437712797862e-06 -0.011565685058111137 0 3.2424402474211614e-06 -0.007156026356970247 0 -0.00027730245064462768 -0.010526968212689001 0 3.2424402474211614e-06 -0.007156026356970247 0 -0.00027730245064462768 -0.010526968212689001 0 0.00094249366550420944 -0.010109113504943479 0 -0.00027730245064462768 -0.010526968212689001 0 0.00041845957654686053 -0.011949808962601326 0 0.00094249366550420944 -0.010109113504943479 0 -0.00027730245064462768 -0.010526968212689001 0 -0.0004829297549830927 -0.011163470971656772 0 0.00041845957654686053 -0.011949808962601326 0 -0.00027730245064462768 -0.010526968212689001 0 -0.00022565805429083363 -0.011235405466331845 0 -0.0004829297549830927 -0.011163470971656772 0 -0.010649185039011584 -0.00040802653339661022 0 -0.010664671741209995 -0.00036791300876897024 0 -0.010710149366600894 -0.00033561101844285519 0 -0.0032540347017013058 -0.010700656117179222 0 -0.0049329421949064105 -0.0062592008055115337 0 -0.0022800223303729582 -0.017779056586250036 0 -0.0031518262563345568 -0.018567759026078167 0 -0.0051574440987110764 -0.015850131030024164 0 -0.0032540347017013058 -0.010700656117179222 0 -0.0064243810882595618 -0.0080569231294698434 0 -0.010652401399301939 -0.00042078439574039515 0 -0.010655896251516256 -0.00037470722562131308 0 -0.010710149366600894 -0.00033561101844285519 0 -0.010664671741209995 -0.00036791300876897024 0 -0.010655896251516256 -0.00037470722562131308 0 -0.010710149366600894 -0.00033561101844285519 0 -0.010664671741209995 -0.00036791300876897024 0 -0.010655896251516256 -0.00037470722562131308 0 -0.010668249332466977 -0.00036670453320768995 0 -0.010652401399301939 -0.00042078439574039515 0 -0.010641086485601017 -0.00036057861339086009 0 -0.010655896251516256 -0.00037470722562131308 0 -0.0035686506680183117 -0.014852492215998679 0 -0.0023023606316354677 -0.016358918128261086 0 -0.0051574440987110764 -0.015850131030024164 0 -0.0051969048620328188 -0.01373774538969526 0 -0.0035686506680183117 -0.014852492215998679 0 -0.0051574440987110764 -0.015850131030024164 0 -0.010830245966968369 -0.00029233346967108136 0 -0.01074927333021051 -0.00071141663468507759 0 -0.011564699443301267 -0.00035785697034262801 0 -0.010830245966968369 -0.00029233346967108136 0 -0.010736306253345609 -0.00039295625054625721 0 -0.010697047960065638 -0.00033880552937151978 0 -0.0065727702137452788 -0.0016282610852131447 0 -0.0063326539547343364 -0.0019688220786776424 0 -0.010641086485601017 -0.00036057861339086009 0 -0.010697047960065638 -0.00033880552937151978 0 -0.010668249332466977 -0.00036670453320768995 0 -0.010664671741209995 -0.00036791300876897024 0 -0.010736306253345609 -0.00039295625054625721 0 -0.010668249332466977 -0.00036670453320768995 0 -0.0049329421949064105 -0.0062592008055115337 0 -0.0063326539547343364 -0.0019688220786776424 0 -0.010736306253345609 -0.00039295625054625721 0 -0.010697047960065638 -0.00033880552937151978 0 -0.010668249332466977 -0.00036670453320768995 0 -0.010641086485601017 -0.00036057861339086009 0 -0.010655896251516256 -0.00037470722562131308 0 -0.010668249332466977 -0.00036670453320768995 0 0.00041845957654686053 -0.011949808962601326 0 0.0026170598176852261 -0.012952863775230835 0 0.0023264153979342681 -0.010965448350203886 0 -0.0063326539547343364 -0.0019688220786776424 0 -0.0027835070244978878 -0.0038803618106847985 0 -0.0049878947900761899 0.0033788063231813994 0 -0.0047954709540958176 0.0024059554308689768 0 -0.0055344359783472061 0.0028383582549018145 0 -0.0047954709540958176 0.0024059554308689768 0 -0.0052874687821122847 0.0021259129320468379 0 -0.0055344359783472061 0.0028383582549018145 0 -0.0047954709540958176 0.0024059554308689768 0 -0.0052874687821122847 0.0021259129320468379 0 -0.0046003470371375182 0.0014118222289088011 0 -0.0027835070244978878 -0.0038803618106847985 0 -0.00038297310713665544 -0.0042482427826019339 0 0.0023264153979342681 -0.010965448350203886 0 0.00094249366550420944 -0.010109113504943479 0 0.0022548777671095232 -0.0079920633694861767 0 0.00041845957654686053 -0.011949808962601326 0 0.0023264153979342681 -0.010965448350203886 0 0.00094249366550420944 -0.010109113504943479 0 3.2424402474211614e-06 -0.007156026356970247 0 0.00094249366550420944 -0.010109113504943479 0 0.0022548777671095232 -0.0079920633694861767 0 -0.00038297310713665544 -0.0042482427826019339 0 -5.6802336963685412e-06 -0.0041245381418925408 0 -1.5643870307265697e-07 -0.007138541510749094 0 -0.00038297310713665544 -0.0042482427826019339 0 -7.4018895390777232e-10 -0.0071454806643713314 0 -1.3485973366894558e-07 -0.0040004387400788639 0 -2.7363313888474319e-10 -0.004125241005571198 0 -0.0052874687821122847 0.0021259129320468379 0 -0.0046003470371375182 0.0014118222289088011 0 -0.0055122873376261964 0.0016279780559158208 0 -0.00038297310713665544 -0.0042482427826019339 0 -0.0032522432221875263 0.00038957126185478163 0 7.3569172553238936e-05 -0.0035416091871772037 0 1.1817469138605286e-06 -0.0041176062814339545 0 4.603781840371247e-06 0.0014681817247581188 0 1.1817469138605286e-06 -0.0041176062814339545 0 4.603781840371247e-06 0.0014681817247581188 0 -8.0099016663905761e-07 0.001950266544114083 0 -0.0032522432221875263 0.00038957126185478163 0 -0.0041776338167424151 0.0040462211245567026 0 4.603781840371247e-06 0.0014681817247581188 0 -8.0099016663905761e-07 0.001950266544114083 0 -2.2278343618735929e-05 0.0050328331544587076 0 1.2214377529673764e-06 0.0019561378216881565 0 -3.9727929136878898e-07 0.0075849145448432182 0 0.00012202595897453072 0.0078209111715138273 0 -4.5037419063740784e-07 0.0019588736674884953 0 -0.0005976180704012616 0.0043364837926628402 0 -8.0099016663905761e-07 0.001950266544114083 0 -2.2278343618735929e-05 0.0050328331544587076 0 -0.00022188235195601431 0.0051419402533233174 0 -0.0064079688525408964 0.001850107840025487 0 -0.0059841383487243566 0.00233236231043188 0 -0.0065811343564715508 0.0025699489494171281 0 -0.0055122873376261964 0.0016279780559158208 0 -0.0064079688525408964 0.001850107840025487 0 -0.0059841383487243566 0.00233236231043188 0 -0.0052874687821122847 0.0021259129320468379 0 -0.0055122873376261964 0.0016279780559158208 0 -0.0059841383487243566 0.00233236231043188 0 -0.0052874687821122847 0.0021259129320468379 0 -0.0059841383487243566 0.00233236231043188 0 -0.0055344359783472061 0.0028383582549018145 0 -0.00028656542816960374 0.0097445348659665389 0 -3.9727929136878898e-07 0.0075849145448432182 0 -2.1911476306936148e-06 0.01321205053993036 0 -0.00028656542816960374 0.0097445348659665389 0 -0.00064296418314436685 0.011157996444267215 0 -2.1911476306936148e-06 0.01321205053993036 0 -0.00022188235195601431 0.0051419402533233174 0 -0.00068151386444374067 0.010688695148721306 0 -0.00064296418314436685 0.011157996444267215 0 -2.2278343618735929e-05 0.0050328331544587076 0 -0.00022188235195601431 0.0051419402533233174 0 -0.00068151386444374067 0.010688695148721306 0 -0.0005976180704012616 0.0043364837926628402 0 -0.00078310488183251713 0.0054360953815018459 0 -0.00028656542816960374 0.0097445348659665389 0 0.00012202595897453072 0.0078209111715138273 0 -0.00064296418314436685 0.011157996444267215 0 -0.00028656542816960374 0.0097445348659665389 0 -3.9727929136878898e-07 0.0075849145448432182 0 0.00012202595897453072 0.0078209111715138273 0 -0.0073080734513435597 0.0020757657274345326 0 -0.0070522558210411842 0.0027497553503317189 0 -0.0065811343564715508 0.0025699489494171281 0 -0.0041776338167424151 0.0040462211245567026 0 -0.0046197607239214502 0.0077064874149841214 0 -0.0064079688525408964 0.001850107840025487 0 -0.0073080734513435597 0.0020757657274345326 0 -0.0065811343564715508 0.0025699489494171281 0 -0.0073080734513435597 0.0020757657274345326 0 -0.0075352787864811392 0.0030263247654762583 0 -0.0081973458372594198 0.0022988367053463688 0 -0.00068151386444374067 0.010688695148721306 0 -0.00064296418314436685 0.011157996444267215 0 0.0002544026710425376 0.012480214831189626 0 -0.0046197607239214502 0.0077064874149841214 0 -0.0052357940492519274 0.012115617140508685 0 -0.0073080734513435597 0.0020757657274345326 0 -0.0075352787864811392 0.0030263247654762583 0 -0.0070522558210411842 0.0027497553503317189 0 -0.0075352787864811392 0.0030263247654762583 0 -0.0070522558210411842 0.0027497553503317189 0 -0.0067215351290624793 0.0031851142386852024 0 -0.0070522558210411842 0.0027497553503317189 0 -0.0065811343564715508 0.0025699489494171281 0 -0.0067215351290624793 0.0031851142386852024 0 -0.0086464492900851786 0.0029890694674205576 0 -0.0088992089710818387 0.0032345568984889256 0 -0.0075352787864811392 0.0030263247654762583 0 -0.0067215351290624793 0.0031851142386852024 0 -0.0068621951052697675 0.0037820872592541506 0 -0.0088992089710818387 0.0032345568984889256 0 -0.0096735600273765519 0.003869989799579436 0 -0.0067111247273483948 0.0031326695166258704 0 -0.0068475844257249105 0.0037073888087497805 0 -0.0064158385458822553 0.003511606619251401 0 -0.013406476230714169 0.007775943575616142 0 -0.014552652042567797 0.0065312566537133266 0 -0.013443964044444437 0.0061534375187593908 0 -0.0092047847801712667 0.0062212532906912631 0 -0.0096735600273765519 0.003869989799579436 0 -0.013406476230714169 0.007775943575616142 0 -0.013443964044444437 0.0061534375187593908 0 -0.012419843936077092 0.0065771565019707599 0 -0.0059841383487243566 0.00233236231043188 0 -0.0055344359783472061 0.0028383582549018145 0 -0.0061676539666708349 0.0030179592623166916 0 -0.0059841383487243566 0.00233236231043188 0 -0.0065811343564715508 0.0025699489494171281 0 -0.0061676539666708349 0.0030179592623166916 0 -0.0065811343564715508 0.0025699489494171281 0 -0.0067111247273483948 0.0031326695166258704 0 -0.0061676539666708349 0.0030179592623166916 0 -0.0061676539666708349 0.0030179592623166916 0 -0.0064158385458822553 0.003511606619251401 0 -0.0057640526854920247 0.0037217992170552727 0 -0.0067111247273483948 0.0031326695166258704 0 -0.0061676539666708349 0.0030179592623166916 0 -0.0064158385458822553 0.003511606619251401 0 -0.0055344359783472061 0.0028383582549018145 0 -0.0061676539666708349 0.0030179592623166916 0 -0.0057640526854920247 0.0037217992170552727 0 -0.0049878947900761899 0.0033788063231813994 0 -0.0055344359783472061 0.0028383582549018145 0 -0.0057640526854920247 0.0037217992170552727 0 -0.0063326539547343364 -0.0019688220786776424 0 -0.0085239613170826223 0.00081634632651758816 0 -0.010830245966968369 -0.00029233346967108136 0 -0.011564699443301267 -0.00035785697034262801 0 -0.011152553535160212 0.00012283116647002069 0 -0.011564699443301267 -0.00035785697034262801 0 -0.01174385260647243 0.00038686728176818278 0 -0.011152553535160212 0.00012283116647002069 0 -0.012303242938616487 0.0010926220332939599 0 -0.012675163242786237 0.0015245807193155052 0 -0.013399382252549276 0.0025473903650046091 0 -0.013309994680302558 0.0024300830493556398 0 -0.013181116353696102 0.0024537691182169399 0 -0.01174385260647243 0.00038686728176818278 0 -0.011152553535160212 0.00012283116647002069 0 -0.0116499518152757 0.0011667514239496011 0 -0.010726816587035769 0.0002816200016463899 0 -0.011152553535160212 0.00012283116647002069 0 -0.0116499518152757 0.0011667514239496011 0 -0.0116499518152757 0.0011667514239496011 0 -0.012271322870188766 0.00092982766448174202 0 -0.013116930020005239 0.0021560820638614453 0 -0.012271322870188766 0.00092982766448174202 0 -0.01291303341439975 0.0010863030908231557 0 -0.013116930020005239 0.0021560820638614453 0 -0.01174385260647243 0.00038686728176818278 0 -0.012271322870188766 0.00092982766448174202 0 -0.012465774105343032 0.00032807873431733978 0 -0.01174385260647243 0.00038686728176818278 0 -0.0116499518152757 0.0011667514239496011 0 -0.012271322870188766 0.00092982766448174202 0 -0.012271322870188766 0.00092982766448174202 0 -0.012626698777373532 0.00072756450582514706 0 -0.01291303341439975 0.0010863030908231557 0 -0.012271322870188766 0.00092982766448174202 0 -0.012626698777373532 0.00072756450582514706 0 -0.012465774105343032 0.00032807873431733978 0 -0.012626698777373532 0.00072756450582514706 0 -0.012465774105343032 0.00032807873431733978 0 -0.012875896792565011 0.00057131145927309494 0 -0.012465774105343032 0.00032807873431733978 0 -0.012679087370312333 8.7560400726759157e-05 0 -0.012875896792565011 0.00057131145927309494 0 -0.0064158385458822553 0.003511606619251401 0 -0.0057640526854920247 0.0037217992170552727 0 -0.0065327229130902461 0.0040587499975288507 0 -0.011564699443301267 -0.00035785697034262801 0 -0.01174385260647243 0.00038686728176818278 0 -0.012465774105343032 0.00032807873431733978 0 -0.0085239613170826223 0.00081634632651758816 0 -0.009899581676493921 0.0029128402345723866 0 -0.011564699443301267 -0.00035785697034262801 0 -0.012465774105343032 0.00032807873431733978 0 -0.012640079199389587 0.00013437648471351476 0 -0.0099930701466459364 0.0028115083906455609 0 -0.009899581676493921 0.0029128402345723866 0 -0.0068475844257249105 0.0037073888087497805 0 -0.0064158385458822553 0.003511606619251401 0 -0.0065327229130902461 0.0040587499975288507 0 -0.010069730822265475 0.0030752680310002639 0 -0.010197536836499186 0.002933018789455108 0 -0.010021528734380647 0.0028554642658506985 0 -0.014552652042567797 0.0065312566537133266 0 -0.014352627787915431 0.0055787698267791251 0 -0.013443964044444437 0.0061534375187593908 0 -0.0096735600273765519 0.003869989799579436 0 -0.009899581676493921 0.0029128402345723866 0 -0.0096735600273765519 0.003869989799579436 0 -0.010935243051308307 0.0037665201888766068 0 -0.012679087370312333 8.7560400726759157e-05 0 -0.013485090170260823 0.00046499788373539355 0 -0.012875896792565011 0.00057131145927309494 0 -0.009899581676493921 0.0029128402345723866 0 -0.010935243051308307 0.0037665201888766068 0 -0.014352627787915431 0.0055787698267791251 0 -0.013443964044444437 0.0061534375187593908 0 -0.013470533236903245 0.0051690490710077979 0 -0.013443964044444437 0.0061534375187593908 0 -0.013470533236903245 0.0051690490710077979 0 -0.012695694177285699 0.0051616956269633415 0 -0.014284532033361372 0.0055270537722013364 0 -0.013470533236903245 0.0051690490710077979 0 -0.013930851498590488 0.0041689498596934708 0 -0.013470533236903245 0.0051690490710077979 0 -0.013249414855859759 0.0044826659347511535 0 -0.012695694177285699 0.0051616956269633415 0 -0.010935243051308307 0.0037665201888766068 0 -0.011692617069183934 0.0041227423083074191 0 -0.013470533236903245 0.0051690490710077979 0 -0.013249414855859759 0.0044826659347511535 0 -0.013930851498590488 0.0041689498596934708 0 -0.010935243051308307 0.0037665201888766068 0 -0.011865759192452693 0.0034214209926443249 0 -0.013485090170260823 0.00046499788373539355 0 -0.013273772991785521 0.0014341934636289216 0 -0.013598467196640512 0.0020080899299856902 0 -0.013485090170260823 0.00046499788373539355 0 -0.01291303341439975 0.0010863030908231557 0 -0.012875896792565011 0.00057131145927309494 0 -0.013485090170260823 0.00046499788373539355 0 -0.01291303341439975 0.0010863030908231557 0 -0.013273772991785521 0.0014341934636289216 0 -0.012626698777373532 0.00072756450582514706 0 -0.01291303341439975 0.0010863030908231557 0 -0.012875896792565011 0.00057131145927309494 0 -0.01291303341439975 0.0010863030908231557 0 -0.013273772991785521 0.0014341934636289216 0 -0.013116930020005239 0.0021560820638614453 0 -0.013598467196640512 0.0020080899299856902 0 -0.013274588618394074 0.0028439460053160011 0 -0.013193209416564931 0.0025514372685861053 0 -0.013273772991785521 0.0014341934636289216 0 -0.013116930020005239 0.0021560820638614453 0 -0.013598467196640512 0.0020080899299856902 0 -0.013116930020005239 0.0021560820638614453 0 -0.013598467196640512 0.0020080899299856902 0 -0.013193209416564931 0.0025514372685861053 0 -0.013116930020005239 0.0021560820638614453 0 -0.013193209416564931 0.0025514372685861053 0 -0.013126024100404983 0.0024177173351669335 0 -0.011865759192452693 0.0034214209926443249 0 -0.012103902020147659 0.0032771561487917778 0 -0.013930851498590488 0.0041689498596934708 0 -0.013167924619154123 0.0037801031583238466 0 -0.013274588618394074 0.0028439460053160011 0 -0.013249414855859759 0.0044826659347511535 0 -0.013167924619154123 0.0037801031583238466 0 -0.012720042302002771 0.0041210315694717508 0 -0.013249414855859759 0.0044826659347511535 0 -0.013930851498590488 0.0041689498596934708 0 -0.013167924619154123 0.0037801031583238466 0 -0.013274588618394074 0.0028439460053160011 0 -0.012735702355957392 0.003305255983080129 0 -0.012845305944314737 0.0027488390551189145 0 -0.013167924619154123 0.0037801031583238466 0 -0.013274588618394074 0.0028439460053160011 0 -0.012735702355957392 0.003305255983080129 0 -0.013193209416564931 0.0025514372685861053 0 -0.013154910759794991 0.0024833922359262721 0 -0.013126024100404983 0.0024177173351669335 0 -0.013274588618394074 0.0028439460053160011 0 -0.013193209416564931 0.0025514372685861053 0 -0.013165362941808565 0.0026374829997800708 0 -0.013193209416564931 0.0025514372685861053 0 -0.013154910759794991 0.0024833922359262721 0 -0.013165362941808565 0.0026374829997800708 0 -0.013154910759794991 0.0024833922359262721 0 -0.013150687948665999 0.0023922667229556807 0 -0.013175808379608535 0.0023734356763882771 0 -0.013154910759794991 0.0024833922359262721 0 -0.013126024100404983 0.0024177173351669335 0 -0.013150687948665999 0.0023922667229556807 0 -0.013126024100404983 0.0024177173351669335 0 -0.013150687948665999 0.0023922667229556807 0 -0.013129675784680918 0.002347481610697259 0 -0.013150687948665999 0.0023922667229556807 0 -0.013189192042034045 0.0023485609198133392 0 -0.013129675784680918 0.002347481610697259 0 -0.013150687948665999 0.0023922667229556807 0 -0.013200846465205853 0.0023230192948373767 0 -0.013189192042034045 0.0023485609198133392 0 -0.013150687948665999 0.0023922667229556807 0 -0.013200846465205853 0.0023230192948373767 0 -0.013175808379608535 0.0023734356763882771 0 -0.013200846465205853 0.0023230192948373767 0 -0.013259616385658981 0.0022975755347044179 0 -0.013189192042034045 0.0023485609198133392 0 -0.013200846465205853 0.0023230192948373767 0 -0.013259616385658981 0.0022975755347044179 0 -0.013259803385864223 0.0022455699687534011 0 -0.013330238283106517 0.0022420653888630699 0 -0.013259616385658981 0.0022975755347044179 0 -0.013259803385864223 0.0022455699687534011 0 -0.01333841874276072 0.0023024857276850675 0 -0.013330238283106517 0.0022420653888630699 0 -0.013259616385658981 0.0022975755347044179 0 -0.01333841874276072 0.0023024857276850675 0 -0.013259616385658981 0.0022975755347044179 0 -0.01325411396105205 0.0023398964664000143 0 -0.013323371746877238 0.0023680355570357106 0 -0.01333841874276072 0.0023024857276850675 0 -0.01325411396105205 0.0023398964664000143 0 -0.01325411396105205 0.0023398964664000143 0 -0.013189192042034045 0.0023485609198133392 0 -0.013223372957171135 0.0023766347411739662 0 -0.013259616385658981 0.0022975755347044179 0 -0.01325411396105205 0.0023398964664000143 0 -0.013189192042034045 0.0023485609198133392 0 -0.013189192042034045 0.0023485609198133392 0 -0.013223372957171135 0.0023766347411739662 0 -0.013129675784680918 0.002347481610697259 0 -0.013323371746877238 0.0023680355570357106 0 -0.01325411396105205 0.0023398964664000143 0 -0.013223372957171135 0.0023766347411739662 0 -0.013309994680302558 0.0024300830493556398 0 -0.013323371746877238 0.0023680355570357106 0 -0.013223372957171135 0.0023766347411739662 0 -0.013309994680302558 0.0024300830493556398 0 -0.013181116353696102 0.0024537691182169399 0 -0.013223372957171135 0.0023766347411739662 0 -0.013181116353696102 0.0024537691182169399 0 -0.013223372957171135 0.0023766347411739662 0 -0.013129675784680918 0.002347481610697259 0 -0.013181116353696102 0.0024537691182169399 0 -0.013116930020005239 0.0021560820638614453 0 -0.013129675784680918 0.002347481610697259 0 -0.012675163242786237 0.0015245807193155052 0 -0.012951808298418653 0.0017238197758838265 0 -0.013116930020005239 0.0021560820638614453 0 -0.013126024100404983 0.0024177173351669335 0 -0.013129675784680918 0.002347481610697259 0 -0.011237735657239921 0.0047252727154629007 0 -0.012060490174676301 0.0054107129574165382 0 -0.010740115627228309 0.0057556010403118927 0 -0.010442100277814588 0.0047911770753255598 0 -0.010740115627228309 0.0057556010403118927 0 -0.0096347602706179977 0.0051295834041148328 0 -0.010442100277814588 0.0047911770753255598 0 -0.011237735657239921 0.0047252727154629007 0 -0.010740115627228309 0.0057556010403118927 0 -0.010442100277814588 0.0047911770753255598 0 -0.011237735657239921 0.0047252727154629007 0 -0.010577400235813134 0.0039014579666944468 0 -0.011237735657239921 0.0047252727154629007 0 -0.011336106780998004 0.0039339933593663268 0 -0.010577400235813134 0.0039014579666944468 0 -0.012180958858104505 0.0039699487724711513 0 -0.011987353414065764 0.0048313636092107226 0 -0.011237735657239921 0.0047252727154629007 0 -0.012310242460115561 0.0043454723733987012 0 -0.012060490174676301 0.0054107129574165382 0 -0.011237735657239921 0.0047252727154629007 0 -0.012310242460115561 0.0043454723733987012 0 -0.011336106780998004 0.0039339933593663268 0 -0.012326512689517441 0.0029860048155078019 0 -0.012735702355957392 0.003305255983080129 0 -0.012845305944314737 0.0027488390551189145 0 -0.012326512689517441 0.0029860048155078019 0 -0.012735702355957392 0.003305255983080129 0 -0.011846075857472113 0.0040732818370055488 0 -0.012735702355957392 0.003305255983080129 0 -0.012720042302002771 0.0041210315694717508 0 -0.011846075857472113 0.0040732818370055488 0 -0.013167924619154123 0.0037801031583238466 0 -0.012735702355957392 0.003305255983080129 0 -0.012720042302002771 0.0041210315694717508 0 -0.011987353414065764 0.0048313636092107226 0 -0.011793730737344191 0.0057707261813727583 0 -0.012060490174676301 0.0054107129574165382 0 -0.011782987296550168 0.0063923205523672161 0 -0.010740115627228309 0.0057556010403118927 0 -0.012720042302002771 0.0041210315694717508 0 -0.011846075857472113 0.0040732818370055488 0 -0.012695694177285699 0.0051616956269633415 0 -0.011846075857472113 0.0040732818370055488 0 -0.012695694177285699 0.0051616956269633415 0 -0.011561109508938603 0.0056362041948747003 0 -0.013249414855859759 0.0044826659347511535 0 -0.012720042302002771 0.0041210315694717508 0 -0.012695694177285699 0.0051616956269633415 0 -0.012695694177285699 0.0051616956269633415 0 -0.011561109508938603 0.0056362041948747003 0 -0.012419843936077092 0.0065771565019707599 0 -0.013443964044444437 0.0061534375187593908 0 -0.012695694177285699 0.0051616956269633415 0 -0.012419843936077092 0.0065771565019707599 0 -0.011793730737344191 0.0057707261813727583 0 -0.011697898493862737 0.0062890793330819539 0 -0.011561109508938603 0.0056362041948747003 0 -0.012419843936077092 0.0065771565019707599 0 -0.011512877938585554 0.0072459487717080216 0 -0.011782987296550168 0.0063923205523672161 0 -0.010903976311590938 0.006613184945154749 0 -0.011512877938585554 0.0072459487717080216 0 -0.011782987296550168 0.0063923205523672161 0 -0.010903976311590938 0.006613184945154749 0 -0.010740115627228309 0.0057556010403118927 0 -0.012260913791116218 0.01252829689342959 0 -0.0084647942636759434 0.021966888139139239 0 -0.010903976311590938 0.006613184945154749 0 -0.010740115627228309 0.0057556010403118927 0 -0.010012334896534717 0.0067937011494665694 0 -0.010903976311590938 0.006613184945154749 0 -0.010559411002433699 0.0074730977456458755 0 -0.010012334896534717 0.0067937011494665694 0 -0.010559411002433699 0.0074730977456458755 0 -0.0099153547470296234 0.0076962455708624459 0 -0.0098470578974813386 0.0067694522067453322 0 -0.0066154242109805915 0.017056462510986598 0 -0.0084647942636759434 0.021966888139139239 0 -0.010903976311590938 0.006613184945154749 0 -0.010559411002433699 0.0074730977456458755 0 -0.011512877938585554 0.0072459487717080216 0 -0.010559411002433699 0.0074730977456458755 0 -0.011512877938585554 0.0072459487717080216 0 -0.011168995597725301 0.0085205345427519542 0 -0.0037957768577966153 0.022666436010210376 0 -0.0048361719182743092 0.017425285974578389 0 -0.010559411002433699 0.0074730977456458755 0 -0.010122349294482268 0.0083198983287725205 0 -0.011168995597725301 0.0085205345427519542 0 -0.010559411002433699 0.0074730977456458755 0 -0.0099153547470296234 0.0076962455708624459 0 -0.010122349294482268 0.0083198983287725205 0 -0.013406476230714169 0.007775943575616142 0 -0.012419843936077092 0.0065771565019707599 0 -0.012352467385750132 0.0076866468262422535 0 -0.012419843936077092 0.0065771565019707599 0 -0.011512877938585554 0.0072459487717080216 0 -0.012352467385750132 0.0076866468262422535 0 -0.011512877938585554 0.0072459487717080216 0 -0.012352467385750132 0.0076866468262422535 0 -0.011168995597725301 0.0085205345427519542 0 -0.012352467385750132 0.0076866468262422535 0 -0.012375157386018373 0.0088259742601933394 0 -0.011168995597725301 0.0085205345427519542 0 -0.0092047847801712667 0.0062212532906912631 0 -0.0052357940492519274 0.012115617140508685 0 -0.013406476230714169 0.007775943575616142 0 -0.012352467385750132 0.0076866468262422535 0 -0.012375157386018373 0.0088259742601933394 0 -0.00064296418314436685 0.011157996444267215 0 0.0002544026710425376 0.012480214831189626 0 1.0402426522710147e-05 0.014931820321498101 0 0.0058779039508573949 0.025457975414717639 0 0.0010850504271257301 0.02377257981260571 0 0.00039873854300227389 0.025988899439412249 0 -0.0052357940492519274 0.012115617140508685 0 -0.0048361719182743092 0.017425285974578389 0 -0.0052357940492519274 0.012115617140508685 0 -0.0012966264227201861 0.016490840325006056 0 4.3482534322272522e-06 0.018843318423339965 0 0.0002786193954485897 0.019427518778003441 0 1.0402426522710147e-05 0.014931820321498101 0 0.0058779039508573949 0.025457975414717639 0 0.0010850504271257301 0.02377257981260571 0 0.0002786193954485897 0.019427518778003441 0 0.0002544026710425376 0.012480214831189626 0 0.0002786193954485897 0.019427518778003441 0 1.0402426522710147e-05 0.014931820321498101 0 4.3482534322272522e-06 0.018843318423339965 0 -2.1911476306936148e-06 0.01321205053993036 0 1.0402426522710147e-05 0.014931820321498101 0 -0.00064296418314436685 0.011157996444267215 0 -2.1911476306936148e-06 0.01321205053993036 0 1.0402426522710147e-05 0.014931820321498101 0 -0.0010899449898215806 0.027301746393720086 0 -0.00034758266796583394 0.024324794439145609 0 -0.0006015035642386497 0.026831351174574726 0 -0.0010899449898215806 0.027301746393720086 0 0.00039873854300227389 0.025988899439412249 0 -0.00034758266796583394 0.024324794439145609 0 0.0010850504271257301 0.02377257981260571 0 0.00039873854300227389 0.025988899439412249 0 -0.00034758266796583394 0.024324794439145609 0 4.3482534322272522e-06 0.018843318423339965 0 0.0002786193954485897 0.019427518778003441 0 -2.6663802741054512e-06 0.024473978428453318 0 0.0002786193954485897 0.019427518778003441 0 -0.00034758266796583394 0.024324794439145609 0 -2.6663802741054512e-06 0.024473978428453318 0 0.0010850504271257301 0.02377257981260571 0 0.0002786193954485897 0.019427518778003441 0 -0.00034758266796583394 0.024324794439145609 0 -0.00034758266796583394 0.024324794439145609 0 -2.6663802741054512e-06 0.024473978428453318 0 -0.0006015035642386497 0.026831351174574726 0 -2.6663802741054512e-06 0.024473978428453318 0 -0.0006015035642386497 0.026831351174574726 0 -2.3538113644961356e-07 0.030102313100977447 0 -0.0006015035642386497 0.026831351174574726 0 -0.00048806301343103049 0.029095629231308786 0 -2.3538113644961356e-07 0.030102313100977447 0 -0.0010899449898215806 0.027301746393720086 0 -0.0006015035642386497 0.026831351174574726 0 -0.00048806301343103049 0.029095629231308786 0 -0.0010899449898215806 0.027301746393720086 0 -0.00048806301343103049 0.029095629231308786 0 -4.6147785043593883e-05 0.027636244702297807 0 0.00025409347631776187 0.03271976447334389 0 -0.00044586942633543169 0.035341716912759599 0 0.0023871186019548303 0.036211730003774763 0 0.00018141000632696582 0.031268778386567365 0 -0.00046920214485920536 0.030017711019574275 0 -0.00048806301343103049 0.029095629231308786 0 0.00025409347631776187 0.03271976447334389 0 -4.6147785043593883e-05 0.027636244702297807 0 -0.00048806301343103049 0.029095629231308786 0 -2.3538113644961356e-07 0.030102313100977447 0 0.00025409347631776187 0.03271976447334389 0 0.00025409347631776187 0.03271976447334389 0 -3.0510928043743444e-07 0.035730377816309229 0 -0.00034613846177748378 0.036815012170208147 0 -2.3538113644961356e-07 0.030102313100977447 0 0.00025409347631776187 0.03271976447334389 0 -3.0510928043743444e-07 0.035730377816309229 0 0.00025409347631776187 0.03271976447334389 0 -0.00034613846177748378 0.036815012170208147 0 -0.00065622443167091913 0.036278516765452427 0 -3.0510928043743444e-07 0.035730377816309229 0 -0.00034613846177748378 0.036815012170208147 0 -1.3708932152952428e-06 0.041360346083616432 0 -0.00034613846177748378 0.036815012170208147 0 -0.00065622443167091913 0.036278516765452427 0 -0.00016239640963782435 0.03853860935413423 0 0.00094931467098133607 0.046634886878716142 0 0.0005190627486178482 0.048044627862058188 0 -0.00065622443167091913 0.036278516765452427 0 -0.00043680021170427026 0.035833445224212376 0 -0.00018622637636653091 0.036074782379849651 0 -0.00065622443167091913 0.036278516765452427 0 -0.00063990598105614915 0.035768476977989058 0 -0.00044586942633543169 0.035341716912759599 0 -0.00065622443167091913 0.036278516765452427 0 -0.00063990598105614915 0.035768476977989058 0 -0.00068911639287938531 0.03580003269189707 0 -0.00065622443167091913 0.036278516765452427 0 -0.00043680021170427026 0.035833445224212376 0 -0.00068911639287938531 0.03580003269189707 0 0.00025409347631776187 0.03271976447334389 0 -0.00065622443167091913 0.036278516765452427 0 -0.00044586942633543169 0.035341716912759599 0 -0.00083251503069560148 0.039272594227201522 0 -0.0010752231493541269 0.047383483165497002 0 -0.00044586942633543169 0.035341716912759599 0 0.00048609930445758911 0.036536090793830717 0 0.0023871186019548303 0.036211730003774763 0 0.00048609930445758911 0.036536090793830717 0 -0.00058514915121950326 0.035920552078452225 0 -0.00066974668011042125 0.036408991344773968 0 -0.00063990598105614915 0.035768476977989058 0 -0.00044586942633543169 0.035341716912759599 0 -0.00058514915121950326 0.035920552078452225 0 -0.00044586942633543169 0.035341716912759599 0 0.00048609930445758911 0.036536090793830717 0 -0.00058514915121950326 0.035920552078452225 0 -0.00087664741431216307 0.035759232145930658 0 -0.00068911639287938531 0.03580003269189707 0 -0.00066974668011042125 0.036408991344773968 0 0.0003486275628978072 0.048657616680467378 0 0.00025505770998860431 0.048459476079867218 0 -0.00063990598105614915 0.035768476977989058 0 -0.00068911639287938531 0.03580003269189707 0 -0.00058514915121950326 0.035920552078452225 0 -0.00068911639287938531 0.03580003269189707 0 -0.00058514915121950326 0.035920552078452225 0 -0.00066974668011042125 0.036408991344773968 0 0.0003486275628978072 0.048657616680467378 0 -0.0010752231493541269 0.047383483165497002 0 0.00017589383682280015 0.051908932415816005 0 0.00077414812862155004 0.050992680125192827 0 0.0018854681878652821 0.051449124573135059 0 0.00017589383682280015 0.051908932415816005 0 0.00077414812862155004 0.050992680125192827 0 -0.00080348454231591508 0.051030747243408406 0 -0.0010155048384612201 0.052076008920332692 0 -0.00080348454231591508 0.051030747243408406 0 -0.0016873241273762496 0.051299332233860871 0 -0.0010155048384612201 0.052076008920332692 0 4.9066321947789887e-05 0.051836188514527544 0 -0.00080348454231591508 0.051030747243408406 0 -0.0010752231493541269 0.047383483165497002 0 -0.00041640078642491503 0.048398445192149503 0 -0.00080348454231591508 0.051030747243408406 0 -0.0016873241273762496 0.051299332233860871 0 -0.0011315596389715019 0.050326258310888335 0 -0.0016873241273762496 0.051299332233860871 0 -0.0022026145289082625 0.050641712592433531 0 -0.0011315596389715019 0.050326258310888335 0 -0.0016873241273762496 0.051299332233860871 0 -0.0027722655028993843 0.051310085157934678 0 -0.0021350398115885204 0.052302602487485007 0 -0.0016873241273762496 0.051299332233860871 0 -0.0027722655028993843 0.051310085157934678 0 -0.0022026145289082625 0.050641712592433531 0 -0.0099153547470296234 0.0076962455708624459 0 -0.0094228961804025506 0.0074295636468384605 0 -0.0098470578974813386 0.0067694522067453322 0 -0.0027722655028993843 0.051310085157934678 0 -0.0034021741107821465 0.050297597010614446 0 -0.0022026145289082625 0.050641712592433531 0 -0.0043817718430224977 0.026747664518300397 0 -0.0084647942636759434 0.021966888139139239 0 -0.0099153547470296234 0.0076962455708624459 0 -0.0094228961804025506 0.0074295636468384605 0 -0.0089837355981254516 0.0081320278348679838 0 -0.0037957768577966153 0.022666436010210376 0 -0.00046920214485920536 0.030017711019574275 0 -0.0099153547470296234 0.0076962455708624459 0 -0.010122349294482268 0.0083198983287725205 0 -0.0089837355981254516 0.0081320278348679838 0 -0.0043817718430224977 0.026747664518300397 0 -0.00046920214485920536 0.030017711019574275 0 -0.00083251503069560148 0.039272594227201522 0 -0.00046920214485920536 0.030017711019574275 0 -0.0010155048384612201 0.052076008920332692 0 -0.0016873241273762496 0.051299332233860871 0 -0.0021350398115885204 0.052302602487485007 0 0.0013690265953023393 0.055544425695596707 0 0.00066327293858071013 0.056219901452521301 0 0.0010609993558986391 0.056640947765146922 0 0.0031615409678480088 0.059018364699037124 0 -0.00066746429526800177 0.058631530649011672 0 0.0010609993558986391 0.056640947765146922 0 0.0049339789540955876 0.056048167754411619 0 0.0031615409678480088 0.059018364699037124 0 0.0010609993558986391 0.056640947765146922 0 5.8787739125369407e-06 0.051697704718753387 0 0.0049339789540955876 0.056048167754411619 0 9.6693830513023464e-07 0.051688621936611535 0 0.0010710094039914379 0.052376359107618842 0 1.9131503245801039e-08 0.047001178270386974 0 -7.4387532797447455e-05 0.04777318631675892 0 0.0007236670285141562 0.047651794018383806 0 -1.7737343574024592e-08 0.05167834408093043 0 1.9131503245801039e-08 0.047001178270386974 0 -7.4387532797447455e-05 0.04777318631675892 0 0.0062407517602914445 0.058404367137030788 0 0.0083269336045782502 0.059314398743546805 0 0.0031615409678480088 0.059018364699037124 0 0.0049339789540955876 0.056048167754411619 0 0.0062407517602914445 0.058404367137030788 0 0.0086288877757895628 0.059329263822360728 0 0.0049339789540955876 0.056048167754411619 0 0.0062407517602914445 0.058404367137030788 0 0.0031615409678480088 0.059018364699037124 0 0.0010710094039914379 0.052376359107618842 0 0.00058502058264490195 0.052439329749802359 0 0.0007236670285141562 0.047651794018383806 0 0.0013555936700556516 0.048251852119017974 0 0.00075972597314674173 0.04850565797646738 0 -7.4387532797447455e-05 0.04777318631675892 0 0.0007236670285141562 0.047651794018383806 0 0.00075972597314674173 0.04850565797646738 0 3.8957697719851618e-06 0.046984992432245562 0 0.00060325242650276201 0.040754150749733688 0 -1.3708932152952428e-06 0.041360346083616432 0 -1.2747886039486232e-06 0.046988842115787889 0 -0.00046321017079252691 0.046359871365043506 0 0.00060325242650276201 0.040754150749733688 0 -1.3708932152952428e-06 0.041360346083616432 0 -0.00016239640963782435 0.03853860935413423 0 -0.00034613846177748378 0.036815012170208147 0 -1.3708932152952428e-06 0.041360346083616432 0 -0.00016239640963782435 0.03853860935413423 0 0.00060325242650276201 0.040754150749733688 0 -0.00016239640963782435 0.03853860935413423 0 7.761245633799242e-05 0.037542013377533469 0 -0.00065622443167091913 0.036278516765452427 0 -0.00016239640963782435 0.03853860935413423 0 7.761245633799242e-05 0.037542013377533469 0 -0.00046321017079252691 0.046359871365043506 0 0.0005190627486178482 0.048044627862058188 0 0.0005190627486178482 0.048044627862058188 0 0.00058502058264490195 0.052439329749802359 0 0.0003486275628978072 0.048657616680467378 0 0.0005190627486178482 0.048044627862058188 0 0.00056905819538255063 0.058465262186234497 0 0.00029862714529423789 0.058594999998855021 0 0.00013797319220125651 0.058447406605448844 0 0.00056905819538255063 0.058465262186234497 0 0.00082098446396658669 0.058688559425775284 0 0.0003015540866896078 0.058840556145295146 0 0.00056905819538255063 0.058465262186234497 0 0.00029862714529423789 0.058594999998855021 0 0.0003015540866896078 0.058840556145295146 0 -4.8767646676838552e-05 0.050770043827495226 0 0.00033709225987454142 0.051134244267165681 0 0.001052295493201276 0.050837072887695879 0 0.0003486275628978072 0.048657616680467378 0 0.00058502058264490195 0.052439329749802359 0 -0.0010752231493541269 0.047383483165497002 0 0.00024396582023321293 0.051581841845855618 0 0.0003015540866896078 0.058840556145295146 0 7.1066560973778213e-05 0.058743910904397373 0 -0.00019471650003596979 0.05899442232523739 0 0.00024396582023321293 0.051581841845855618 0 0.001073709464370602 0.053540788395769791 0 0.0018854681878652821 0.051449124573135059 0 0.0031100490711584599 0.051145285923528613 0 0.0026472852477404389 0.050239747329046555 0 -4.1518315330581651e-05 0.058669804270850591 0 7.1066560973778213e-05 0.058743910904397373 0 0.00012115100763408571 0.058587163511122732 0 -4.1518315330581651e-05 0.058669804270850591 0 7.1066560973778213e-05 0.058743910904397373 0 -0.00013555462003399883 0.058782497102419597 0 0.00029862714529423789 0.058594999998855021 0 7.1066560973778213e-05 0.058743910904397373 0 0.00012115100763408571 0.058587163511122732 0 0.00029862714529423789 0.058594999998855021 0 0.0003015540866896078 0.058840556145295146 0 7.1066560973778213e-05 0.058743910904397373 0 0.00029862714529423789 0.058594999998855021 0 0.00012115100763408571 0.058587163511122732 0 0.00015130979596454677 0.058483049551580263 0 0.00088356580962748127 0.0529604542284643 0 0.00058502058264490195 0.052439329749802359 0 0.00012115100763408571 0.058587163511122732 0 0.00015130979596454677 0.058483049551580263 0 0.0001201812160528112 0.058480827416519741 0 0.00058502058264490195 0.052439329749802359 0 0.00072566470421158151 0.052940258676093963 0 0.0062407517602914445 0.058404367137030788 0 0.0086288877757895628 0.059329263822360728 0 0.0083269336045782502 0.059314398743546805 0 -4.1518315330581651e-05 0.058669804270850591 0 0.00012115100763408571 0.058587163511122732 0 0.0001201812160528112 0.058480827416519741 0 0.00072566470421158151 0.052940258676093963 0 -0.00074255220379082943 0.056257106603451956 0 0.0003754475965771231 0.058622179319671633 0 -0.00019027229408667961 0.058860707522778916 0 -0.00015886721609336188 0.058624032477460217 0 -4.1518315330581651e-05 0.058669804270850591 0 0.0001201812160528112 0.058480827416519741 0 -0.00037955010853732478 0.058757898914980469 0 -4.1518315330581651e-05 0.058669804270850591 0 -0.00013555462003399883 0.058782497102419597 0 -0.00037955010853732478 0.058757898914980469 0 0.00072566470421158151 0.052940258676093963 0 0.0013690265953023393 0.055544425695596707 0 7.1066560973778213e-05 0.058743910904397373 0 -0.00013555462003399883 0.058782497102419597 0 -0.00019471650003596979 0.05899442232523739 0 -0.00013555462003399883 0.058782497102419597 0 -0.00019471650003596979 0.05899442232523739 0 -0.00037955010853732478 0.058757898914980469 0 0.001073709464370602 0.053540788395769791 0 0.0016067502931510528 0.054552715991363868 0 -0.00019471650003596979 0.05899442232523739 0 -0.00037955010853732478 0.058757898914980469 0 -0.00062103941640052548 0.059134199905081536 0 -0.00019027229408667961 0.058860707522778916 0 -0.00015886721609336188 0.058624032477460217 0 -0.00066746429526800177 0.058631530649011672 0 0.0035248446445883806 0.05024154115839724 0 0.0036498777670121337 0.04969927632857031 0 0.0041699012006868657 0.050102322708867282 0 0.0035248446445883806 0.05024154115839724 0 0.0031338781964412982 0.049754513605072062 0 0.0036498777670121337 0.04969927632857031 0 0.0035248446445883806 0.05024154115839724 0 0.0041412850821003237 0.050953243204091433 0 0.0041699012006868657 0.050102322708867282 0 0.0031100490711584599 0.051145285923528613 0 0.0035248446445883806 0.05024154115839724 0 0.0041412850821003237 0.050953243204091433 0 0.0031100490711584599 0.051145285923528613 0 0.0035248446445883806 0.05024154115839724 0 0.0026472852477404389 0.050239747329046555 0 0.0035248446445883806 0.05024154115839724 0 0.0031338781964412982 0.049754513605072062 0 0.0026472852477404389 0.050239747329046555 0 0.0031338781964412982 0.049754513605072062 0 0.0026472852477404389 0.050239747329046555 0 0.0025011477431921047 0.049547194460808151 0 0.0026472852477404389 0.050239747329046555 0 0.0014494042943843564 0.049814840501381859 0 0.0025011477431921047 0.049547194460808151 0 0.0018854681878652821 0.051449124573135059 0 0.0026472852477404389 0.050239747329046555 0 0.0014494042943843564 0.049814840501381859 0 0.00077414812862155004 0.050992680125192827 0 0.0018854681878652821 0.051449124573135059 0 0.0014494042943843564 0.049814840501381859 0 0.0012073883747498093 0.047777699244421795 0 0.0016611291199863853 0.046782722710458448 0 0.0014494042943843564 0.049814840501381859 0 0.0019125397329526391 0.048187063712199468 0 0.00092984502690852977 0.04823341069882172 0 0.0014494042943843564 0.049814840501381859 0 0.0019125397329526391 0.048187063712199468 0 0.0032090444172793824 0.048443946712537357 0 0.0019125397329526391 0.048187063712199468 0 0.0015038935702310712 0.047403251927275146 0 0.00092984502690852977 0.04823341069882172 0 0.0019125397329526391 0.048187063712199468 0 0.0015038935702310712 0.047403251927275146 0 0.0026989423867360171 0.047473686629151871 0 -0.00059639154301135814 0.034294024416103415 0 -0.0035113981901460918 0.027707483003057806 0 -0.0030256789822877689 0.029306407289010877 0 -0.0037967990126915327 0.029157857765275071 0 -0.0031894473986834263 0.028615137849713982 0 -0.0030256789822877689 0.029306407289010877 0 -0.0026714862207667923 0.028858924018726965 0 -0.0031894473986834263 0.028615137849713982 0 0.0015038935702310712 0.047403251927275146 0 0.0022246265161742357 0.046681332433178721 0 0.00073029987479728215 0.04643295735512111 0 0.0015038935702310712 0.047403251927275146 0 0.0022246265161742357 0.046681332433178721 0 0.0026989423867360171 0.047473686629151871 0 -0.00059639154301135814 0.034294024416103415 0 0.0013400756785927111 0.03963644697177942 0 -0.0022454385540166869 0.029464081988933046 0 -0.0021523733997064263 0.028615976102711677 0 -0.0026714862207667923 0.028858924018726965 0 0.0022246265161742357 0.046681332433178721 0 0.0026989423867360171 0.047473686629151871 0 0.0037556285515113717 0.046946663508025288 0 -0.0030256789822877689 0.029306407289010877 0 -0.0022454385540166869 0.029464081988933046 0 -0.0026714862207667923 0.028858924018726965 0 0.0037191268153437826 0.047268911643675735 0 0.0026989423867360171 0.047473686629151871 0 0.0037556285515113717 0.046946663508025288 0 0.0037191268153437826 0.047268911643675735 0 0.0026989423867360171 0.047473686629151871 0 0.0032090444172793824 0.048443946712537357 0 0.0019125397329526391 0.048187063712199468 0 0.0026989423867360171 0.047473686629151871 0 0.0032090444172793824 0.048443946712537357 0 0.0031338781964412982 0.049754513605072062 0 0.0033267484684140112 0.04915462247742329 0 0.0036498777670121337 0.04969927632857031 0 0.0037191268153437826 0.047268911643675735 0 0.0032090444172793824 0.048443946712537357 0 0.004876338054703281 0.047146997246734802 0 0.0031338781964412982 0.049754513605072062 0 0.0025011477431921047 0.049547194460808151 0 0.0033267484684140112 0.04915462247742329 0 0.0016611291199863853 0.046782722710458448 0 0.0024864198400849813 0.043753815001673996 0 0.0013400756785927111 0.03963644697177942 0 0.0024864198400849813 0.043753815001673996 0 0.0013400756785927111 0.03963644697177942 0 -0.00093580921988070697 0.03362968301693614 0 0.0037191268153437826 0.047268911643675735 0 0.0037557619798115039 0.046949350624762069 0 0.004876338054703281 0.047146997246734802 0 0.0030290318814821604 0.043742219497118304 0 0.002876350014742058 0.043986560285688495 0 0.0029549610570910934 0.044312549437505296 0 0.0030290318814821604 0.043742219497118304 0 0.002876350014742058 0.043986560285688495 0 0.0026197730893531947 0.043664018100020907 0 0.0013393432631591035 0.039806970898870454 0 0.0013400756785927111 0.03963644697177942 0 0.0024475424026087207 0.044143443603496979 0 0.0020114785722771312 0.044243328741371581 0 0.0021705243800754434 0.044294291579491413 0 0.0018319898360630797 0.044234975078648493 0 0.0018388237111189661 0.04454355822882497 0 0.002876350014742058 0.043986560285688495 0 0.0026197730893531947 0.043664018100020907 0 0.0020059602507841636 0.04412740718625386 0 0.0024864198400849813 0.043753815001673996 0 0.0020114785722771312 0.044243328741371581 0 0.0036498777670121337 0.04969927632857031 0 0.0041699012006868657 0.050102322708867282 0 0.0040971929577381262 0.04942024418436998 0 0.0024864198400849813 0.043753815001673996 0 0.0029208504884693227 0.046040851751443249 0 0.0033267484684140112 0.04915462247742329 0 0.0036498777670121337 0.04969927632857031 0 0.0040971929577381262 0.04942024418436998 0 -0.0023296673151197472 0.04907418566386515 0 -0.0014515148862143269 0.049113505163651094 0 -0.0019652585317816188 0.049856699158506004 0 -0.0014515148862143269 0.049113505163651094 0 -0.0019652585317816188 0.049856699158506004 0 -0.0011107126476004128 0.049554158404313826 0 -0.0023296673151197472 0.04907418566386515 0 -0.0014515148862143269 0.049113505163651094 0 -0.001240875013709795 0.0482024704162589 0 -0.010740115627228309 0.0057556010403118927 0 -0.0093808702298520397 0.0060853510461893398 0 -0.01008348366023574 0.006910930227519315 0 -0.0023296673151197472 0.04907418566386515 0 -0.0034021741107821465 0.050297597010614446 0 -0.0019652585317816188 0.049856699158506004 0 -0.0034021741107821465 0.050297597010614446 0 -0.0022026145289082625 0.050641712592433531 0 -0.0019652585317816188 0.049856699158506004 0 -0.0080076707790067338 0.024268721212185318 0 -0.0084647942636759434 0.021966888139139239 0 -0.0019652585317816188 0.049856699158506004 0 -0.0011315596389715019 0.050326258310888335 0 -0.0011107126476004128 0.049554158404313826 0 -0.0022026145289082625 0.050641712592433531 0 -0.0019652585317816188 0.049856699158506004 0 -0.0011315596389715019 0.050326258310888335 0 -0.0011315596389715019 0.050326258310888335 0 0.00018123975060473072 0.050236904203182275 0 -0.00044854390872196067 0.049613295642464916 0 -0.00080348454231591508 0.051030747243408406 0 -0.0011315596389715019 0.050326258310888335 0 0.00018123975060473072 0.050236904203182275 0 -0.0011315596389715019 0.050326258310888335 0 -0.0011107126476004128 0.049554158404313826 0 -0.00044854390872196067 0.049613295642464916 0 0.00077414812862155004 0.050992680125192827 0 -0.00080348454231591508 0.051030747243408406 0 0.00018123975060473072 0.050236904203182275 0 0.00077414812862155004 0.050992680125192827 0 0.0014494042943843564 0.049814840501381859 0 0.00018123975060473072 0.050236904203182275 0 0.0014494042943843564 0.049814840501381859 0 0.00018123975060473072 0.050236904203182275 0 0.0001898109928433537 0.048966562891270604 0 0.0014494042943843564 0.049814840501381859 0 0.0001898109928433537 0.048966562891270604 0 0.00092984502690852977 0.04823341069882172 0 0.00018123975060473072 0.050236904203182275 0 0.0001898109928433537 0.048966562891270604 0 -0.00044854390872196067 0.049613295642464916 0 -0.0014515148862143269 0.049113505163651094 0 -0.0011107126476004128 0.049554158404313826 0 -0.00071325632338618372 0.048939286209129608 0 -0.0011107126476004128 0.049554158404313826 0 -0.00044854390872196067 0.049613295642464916 0 -0.00071325632338618372 0.048939286209129608 0 0.0001898109928433537 0.048966562891270604 0 -0.00044854390872196067 0.049613295642464916 0 -0.00071325632338618372 0.048939286209129608 0 0.0001898109928433537 0.048966562891270604 0 -0.00071325632338618372 0.048939286209129608 0 -0.00036880519878949923 0.048288851545602446 0 -0.00071325632338618372 0.048939286209129608 0 -0.00036880519878949923 0.048288851545602446 0 -0.001240875013709795 0.0482024704162589 0 -0.0014515148862143269 0.049113505163651094 0 -0.00071325632338618372 0.048939286209129608 0 -0.001240875013709795 0.0482024704162589 0 -0.0053324460107723728 0.035516079304942452 0 -0.0057737816467191578 0.037807109744317183 0 -0.00036880519878949923 0.048288851545602446 0 -0.00028941672576231529 0.047403345411066701 0 0.00020730624296099224 0.048031746531188142 0 -0.00036880519878949923 0.048288851545602446 0 -0.00028941672576231529 0.047403345411066701 0 -0.001240875013709795 0.0482024704162589 0 1.7751809401815238e-05 0.046997635637571207 0 -0.0011341846041811557 0.047501163509236478 0 -0.001240875013709795 0.0482024704162589 0 0.00092984502690852977 0.04823341069882172 0 0.00020730624296099224 0.048031746531188142 0 0.00057239163422628217 0.047419201621564822 0 0.0001898109928433537 0.048966562891270604 0 0.00092984502690852977 0.04823341069882172 0 0.00020730624296099224 0.048031746531188142 0 0.0001898109928433537 0.048966562891270604 0 -0.00036880519878949923 0.048288851545602446 0 0.00020730624296099224 0.048031746531188142 0 -0.00028941672576231529 0.047403345411066701 0 0.00020730624296099224 0.048031746531188142 0 0.00057239163422628217 0.047419201621564822 0 0.0015038935702310712 0.047403251927275146 0 0.00092984502690852977 0.04823341069882172 0 0.00057239163422628217 0.047419201621564822 0 0.0015038935702310712 0.047403251927275146 0 0.00057239163422628217 0.047419201621564822 0 0.00073029987479728215 0.04643295735512111 0 -0.0053324460107723728 0.035516079304942452 0 -0.0035113981901460918 0.027707483003057806 0 -0.00028941672576231529 0.047403345411066701 0 0.00057239163422628217 0.047419201621564822 0 0.00073029987479728215 0.04643295735512111 0 1.7751809401815238e-05 0.046997635637571207 0 0.00042211271587933746 0.045538668061020519 0 0.0013767871770580154 0.045697553479747806 0 -0.0067135435311434493 0.020024831476930724 0 -0.0035113981901460918 0.027707483003057806 0 -0.0047171144720499119 0.019925332436800312 0 -0.0047510198500269468 0.019922297836151293 0 -0.004739291791692796 0.01994913310906217 0 -0.007124092309527155 0.017873384010896384 0 -0.0059316912150175274 0.017207288942752464 0 -0.0073185366624411536 0.016289942214705404 0 -0.0065094140064881727 0.016438758410669999 0 -0.0083504866010193322 0.017442130219996528 0 -0.0067135435311434493 0.020024831476930724 0 -0.0059316912150175274 0.017207288942752464 0 -0.0086804802116676807 0.0052910123543643914 0 -0.0079968355604404535 0.004540620423427285 0 -0.0084629515639946529 0.0046404446611193872 0 -0.0081755777894913732 0.0045026669398516564 0 -0.0084629515639946529 0.0046404446611193872 0 -0.0093109807928860797 0.0042102840110126742 0 -0.0072201962884842633 0.023378011329584426 0 -0.0067135435311434493 0.020024831476930724 0 1.7751809401815238e-05 0.046997635637571207 0 -0.0011341846041811557 0.047501163509236478 0 0.00042211271587933746 0.045538668061020519 0 -0.0086804802116676807 0.0052910123543643914 0 -0.0084629515639946529 0.0046404446611193872 0 -0.0090391080617177755 0.0047861063861535068 0 -0.0079968355604404535 0.004540620423427285 0 -0.0081872468825278828 0.0045030387399992242 0 -0.0084629515639946529 0.0046404446611193872 0 -0.007124092309527155 0.017873384010896384 0 -0.0068700077354409764 0.017436425531165301 0 -0.0067135435311434493 0.020024831476930724 0 -0.007124092309527155 0.017873384010896384 0 -0.0090391080617177755 0.0047861063861535068 0 -0.0096347602706179977 0.0051295834041148328 0 -0.0093109807928860797 0.0042102840110126742 0 -0.0084629515639946529 0.0046404446611193872 0 -0.0090391080617177755 0.0047861063861535068 0 -0.0093109807928860797 0.0042102840110126742 0 -0.007124092309527155 0.017873384010896384 0 -0.010073162179189288 0.011322528951379942 0 -0.0086804802116676807 0.0052910123543643914 0 -0.0090391080617177755 0.0047861063861535068 0 -0.0096347602706179977 0.0051295834041148328 0 -0.0093808702298520397 0.0060853510461893398 0 -0.0086804802116676807 0.0052910123543643914 0 -0.0096347602706179977 0.0051295834041148328 0 -0.0023296673151197472 0.04907418566386515 0 -0.0011341846041811557 0.047501163509236478 0 -0.001240875013709795 0.0482024704162589 0 -0.0080076707790067338 0.024268721212185318 0 -0.0072201962884842633 0.023378011329584426 0 -0.010740115627228309 0.0057556010403118927 0 -0.0093808702298520397 0.0060853510461893398 0 -0.0096347602706179977 0.0051295834041148328 0 -0.010442100277814588 0.0047911770753255598 0 -0.0093109807928860797 0.0042102840110126742 0 -0.010577400235813134 0.0039014579666944468 0 -0.010442100277814588 0.0047911770753255598 0 -0.0096347602706179977 0.0051295834041148328 0 -0.0093109807928860797 0.0042102840110126742 0 -0.01019315266579326 0.0036467867964392209 0 -0.01001789198506804 0.0040262978603996386 0 -0.010577400235813134 0.0039014579666944468 0 -0.010073162179189288 0.011322528951379942 0 -0.010723729283796292 0.0095258439721952019 0 -0.01019315266579326 0.0036467867964392209 0 -0.01028893605676357 0.0032834988465653644 0 -0.010713124055807178 0.0033475084228976799 0 -0.01019315266579326 0.0036467867964392209 0 -0.01028893605676357 0.0032834988465653644 0 -0.0098673689235608247 0.0034768475345126003 0 -0.01019315266579326 0.0036467867964392209 0 -0.0098673689235608247 0.0034768475345126003 0 -0.009811883618841612 0.0037779064076534541 0 -0.0098673689235608247 0.0034768475345126003 0 -0.0096286433921897521 0.0034956347894175739 0 -0.0099180576084638185 0.003192027018488123 0 -0.0098673689235608247 0.0034768475345126003 0 -0.009811883618841612 0.0037779064076534541 0 -0.0096607751713866704 0.003663009232818727 0 -0.01019315266579326 0.0036467867964392209 0 -0.009811883618841612 0.0037779064076534541 0 -0.01001789198506804 0.0040262978603996386 0 -0.0094799508924874841 0.0041562837991379114 0 -0.009811883618841612 0.0037779064076534541 0 -0.01001789198506804 0.0040262978603996386 0 -0.0094799508924874841 0.0041562837991379114 0 -0.009811883618841612 0.0037779064076534541 0 -0.0095220972530965352 0.0038311311185787638 0 -0.0094799508924874841 0.0041562837991379114 0 -0.0095220972530965352 0.0038311311185787638 0 -0.0093908304620744353 0.0039809246568376028 0 -0.009811883618841612 0.0037779064076534541 0 -0.0095220972530965352 0.0038311311185787638 0 -0.0096607751713866704 0.003663009232818727 0 -0.0047510198500269468 0.019922297836151293 0 -0.004739291791692796 0.01994913310906217 0 -0.0047987687539862425 0.019964060903366287 0 -0.0059316912150175274 0.017207288942752464 0 -0.0047307048798655715 0.01764549776152223 0 -0.0059316912150175274 0.017207288942752464 0 -0.0052435337584121741 0.015229082918829434 0 -0.0094799508924874841 0.0041562837991379114 0 -0.0093908304620744353 0.0039809246568376028 0 -0.0092926670619699267 0.0040448389514443021 0 -0.0093908304620744353 0.0039809246568376028 0 -0.0092926670619699267 0.0040448389514443021 0 -0.0092910660967982974 0.0038920038440968759 0 -0.0095220972530965352 0.0038311311185787638 0 -0.0093908304620744353 0.0039809246568376028 0 -0.0092910660967982974 0.0038920038440968759 0 -0.0095220972530965352 0.0038311311185787638 0 -0.0092910660967982974 0.0038920038440968759 0 -0.0093247136739248379 0.0037341029586824056 0 -0.0092910660967982974 0.0038920038440968759 0 -0.0092072659380495366 0.0037904730049214889 0 -0.0093247136739248379 0.0037341029586824056 0 -0.0092910660967982974 0.0038920038440968759 0 -0.0092072659380495366 0.0037904730049214889 0 -0.009136324728311997 0.0038938549904753805 0 -0.0092926670619699267 0.0040448389514443021 0 -0.0092910660967982974 0.0038920038440968759 0 -0.009136324728311997 0.0038938549904753805 0 -0.0092072659380495366 0.0037904730049214889 0 -0.0093247136739248379 0.0037341029586824056 0 -0.0091713151379108765 0.0036583978081556226 0 -0.0092072659380495366 0.0037904730049214889 0 -0.0091713151379108765 0.0036583978081556226 0 -0.0090555024750552347 0.003780670485571869 0 -0.0093247136739248379 0.0037341029586824056 0 -0.0093862970554643068 0.0035684057460047031 0 -0.0094999995952808041 0.0036675344618743804 0 -0.0093247136739248379 0.0037341029586824056 0 -0.0093862970554643068 0.0035684057460047031 0 -0.0091713151379108765 0.0036583978081556226 0 -0.0091713151379108765 0.0036583978081556226 0 -0.0092624304057084758 0.0034892991788448955 0 -0.0090908968296352193 0.0034910210932071815 0 -0.0093862970554643068 0.0035684057460047031 0 -0.0091713151379108765 0.0036583978081556226 0 -0.0092624304057084758 0.0034892991788448955 0 -0.0096607751713866704 0.003663009232818727 0 -0.0094999995952808041 0.0036675344618743804 0 -0.0096286433921897521 0.0034956347894175739 0 -0.0095220972530965352 0.0038311311185787638 0 -0.0093247136739248379 0.0037341029586824056 0 -0.0094999995952808041 0.0036675344618743804 0 -0.0095220972530965352 0.0038311311185787638 0 -0.0096607751713866704 0.003663009232818727 0 -0.0094999995952808041 0.0036675344618743804 0 -0.0093862970554643068 0.0035684057460047031 0 -0.0096286433921897521 0.0034956347894175739 0 -0.0094442189081476533 0.0033620798929372728 0 -0.0093862970554643068 0.0035684057460047031 0 -0.0094999995952808041 0.0036675344618743804 0 -0.0096286433921897521 0.0034956347894175739 0 -0.0098673689235608247 0.0034768475345126003 0 -0.0096607751713866704 0.003663009232818727 0 -0.0096286433921897521 0.0034956347894175739 0 -0.0096286433921897521 0.0034956347894175739 0 -0.0094442189081476533 0.0033620798929372728 0 -0.009642785747012798 0.0031614972394912884 0 -0.0096286433921897521 0.0034956347894175739 0 -0.009642785747012798 0.0031614972394912884 0 -0.0099180576084638185 0.003192027018488123 0 -0.0094442189081476533 0.0033620798929372728 0 -0.009642785747012798 0.0031614972394912884 0 -0.0094423035903904006 0.0031642935549499509 0 -0.0092624304057084758 0.0034892991788448955 0 -0.0092328779916579645 0.0033188729733148233 0 -0.0090908968296352193 0.0034910210932071815 0 -0.0093862970554643068 0.0035684057460047031 0 -0.0094442189081476533 0.0033620798929372728 0 -0.0092624304057084758 0.0034892991788448955 0 -0.0094442189081476533 0.0033620798929372728 0 -0.0092624304057084758 0.0034892991788448955 0 -0.0092328779916579645 0.0033188729733148233 0 -0.0094442189081476533 0.0033620798929372728 0 -0.0092328779916579645 0.0033188729733148233 0 -0.0094423035903904006 0.0031642935549499509 0 -0.0094423035903904006 0.0031642935549499509 0 -0.0092056581903968357 0.0030868734769854099 0 -0.009601590145863861 0.0029545714814172663 0 -0.0092328779916579645 0.0033188729733148233 0 -0.0094423035903904006 0.0031642935549499509 0 -0.0092056581903968357 0.0030868734769854099 0 -0.009642785747012798 0.0031614972394912884 0 -0.009601590145863861 0.0029545714814172663 0 -0.0098653766687849948 0.0028584260173835844 0 -0.009642785747012798 0.0031614972394912884 0 -0.0094423035903904006 0.0031642935549499509 0 -0.009601590145863861 0.0029545714814172663 0 -0.0098653766687849948 0.0028584260173835844 0 -0.0097817886632010458 0.0024654226692699148 0 -0.010592948791680485 0.0024027583320140127 0 -0.009601590145863861 0.0029545714814172663 0 -0.0098653766687849948 0.0028584260173835844 0 -0.0097874743385974548 0.0028002268102135176 0 -0.011323461539738001 0.01380567889147963 0 -0.012003274153536856 0.017260960304252455 0 -0.010278212502495099 0.0029206282714360939 0 -0.010592948791680485 0.0024027583320140127 0 -0.010774656857270529 0.0028444944122849327 0 -0.0098653766687849948 0.0028584260173835844 0 -0.010278212502495099 0.0029206282714360939 0 -0.010592948791680485 0.0024027583320140127 0 -0.01028893605676357 0.0032834988465653644 0 -0.010278212502495099 0.0029206282714360939 0 -0.010774656857270529 0.0028444944122849327 0 -0.01028893605676357 0.0032834988465653644 0 -0.010278212502495099 0.0029206282714360939 0 -0.0099180576084638185 0.003192027018488123 0 -0.0098653766687849948 0.0028584260173835844 0 -0.010278212502495099 0.0029206282714360939 0 -0.0099180576084638185 0.003192027018488123 0 -0.009642785747012798 0.0031614972394912884 0 -0.0098653766687849948 0.0028584260173835844 0 -0.0099180576084638185 0.003192027018488123 0 -0.01028893605676357 0.0032834988465653644 0 -0.0098673689235608247 0.0034768475345126003 0 -0.0099180576084638185 0.003192027018488123 0 0.0024731341340618372 0.044698517987725922 0 0.0028770838626223471 0.044828032215222517 0 0.0023786914791757087 0.045103278153027011 0 0.0024731341340618372 0.044698517987725922 0 0.0023786914791757087 0.045103278153027011 0 0.0020502002731432986 0.044715274870081326 0 0.002876350014742058 0.043986560285688495 0 0.0025144781801582669 0.044269735741250267 0 0.0020968088039919498 0.04416981790886184 0 0.0025144781801582669 0.044269735741250267 0 0.0020502002731432986 0.044715274870081326 0 0.0020968088039919498 0.04416981790886184 0 0.0024731341340618372 0.044698517987725922 0 0.0025144781801582669 0.044269735741250267 0 0.0020502002731432986 0.044715274870081326 0 0.0024731341340618372 0.044698517987725922 0 0.0025144781801582669 0.044269735741250267 0 0.0027031914329842346 0.044493495826245483 0 0.0027031914329842346 0.044493495826245483 0 0.0027613870105566451 0.044267561808604271 0 0.0029549610570910934 0.044312549437505296 0 0.0025144781801582669 0.044269735741250267 0 0.0027031914329842346 0.044493495826245483 0 0.0027613870105566451 0.044267561808604271 0 0.002876350014742058 0.043986560285688495 0 0.0025144781801582669 0.044269735741250267 0 0.0027613870105566451 0.044267561808604271 0 0.002876350014742058 0.043986560285688495 0 0.0027613870105566451 0.044267561808604271 0 0.0029549610570910934 0.044312549437505296 0 -0.0021523733997064263 0.028615976102711677 0 -0.0020596319345535536 0.02776221175485781 0 -0.0025806903351090235 0.02805759653816204 0 0.0027031914329842346 0.044493495826245483 0 0.0029549610570910934 0.044312549437505296 0 0.0028770838626223471 0.044828032215222517 0 -0.00093580921988070697 0.03362968301693614 0 -0.0032606256409501971 0.023432593345083883 0 0.0024731341340618372 0.044698517987725922 0 0.0027031914329842346 0.044493495826245483 0 0.0028770838626223471 0.044828032215222517 0 -0.0085360299126621703 0.0037226798699765968 0 -0.008614947205236017 0.0037211779641769934 0 -0.0086502027184304411 0.0035827403633136908 0 -0.008614947205236017 0.0037211779641769934 0 -0.0087787600017344928 0.0036518398967392558 0 -0.0086502027184304411 0.0035827403633136908 0 -0.008614947205236017 0.0037211779641769934 0 -0.0087787600017344928 0.0036518398967392558 0 -0.0087339253769901405 0.0037969023383971107 0 -0.0085360299126621703 0.0037226798699765968 0 -0.008614947205236017 0.0037211779641769934 0 -0.0087623135498843766 0.0039397927561550536 0 -0.0087787600017344928 0.0036518398967392558 0 -0.0087339253769901405 0.0037969023383971107 0 -0.0089016287934548279 0.0037586123215156667 0 -0.0032430877010902808 0.018808560764286338 0 -0.0036621230959134644 0.020111967089207365 0 -0.0032606256409501971 0.023432593345083883 0 -0.0036621230959134644 0.020111967089207365 0 -0.0021523733997064263 0.028615976102711677 0 -0.0025806903351090235 0.02805759653816204 0 -0.0026714862207667923 0.028858924018726965 0 -0.0025806903351090235 0.02805759653816204 0 -0.0026714862207667923 0.028858924018726965 0 -0.0031894473986834263 0.028615137849713982 0 -0.0036621230959134644 0.020111967089207365 0 -0.0047307048798655715 0.01764549776152223 0 -0.0036621230959134644 0.020111967089207365 0 -0.0037626204662892346 0.024068106341325647 0 -0.0093389207785127965 0.0041831648651391787 0 -0.0089839646536034688 0.003923309345140456 0 -0.009136324728311997 0.0038938549904753805 0 -0.004739291791692796 0.01994913310906217 0 -0.0047941303171191614 0.01997356986921392 0 -0.0047987687539862425 0.019964060903366287 0 -0.0048290501708121913 0.019985368149455743 0 -0.0047941303171191614 0.01997356986921392 0 -0.0047987687539862425 0.019964060903366287 0 -0.0035113981901460918 0.027707483003057806 0 -0.0037626204662892346 0.024068106341325647 0 -0.0089839646536034688 0.003923309345140456 0 -0.009136324728311997 0.0038938549904753805 0 -0.0090555024750552347 0.003780670485571869 0 -0.0092072659380495366 0.0037904730049214889 0 -0.009136324728311997 0.0038938549904753805 0 -0.0090555024750552347 0.003780670485571869 0 -0.0091713151379108765 0.0036583978081556226 0 -0.0090555024750552347 0.003780670485571869 0 -0.008970462433001869 0.0036507336772094901 0 -0.0087339253769901405 0.0037969023383971107 0 -0.0089839646536034688 0.003923309345140456 0 -0.0089016287934548279 0.0037586123215156667 0 -0.0090555024750552347 0.003780670485571869 0 -0.0089016287934548279 0.0037586123215156667 0 -0.008970462433001869 0.0036507336772094901 0 -0.0089839646536034688 0.003923309345140456 0 -0.0090555024750552347 0.003780670485571869 0 -0.0089016287934548279 0.0037586123215156667 0 -0.0087787600017344928 0.0036518398967392558 0 -0.0089016287934548279 0.0037586123215156667 0 -0.008970462433001869 0.0036507336772094901 0 -0.0087787600017344928 0.0036518398967392558 0 -0.008970462433001869 0.0036507336772094901 0 -0.0089292913448674582 0.0035198016494491151 0 -0.0091713151379108765 0.0036583978081556226 0 -0.008970462433001869 0.0036507336772094901 0 -0.0090908968296352193 0.0034910210932071815 0 -0.0090908968296352193 0.0034910210932071815 0 -0.0089292913448674582 0.0035198016494491151 0 -0.0089927703302384188 0.0033717738803739558 0 -0.008970462433001869 0.0036507336772094901 0 -0.0090908968296352193 0.0034910210932071815 0 -0.0089292913448674582 0.0035198016494491151 0 -0.0089292913448674582 0.0035198016494491151 0 -0.0089927703302384188 0.0033717738803739558 0 -0.0087851439219662278 0.0034723541808375962 0 -0.0092328779916579645 0.0033188729733148233 0 -0.0090908968296352193 0.0034910210932071815 0 -0.0089927703302384188 0.0033717738803739558 0 -0.0092056581903968357 0.0030868734769854099 0 -0.0089927703302384188 0.0033717738803739558 0 -0.0087491305008003343 0.0032948450744860179 0 -0.0092328779916579645 0.0033188729733148233 0 -0.0092056581903968357 0.0030868734769854099 0 -0.0089927703302384188 0.0033717738803739558 0 -0.0087491305008003343 0.0032948450744860179 0 -0.0084852146940077502 0.003390029238717816 0 -0.0085260750247241699 0.003192814462302327 0 -0.0087491305008003343 0.0032948450744860179 0 -0.0086659611985134485 0.0034282434626637013 0 -0.0084852146940077502 0.003390029238717816 0 -0.0087491305008003343 0.0032948450744860179 0 -0.0086659611985134485 0.0034282434626637013 0 -0.0087851439219662278 0.0034723541808375962 0 -0.0086659611985134485 0.0034282434626637013 0 -0.0087851439219662278 0.0034723541808375962 0 -0.0086502027184304411 0.0035827403633136908 0 -0.0089927703302384188 0.0033717738803739558 0 -0.0087491305008003343 0.0032948450744860179 0 -0.0087851439219662278 0.0034723541808375962 0 -0.0087787600017344928 0.0036518398967392558 0 -0.0089292913448674582 0.0035198016494491151 0 -0.0087851439219662278 0.0034723541808375962 0 -0.0087787600017344928 0.0036518398967392558 0 -0.0087851439219662278 0.0034723541808375962 0 -0.0086502027184304411 0.0035827403633136908 0 -0.0085360299126621703 0.0037226798699765968 0 -0.0086502027184304411 0.0035827403633136908 0 -0.0084852146940077502 0.003390029238717816 0 -0.0032606256409501971 0.023432593345083883 0 -0.0048088414232066497 0.010642031558271311 0 -0.009930991834492307 0.01689392273866833 0 -0.0091279161869179514 0.010035480565594595 0 -0.0047284223775723531 0.01402568476502913 0 -0.0032606256409501971 0.023432593345083883 0 -0.0016059758296714005 0.029753005740699719 0 -0.0086659611985134485 0.0034282434626637013 0 -0.0086502027184304411 0.0035827403633136908 0 -0.0084852146940077502 0.003390029238717816 0 -0.0048088414232066497 0.010642031558271311 0 -0.0052622487154728639 0.0072240412200172341 0 -0.0091279161869179514 0.010035480565594595 0 -0.0043147877024836074 0.010037739619309979 0 -0.0061192689234746012 0.0061989708017379319 0 -0.0043147877024836074 0.010037739619309979 0 -0.0028842312336253163 0.0063387227834296135 0 -0.0061192689234746012 0.0061989708017379319 0 -0.0091279161869179514 0.010035480565594595 0 -0.0043147877024836074 0.010037739619309979 0 -0.0047284223775723531 0.01402568476502913 0 -0.0043147877024836074 0.010037739619309979 0 -0.0047284223775723531 0.01402568476502913 0 0.0004755075986194587 0.011197479658133518 0 -0.0071590776092246636 0.055073248103367944 0 -0.0069286931947028429 0.055409992470423941 0 -0.0030317507944206254 0.054385640689166084 0 -0.0069134651362851123 0.088464643347907254 0 -0.0068181898885593169 0.088886242577369046 0 -0.0070179812338994731 0.088676982221944492 0 -0.0053014661178918138 0.050404881089530042 0 -0.0034259461063597544 0.0654292661308465 0 -0.0069134651362851123 0.088464643347907254 0 -0.0070179812338994731 0.088676982221944492 0 -0.0072460048529840336 0.088462690440052283 0 -0.0011585518997242325 0.073281801653099346 0 -0.0034259461063597544 0.0654292661308465 0 -0.0053014661178918138 0.050404881089530042 0 -0.0060892205630277453 0.048784183913350203 0 -0.0063304691167798974 0.0019285296019399126 0 -0.0061192689234746012 0.0061989708017379319 0 -0.0081464559442441919 0.0031974658379937807 0 -0.0063304691167798974 0.0019285296019399126 0 -0.0028842312336253163 0.0063387227834296135 0 -0.0061192689234746012 0.0061989708017379319 0 -0.0060892205630277453 0.048784183913350203 0 -0.0054964665318935372 0.037388802715517026 0 -0.0045472845601338303 0.049163305111274175 0 -0.00397801083587124 0.049971597924973507 0 -0.0032743151139779064 0.049195786975379102 0 -0.0084852146940077502 0.003390029238717816 0 -0.0081464559442441919 0.0031974658379937807 0 -0.0085260750247241699 0.003192814462302327 0 -0.0091279161869179514 0.010035480565594595 0 -0.0061192689234746012 0.0061989708017379319 0 -0.0081464559442441919 0.0031974658379937807 0 -0.0081464559442441919 0.0031974658379937807 0 -0.0085260750247241699 0.003192814462302327 0 -0.0082543400667509474 0.0025990164120469998 0 -0.0085466087737439446 0.038943551206591938 0 -0.0088404097529866874 0.038983716851355481 0 -0.009035984364603027 0.038258464505707426 0 -0.0088404097529866874 0.038983716851355481 0 -0.0093144471890654404 0.038593594379153731 0 -0.009035984364603027 0.038258464505707426 0 -0.0065504093506227974 0.04569768164556081 0 -0.0082439861451490751 0.044064791026541122 0 -0.0053014661178918138 0.050404881089530042 0 -0.0062597570319172947 0.057894230349206044 0 -0.0063304691167798974 0.0019285296019399126 0 -0.0081464559442441919 0.0031974658379937807 0 -0.0082543400667509474 0.0025990164120469998 0 -0.0029078663980524064 0.045861703510966322 0 -0.0022485824693611687 0.046824370629873491 0 -0.0078775323244124895 0.046705147757260021 0 -0.0060892205630277453 0.048784183913350203 0 -0.0065504093506227974 0.04569768164556081 0 -0.0053014661178918138 0.050404881089530042 0 -0.0065504093506227974 0.04569768164556081 0 -0.0093819429481942201 0.038896825676617709 0 -0.0097245935521228458 0.039043807250448301 0 -0.009956163978144297 0.038867397034370116 0 -0.0087857923846175086 0.038948360699817539 0 -0.0093819429481942201 0.038896825676617709 0 -0.0097245935521228458 0.039043807250448301 0 -0.0065504093506227974 0.04569768164556081 0 -0.007944236605658966 0.0314633168716415 0 -0.0082439861451490751 0.044064791026541122 0 -0.0087585535611255025 0.043555359311661032 0 -0.0096681892580451623 0.038618185333599932 0 -0.009412650713653067 0.038941141631393332 0 -0.009956163978144297 0.038867397034370116 0 -0.0088404097529866874 0.038983716851355481 0 -0.0093144471890654404 0.038593594379153731 0 -0.009412650713653067 0.038941141631393332 0 -0.0093144471890654404 0.038593594379153731 0 -0.0096681892580451623 0.038618185333599932 0 -0.009412650713653067 0.038941141631393332 0 -0.0087491305008003343 0.0032948450744860179 0 -0.0085260750247241699 0.003192814462302327 0 -0.0089416116072668066 0.0029071404021589068 0 -0.0085260750247241699 0.003192814462302327 0 -0.0082543400667509474 0.0025990164120469998 0 -0.0089416116072668066 0.0029071404021589068 0 -0.0097245935521228458 0.039043807250448301 0 -0.009956163978144297 0.038867397034370116 0 -0.010565768129220311 0.039093569723067094 0 -0.0092056581903968357 0.0030868734769854099 0 -0.0089416116072668066 0.0029071404021589068 0 -0.0093621287357149117 0.0028523593931623868 0 -0.0092056581903968357 0.0030868734769854099 0 -0.0087491305008003343 0.0032948450744860179 0 -0.0089416116072668066 0.0029071404021589068 0 -0.007944236605658966 0.0314633168716415 0 -0.0097495891331717162 0.023560692473127448 0 -0.0096681892580451623 0.038618185333599932 0 -0.009956163978144297 0.038867397034370116 0 -0.010033915539928506 0.03846799301399282 0 -0.009956163978144297 0.038867397034370116 0 -0.010033915539928506 0.03846799301399282 0 -0.010370631650094031 0.038643359387424005 0 -0.010033915539928506 0.03846799301399282 0 -0.010074777205740383 0.037981462299438669 0 -0.010499057650445435 0.038249352064992248 0 -0.0096681892580451623 0.038618185333599932 0 -0.010033915539928506 0.03846799301399282 0 -0.0096114566084579967 0.038263742125916642 0 -0.010033915539928506 0.03846799301399282 0 -0.010074777205740383 0.037981462299438669 0 -0.0096114566084579967 0.038263742125916642 0 -0.010281924480802604 0.056963908112353856 0 -0.014639902792571231 0.044854348938611663 0 -0.010074777205740383 0.037981462299438669 0 -0.0095045277454656792 0.037621846185717678 0 -0.010242527903031859 0.037449998468200685 0 -0.010074777205740383 0.037981462299438669 0 -0.0095045277454656792 0.037621846185717678 0 -0.0096114566084579967 0.038263742125916642 0 -0.010281924480802604 0.056963908112353856 0 -0.0062597570319172947 0.057894230349206044 0 -0.008382071957620146 0.08771684264858913 0 -0.0075451233587326338 0.088063408612196761 0 -0.0069212464146803264 0.088917850348654237 0 -0.008382071957620146 0.08771684264858913 0 -0.0078589619054621578 0.087786165082411771 0 -0.0075451233587326338 0.088063408612196761 0 -0.0086171144278238392 0.08771731043944532 0 -0.0078589619054621578 0.087786165082411771 0 -0.0084062234244266874 0.086612971780751821 0 -0.010281924480802604 0.056963908112353856 0 -0.0098631385791272917 0.057534360039758148 0 -0.0095045277454656792 0.037621846185717678 0 -0.0096114566084579967 0.038263742125916642 0 -0.009035984364603027 0.038258464505707426 0 -0.0093144471890654404 0.038593594379153731 0 -0.0096114566084579967 0.038263742125916642 0 -0.009035984364603027 0.038258464505707426 0 -0.0093144471890654404 0.038593594379153731 0 -0.0096681892580451623 0.038618185333599932 0 -0.0096114566084579967 0.038263742125916642 0 -0.0069134651362851123 0.088464643347907254 0 -0.0069212464146803264 0.088917850348654237 0 -0.0068181898885593169 0.088886242577369046 0 -0.0068181898885593169 0.088886242577369046 0 -0.0066586919963523275 0.088378331920711831 0 -0.0061169369023981275 0.088667557950671674 0 -0.0068181898885593169 0.088886242577369046 0 -0.0069208157013599444 0.088556610851909481 0 -0.0066586919963523275 0.088378331920711831 0 -0.0069212464146803264 0.088917850348654237 0 -0.0069208157013599444 0.088556610851909481 0 -0.0071410776498158383 0.08833422532997133 0 -0.0075451233587326338 0.088063408612196761 0 -0.0069212464146803264 0.088917850348654237 0 -0.0071410776498158383 0.08833422532997133 0 -0.0069212464146803264 0.088917850348654237 0 -0.0068181898885593169 0.088886242577369046 0 -0.0069208157013599444 0.088556610851909481 0 -0.0069208157013599444 0.088556610851909481 0 -0.0071410776498158383 0.08833422532997133 0 -0.006943138478514293 0.088108062231933487 0 -0.006943138478514293 0.088108062231933487 0 -0.0072085504146419373 0.087823087484144108 0 -0.0065636533897139339 0.087835157920386542 0 -0.0071410776498158383 0.08833422532997133 0 -0.006943138478514293 0.088108062231933487 0 -0.0072085504146419373 0.087823087484144108 0 -0.0075451233587326338 0.088063408612196761 0 -0.0071410776498158383 0.08833422532997133 0 -0.0072085504146419373 0.087823087484144108 0 -0.0078589619054621578 0.087786165082411771 0 -0.0075451233587326338 0.088063408612196761 0 -0.0072085504146419373 0.087823087484144108 0 -0.0072085504146419373 0.087823087484144108 0 -0.0067684932370279715 0.087201952523081772 0 -0.0074517411598354379 0.087155285103991939 0 -0.0078589619054621578 0.087786165082411771 0 -0.0072085504146419373 0.087823087484144108 0 -0.0074517411598354379 0.087155285103991939 0 -0.0061049391159021874 0.087287572056737706 0 -0.0065636533897139339 0.087835157920386542 0 -0.0067684932370279715 0.087201952523081772 0 -0.0072085504146419373 0.087823087484144108 0 -0.0065636533897139339 0.087835157920386542 0 -0.0067684932370279715 0.087201952523081772 0 -0.0065636533897139339 0.087835157920386542 0 -0.0066586919963523275 0.088378331920711831 0 -0.0061469012437255907 0.088178284784092079 0 -0.006943138478514293 0.088108062231933487 0 -0.0065636533897139339 0.087835157920386542 0 -0.0066586919963523275 0.088378331920711831 0 -0.0069208157013599444 0.088556610851909481 0 -0.006943138478514293 0.088108062231933487 0 -0.0066586919963523275 0.088378331920711831 0 -0.0066586919963523275 0.088378331920711831 0 -0.0061469012437255907 0.088178284784092079 0 -0.0061169369023981275 0.088667557950671674 0 -0.0061469012437255907 0.088178284784092079 0 -0.0053512866481038347 0.088518457772609138 0 -0.0061169369023981275 0.088667557950671674 0 -0.0065636533897139339 0.087835157920386542 0 -0.0061469012437255907 0.088178284784092079 0 -0.0056851819154098097 0.087768168467752025 0 -0.0061469012437255907 0.088178284784092079 0 -0.0056851819154098097 0.087768168467752025 0 -0.0053512866481038347 0.088518457772609138 0 -0.0061049391159021874 0.087287572056737706 0 -0.0056851819154098097 0.087768168467752025 0 -0.0053361457516595294 0.086925155577398536 0 -0.0061049391159021874 0.087287572056737706 0 -0.0065636533897139339 0.087835157920386542 0 -0.0056851819154098097 0.087768168467752025 0 -0.0056851819154098097 0.087768168467752025 0 -0.0044078196334870158 0.087742367563011195 0 -0.0053361457516595294 0.086925155577398536 0 -0.0056851819154098097 0.087768168467752025 0 -0.0053512866481038347 0.088518457772609138 0 -0.0044078196334870158 0.087742367563011195 0 -0.0053512866481038347 0.088518457772609138 0 -0.0045027887971681845 0.089065847594873168 0 -0.0044078196334870158 0.087742367563011195 0 -0.0053512866481038347 0.088518457772609138 0 -0.0054414191836103173 0.089794646190051397 0 -0.0045027887971681845 0.089065847594873168 0 -0.0054414191836103173 0.089794646190051397 0 -0.0042245354570258631 0.090549711981372696 0 -0.0045027887971681845 0.089065847594873168 0 -0.0053512866481038347 0.088518457772609138 0 -0.0061169369023981275 0.088667557950671674 0 -0.0054414191836103173 0.089794646190051397 0 -0.0068181898885593169 0.088886242577369046 0 -0.0061169369023981275 0.088667557950671674 0 -0.0054414191836103173 0.089794646190051397 0 -0.00086057903610460714 0.075443119869005454 0 -0.0011585518997242325 0.073281801653099346 0 -0.025532886832658884 0.0095375298128957762 0 -0.028156704753096159 0.010382344308535719 0 -0.026721434557180224 0.012225302680625801 0 -0.025532886832658884 0.0095375298128957762 0 -0.027574032351794883 0.0078078193513984109 0 -0.028156704753096159 0.010382344308535719 0 -0.012003274153536856 0.017260960304252455 0 -0.015799898482214289 0.0098289584699034083 0 -0.025532886832658884 0.0095375298128957762 0 -0.027574032351794883 0.0078078193513984109 0 -0.024139113428091993 0.0071980801000974849 0 -0.012003274153536856 0.017260960304252455 0 -0.016236224159816157 0.023552186383866466 0 -0.012003274153536856 0.017260960304252455 0 -0.0097495891331717162 0.023560692473127448 0 -0.009601590145863861 0.0029545714814172663 0 -0.0097874743385974548 0.0028002268102135176 0 -0.0093621287357149117 0.0028523593931623868 0 -0.011329910188522663 0.039155890879205825 0 -0.010565768129220311 0.039093569723067094 0 -0.011204117622420573 0.038568307306693986 0 -0.0092056581903968357 0.0030868734769854099 0 -0.009601590145863861 0.0029545714814172663 0 -0.0093621287357149117 0.0028523593931623868 0 -0.010565768129220311 0.039093569723067094 0 -0.010370631650094031 0.038643359387424005 0 -0.010755883284926236 0.038510717964974774 0 -0.009956163978144297 0.038867397034370116 0 -0.010565768129220311 0.039093569723067094 0 -0.010370631650094031 0.038643359387424005 0 -0.010370631650094031 0.038643359387424005 0 -0.010755883284926236 0.038510717964974774 0 -0.010499057650445435 0.038249352064992248 0 -0.010565768129220311 0.039093569723067094 0 -0.011204117622420573 0.038568307306693986 0 -0.010755883284926236 0.038510717964974774 0 -0.011204117622420573 0.038568307306693986 0 -0.010755883284926236 0.038510717964974774 0 -0.011089773643010229 0.037941069416371383 0 -0.010755883284926236 0.038510717964974774 0 -0.010499057650445435 0.038249352064992248 0 -0.011089773643010229 0.037941069416371383 0 -0.016236224159816157 0.023552186383866466 0 -0.018590453384656893 0.027006807713709686 0 -0.010499057650445435 0.038249352064992248 0 -0.010605171102848513 0.037804258452660139 0 -0.011089773643010229 0.037941069416371383 0 -0.010074777205740383 0.037981462299438669 0 -0.010499057650445435 0.038249352064992248 0 -0.010605171102848513 0.037804258452660139 0 -0.010033915539928506 0.03846799301399282 0 -0.010370631650094031 0.038643359387424005 0 -0.010499057650445435 0.038249352064992248 0 -0.010074777205740383 0.037981462299438669 0 -0.010605171102848513 0.037804258452660139 0 -0.010242527903031859 0.037449998468200685 0 -0.010605171102848513 0.037804258452660139 0 -0.010968007688339306 0.037282508600143399 0 -0.010242527903031859 0.037449998468200685 0 -0.018590453384656893 0.027006807713709686 0 -0.020818259766581599 0.03290670330865901 0 -0.028776329070835226 0.012961546143441367 0 -0.027472513578680583 0.014342648429274706 0 -0.029415567362022995 0.015620830059848601 0 -0.010605171102848513 0.037804258452660139 0 -0.011089773643010229 0.037941069416371383 0 -0.010968007688339306 0.037282508600143399 0 -0.028776329070835226 0.012961546143441367 0 -0.027472513578680583 0.014342648429274706 0 -0.026721434557180224 0.012225302680625801 0 -0.027472513578680583 0.014342648429274706 0 -0.026721434557180224 0.012225302680625801 0 -0.025930702362509786 0.014230169325448886 0 -0.028156704753096159 0.010382344308535719 0 -0.028776329070835226 0.012961546143441367 0 -0.026721434557180224 0.012225302680625801 0 -0.025532886832658884 0.0095375298128957762 0 -0.026721434557180224 0.012225302680625801 0 -0.024174853194831765 0.011731425742417756 0 -0.026721434557180224 0.012225302680625801 0 -0.025930702362509786 0.014230169325448886 0 -0.024174853194831765 0.011731425742417756 0 -0.02391083805860808 0.012636350042161742 0 -0.022741222465942058 0.011293043529186281 0 -0.025930702362509786 0.014230169325448886 0 -0.023826914734748773 0.010707768953488158 0 -0.023460261864790458 0.014944224882178824 0 -0.020623647100360087 0.013801627913388473 0 -0.023826914734748773 0.010707768953488158 0 -0.023460261864790458 0.014944224882178824 0 -0.020623647100360087 0.013801627913388473 0 -0.018073197174521639 0.014087812651654843 0 -0.018296259893015712 0.016040943084134198 0 -0.020623647100360087 0.013801627913388473 0 -0.018472493123114542 0.012330719069508674 0 -0.018073197174521639 0.014087812651654843 0 -0.020623647100360087 0.013801627913388473 0 -0.020849401481167075 0.010496326395424112 0 -0.018472493123114542 0.012330719069508674 0 -0.020849401481167075 0.010496326395424112 0 -0.01841738087525446 0.010157699386428494 0 -0.018472493123114542 0.012330719069508674 0 -0.020849401481167075 0.010496326395424112 0 -0.019332367999810345 0.0085979744513202047 0 -0.01841738087525446 0.010157699386428494 0 -0.020623647100360087 0.013801627913388473 0 -0.020849401481167075 0.010496326395424112 0 -0.023826914734748773 0.010707768953488158 0 -0.022741222465942058 0.011293043529186281 0 -0.020103923276004715 0.0088064031621643054 0 -0.025532886832658884 0.0095375298128957762 0 -0.024174853194831765 0.011731425742417756 0 -0.022414038926470502 0.0091779898441925745 0 -0.020849401481167075 0.010496326395424112 0 -0.023826914734748773 0.010707768953488158 0 -0.021471856782686469 0.0072477715677364933 0 -0.020849401481167075 0.010496326395424112 0 -0.021471856782686469 0.0072477715677364933 0 -0.019332367999810345 0.0085979744513202047 0 -0.021471856782686469 0.0072477715677364933 0 -0.019332367999810345 0.0085979744513202047 0 -0.018208026190047893 0.0067960867099869779 0 -0.021471856782686469 0.0072477715677364933 0 -0.018208026190047893 0.0067960867099869779 0 -0.019162481137386011 0.0039428163782260347 0 -0.020103923276004715 0.0088064031621643054 0 -0.015716638250208779 0.0055212655190070344 0 -0.022414038926470502 0.0091779898441925745 0 -0.024139113428091993 0.0071980801000974849 0 -0.020657790588173731 0.0065948743169970498 0 -0.025532886832658884 0.0095375298128957762 0 -0.022414038926470502 0.0091779898441925745 0 -0.024139113428091993 0.0071980801000974849 0 -0.016190380335755327 0.0056381496016997103 0 -0.013485876774742594 0.0063525579762507478 0 -0.014786108417078947 0.0032642003762035359 0 -0.016190380335755327 0.0056381496016997103 0 -0.015348995032745248 0.0078339535832554416 0 -0.013485876774742594 0.0063525579762507478 0 -0.016190380335755327 0.0056381496016997103 0 -0.018208026190047893 0.0067960867099869779 0 -0.015348995032745248 0.0078339535832554416 0 -0.016190380335755327 0.0056381496016997103 0 -0.018208026190047893 0.0067960867099869779 0 -0.019162481137386011 0.0039428163782260347 0 -0.018208026190047893 0.0067960867099869779 0 -0.01710444114995362 0.0089297422872543497 0 -0.015348995032745248 0.0078339535832554416 0 -0.019332367999810345 0.0085979744513202047 0 -0.018208026190047893 0.0067960867099869779 0 -0.01710444114995362 0.0089297422872543497 0 -0.019332367999810345 0.0085979744513202047 0 -0.01710444114995362 0.0089297422872543497 0 -0.01841738087525446 0.010157699386428494 0 -0.01710444114995362 0.0089297422872543497 0 -0.015348995032745248 0.0078339535832554416 0 -0.015531356571585921 0.0097476711211008753 0 -0.015348995032745248 0.0078339535832554416 0 -0.013812266376194399 0.0080986324044988942 0 -0.013485876774742594 0.0063525579762507478 0 -0.015348995032745248 0.0078339535832554416 0 -0.013812266376194399 0.0080986324044988942 0 -0.014058406523317458 0.0094178519385308933 0 -0.015348995032745248 0.0078339535832554416 0 -0.014058406523317458 0.0094178519385308933 0 -0.015531356571585921 0.0097476711211008753 0 -0.014058406523317458 0.0094178519385308933 0 -0.014882532891365687 0.010354820840255087 0 -0.014372253151439125 0.011118690883986584 0 -0.01337475764663892 0.011400777370487726 0 -0.013892091598480538 0.010774527269113496 0 -0.016277616046403799 0.01346302213353298 0 -0.014058406523317458 0.0094178519385308933 0 -0.014882532891365687 0.010354820840255087 0 -0.015531356571585921 0.0097476711211008753 0 -0.014882532891365687 0.010354820840255087 0 -0.015565559587141467 0.011129546167471227 0 -0.014372253151439125 0.011118690883986584 0 -0.014882532891365687 0.010354820840255087 0 -0.015531356571585921 0.0097476711211008753 0 -0.015565559587141467 0.011129546167471227 0 -0.015531356571585921 0.0097476711211008753 0 -0.015565559587141467 0.011129546167471227 0 -0.016826314737433661 0.010962879620815403 0 -0.015565559587141467 0.011129546167471227 0 -0.014372253151439125 0.011118690883986584 0 -0.016277616046403799 0.01346302213353298 0 -0.01710444114995362 0.0089297422872543497 0 -0.01841738087525446 0.010157699386428494 0 -0.016826314737433661 0.010962879620815403 0 -0.01710444114995362 0.0089297422872543497 0 -0.015531356571585921 0.0097476711211008753 0 -0.016826314737433661 0.010962879620815403 0 -0.015565559587141467 0.011129546167471227 0 -0.016826314737433661 0.010962879620815403 0 -0.016277616046403799 0.01346302213353298 0 -0.01841738087525446 0.010157699386428494 0 -0.016826314737433661 0.010962879620815403 0 -0.018472493123114542 0.012330719069508674 0 -0.018472493123114542 0.012330719069508674 0 -0.016277616046403799 0.01346302213353298 0 -0.018073197174521639 0.014087812651654843 0 -0.016826314737433661 0.010962879620815403 0 -0.018472493123114542 0.012330719069508674 0 -0.016277616046403799 0.01346302213353298 0 -0.016277616046403799 0.01346302213353298 0 -0.015183801630410063 0.014668440229938075 0 -0.016644213993212243 0.015033522380449093 0 -0.016277616046403799 0.01346302213353298 0 -0.018073197174521639 0.014087812651654843 0 -0.016644213993212243 0.015033522380449093 0 -0.01337475764663892 0.011400777370487726 0 -0.016277616046403799 0.01346302213353298 0 -0.015183801630410063 0.014668440229938075 0 -0.013366210989553567 0.011213867388799674 0 -0.015183801630410063 0.014668440229938075 0 -0.013048361698860067 0.013560563183370506 0 -0.013327737017710704 0.010629510532007265 0 -0.013998363439586756 0.011926653835687584 0 -0.013784509546880692 0.010247371546623803 0 -0.014615542427294305 0.011234589851356931 0 -0.015183801630410063 0.014668440229938075 0 -0.013048361698860067 0.013560563183370506 0 -0.013584292743005068 0.015090368840375784 0 -0.011559015663412371 0.012382389518453591 0 -0.011582239359866934 0.01453366553503908 0 -0.0083405746353536828 0.01250756829170804 0 -0.013048361698860067 0.013560563183370506 0 -0.011559015663412371 0.012382389518453591 0 -0.011582239359866934 0.01453366553503908 0 -0.013048361698860067 0.013560563183370506 0 -0.011582239359866934 0.01453366553503908 0 -0.013584292743005068 0.015090368840375784 0 -0.013366210989553567 0.011213867388799674 0 -0.013048361698860067 0.013560563183370506 0 -0.011559015663412371 0.012382389518453591 0 -0.011582239359866934 0.01453366553503908 0 -0.0083405746353536828 0.01250756829170804 0 -0.010288319237688743 0.016801249848757398 0 -0.011559015663412371 0.012382389518453591 0 -0.0083405746353536828 0.01250756829170804 0 -0.010952397877776913 0.010324595886599255 0 -0.0092672683240527503 0.012185407214503634 0 -0.0095562249543780092 0.010372290011630295 0 -0.0099947056649263444 0.010197060969401605 0 -0.0090989806699038906 0.0082018453177418391 0 -0.0099500467652005806 0.007856285022550329 0 -0.0083405746353536828 0.01250756829170804 0 -0.010952397877776913 0.010324595886599255 0 -0.0099500467652005806 0.007856285022550329 0 -0.01337475764663892 0.011400777370487726 0 -0.013892091598480538 0.010774527269113496 0 -0.011526891970888692 0.008105584096266643 0 -0.013327737017710704 0.010629510532007265 0 -0.01222376100497073 0.0083371706367567269 0 -0.013366210989553567 0.011213867388799674 0 -0.010952397877776913 0.010324595886599255 0 -0.011537604566034618 0.0080197774792298837 0 -0.013784509546880692 0.010247371546623803 0 -0.01222376100497073 0.0083371706367567269 0 -0.014058406523317458 0.0094178519385308933 0 -0.014372253151439125 0.011118690883986584 0 -0.012362140373349984 0.0087922126341184511 0 -0.013366210989553567 0.011213867388799674 0 -0.011559015663412371 0.012382389518453591 0 -0.010952397877776913 0.010324595886599255 0 -0.007198480571967693 0.010187529781547425 0 -0.0084746261703756952 0.011687267091373335 0 -0.0065287580866216499 0.012011061225858958 0 -0.0057085776998909267 0.010337850996872736 0 -0.007198480571967693 0.010187529781547425 0 -0.0065287580866216499 0.012011061225858958 0 -0.0057085776998909267 0.010337850996872736 0 -0.0060359983227832939 0.0088161455838483369 0 -0.007198480571967693 0.010187529781547425 0 -0.0099947056649263444 0.010197060969401605 0 -0.007198480571967693 0.010187529781547425 0 -0.0084746261703756952 0.011687267091373335 0 -0.0099947056649263444 0.010197060969401605 0 -0.007198480571967693 0.010187529781547425 0 -0.0079006925962047062 0.0086625936369324232 0 -0.0099947056649263444 0.010197060969401605 0 -0.0079006925962047062 0.0086625936369324232 0 -0.0090989806699038906 0.0082018453177418391 0 -0.0060359983227832939 0.0088161455838483369 0 -0.007198480571967693 0.010187529781547425 0 -0.0079006925962047062 0.0086625936369324232 0 -0.0060359983227832939 0.0088161455838483369 0 -0.0079006925962047062 0.0086625936369324232 0 -0.0068598316337800929 0.0074840237078524349 0 -0.0068598316337800929 0.0074840237078524349 0 -0.0082511636171337926 0.0072851672589296732 0 -0.0072049626510938955 0.0064055062087775526 0 -0.0079006925962047062 0.0086625936369324232 0 -0.0082511636171337926 0.0072851672589296732 0 -0.0090989806699038906 0.0082018453177418391 0 -0.0079006925962047062 0.0086625936369324232 0 -0.0068598316337800929 0.0074840237078524349 0 -0.0082511636171337926 0.0072851672589296732 0 -0.0082511636171337926 0.0072851672589296732 0 -0.0090989806699038906 0.0082018453177418391 0 -0.009379893960198088 0.0069581546144355435 0 -0.0082511636171337926 0.0072851672589296732 0 -0.0081254593203659731 0.0058441452649225772 0 -0.009379893960198088 0.0069581546144355435 0 -0.0081254593203659731 0.0058441452649225772 0 -0.009379893960198088 0.0069581546144355435 0 -0.00929571371584988 0.0055599974457407504 0 -0.0082511636171337926 0.0072851672589296732 0 -0.0081254593203659731 0.0058441452649225772 0 -0.0072049626510938955 0.0064055062087775526 0 -0.0058492622093044618 0.0061193591222257222 0 -0.0059710836382589711 0.0044675364814278935 0 -0.0069709271771812732 0.0053253095662968318 0 -0.0081254593203659731 0.0058441452649225772 0 -0.0072049626510938955 0.0064055062087775526 0 -0.0069709271771812732 0.0053253095662968318 0 -0.0058492622093044618 0.0061193591222257222 0 -0.0072049626510938955 0.0064055062087775526 0 -0.0069709271771812732 0.0053253095662968318 0 -0.0058492622093044618 0.0061193591222257222 0 -0.0068598316337800929 0.0074840237078524349 0 -0.0072049626510938955 0.0064055062087775526 0 -0.01222376100497073 0.0083371706367567269 0 -0.011161664092202515 0.0064609848964022557 0 -0.013812266376194399 0.0080986324044988942 0 -0.012362140373349984 0.0087922126341184511 0 -0.013485876774742594 0.0063525579762507478 0 -0.013812266376194399 0.0080986324044988942 0 -0.014058406523317458 0.0094178519385308933 0 -0.012362140373349984 0.0087922126341184511 0 -0.010952397877776913 0.010324595886599255 0 -0.011537604566034618 0.0080197774792298837 0 -0.0099500467652005806 0.007856285022550329 0 -0.011537604566034618 0.0080197774792298837 0 -0.009379893960198088 0.0069581546144355435 0 -0.00929571371584988 0.0055599974457407504 0 -0.011537604566034618 0.0080197774792298837 0 -0.0099500467652005806 0.007856285022550329 0 -0.009379893960198088 0.0069581546144355435 0 -0.0090989806699038906 0.0082018453177418391 0 -0.0099500467652005806 0.007856285022550329 0 -0.009379893960198088 0.0069581546144355435 0 -0.01222376100497073 0.0083371706367567269 0 -0.010352283359646001 0.0051368433051333859 0 -0.012279180328934691 0.0084063374189454389 0 -0.010838352312657644 0.0058532383096304933 0 -0.0094135612875821898 0.0051848828960385247 0 -0.010838352312657644 0.0058532383096304933 0 -0.0094135612875821898 0.0051848828960385247 0 -0.0093960803011764529 0.0032996919197693492 0 -0.01084692778854302 0.0060092197132945498 0 -0.012080156156919661 0.0044914883598872225 0 -0.010767335345038299 0.0042349394190279461 0 -0.012362140373349984 0.0087922126341184511 0 -0.01084692778854302 0.0060092197132945498 0 -0.013485876774742594 0.0063525579762507478 0 -0.013485876774742594 0.0063525579762507478 0 -0.012080156156919661 0.0044914883598872225 0 -0.014786108417078947 0.0032642003762035359 0 -0.01084692778854302 0.0060092197132945498 0 -0.013485876774742594 0.0063525579762507478 0 -0.012080156156919661 0.0044914883598872225 0 -0.012080156156919661 0.0044914883598872225 0 -0.010540386578968266 0.0026201695194520216 0 -0.014786108417078947 0.0032642003762035359 0 -0.011819696852425288 0.0031946686521650211 0 -0.013597955953462285 0.003889277914242126 0 -0.012080156156919661 0.0044914883598872225 0 -0.010767335345038299 0.0042349394190279461 0 -0.010540386578968266 0.0026201695194520216 0 -0.01084692778854302 0.0060092197132945498 0 -0.010767335345038299 0.0042349394190279461 0 -0.0093960803011764529 0.0032996919197693492 0 -0.011161664092202515 0.0064609848964022557 0 -0.010584943713058879 0.0054356641071988763 0 -0.010767335345038299 0.0042349394190279461 0 -0.0093960803011764529 0.0032996919197693492 0 -0.010540386578968266 0.0026201695194520216 0 -0.013089770922398896 0.0020734882029777748 0 -0.013170008133064478 0.0022117635448835184 0 -0.013030578905794364 0.0024340388086201161 0 -0.013089770922398896 0.0020734882029777748 0 -0.012774406965445009 0.0023157990247861032 0 -0.012579647267281484 0.0019691333046691077 0 -0.013089770922398896 0.0020734882029777748 0 -0.012774406965445009 0.0023157990247861032 0 -0.013030578905794364 0.0024340388086201161 0 -0.0059710836382589711 0.0044675364814278935 0 -0.0069709271771812732 0.0053253095662968318 0 -0.0074343256819536128 0.003501840562949114 0 -0.0081254593203659731 0.0058441452649225772 0 -0.0069709271771812732 0.0053253095662968318 0 -0.0074343256819536128 0.003501840562949114 0 -0.010352283359646001 0.0051368433051333859 0 -0.010531629114460147 0.0031689639113006889 0 -0.0081254593203659731 0.0058441452649225772 0 -0.00929571371584988 0.0055599974457407504 0 -0.0074343256819536128 0.003501840562949114 0 -0.0093960803011764529 0.0032996919197693492 0 -0.010540386578968266 0.0026201695194520216 0 -0.0065465509210466313 0.0019701571746641817 0 -0.0094135612875821898 0.0051848828960385247 0 -0.0093960803011764529 0.0032996919197693492 0 -0.0065465509210466313 0.0019701571746641817 0 -0.011819696852425288 0.0031946686521650211 0 -0.010531629114460147 0.0031689639113006889 0 -0.013250007944853204 0.002067612300546212 0 -0.013170008133064478 0.0022117635448835184 0 -0.0132306041350188 0.0021459256880599184 0 -0.013089770922398896 0.0020734882029777748 0 -0.013250007944853204 0.002067612300546212 0 -0.013170008133064478 0.0022117635448835184 0 -0.0083249729719450192 0.0025607094566450542 0 -0.010531629114460147 0.0031689639113006889 0 -0.011850937142713425 0.0033875999797245687 0 -0.010531629114460147 0.0031689639113006889 0 -0.01342706723047791 0.0017248301819976571 0 -0.013319194640663177 0.0017601780536844818 0 -0.015530206626568909 0.0036836614373612631 0 -0.01342706723047791 0.0017248301819976571 0 -0.013250007944853204 0.002067612300546212 0 -0.013296705538377213 0.0019622645675199551 0 -0.013250007944853204 0.002067612300546212 0 -0.013296705538377213 0.0019622645675199551 0 -0.0132306041350188 0.0021459256880599184 0 -0.013317562276430345 0.0019951840693163965 0 -0.013296705538377213 0.0019622645675199551 0 -0.013266666968251406 0.0020866727341274688 0 -0.013352458590147942 0.0018905784813419656 0 -0.013317562276430345 0.0019951840693163965 0 -0.013296705538377213 0.0019622645675199551 0 -0.013352458590147942 0.0018905784813419656 0 -0.01342706723047791 0.0017248301819976571 0 -0.013296705538377213 0.0019622645675199551 0 -0.013296705538377213 0.0019622645675199551 0 -0.013266666968251406 0.0020866727341274688 0 -0.0132306041350188 0.0021459256880599184 0 -0.013170008133064478 0.0022117635448835184 0 -0.0132306041350188 0.0021459256880599184 0 -0.013177616645838289 0.0023881975927241405 0 -0.013154910759794991 0.0024833922359262721 0 -0.013177616645838289 0.0023881975927241405 0 -0.013175808379608535 0.0023734356763882771 0 -0.013177616645838289 0.0023881975927241405 0 -0.013175808379608535 0.0023734356763882771 0 -0.013218089745338456 0.0022480290533616882 0 -0.013200846465205853 0.0023230192948373767 0 -0.013175808379608535 0.0023734356763882771 0 -0.013218089745338456 0.0022480290533616882 0 -0.0132306041350188 0.0021459256880599184 0 -0.013177616645838289 0.0023881975927241405 0 -0.013218089745338456 0.0022480290533616882 0 -0.013266666968251406 0.0020866727341274688 0 -0.013218089745338456 0.0022480290533616882 0 -0.013282744164808092 0.0021369376899025867 0 -0.013266666968251406 0.0020866727341274688 0 -0.0132306041350188 0.0021459256880599184 0 -0.013218089745338456 0.0022480290533616882 0 -0.013218089745338456 0.0022480290533616882 0 -0.013259803385864223 0.0022455699687534011 0 -0.013282744164808092 0.0021369376899025867 0 -0.013200846465205853 0.0023230192948373767 0 -0.013218089745338456 0.0022480290533616882 0 -0.013259803385864223 0.0022455699687534011 0 -0.013330469979148139 0.0021663046208458036 0 -0.013330238283106517 0.0022420653888630699 0 -0.013259803385864223 0.0022455699687534011 0 -0.013330469979148139 0.0021663046208458036 0 -0.013259803385864223 0.0022455699687534011 0 -0.013282744164808092 0.0021369376899025867 0 -0.013330469979148139 0.0021663046208458036 0 -0.013340351513325159 0.0020668141418125029 0 -0.013282744164808092 0.0021369376899025867 0 -0.013340351513325159 0.0020668141418125029 0 -0.013317562276430345 0.0019951840693163965 0 -0.013282744164808092 0.0021369376899025867 0 -0.013317562276430345 0.0019951840693163965 0 -0.013266666968251406 0.0020866727341274688 0 -0.013282744164808092 0.0021369376899025867 0 -0.013030578905794364 0.0024340388086201161 0 -0.012845305944314737 0.0027488390551189145 0 -0.012733166495996501 0.002652109752085859 0 -0.012774406965445009 0.0023157990247861032 0 -0.013030578905794364 0.0024340388086201161 0 -0.012733166495996501 0.002652109752085859 0 -0.013170008133064478 0.0022117635448835184 0 -0.013177616645838289 0.0023881975927241405 0 -0.013030578905794364 0.0024340388086201161 0 -0.013177616645838289 0.0023881975927241405 0 -0.013030578905794364 0.0024340388086201161 0 -0.013165362941808565 0.0026374829997800708 0 -0.013154910759794991 0.0024833922359262721 0 -0.013177616645838289 0.0023881975927241405 0 -0.013165362941808565 0.0026374829997800708 0 -0.013030578905794364 0.0024340388086201161 0 -0.013165362941808565 0.0026374829997800708 0 -0.012845305944314737 0.0027488390551189145 0 -0.013274588618394074 0.0028439460053160011 0 -0.013165362941808565 0.0026374829997800708 0 -0.012845305944314737 0.0027488390551189145 0 -0.012180958858104505 0.0039699487724711513 0 -0.012270375646978597 0.0035631520411702785 0 -0.012326512689517441 0.0029860048155078019 0 -0.012845305944314737 0.0027488390551189145 0 -0.012492064234014505 0.0029063629980829704 0 -0.012845305944314737 0.0027488390551189145 0 -0.012733166495996501 0.002652109752085859 0 -0.012492064234014505 0.0029063629980829704 0 -0.012733166495996501 0.002652109752085859 0 -0.012492064234014505 0.0029063629980829704 0 -0.012402365451561141 0.0027218917578545354 0 -0.012492064234014505 0.0029063629980829704 0 -0.012402365451561141 0.0027218917578545354 0 -0.011898756148248847 0.0030514874739207818 0 -0.012774406965445009 0.0023157990247861032 0 -0.012733166495996501 0.002652109752085859 0 -0.012402365451561141 0.0027218917578545354 0 -0.012402365451561141 0.0027218917578545354 0 -0.011898756148248847 0.0030514874739207818 0 -0.011798645590607162 0.0025947446751525584 0 -0.012492064234014505 0.0029063629980829704 0 -0.011898756148248847 0.0030514874739207818 0 -0.011895780589486088 0.0035243358681087754 0 -0.011898756148248847 0.0030514874739207818 0 -0.011895780589486088 0.0035243358681087754 0 -0.011355723721033778 0.0033085147241807304 0 -0.012310242460115561 0.0043454723733987012 0 -0.012492064234014505 0.0029063629980829704 0 -0.011895780589486088 0.0035243358681087754 0 -0.012310242460115561 0.0043454723733987012 0 -0.011895780589486088 0.0035243358681087754 0 -0.011336106780998004 0.0039339933593663268 0 -0.011336106780998004 0.0039339933593663268 0 -0.010577400235813134 0.0039014579666944468 0 -0.011355723721033778 0.0033085147241807304 0 -0.011895780589486088 0.0035243358681087754 0 -0.011336106780998004 0.0039339933593663268 0 -0.011355723721033778 0.0033085147241807304 0 -0.01019315266579326 0.0036467867964392209 0 -0.010577400235813134 0.0039014579666944468 0 -0.010713124055807178 0.0033475084228976799 0 -0.010577400235813134 0.0039014579666944468 0 -0.010713124055807178 0.0033475084228976799 0 -0.011355723721033778 0.0033085147241807304 0 -0.010713124055807178 0.0033475084228976799 0 -0.011355723721033778 0.0033085147241807304 0 -0.011345741580937188 0.0028820647516364351 0 -0.011898756148248847 0.0030514874739207818 0 -0.011355723721033778 0.0033085147241807304 0 -0.011345741580937188 0.0028820647516364351 0 -0.011345741580937188 0.0028820647516364351 0 -0.010774656857270529 0.0028444944122849327 0 -0.011417953851187948 0.0023123332745351275 0 -0.01028893605676357 0.0032834988465653644 0 -0.010713124055807178 0.0033475084228976799 0 -0.010774656857270529 0.0028444944122849327 0 -0.010713124055807178 0.0033475084228976799 0 -0.011345741580937188 0.0028820647516364351 0 -0.010774656857270529 0.0028444944122849327 0 -0.015799898482214289 0.0098289584699034083 0 -0.015716638250208779 0.0055212655190070344 0 -0.010592948791680485 0.0024027583320140127 0 -0.010774656857270529 0.0028444944122849327 0 -0.011417953851187948 0.0023123332745351275 0 -0.016190380335755327 0.0056381496016997103 0 -0.019162481137386011 0.0039428163782260347 0 -0.014786108417078947 0.0032642003762035359 0 -0.011901410739739443 0.0018549125869303483 0 -0.012579647267281484 0.0019691333046691077 0 -0.012157448856798642 0.0022407544058502408 0 -0.015716638250208779 0.0055212655190070344 0 -0.013597955953462285 0.003889277914242126 0 -0.015716638250208779 0.0055212655190070344 0 -0.01372288837229532 0.0033006921059993109 0 -0.012774406965445009 0.0023157990247861032 0 -0.012579647267281484 0.0019691333046691077 0 -0.012476698163802901 0.0023038995123168997 0 -0.012579647267281484 0.0019691333046691077 0 -0.012476698163802901 0.0023038995123168997 0 -0.012157448856798642 0.0022407544058502408 0 -0.012402365451561141 0.0027218917578545354 0 -0.012476698163802901 0.0023038995123168997 0 -0.012157448856798642 0.0022407544058502408 0 -0.012774406965445009 0.0023157990247861032 0 -0.012402365451561141 0.0027218917578545354 0 -0.012476698163802901 0.0023038995123168997 0 -0.011898756148248847 0.0030514874739207818 0 -0.011345741580937188 0.0028820647516364351 0 -0.011798645590607162 0.0025947446751525584 0 -0.013332993200608016 0.002926919231408605 0 -0.01372288837229532 0.0033006921059993109 0 -0.011345741580937188 0.0028820647516364351 0 -0.011417953851187948 0.0023123332745351275 0 -0.011798645590607162 0.0025947446751525584 0 3.2044326743056087e-05 0.10495607143938639 0 2.9824283346313678e-05 0.10422114116747139 0 -9.7198512793168158e-05 0.10464864070502411 0 -3.5461838554814973e-05 0.10418531868179691 0 -1.8969696311422825e-05 0.10417767318259866 0 2.9824283346313678e-05 0.10422114116747139 0 2.6979278988838739e-05 0.10462442114516299 0 4.1277640119529782e-05 0.10453362223309007 0 -3.5461838554814973e-05 0.10418531868179691 0 -1.8969696311422825e-05 0.10417767318259866 0 8.7082541239933111e-05 0.104243313589618 0 3.2044326743056087e-05 0.10495607143938639 0 -4.1643540190096668e-05 0.10495126354650645 0 -9.7198512793168158e-05 0.10464864070502411 0 -1.4659217711567786e-07 0.10499953217711402 0 -4.1643540190096668e-05 0.10495126354650645 0 -5.6841562832199961e-09 0.10500007075792993 0 -1.4659217711567786e-07 0.10499953217711402 0 -4.1643540190096668e-05 0.10495126354650645 0 -9.7198512793168158e-05 0.10464864070502411 0 3.2044326743056087e-05 0.10495607143938639 0 -4.1643540190096668e-05 0.10495126354650645 0 -9.7203130566322955e-06 0.10498010679672642 0 2.6979278988838739e-05 0.10462442114516299 0 1.7103091519093247e-05 0.10477745025064318 0 -4.1643540190096668e-05 0.10495126354650645 0 -9.7203130566322955e-06 0.10498010679672642 0 -5.6841562832199961e-09 0.10500007075792993 0 3.2044326743056087e-05 0.10495607143938639 0 -9.7203130566322955e-06 0.10498010679672642 0 -5.1124943315898573e-06 0.10500388182691042 0 -9.7203130566322955e-06 0.10498010679672642 0 -5.6841562832199961e-09 0.10500007075792993 0 -5.1124943315898573e-06 0.10500388182691042 0 -3.5461838554814973e-05 0.10418531868179691 0 8.4304424381077712e-06 0.10443796024119102 0 3.8096245999379147e-05 0.104331322059137 0 -3.5461838554814973e-05 0.10418531868179691 0 8.4304424381077712e-06 0.10443796024119102 0 -9.8499279975237066e-05 0.10455424347646497 0 3.8096245999379147e-05 0.104331322059137 0 0.00010960619051519075 0.10443493321438814 0 8.7082541239933111e-05 0.104243313589618 0 -3.5461838554814973e-05 0.10418531868179691 0 3.8096245999379147e-05 0.104331322059137 0 8.7082541239933111e-05 0.104243313589618 0 8.4304424381077712e-06 0.10443796024119102 0 3.8096245999379147e-05 0.104331322059137 0 0.00010960619051519075 0.10443493321438814 0 0.00010960619051519075 0.10443493321438814 0 0.00021937230619467016 0.10425422561859271 0 0.00029287910522255312 0.10444698800048467 0 0.00010960619051519075 0.10443493321438814 0 0.00021937230619467016 0.10425422561859271 0 8.7082541239933111e-05 0.104243313589618 0 0.00043167491688047909 0.10423756748605081 0 0.00060087025483292796 0.10450861018304645 0 0.00029287910522255312 0.10444698800048467 0 0.00021937230619467016 0.10425422561859271 0 0.00043167491688047909 0.10423756748605081 0 0.00029287910522255312 0.10444698800048467 0 0.00021937230619467016 0.10425422561859271 0 0.00043167491688047909 0.10423756748605081 0 0.00028595173307242275 0.10403367935310645 0 0.00028595173307242275 0.10403367935310645 0 0.00040899488989069475 0.1037964614303841 0 0.00056469229671317106 0.10393947084193307 0 0.00043167491688047909 0.10423756748605081 0 0.00028595173307242275 0.10403367935310645 0 0.00056469229671317106 0.10393947084193307 0 0.00028595173307242275 0.10403367935310645 0 0.00013598357386229493 0.10410038664861415 0 0.00020358885138587813 0.10360948524712893 0 -1.8969696311422825e-05 0.10417767318259866 0 0.00013598357386229493 0.10410038664861415 0 0.00020358885138587813 0.10360948524712893 0 0.00021937230619467016 0.10425422561859271 0 8.7082541239933111e-05 0.104243313589618 0 0.00013598357386229493 0.10410038664861415 0 -1.8969696311422825e-05 0.10417767318259866 0 8.7082541239933111e-05 0.104243313589618 0 0.00013598357386229493 0.10410038664861415 0 0.00021937230619467016 0.10425422561859271 0 0.00028595173307242275 0.10403367935310645 0 0.00013598357386229493 0.10410038664861415 0 -1.8969696311422825e-05 0.10417767318259866 0 0.00027753339751030202 0.10408211827952069 0 2.9824283346313678e-05 0.10422114116747139 0 -0.00059513757022844197 0.10280090979507966 0 -0.00060011363764098395 0.10232062863608608 0 0.00027753339751030202 0.10408211827952069 0 4.1580980196942098e-05 0.10372386394459285 0 2.9824283346313678e-05 0.10422114116747139 0 0.00020358885138587813 0.10360948524712893 0 0.00053928323025957594 0.10311915214480252 0 0.00056619921223579413 0.10358631716265421 0 0.00028595173307242275 0.10403367935310645 0 0.00020358885138587813 0.10360948524712893 0 0.00040899488989069475 0.1037964614303841 0 0.00040899488989069475 0.1037964614303841 0 0.00056619921223579413 0.10358631716265421 0 0.00056469229671317106 0.10393947084193307 0 0.00020358885138587813 0.10360948524712893 0 0.00040899488989069475 0.1037964614303841 0 0.00056619921223579413 0.10358631716265421 0 0.00027753339751030202 0.10408211827952069 0 0.00036899671998037855 0.10302379984579453 0 0.001137748976703531 0.10250000065363379 0 -0.00060011363764098395 0.10232062863608608 0 -0.0006443302826354408 0.10072403691960534 0 0.00036899671998037855 0.10302379984579453 0 0.00067057292283800429 0.10192003367159755 0 0.001137748976703531 0.10250000065363379 0 0.00036899671998037855 0.10302379984579453 0 4.1580980196942098e-05 0.10372386394459285 0 1.3629000009105744e-05 0.10288513789521168 0 4.1580980196942098e-05 0.10372386394459285 0 -0.00018472218359409941 0.10415904295579978 0 1.3629000009105744e-05 0.10288513789521168 0 0.00027753339751030202 0.10408211827952069 0 0.00036899671998037855 0.10302379984579453 0 4.1580980196942098e-05 0.10372386394459285 0 4.1580980196942098e-05 0.10372386394459285 0 -0.00018472218359409941 0.10415904295579978 0 2.9824283346313678e-05 0.10422114116747139 0 -0.00018472218359409941 0.10415904295579978 0 2.9824283346313678e-05 0.10422114116747139 0 -9.7198512793168158e-05 0.10464864070502411 0 -1.4659217711567786e-07 0.10499953217711402 0 -9.7198512793168158e-05 0.10464864070502411 0 -1.1249606519529494e-07 0.10499921162533792 0 -0.00018472218359409941 0.10415904295579978 0 -9.7198512793168158e-05 0.10464864070502411 0 -1.1249606519529494e-07 0.10499921162533792 0 -0.00018472218359409941 0.10415904295579978 0 -1.1249606519529494e-07 0.10499921162533792 0 -0.00038119995455404012 0.10362400006036808 0 -1.1249606519529494e-07 0.10499921162533792 0 -0.00038119995455404012 0.10362400006036808 0 -1.6060393231153502e-06 0.10499574506760348 0 -0.00018472218359409941 0.10415904295579978 0 -0.00038119995455404012 0.10362400006036808 0 1.3629000009105744e-05 0.10288513789521168 0 -0.00038119995455404012 0.10362400006036808 0 -0.0007666693863585737 0.10153406613754271 0 -6.3144195883624795e-05 0.10201209630346408 0 -5.6071699556804868e-07 0.10499648785251148 0 0.00016704624497194877 0.10282401673613893 0 -0.00038119995455404012 0.10362400006036808 0 -1.6060393231153502e-06 0.10499574506760348 0 -0.0007666693863585737 0.10153406613754271 0 -2.9607340580515982e-06 0.1049911825666475 0 -0.00048967862016863033 0.10257216278566897 0 4.333971139907655e-06 0.093814651017727929 0 1.0930364273206831e-06 0.10500028311991302 0 -2.9607340580515982e-06 0.1049911825666475 0 -0.00048967862016863033 0.10257216278566897 0 0.00045170157036745096 0.097455656209033847 0 4.333971139907655e-06 0.093814651017727929 0 0.0021954190453965577 0.099337649952231044 0 -1.7441245244373488e-08 0.093796286930005066 0 0.00050949783955745668 0.09531158273629145 0 -0.00048967862016863033 0.10257216278566897 0 0.00045170157036745096 0.097455656209033847 0 4.333971139907655e-06 0.093814651017727929 0 0.00016704624497194877 0.10282401673613893 0 0.00065482352829994092 0.10149671156041849 0 -0.0007666693863585737 0.10153406613754271 0 0.00045170157036745096 0.097455656209033847 0 0.00057878321066541863 0.10031411578611078 0 0.00057878321066541863 0.10031411578611078 0 0.0013103364525033539 0.099912644213798765 0 0.0021954190453965577 0.099337649952231044 0 0.00045170157036745096 0.097455656209033847 0 0.00057878321066541863 0.10031411578611078 0 0.0021954190453965577 0.099337649952231044 0 0.00057878321066541863 0.10031411578611078 0 0.00070058175650207478 0.10105291818141705 0 0.0013103364525033539 0.099912644213798765 0 0.00057878321066541863 0.10031411578611078 0 0.00070058175650207478 0.10105291818141705 0 -6.3144195883624795e-05 0.10201209630346408 0 0.00070058175650207478 0.10105291818141705 0 0.00097545675336130778 0.10066538150580853 0 0.0013103364525033539 0.099912644213798765 0 -0.0007666693863585737 0.10153406613754271 0 0.00057878321066541863 0.10031411578611078 0 -6.3144195883624795e-05 0.10201209630346408 0 0.00070058175650207478 0.10105291818141705 0 -6.3144195883624795e-05 0.10201209630346408 0 1.3629000009105744e-05 0.10288513789521168 0 -0.00038119995455404012 0.10362400006036808 0 -6.3144195883624795e-05 0.10201209630346408 0 1.3629000009105744e-05 0.10288513789521168 0 0.00036899671998037855 0.10302379984579453 0 1.3629000009105744e-05 0.10288513789521168 0 0.00067057292283800429 0.10192003367159755 0 0.00070058175650207478 0.10105291818141705 0 1.3629000009105744e-05 0.10288513789521168 0 0.00067057292283800429 0.10192003367159755 0 0.00067057292283800429 0.10192003367159755 0 0.00097545675336130778 0.10066538150580853 0 0.001137748976703531 0.10250000065363379 0 0.00070058175650207478 0.10105291818141705 0 0.00067057292283800429 0.10192003367159755 0 0.00097545675336130778 0.10066538150580853 0 -0.00057511982709502964 0.097305847862389869 0 -0.0006443302826354408 0.10072403691960534 0 0.00097545675336130778 0.10066538150580853 0 0.001490868397413697 0.10021796437473401 0 0.001137748976703531 0.10250000065363379 0 0.00097545675336130778 0.10066538150580853 0 0.001490868397413697 0.10021796437473401 0 0.00075957814819799967 0.098672638189477677 0 0.0010494582052559716 0.10252718075692405 0 0.0012312309100048755 0.10294705526844505 0 0.00053928323025957594 0.10311915214480252 0 0.0010494582052559716 0.10252718075692405 0 0.0014094978447669012 0.10249792682117828 0 0.0012312309100048755 0.10294705526844505 0 0.001490868397413697 0.10021796437473401 0 0.0018736228398692257 0.096429752193852483 0 0.0050618874481961453 0.095393395735291542 0 -0.00057511982709502964 0.097305847862389869 0 0.00069057917358025399 0.089870404167089607 0 0.0010494582052559716 0.10252718075692405 0 0.0014094978447669012 0.10249792682117828 0 0.0017005526045135453 0.10189461683725581 0 0.001490868397413697 0.10021796437473401 0 0.00075957814819799967 0.098672638189477677 0 0.0018736228398692257 0.096429752193852483 0 0.00075957814819799967 0.098672638189477677 0 0.0018736228398692257 0.096429752193852483 0 0.00055843479639918782 0.094518653709183331 0 0.0018736228398692257 0.096429752193852483 0 0.0011437312925676529 0.092194096618757312 0 0.0050618874481961453 0.095393395735291542 0 0.00075957814819799967 0.098672638189477677 0 -0.0015816774521365952 0.090963318041073771 0 0.00055843479639918782 0.094518653709183331 0 0.00075957814819799967 0.098672638189477677 0 0.0013103364525033539 0.099912644213798765 0 0.0021954190453965577 0.099337649952231044 0 0.0010148311203056226 0.096556203649643027 0 0.00050949783955745668 0.09531158273629145 0 0.00097545675336130778 0.10066538150580853 0 0.00075957814819799967 0.098672638189477677 0 0.0013103364525033539 0.099912644213798765 0 -0.0015816774521365952 0.090963318041073771 0 0.0011437312925676529 0.092194096618757312 0 -0.00068910542417154443 0.08994967589238699 0 -0.0015816774521365952 0.090963318041073771 0 0.00055843479639918782 0.094518653709183331 0 0.0011437312925676529 0.092194096618757312 0 0.0018736228398692257 0.096429752193852483 0 0.00055843479639918782 0.094518653709183331 0 0.0011437312925676529 0.092194096618757312 0 0.0011437312925676529 0.092194096618757312 0 0.00054947784181756274 0.088397586547911647 0 0.0039331949685078227 0.090078965928421698 0 0.0011437312925676529 0.092194096618757312 0 0.00054947784181756274 0.088397586547911647 0 -0.00068910542417154443 0.08994967589238699 0 0.00054947784181756274 0.088397586547911647 0 -3.837838153062792e-06 0.088496843835902755 0 1.0158094198095096e-05 0.083202190034430704 0 0.00054947784181756274 0.088397586547911647 0 -3.837838153062792e-06 0.088496843835902755 0 -0.00068910542417154443 0.08994967589238699 0 1.1122057265310048e-07 0.093787787138945422 0 -0.0015816774521365952 0.090963318041073771 0 -0.00068910542417154443 0.08994967589238699 0 1.1122057265310048e-07 0.093787787138945422 0 -3.837838153062792e-06 0.088496843835902755 0 -0.00068910542417154443 0.08994967589238699 0 -0.00042911701320223641 0.080328724416257088 0 4.5176755748118741e-07 0.083184505747741763 0 -4.1132709231041217e-07 0.077406277952756508 0 -0.00042911701320223641 0.080328724416257088 0 -0.00019490606834501564 0.080049661846950712 0 -9.8921675623879363e-05 0.07989598646956983 0 1.912004698936621e-06 0.083200315761274679 0 0.00052471000038396148 0.086401547538513992 0 0.00054947784181756274 0.088397586547911647 0 1.0158094198095096e-05 0.083202190034430704 0 0.0039331949685078227 0.090078965928421698 0 -0.00042911701320223641 0.080328724416257088 0 4.5176755748118741e-07 0.083184505747741763 0 0.00046336519725338093 0.080368028532961239 0 0.00052471000038396148 0.086401547538513992 0 0.00069057917358025399 0.089870404167089607 0 0.0011437312925676529 0.092194096618757312 0 0.0039331949685078227 0.090078965928421698 0 0.0050618874481961453 0.095393395735291542 0 0.00046336519725338093 0.080368028532961239 0 -0.00019490606834501564 0.080049661846950712 0 0.00050119452063252402 0.079479214608317306 0 0.0017899778622735916 0.086223934230650959 0 0.00069057917358025399 0.089870404167089607 0 -0.00042911701320223641 0.080328724416257088 0 0.00046336519725338093 0.080368028532961239 0 -0.00019490606834501564 0.080049661846950712 0 -0.00087672039524811732 0.080896642498256455 0 -0.00019885937083358627 0.081027718298275958 0 -9.8921675623879363e-05 0.07989598646956983 0 0.0017899778622735916 0.086223934230650959 0 0.0020471338326078052 0.08516034605442481 0 -0.00045093733923740422 0.081352976580462796 0 -1.5285202910717946e-05 0.081678301120616498 0 -0.00019885937083358627 0.081027718298275958 0 -0.00087672039524811732 0.080896642498256455 0 -0.00045093733923740422 0.081352976580462796 0 -0.00019885937083358627 0.081027718298275958 0 -0.00045093733923740422 0.081352976580462796 0 -0.00071113330969832761 0.081803116518001248 0 -1.5285202910717946e-05 0.081678301120616498 0 -0.00087672039524811732 0.080896642498256455 0 -0.00045093733923740422 0.081352976580462796 0 -0.00071113330969832761 0.081803116518001248 0 -0.00087672039524811732 0.080896642498256455 0 -0.00071113330969832761 0.081803116518001248 0 -0.0015663342319489158 0.081573114048838102 0 -0.00071113330969832761 0.081803116518001248 0 -0.0011207276588514439 0.082209269014381026 0 -0.00071633066212405594 0.082368321597620323 0 -0.00071113330969832761 0.081803116518001248 0 -0.00071633066212405594 0.082368321597620323 0 -0.00010064678906911679 0.082521155400548635 0 -0.00071113330969832761 0.081803116518001248 0 -0.00010064678906911679 0.082521155400548635 0 -1.5285202910717946e-05 0.081678301120616498 0 0.0014094978447669012 0.10249792682117828 0 0.0017005526045135453 0.10189461683725581 0 0.0016573677301056819 0.10259367109606478 0 -0.0015663342319489158 0.081573114048838102 0 -0.0011207276588514439 0.082209269014381026 0 -0.0016145168342276313 0.082658026949534891 0 0.00069057917358025399 0.089870404167089607 0 -0.0003679915873764176 0.091038152317332546 0 -0.00071113330969832761 0.081803116518001248 0 -0.0015663342319489158 0.081573114048838102 0 -0.0011207276588514439 0.082209269014381026 0 -0.0011207276588514439 0.082209269014381026 0 -0.0016145168342276313 0.082658026949534891 0 -0.00095467956022502777 0.082714061933331529 0 -0.0016145168342276313 0.082658026949534891 0 -0.00095467956022502777 0.082714061933331529 0 -0.0012739289056416664 0.08319855486480153 0 0.0014094978447669012 0.10249792682117828 0 0.0016573677301056819 0.10259367109606478 0 0.0012312309100048755 0.10294705526844505 0 -0.00071633066212405594 0.082368321597620323 0 -0.00058733846779255162 0.082719297692742652 0 -0.00010064678906911679 0.082521155400548635 0 -0.0011207276588514439 0.082209269014381026 0 -0.00071633066212405594 0.082368321597620323 0 -0.00095467956022502777 0.082714061933331529 0 -0.00071633066212405594 0.082368321597620323 0 -0.00095467956022502777 0.082714061933331529 0 -0.00058733846779255162 0.082719297692742652 0 -0.00095467956022502777 0.082714061933331529 0 -0.00075466989403919567 0.083025425071196451 0 -0.00082925481974795796 0.08349095517297879 0 0.0015993544563568127 0.082551434106515692 0 0.0018364841196441802 0.082469371338310143 0 -0.00095467956022502777 0.082714061933331529 0 -0.00075466989403919567 0.083025425071196451 0 -0.00058733846779255162 0.082719297692742652 0 -0.00058733846779255162 0.082719297692742652 0 -0.00034400473916774521 0.083014732437335564 0 -0.00010064678906911679 0.082521155400548635 0 -0.00075466989403919567 0.083025425071196451 0 -0.00058733846779255162 0.082719297692742652 0 -0.00034400473916774521 0.083014732437335564 0 0.0016712214568122008 0.076634453214647624 0 0.0014671379064219426 0.076023419902137665 0 -0.00075466989403919567 0.083025425071196451 0 -0.00032548257284865912 0.083395721822101296 0 -0.00082925481974795796 0.08349095517297879 0 -0.00075466989403919567 0.083025425071196451 0 -0.00034400473916774521 0.083014732437335564 0 -0.00028419049005229597 0.083436801030344454 0 -0.00034400473916774521 0.083014732437335564 0 -0.00028419049005229597 0.083436801030344454 0 -1.7587635904658123e-05 0.083389821314301144 0 0.0014671379064219426 0.076023419902137665 0 0.0018364841196441802 0.082469371338310143 0 -0.00095467956022502777 0.082714061933331529 0 -0.00083268429487964434 0.083637907019531263 0 -0.0012739289056416664 0.08319855486480153 0 0.001230807881009758 0.10338496585381972 0 0.0012133798030792631 0.10350054685872936 0 0.001190726287576701 0.10345823063804956 0 0.0018364841196441802 0.082469371338310143 0 0.0012181600978993297 0.08377273801677404 0 -0.00021484836294840466 0.076793474430630213 0 -8.3157771168573379e-05 0.07693554635374722 0 -0.00018215829353068403 0.077121982030143324 0 -1.0076833345430559e-06 0.076750307121160252 0 -0.00021484836294840466 0.076793474430630213 0 -8.3157771168573379e-05 0.07693554635374722 0 -1.0076833345430559e-06 0.076750307121160252 0 -8.3157771168573379e-05 0.07693554635374722 0 0.00011796425214985026 0.076853846388271987 0 0.0011749187262212264 0.071829182130486779 0 0.00072529254205254412 0.07261489771025248 0 -8.3157771168573379e-05 0.07693554635374722 0 -7.0298144590878072e-05 0.077246817170784687 0 0.00011796425214985026 0.076853846388271987 0 -8.3157771168573379e-05 0.07693554635374722 0 -0.00018215829353068403 0.077121982030143324 0 -7.0298144590878072e-05 0.077246817170784687 0 0.0012133798030792631 0.10350054685872936 0 0.0011747496017633081 0.10356031726342106 0 0.001190726287576701 0.10345823063804956 0 -0.00018215829353068403 0.077121982030143324 0 -0.00012943626377363962 0.077259719688030901 0 -0.00016356663714978215 0.077449379200618465 0 0.0012133798030792631 0.10350054685872936 0 0.0011747496017633081 0.10356031726342106 0 0.0011282104610759057 0.10353096840971848 0 0.0012181600978993297 0.08377273801677404 0 0.00020582671321365392 0.079528193927378643 0 -0.0021587512121446452 0.058860724764692118 0 -0.0021050296233520978 0.058664941837906645 0 -0.002344980361560136 0.058900666758189342 0 0.0011530892127128774 0.071847491592476956 0 0.0011749187262212264 0.071829182130486779 0 -0.00018215829353068403 0.077121982030143324 0 -0.00012943626377363962 0.077259719688030901 0 -7.0298144590878072e-05 0.077246817170784687 0 0.0011747496017633081 0.10356031726342106 0 0.001169602223371578 0.10349612435215273 0 0.0011759952079216515 0.10366822003035271 0 0.001190726287576701 0.10345823063804956 0 0.001169602223371578 0.10349612435215273 0 0.00114684022664867 0.10341190927721701 0 0.0011747496017633081 0.10356031726342106 0 0.001190726287576701 0.10345823063804956 0 0.001169602223371578 0.10349612435215273 0 -0.0014097595102213571 0.092627378576625882 0 -0.001437938569092451 0.09004042177768723 0 -0.0003679915873764176 0.091038152317332546 0 -0.001437938569092451 0.09004042177768723 0 -0.0016145168342276313 0.082658026949534891 0 -0.0016889419405144805 0.083787699063838691 0 -0.0012739289056416664 0.08319855486480153 0 0.0016573677301056819 0.10259367109606478 0 0.0015951449305419102 0.10323203753175421 0 0.0012312309100048755 0.10294705526844505 0 0.001230807881009758 0.10338496585381972 0 0.001190726287576701 0.10345823063804956 0 0.00114684022664867 0.10341190927721701 0 0.0018364841196441802 0.082469371338310143 0 -0.001437938569092451 0.09004042177768723 0 -0.00083268429487964434 0.083637907019531263 0 -0.0016889419405144805 0.083787699063838691 0 -0.0012739289056416664 0.08319855486480153 0 0.0012312309100048755 0.10294705526844505 0 0.00098995155804780977 0.10334022782969997 0 0.00053928323025957594 0.10311915214480252 0 0.0015951449305419102 0.10323203753175421 0 0.0012312309100048755 0.10294705526844505 0 0.00098995155804780977 0.10334022782969997 0 0.001169602223371578 0.10349612435215273 0 0.0011857405692223709 0.10332167227900234 0 0.00098995155804780977 0.10334022782969997 0 -0.001437938569092451 0.09004042177768723 0 -0.0010604705962980571 0.091638590702356026 0 0.00098995155804780977 0.10334022782969997 0 0.00053928323025957594 0.10311915214480252 0 0.00056619921223579413 0.10358631716265421 0 0.00098995155804780977 0.10334022782969997 0 0.00056619921223579413 0.10358631716265421 0 0.00086852059220671857 0.10367769931949579 0 0.00056619921223579413 0.10358631716265421 0 0.00086852059220671857 0.10367769931949579 0 0.00056469229671317106 0.10393947084193307 0 0.00098995155804780977 0.10334022782969997 0 0.00086852059220671857 0.10367769931949579 0 0.0010627487880622653 0.10354582207547229 0 0.001169602223371578 0.10349612435215273 0 0.00098995155804780977 0.10334022782969997 0 0.0010627487880622653 0.10354582207547229 0 0.001169602223371578 0.10349612435215273 0 0.0010627487880622653 0.10354582207547229 0 0.0011759952079216515 0.10366822003035271 0 0.00086852059220671857 0.10367769931949579 0 0.0010627487880622653 0.10354582207547229 0 0.0011759952079216515 0.10366822003035271 0 0.00086852059220671857 0.10367769931949579 0 0.0011759952079216515 0.10366822003035271 0 0.00085531939901844893 0.10397014914083914 0 0.00086852059220671857 0.10367769931949579 0 0.00085531939901844893 0.10397014914083914 0 0.00056469229671317106 0.10393947084193307 0 0.00085531939901844893 0.10397014914083914 0 0.00056469229671317106 0.10393947084193307 0 0.00065681274751580804 0.10421081789063361 0 0.00065681274751580804 0.10421081789063361 0 0.0010248883837644539 0.10434411170306467 0 0.00060087025483292796 0.10450861018304645 0 0.00043167491688047909 0.10423756748605081 0 0.00065681274751580804 0.10421081789063361 0 0.00060087025483292796 0.10450861018304645 0 0.00043167491688047909 0.10423756748605081 0 0.00056469229671317106 0.10393947084193307 0 0.00065681274751580804 0.10421081789063361 0 0.0011759952079216515 0.10366822003035271 0 0.00085531939901844893 0.10397014914083914 0 0.0010248883837644539 0.10434411170306467 0 0.00085531939901844893 0.10397014914083914 0 0.00065681274751580804 0.10421081789063361 0 0.0010248883837644539 0.10434411170306467 0 0.00021933648759945784 0.10331788816836839 0 -3.0486051105120226e-06 0.10296802126295997 0 0.0013193480500392481 0.10334871038374702 0 0.0010573644722756046 0.10337742907924838 0 0.0011409026361641221 0.10351981664487329 0 0.0011759952079216515 0.10366822003035271 0 0.0013193480500392481 0.10334871038374702 0 0.0011409026361641221 0.10351981664487329 0 -0.00036414314850685469 0.076542844516128403 0 0.00020582671321365392 0.079528193927378643 0 -0.0012125514040682095 0.08990259345405073 0 0.00020582671321365392 0.079528193927378643 0 0.0015588832092216815 0.083664357854182858 0 0.00021492877559164139 0.084069944999842383 0 0.001272332803442016 0.081232301405289642 0 0.0010573644722756046 0.10337742907924838 0 0.0011282104610759057 0.10353096840971848 0 0.0011409026361641221 0.10351981664487329 0 -0.0022330960147625171 0.058329200407348666 0 -0.0021050296233520978 0.058664941837906645 0 -0.0023738251389666251 0.058482171436508516 0 -0.00012943626377363962 0.077259719688030901 0 -7.7413139373375117e-05 0.077246212440818765 0 -0.00016356663714978215 0.077449379200618465 0 0.0011749187262212264 0.071829182130486779 0 0.00020582671321365392 0.079528193927378643 0 0.0011747496017633081 0.10356031726342106 0 0.0011759952079216515 0.10366822003035271 0 0.0011409026361641221 0.10351981664487329 0 0.0011747496017633081 0.10356031726342106 0 0.0011282104610759057 0.10353096840971848 0 0.0011409026361641221 0.10351981664487329 0 -0.00096958028283789703 0.05607169806642022 0 -0.0016295307054764517 0.055396512986442235 0 -0.0016791396442174162 0.056414193370542882 0 -0.00096958028283789703 0.05607169806642022 0 -0.0016295307054764517 0.055396512986442235 0 -0.0003037387868531883 0.055281367297560183 0 -0.0016295307054764517 0.055396512986442235 0 -0.0003037387868531883 0.055281367297560183 0 -0.0017165567862219941 0.054116326636075678 0 -0.0016295307054764517 0.055396512986442235 0 -0.002281105769581199 0.055038013929577377 0 -0.0017287506437909991 0.054116337532009069 0 -0.0011545668450416134 0.060667662851564601 0 4.7390543738090298e-05 0.067290824873674104 0 -0.002281105769581199 0.055038013929577377 0 -0.0027584153415413262 0.056286177538692445 0 -0.0029550089655093208 0.054371210880209297 0 -0.0021050296233520978 0.058664941837906645 0 -0.0023738251389666251 0.058482171436508516 0 -0.002344980361560136 0.058900666758189342 0 -0.0016295307054764517 0.055396512986442235 0 -0.0027584153415413262 0.056286177538692445 0 -0.0016791396442174162 0.056414193370542882 0 -0.0016295307054764517 0.055396512986442235 0 -0.002281105769581199 0.055038013929577377 0 -0.0027584153415413262 0.056286177538692445 0 -0.0027584153415413262 0.056286177538692445 0 -0.0019771323640953757 0.057333623862807243 0 -0.0016791396442174162 0.056414193370542882 0 -0.0027584153415413262 0.056286177538692445 0 -0.0019771323640953757 0.057333623862807243 0 -0.002257061495963439 0.058215144778834722 0 -0.0011545668450416134 0.060667662851564601 0 -0.0014231034857120424 0.059409612432290065 0 -0.0022330960147625171 0.058329200407348666 0 -0.0023738251389666251 0.058482171436508516 0 -0.002257061495963439 0.058215144778834722 0 -0.0019771323640953757 0.057333623862807243 0 -0.0011184059244970478 0.057090893335628216 0 -0.0019269504730772293 0.058322106933659773 0 -0.0011184059244970478 0.057090893335628216 0 0.0001887419409875187 0.057823934743881263 0 -0.0019269504730772293 0.058322106933659773 0 -0.0019771323640953757 0.057333623862807243 0 -0.0016791396442174162 0.056414193370542882 0 -0.0011184059244970478 0.057090893335628216 0 -0.00096958028283789703 0.05607169806642022 0 -0.0016791396442174162 0.056414193370542882 0 -0.0011184059244970478 0.057090893335628216 0 -0.00096958028283789703 0.05607169806642022 0 -0.0011184059244970478 0.057090893335628216 0 -0.00017516242369832046 0.056457234632493546 0 -0.0011184059244970478 0.057090893335628216 0 0.0001887419409875187 0.057823934743881263 0 -0.00017516242369832046 0.056457234632493546 0 0.0001887419409875187 0.057823934743881263 0 -0.00017516242369832046 0.056457234632493546 0 0.0014535019132354162 0.05629859053271611 0 0.0012759347077047835 0.065757225964314714 0 0.0024443700148597818 0.064071471019206336 0 0.003274939527506853 0.057221045943413568 0 0.004502798578007049 0.056929343307560692 0 0.001450257958962991 0.060942327222567219 0 0.0001887419409875187 0.057823934743881263 0 0.003274939527506853 0.057221045943413568 0 0.0014535019132354162 0.05629859053271611 0 0.003274939527506853 0.057221045943413568 0 0.0033006673977136382 0.055015712027000251 0 0.004502798578007049 0.056929343307560692 0 0.003274939527506853 0.057221045943413568 0 0.0014535019132354162 0.05629859053271611 0 0.0033006673977136382 0.055015712027000251 0 0.0014535019132354162 0.05629859053271611 0 0.0033006673977136382 0.055015712027000251 0 0.0012525941359049198 0.053941189882809173 0 0.0033006673977136382 0.055015712027000251 0 0.0012525941359049198 0.053941189882809173 0 0.0024203764962084907 0.052558279252761159 0 0.0012525941359049198 0.053941189882809173 0 0.0024203764962084907 0.052558279252761159 0 0.00014627258054575521 0.05249799677141527 0 -0.00017516242369832046 0.056457234632493546 0 0.0014535019132354162 0.05629859053271611 0 -0.0003037387868531883 0.055281367297560183 0 -0.00096958028283789703 0.05607169806642022 0 -0.00017516242369832046 0.056457234632493546 0 -0.0003037387868531883 0.055281367297560183 0 0.0014535019132354162 0.05629859053271611 0 0.0012525941359049198 0.053941189882809173 0 -0.00095605044436144126 0.053715807770928541 0 -0.0017427110037405156 0.059097639586634117 0 -0.0021112290369219287 0.059722754238409712 0 0.0012525941359049198 0.053941189882809173 0 -0.00095605044436144126 0.053715807770928541 0 0.00014627258054575521 0.05249799677141527 0 0.00014627258054575521 0.05249799677141527 0 0.00092171477848404428 0.050854298566710622 0 -0.0032049821442639279 0.051647662206312221 0 0.00097354593905219086 0.058801775274500409 0 -0.00091377279737261561 0.063970725133965345 0 0.0024203764962084907 0.052558279252761159 0 0.00014627258054575521 0.05249799677141527 0 0.00092171477848404428 0.050854298566710622 0 0.0024203764962084907 0.052558279252761159 0 0.00092171477848404428 0.050854298566710622 0 0.0039052906775042741 0.050473631072051939 0 0.00097354593905219086 0.058801775274500409 0 0.0017281845230949771 0.056440160115416374 0 0.00052039292475787146 0.058649135065351958 0 1.2282735050646295e-05 0.05930827356055457 0 -0.00037800631941352776 0.058826695886363051 0 0.00052039292475787146 0.058649135065351958 0 0.0011203726004153046 0.058830223743761928 0 0.00078289945214628969 0.059295179921314757 0 0.00052039292475787146 0.058649135065351958 0 0.00078289945214628969 0.059295179921314757 0 1.2282735050646295e-05 0.05930827356055457 0 0.0011203726004153046 0.058830223743761928 0 0.0014946540407577127 0.059181442933417795 0 0.00078289945214628969 0.059295179921314757 0 0.0011203726004153046 0.058830223743761928 0 0.0013826349756083419 0.058495898884798489 0 0.0014946540407577127 0.059181442933417795 0 -0.00091377279737261561 0.063970725133965345 0 0.0007789758035979138 0.06928202077362762 0 0.0007789758035979138 0.06928202077362762 0 0.0014991050720799741 0.067371990004788732 0 -0.00095605044436144126 0.053715807770928541 0 0.00014627258054575521 0.05249799677141527 0 -0.0032049821442639279 0.051647662206312221 0 0.00052039292475787146 0.058649135065351958 0 0.0011203726004153046 0.058830223743761928 0 0.0013826349756083419 0.058495898884798489 0 -0.0010823528575493058 0.061677105152871364 0 -0.00091377279737261561 0.063970725133965345 0 -0.0021112290369219287 0.059722754238409712 0 -0.00091377279737261561 0.063970725133965345 0 0.00034562667223981706 0.067223776920865994 0 -0.00019422676298011418 0.067347212928542011 0 -0.00026628913322542089 0.066685742385120539 0 4.7390543738090298e-05 0.067290824873674104 0 0.00072529254205254412 0.07261489771025248 0 0.0021607856988104849 0.071259057962491351 0 0.0026852729483796182 0.071143089138712604 0 0.0025929664929525355 0.070298981861716306 0 0.0011749187262212264 0.071829182130486779 0 4.7390543738090298e-05 0.067290824873674104 0 -0.002281105769581199 0.055038013929577377 0 -0.0017287506437909991 0.054116337532009069 0 -0.0029550089655093208 0.054371210880209297 0 -0.00091377279737261561 0.063970725133965345 0 4.7390543738090298e-05 0.067290824873674104 0 -0.00091377279737261561 0.063970725133965345 0 0.00072529254205254412 0.07261489771025248 0 -0.00059564517532888737 0.069619419976360494 0 -0.00026327060914730385 0.070234504654747315 0 -0.0004516758021050084 0.070453610697690586 0 -1.3765250463402022e-05 0.070150521643218694 0 -0.00026327060914730385 0.070234504654747315 0 -1.0114598898294776e-06 0.070265861523751902 0 0.0014671379064219426 0.076023419902137665 0 0.00072529254205254412 0.07261489771025248 0 -0.0016352276296618916 0.074500963043469079 0 0.001774617918289664 0.077551202610043946 0 0.0015707157147518572 0.07571860277653282 0 0.00072529254205254412 0.07261489771025248 0 0.00073024447421771448 0.073414098520676346 0 -0.00059564517532888737 0.069619419976360494 0 -1.3765250463402022e-05 0.070150521643218694 0 -0.00026327060914730385 0.070234504654747315 0 0.0007789758035979138 0.06928202077362762 0 0.00073540722210225736 0.074182603011020601 0 -0.00026327060914730385 0.070234504654747315 0 -0.0004516758021050084 0.070453610697690586 0 1.1437391481133713e-05 0.070375586467267409 0 0.0014671379064219426 0.076023419902137665 0 0.00073540722210225736 0.074182603011020601 0 -0.0016352276296618916 0.074500963043469079 0 0.0013768852884915729 0.073978557969351183 0 0.0015707157147518572 0.07571860277653282 0 0.00073540722210225736 0.074182603011020601 0 0.00073024447421771448 0.073414098520676346 0 -0.00026327060914730385 0.070234504654747315 0 1.1437391481133713e-05 0.070375586467267409 0 -1.0114598898294776e-06 0.070265861523751902 0 -0.00034400473916774521 0.083014732437335564 0 -1.7587635904658123e-05 0.083389821314301144 0 -0.00010064678906911679 0.082521155400548635 0 0.00073540722210225736 0.074182603011020601 0 0.00086665807563946352 0.076820766860078354 0 -2.406600798325619e-05 0.083310330820871983 0 -0.00010064678906911679 0.082521155400548635 0 0.00050305814680635746 0.082204824192739112 0 0.0007789758035979138 0.06928202077362762 0 0.001105533300559097 0.070278418700423728 0 0.0023831706850018382 0.071612803115393545 0 0.002045068597647747 0.071673686155432723 0 0.0023135063851065941 0.071052250586109394 0 0.00073540722210225736 0.074182603011020601 0 0.001105533300559097 0.070278418700423728 0 0.0016380961860701247 0.059176557572275398 0 0.0013685992390345002 0.05958302868215605 0 0.0017386012269179191 0.059918952655245626 0 0.0013685992390345002 0.05958302868215605 0 0.0011643889534607473 0.059968722625141344 0 0.00078289945214628969 0.059295179921314757 0 0.0016380961860701247 0.059176557572275398 0 0.0013685992390345002 0.05958302868215605 0 0.00078289945214628969 0.059295179921314757 0 0.0013685992390345002 0.05958302868215605 0 0.0011643889534607473 0.059968722625141344 0 0.0017386012269179191 0.059918952655245626 0 0.0011643889534607473 0.059968722625141344 0 0.0015578832607850627 0.060418295784278701 0 0.0017386012269179191 0.059918952655245626 0 0.0011643889534607473 0.059968722625141344 0 0.0015578832607850627 0.060418295784278701 0 0.0010958692493940774 0.060486793641380487 0 0.001105533300559097 0.070278418700423728 0 0.00076563539745535885 0.071454344283764071 0 0.0015578832607850627 0.060418295784278701 0 0.0017033303710537666 0.060007545780126001 0 0.0018186085376416228 0.060695395549783523 0 0.00050305814680635746 0.082204824192739112 0 -1.5285202910717946e-05 0.081678301120616498 0 0.00051516619921096647 0.081072872660698472 0 -0.00010064678906911679 0.082521155400548635 0 0.00050305814680635746 0.082204824192739112 0 -1.5285202910717946e-05 0.081678301120616498 0 0.0017189741230895323 0.068005297726572975 0 0.001105533300559097 0.070278418700423728 0 -1.5285202910717946e-05 0.081678301120616498 0 -0.00019885937083358627 0.081027718298275958 0 0.00051516619921096647 0.081072872660698472 0 0.0018186085376416228 0.060695395549783523 0 0.0013195627597157617 0.060918828430230443 0 0.0019222568379762229 0.061473048191899478 0 -0.00019885937083358627 0.081027718298275958 0 0.00051516619921096647 0.081072872660698472 0 -9.8921675623879363e-05 0.07989598646956983 0 0.0015578832607850627 0.060418295784278701 0 0.0018186085376416228 0.060695395549783523 0 0.0013195627597157617 0.060918828430230443 0 0.0015578832607850627 0.060418295784278701 0 0.0010958692493940774 0.060486793641380487 0 0.0013195627597157617 0.060918828430230443 0 0.0010958692493940774 0.060486793641380487 0 0.0013195627597157617 0.060918828430230443 0 0.00076674391968321778 0.060929554512924242 0 0.0013195627597157617 0.060918828430230443 0 0.0011632056816561274 0.061543318384018837 0 0.00076674391968321778 0.060929554512924242 0 5.7070577608274335e-06 0.073124165692105045 0 -2.2980586936552602e-07 0.073108021693169378 0 -1.5016426023748304e-05 0.076964023885979324 0 0.0013195627597157617 0.060918828430230443 0 0.0011632056816561274 0.061543318384018837 0 0.0019222568379762229 0.061473048191899478 0 -0.0015021901551690881 0.07022756791837767 0 0.00040366744758548291 0.073765247551090971 0 -2.2980586936552602e-07 0.073108021693169378 0 2.3815137870932624e-07 0.077392673799815875 0 -1.5016426023748304e-05 0.076964023885979324 0 0.00051516619921096647 0.081072872660698472 0 0.00037951217542894885 0.078812491565224074 0 -9.8921675623879363e-05 0.07989598646956983 0 0.00076563539745535885 0.071454344283764071 0 0.00040366744758548291 0.073765247551090971 0 -0.00042911701320223641 0.080328724416257088 0 -4.1132709231041217e-07 0.077406277952756508 0 0.00037951217542894885 0.078812491565224074 0 5.9455307079022262e-06 0.077378528619877901 0 0.00040366744758548291 0.073765247551090971 0 -0.00042911701320223641 0.080328724416257088 0 0.00037951217542894885 0.078812491565224074 0 -9.8921675623879363e-05 0.07989598646956983 0 -0.0052547254426119037 0.067849781449011104 0 -0.0032646373394716417 0.063612121019301124 0 0.00039407786543942862 0.061623320267982569 0 0.00076674391968321778 0.060929554512924242 0 -7.771389824033685e-06 0.060820846571422393 0 5.6196749161018403e-06 0.06738853436474701 0 0.00082024874862356547 0.061053625371553302 0 -0.00022176385374775311 0.062835048147986558 0 5.6196749161018403e-06 0.06738853436474701 0 0.0017145472291338574 0.067207076519542455 0 0.00082024874862356547 0.061053625371553302 0 -3.3272713750208797e-06 0.067398304974801149 0 -0.0052547254426119037 0.067849781449011104 0 -0.0015021901551690881 0.07022756791837767 0 -0.0052547254426119037 0.067849781449011104 0 0.0011632056816561274 0.061543318384018837 0 0.00039407786543942862 0.061623320267982569 0 0.00076674391968321778 0.060929554512924242 0 5.7070577608274335e-06 0.073124165692105045 0 -2.2980586936552602e-07 0.073108021693169378 0 2.0370639163237677e-07 0.068737235446787726 0 0.0010958692493940774 0.060486793641380487 0 0.00076674391968321778 0.060929554512924242 0 0.00066418512970717347 0.060194939442765258 0 0.00076674391968321778 0.060929554512924242 0 -7.771389824033685e-06 0.060820846571422393 0 0.00066418512970717347 0.060194939442765258 0 -7.771389824033685e-06 0.060820846571422393 0 0.00015946280271299454 0.059934847894599221 0 -0.00037310792737080538 0.059984313144021986 0 -7.771389824033685e-06 0.060820846571422393 0 0.00015946280271299454 0.059934847894599221 0 0.00066418512970717347 0.060194939442765258 0 0.0011643889534607473 0.059968722625141344 0 0.0010958692493940774 0.060486793641380487 0 0.00066418512970717347 0.060194939442765258 0 0.0011643889534607473 0.059968722625141344 0 0.00066418512970717347 0.060194939442765258 0 0.00078289945214628969 0.059295179921314757 0 0.00015946280271299454 0.059934847894599221 0 0.00066418512970717347 0.060194939442765258 0 0.00078289945214628969 0.059295179921314757 0 0.00015946280271299454 0.059934847894599221 0 0.00078289945214628969 0.059295179921314757 0 1.2282735050646295e-05 0.05930827356055457 0 0.00015946280271299454 0.059934847894599221 0 1.2282735050646295e-05 0.05930827356055457 0 -0.00037310792737080538 0.059984313144021986 0 -0.0021855233281181338 0.060818115335915503 0 -0.002394373603064551 0.061500949014731736 0 1.2282735050646295e-05 0.05930827356055457 0 -0.00062680707746950982 0.059104965702064027 0 -0.00037310792737080538 0.059984313144021986 0 -0.00062680707746950982 0.059104965702064027 0 -0.00081226044379345249 0.059115807447591436 0 -0.00082676291438162932 0.059068749657754278 0 -0.00062680707746950982 0.059104965702064027 0 -0.00087733233518644759 0.059186735599475793 0 -0.00081226044379345249 0.059115807447591436 0 -0.00062680707746950982 0.059104965702064027 0 -0.00087733233518644759 0.059186735599475793 0 -0.00016666554496737353 0.059358685500866225 0 -0.00087733233518644759 0.059186735599475793 0 -0.00016666554496737353 0.059358685500866225 0 -0.00056043962310600921 0.060463603112689349 0 -0.0032646373394716417 0.063612121019301124 0 -0.002394373603064551 0.061500949014731736 0 0.00082024874862356547 0.061053625371553302 0 -0.00056043962310600921 0.060463603112689349 0 -0.00022176385374775311 0.062835048147986558 0 0.00082024874862356547 0.061053625371553302 0 -0.00016666554496737353 0.059358685500866225 0 -0.00056043962310600921 0.060463603112689349 0 -0.00087733233518644759 0.059186735599475793 0 -0.00056043962310600921 0.060463603112689349 0 -0.00089455676390474709 0.058999596387402251 0 -2.8233744539534312e-06 0.062161385008043316 0 -2.9781288959358374e-06 0.056923986653893047 0 -0.00089455676390474709 0.058999596387402251 0 -0.00056043962310600921 0.060463603112689349 0 -2.8233744539534312e-06 0.062161385008043316 0 -0.00089455676390474709 0.058999596387402251 0 -0.00056043962310600921 0.060463603112689349 0 -2.8233744539534312e-06 0.062161385008043316 0 -0.00022176385374775311 0.062835048147986558 0 5.6196749161018403e-06 0.06738853436474701 0 -2.8233744539534312e-06 0.062161385008043316 0 -0.00022176385374775311 0.062835048147986558 0 0.0010609993558986391 0.056640947765146922 0 5.8787739125369407e-06 0.051697704718753387 0 -0.00044250939390931131 0.056647374801044287 0 5.8787739125369407e-06 0.051697704718753387 0 -0.00044250939390931131 0.056647374801044287 0 -2.9781288959358374e-06 0.056923986653893047 0 -0.00044250939390931131 0.056647374801044287 0 -2.9781288959358374e-06 0.056923986653893047 0 -0.00089455676390474709 0.058999596387402251 0 -0.00044250939390931131 0.056647374801044287 0 -0.00089455676390474709 0.058999596387402251 0 -0.00066746429526800177 0.058631530649011672 0 -0.00087733233518644759 0.059186735599475793 0 -0.00089455676390474709 0.058999596387402251 0 -0.00066746429526800177 0.058631530649011672 0 0.0010609993558986391 0.056640947765146922 0 -0.00044250939390931131 0.056647374801044287 0 -0.00066746429526800177 0.058631530649011672 0 -0.00019027229408667961 0.058860707522778916 0 -0.00066746429526800177 0.058631530649011672 0 -0.00073052388426533843 0.059068024477699994 0 -0.00087733233518644759 0.059186735599475793 0 -0.00066746429526800177 0.058631530649011672 0 -0.00073052388426533843 0.059068024477699994 0 -0.00087733233518644759 0.059186735599475793 0 -0.00081226044379345249 0.059115807447591436 0 -0.00073052388426533843 0.059068024477699994 0 -0.00081226044379345249 0.059115807447591436 0 -0.00073052388426533843 0.059068024477699994 0 -0.00082676291438162932 0.059068749657754278 0 -0.00074255220379082943 0.056257106603451956 0 -0.0010000015356100356 0.057104755501992434 0 -0.00073052388426533843 0.059068024477699994 0 -0.00062103941640052548 0.059134199905081536 0 -0.00082676291438162932 0.059068749657754278 0 -0.00037955010853732478 0.058757898914980469 0 -0.00073052388426533843 0.059068024477699994 0 -0.00062103941640052548 0.059134199905081536 0 0.0041412850821003237 0.050953243204091433 0 0.0041699012006868657 0.050102322708867282 0 0.004680788638502748 0.050483800712388359 0 0.0041699012006868657 0.050102322708867282 0 0.004680788638502748 0.050483800712388359 0 0.0047949284902323967 0.049731758896738421 0 0.004680788638502748 0.050483800712388359 0 0.0050525888035214744 0.050741295102763435 0 0.0047949284902323967 0.049731758896738421 0 0.004680788638502748 0.050483800712388359 0 0.0050010400041846726 0.050624041976388992 0 0.0050525888035214744 0.050741295102763435 0 0.0016067502931510528 0.054552715991363868 0 0.0018979990848329135 0.055307172985892404 0 0.0041412850821003237 0.050953243204091433 0 0.004680788638502748 0.050483800712388359 0 0.0050010400041846726 0.050624041976388992 0 -0.00062680707746950982 0.059104965702064027 0 -0.00082676291438162932 0.059068749657754278 0 -0.00037800631941352776 0.058826695886363051 0 0.0050010400041846726 0.050624041976388992 0 0.0039052906775042741 0.050473631072051939 0 0.0050525888035214744 0.050741295102763435 0 0.0018979990848329135 0.055307172985892404 0 0.0017281845230949771 0.056440160115416374 0 1.2282735050646295e-05 0.05930827356055457 0 -0.00062680707746950982 0.059104965702064027 0 -0.00037800631941352776 0.058826695886363051 0 0.0024203764962084907 0.052558279252761159 0 0.0039052906775042741 0.050473631072051939 0 0.0044534791393902838 0.052255829368487855 0 0.003974015036193628 0.050404519759453738 0 0.003718074271818853 0.050405610150813976 0 0.0039052906775042741 0.050473631072051939 0 0.0050525888035214744 0.050741295102763435 0 0.0044534791393902838 0.052255829368487855 0 0.0050525888035214744 0.050741295102763435 0 0.0057352432997919709 0.049949452486311462 0 0.0047949284902323967 0.049731758896738421 0 0.0011653746881869207 0.044126235000177899 0 0.0012078142384412936 0.044394708105863621 0 0.0014951941778940795 0.044179200397208226 0 0.003718074271818853 0.050405610150813976 0 0.0031589795923722369 0.047995597221949599 0 0.0033006673977136382 0.055015712027000251 0 0.0024203764962084907 0.052558279252761159 0 0.0073647196994743539 0.053466469776848734 0 0.003718074271818853 0.050405610150813976 0 0.0025601366177381932 0.051261292366403303 0 0.0036946617224676887 0.050909066890182708 0 0.003718074271818853 0.050405610150813976 0 0.0033006673977136382 0.055015712027000251 0 0.0073647196994743539 0.053466469776848734 0 0.004502798578007049 0.056929343307560692 0 0.00092588419806471488 0.04440130022884007 0 0.0012078142384412936 0.044394708105863621 0 0.00094928672439760617 0.044662599059084686 0 0.0011653746881869207 0.044126235000177899 0 0.00092588419806471488 0.04440130022884007 0 0.0012078142384412936 0.044394708105863621 0 0.0012078142384412936 0.044394708105863621 0 0.0014215791899062676 0.044395281331558546 0 0.0014951941778940795 0.044179200397208226 0 0.0012078142384412936 0.044394708105863621 0 0.0014215791899062676 0.044395281331558546 0 0.001392578162462141 0.044610510316691457 0 0.0014215791899062676 0.044395281331558546 0 0.0015907706046235999 0.044397756620225229 0 0.001392578162462141 0.044610510316691457 0 0.0015907706046235999 0.044397756620225229 0 0.0018388237111189661 0.04454355822882497 0 0.001392578162462141 0.044610510316691457 0 0.0014215791899062676 0.044395281331558546 0 0.0015907706046235999 0.044397756620225229 0 0.0014951941778940795 0.044179200397208226 0 0.0015907706046235999 0.044397756620225229 0 0.0018319898360630797 0.044234975078648493 0 0.0018388237111189661 0.04454355822882497 0 0.0029208504884693227 0.046040851751443249 0 0.0031589795923722369 0.047995597221949599 0 0.0041699012006868657 0.050102322708867282 0 0.0040971929577381262 0.04942024418436998 0 0.0047949284902323967 0.049731758896738421 0 0.0015907706046235999 0.044397756620225229 0 0.0018319898360630797 0.044234975078648493 0 0.0014951941778940795 0.044179200397208226 0 0.0015630681144589188 0.044690898182408102 0 0.0014898594219123003 0.044990551684941288 0 0.0013384252435400007 0.044890629500380204 0 0.0015630681144589188 0.044690898182408102 0 0.0014898594219123003 0.044990551684941288 0 0.0017710403998719708 0.044917227912765548 0 0.0017710403998719708 0.044917227912765548 0 0.0020502002731432986 0.044715274870081326 0 0.0019668982128564698 0.045039566914114211 0 0.0023786914791757087 0.045103278153027011 0 0.0020502002731432986 0.044715274870081326 0 0.0019668982128564698 0.045039566914114211 0 0.0015630681144589188 0.044690898182408102 0 0.0017710403998719708 0.044917227912765548 0 0.0020502002731432986 0.044715274870081326 0 0.0018049358038187083 0.044421326089492022 0 0.0020114785722771312 0.044243328741371581 0 0.0015630681144589188 0.044690898182408102 0 0.0020502002731432986 0.044715274870081326 0 0.0020968088039919498 0.04416981790886184 0 0.0020114785722771312 0.044243328741371581 0 0.0014855606471583416 0.044438547448790715 0 0.0015630681144589188 0.044690898182408102 0 0.0019124092202468875 0.044427071275913867 0 0.0014639737528303869 0.044501163370050931 0 0.0014855606471583416 0.044438547448790715 0 0.0012365162154865041 0.044511310024904119 0 0.0012078142384412936 0.044394708105863621 0 0.001392578162462141 0.044610510316691457 0 0.00094928672439760617 0.044662599059084686 0 0.0015630681144589188 0.044690898182408102 0 0.0014639737528303869 0.044501163370050931 0 0.0012654089474052387 0.044732523450747519 0 0.0014639737528303869 0.044501163370050931 0 0.00094928672439760617 0.044662599059084686 0 0.0012654089474052387 0.044732523450747519 0 0.00094928672439760617 0.044662599059084686 0 0.0010643337088703296 0.044811796071817227 0 0.0012654089474052387 0.044732523450747519 0 0.00094928672439760617 0.044662599059084686 0 0.0010643337088703296 0.044811796071817227 0 0.00084353880308383512 0.044809649953308731 0 0.0010643337088703296 0.044811796071817227 0 0.00090038883109405091 0.044942723573645434 0 0.00084353880308383512 0.044809649953308731 0 0.0010643337088703296 0.044811796071817227 0 0.0010386893679365612 0.044974207983341022 0 0.0011943065249974472 0.044862984971447008 0 0.0010386893679365612 0.044974207983341022 0 0.0012059722745755468 0.044989005145928282 0 0.0011403359220762909 0.045129827643051609 0 0.0010386893679365612 0.044974207983341022 0 0.0011943065249974472 0.044862984971447008 0 0.0012059722745755468 0.044989005145928282 0 0.0010386893679365612 0.044974207983341022 0 0.00095284993504193903 0.045031870820782742 0 0.0010032839461757313 0.045127048190522961 0 0.0010643337088703296 0.044811796071817227 0 0.0010386893679365612 0.044974207983341022 0 0.00090038883109405091 0.044942723573645434 0 0.0010386893679365612 0.044974207983341022 0 0.00095284993504193903 0.045031870820782742 0 0.00090038883109405091 0.044942723573645434 0 0.00095284993504193903 0.045031870820782742 0 0.00090038883109405091 0.044942723573645434 0 0.00087002732743571992 0.045084482078994931 0 0.0015630681144589188 0.044690898182408102 0 0.0012654089474052387 0.044732523450747519 0 0.0013384252435400007 0.044890629500380204 0 0.0010643337088703296 0.044811796071817227 0 0.0012654089474052387 0.044732523450747519 0 0.0011943065249974472 0.044862984971447008 0 0.0012654089474052387 0.044732523450747519 0 0.0011943065249974472 0.044862984971447008 0 0.0013384252435400007 0.044890629500380204 0 0.0011943065249974472 0.044862984971447008 0 0.0012059722745755468 0.044989005145928282 0 0.0013384252435400007 0.044890629500380204 0 0.0012059722745755468 0.044989005145928282 0 0.0013384252435400007 0.044890629500380204 0 0.001317897343557038 0.045085864991261784 0 0.0014898594219123003 0.044990551684941288 0 0.0013384252435400007 0.044890629500380204 0 0.001317897343557038 0.045085864991261784 0 0.0014898594219123003 0.044990551684941288 0 0.001317897343557038 0.045085864991261784 0 0.0015094130789949367 0.045245249142683228 0 0.001317897343557038 0.045085864991261784 0 0.0012278064400582519 0.045264919939345179 0 0.0011403359220762909 0.045129827643051609 0 0.0012059722745755468 0.044989005145928282 0 0.001317897343557038 0.045085864991261784 0 0.0011403359220762909 0.045129827643051609 0 0.0012278064400582519 0.045264919939345179 0 0.0013698809390677265 0.045426446017627603 0 0.0015094130789949367 0.045245249142683228 0 0.001317897343557038 0.045085864991261784 0 0.0012278064400582519 0.045264919939345179 0 0.0015094130789949367 0.045245249142683228 0 0.00092829357046785314 0.045185597753794646 0 0.00087002732743571992 0.045084482078994931 0 0.00081167877306166452 0.045238252348205679 0 0.00092829357046785314 0.045185597753794646 0 0.00087002732743571992 0.045084482078994931 0 0.0010032839461757313 0.045127048190522961 0 0.00095284993504193903 0.045031870820782742 0 0.00087002732743571992 0.045084482078994931 0 0.0010032839461757313 0.045127048190522961 0 0.00092829357046785314 0.045185597753794646 0 0.0010032839461757313 0.045127048190522961 0 0.00098649083706729593 0.045244507489656006 0 0.0010032839461757313 0.045127048190522961 0 0.0011403359220762909 0.045129827643051609 0 0.00098649083706729593 0.045244507489656006 0 0.0010386893679365612 0.044974207983341022 0 0.0010032839461757313 0.045127048190522961 0 0.0011403359220762909 0.045129827643051609 0 0.0012278064400582519 0.045264919939345179 0 0.00098649083706729593 0.045244507489656006 0 0.0010259802029406479 0.045466412600796362 0 0.0012278064400582519 0.045264919939345179 0 0.0011403359220762909 0.045129827643051609 0 0.00098649083706729593 0.045244507489656006 0 0.00092829357046785314 0.045185597753794646 0 0.00098649083706729593 0.045244507489656006 0 0.00081167877306166452 0.045238252348205679 0 0.00098649083706729593 0.045244507489656006 0 0.0010259802029406479 0.045466412600796362 0 0.00077279639719738129 0.045289689383281144 0 -0.00094440799397826978 0.069537722232549726 0 -0.0013112300185263877 0.069785402738002225 0 -0.0013380266406192128 0.069253579831089443 0 -0.00094440799397826978 0.069537722232549726 0 -0.00052747425629609968 0.069811031710254892 0 -0.001025037478354234 0.070103228167608639 0 -0.00094440799397826978 0.069537722232549726 0 -0.001025037478354234 0.070103228167608639 0 -0.0013112300185263877 0.069785402738002225 0 -0.00091117628639678636 0.058251140907811742 0 0.00027624716826936353 0.060634351147830431 0 0.0012278064400582519 0.045264919939345179 0 0.0010259802029406479 0.045466412600796362 0 0.0013698809390677265 0.045426446017627603 0 0.0010259802029406479 0.045466412600796362 0 0.0013698809390677265 0.045426446017627603 0 0.0012931343468641902 0.045654897090946736 0 -0.00091117628639678636 0.058251140907811742 0 -0.0025966599071378695 0.055870910211504046 0 -0.0025966599071378695 0.055870910211504046 0 -0.0015223487411258568 0.046334740201365021 0 0.0013698809390677265 0.045426446017627603 0 0.0012931343468641902 0.045654897090946736 0 0.0015797919958784714 0.04548770721033845 0 -0.0027181145899068835 0.050416561819234637 0 -0.0034070002031175955 0.050774576810512631 0 -0.0032055026741412518 0.049997809491103593 0 0.0015797919958784714 0.04548770721033845 0 0.0015094130789949367 0.045245249142683228 0 0.0018776405764347364 0.045313956084636016 0 -0.0020248881648742617 0.050051832878719678 0 -0.0027181145899068835 0.050416561819234637 0 -0.0026482795573594758 0.049621705543299165 0 -0.0015223487411258568 0.046334740201365021 0 -0.00070280684758141385 0.0364658210979368 0 0.0013698809390677265 0.045426446017627603 0 0.0015797919958784714 0.04548770721033845 0 0.0015094130789949367 0.045245249142683228 0 0.0015094130789949367 0.045245249142683228 0 0.0017404146227916518 0.045109620544656254 0 0.0018776405764347364 0.045313956084636016 0 0.0014898594219123003 0.044990551684941288 0 0.0017710403998719708 0.044917227912765548 0 0.0017404146227916518 0.045109620544656254 0 0.0014898594219123003 0.044990551684941288 0 0.0015094130789949367 0.045245249142683228 0 0.0017404146227916518 0.045109620544656254 0 0.0023786914791757087 0.045103278153027011 0 0.0019668982128564698 0.045039566914114211 0 0.0019093483211135103 0.045349676552432529 0 -0.0016059758296714005 0.029753005740699719 0 -0.00070280684758141385 0.0364658210979368 0 0.0017710403998719708 0.044917227912765548 0 0.0017404146227916518 0.045109620544656254 0 0.0019668982128564698 0.045039566914114211 0 0.0017404146227916518 0.045109620544656254 0 0.0019668982128564698 0.045039566914114211 0 0.0019093483211135103 0.045349676552432529 0 0.00018245309048366628 0.038058061492012178 0 -0.00070280684758141385 0.0364658210979368 0 -0.0054964665318935372 0.037388802715517026 0 -0.00070280684758141385 0.0364658210979368 0 -0.00397801083587124 0.049971597924973507 0 -0.0034070002031175955 0.050774576810512631 0 -0.0032055026741412518 0.049997809491103593 0 -0.0043147877024836074 0.010037739619309979 0 -0.0028842312336253163 0.0063387227834296135 0 0.0004755075986194587 0.011197479658133518 0 -0.00397801083587124 0.049971597924973507 0 -0.0032055026741412518 0.049997809491103593 0 -0.0032743151139779064 0.049195786975379102 0 -0.00057962318895402509 0.070101003935652023 0 -0.00041842651586759214 0.070191208887961057 0 -0.00072209002854569748 0.070242897356993253 0 -0.0032055026741412518 0.049997809491103593 0 -0.0026482795573594758 0.049621705543299165 0 -0.0032743151139779064 0.049195786975379102 0 -0.0027181145899068835 0.050416561819234637 0 -0.0032055026741412518 0.049997809491103593 0 -0.0026482795573594758 0.049621705543299165 0 -0.0025092117540436807 0.058644927574547194 0 -0.0034129247155522914 0.060620515375429077 0 -0.0042245354570258631 0.090549711981372696 0 -0.003129280169173904 0.088723878762861003 0 -0.0019399943892597033 0.090115254524550964 0 -0.0034129247155522914 0.060620515375429077 0 -0.0017949663715182433 0.062491110047825878 0 -0.00038879000633417577 0.070254771168171026 0 -0.00072209002854569748 0.070242897356993253 0 -0.00064690824905043194 0.070422034076808873 0 -0.000282805464960069 0.070323611069772946 0 -0.00038879000633417577 0.070254771168171026 0 -0.00064690824905043194 0.070422034076808873 0 -0.0034259461063597544 0.0654292661308465 0 -0.0020867108641252014 0.07460256371077828 0 -0.0060892205630277453 0.048784183913350203 0 -0.0034129247155522914 0.060620515375429077 0 -0.0069286931947028429 0.055409992470423941 0 -0.0030317507944206254 0.054385640689166084 0 -0.001341182147966516 0.05554403921540324 0 -0.0034259461063597544 0.0654292661308465 0 -0.0034129247155522914 0.060620515375429077 0 -0.0042245354570258631 0.090549711981372696 0 -0.0045027887971681845 0.089065847594873168 0 -0.003129280169173904 0.088723878762861003 0 -0.0045027887971681845 0.089065847594873168 0 -0.003129280169173904 0.088723878762861003 0 -0.0044078196334870158 0.087742367563011195 0 -0.003129280169173904 0.088723878762861003 0 -0.0012478624927293608 0.088219954918737228 0 -0.0019399943892597033 0.090115254524550964 0 0.00040050279597373187 0.085343930247060398 0 -0.0011532768511316801 0.085721435232865795 0 -0.003129280169173904 0.088723878762861003 0 -0.0012478624927293608 0.088219954918737228 0 -0.0027737978234770207 0.086714035015750965 0 -0.003129280169173904 0.088723878762861003 0 -0.0044078196334870158 0.087742367563011195 0 -0.0027737978234770207 0.086714035015750965 0 0.0001950898627269518 0.089053341127854541 0 0.002857492867432435 0.088506297003031822 0 0.0012052893829890951 0.08649498194245199 0 -0.0012478624927293608 0.088219954918737228 0 0.00028386606511602029 0.089705810461562313 0 -0.0019399943892597033 0.090115254524550964 0 0.00040050279597373187 0.085343930247060398 0 -0.00059871783982148592 0.08000562754986236 0 0.0001950898627269518 0.089053341127854541 0 0.0019578409870988338 0.090715899317413987 0 0.002857492867432435 0.088506297003031822 0 -0.0011138688487900522 0.070598437405541822 0 -0.00072209002854569748 0.070242897356993253 0 -0.001025037478354234 0.070103228167608639 0 -0.0011138688487900522 0.070598437405541822 0 -0.00072209002854569748 0.070242897356993253 0 -0.00064690824905043194 0.070422034076808873 0 -0.00059871783982148592 0.08000562754986236 0 -0.0020867108641252014 0.07460256371077828 0 -0.00076542143733071848 0.069954366498805529 0 -0.00072209002854569748 0.070242897356993253 0 -0.001025037478354234 0.070103228167608639 0 -0.00076542143733071848 0.069954366498805529 0 -0.00057962318895402509 0.070101003935652023 0 -0.00072209002854569748 0.070242897356993253 0 -0.0025966599071378695 0.055870910211504046 0 -0.0025092117540436807 0.058644927574547194 0 -0.0025966599071378695 0.055870910211504046 0 -0.0036577992907470525 0.05831837057500866 0 -0.001025037478354234 0.070103228167608639 0 -0.0015843923710478281 0.0703098024330545 0 -0.0013112300185263877 0.069785402738002225 0 -0.0015843923710478281 0.0703098024330545 0 -0.0017709958382825909 0.069776574076059 0 -0.0013112300185263877 0.069785402738002225 0 -0.0032055260339556549 0.076941744195695841 0 -0.0034922380774901249 0.072862151006584497 0 9.6508131700948397e-05 0.07274416018301294 0 -0.00048570798957981419 0.076657644825942853 0 -0.00081998313696757719 0.069862810632902617 0 -0.0015843923710478281 0.0703098024330545 0 -0.0024604132979297909 0.070519213413398479 0 -0.0017709958382825909 0.069776574076059 0 -0.0015843923710478281 0.0703098024330545 0 -0.0018289372532766443 0.071488203287914706 0 -0.0024604132979297909 0.070519213413398479 0 -0.0018289372532766443 0.071488203287914706 0 -0.0024604132979297909 0.070519213413398479 0 -0.0025877420409002785 0.071239982284110936 0 -0.0011138688487900522 0.070598437405541822 0 -0.001025037478354234 0.070103228167608639 0 -0.0015843923710478281 0.0703098024330545 0 -0.00059871783982148592 0.08000562754986236 0 -0.0028535042301927678 0.075732682739640844 0 -0.00058306750598304089 0.071297409564403127 0 -0.0015843923710478281 0.0703098024330545 0 -0.0018289372532766443 0.071488203287914706 0 0.0019578409870988338 0.090715899317413987 0 0.0042663683825079997 0.090299798646525445 0 0.002857492867432435 0.088506297003031822 0 -0.00059871783982148592 0.08000562754986236 0 0.0010080779157284538 0.083146507924949681 0 0.0042663683825079997 0.090299798646525445 0 0.002857492867432435 0.088506297003031822 0 0.0053285095895065143 0.088137552718301287 0 0.010164134339655687 0.094619382236442243 0 0.011969042920278082 0.093646105271743788 0 0.011225941054383615 0.095339571207908272 0 0.010164134339655687 0.094619382236442243 0 0.011969042920278082 0.093646105271743788 0 0.010247940848914847 0.092812476896234189 0 0.0041812727739856835 0.089882901739237936 0 0.0011578335904622612 0.087708072470055382 0 0.010164134339655687 0.094619382236442243 0 0.0075332936487934763 0.093570386663601943 0 0.010247940848914847 0.092812476896234189 0 0.010164134339655687 0.094619382236442243 0 0.0075332936487934763 0.093570386663601943 0 0.0095031748778247917 0.096212523125631708 0 0.0010080779157284538 0.083146507924949681 0 0.0011578335904622612 0.087708072470055382 0 -0.0018289372532766443 0.071488203287914706 0 -0.0030104928830356099 0.071720517898593905 0 -0.0025877420409002785 0.071239982284110936 0 0.0042663683825079997 0.090299798646525445 0 0.0053285095895065143 0.088137552718301287 0 0.0065366747312490302 0.089902257288332552 0 -0.0030104928830356099 0.071720517898593905 0 -0.0031906215760643471 0.071470848086340841 0 -0.0025877420409002785 0.071239982284110936 0 0.0011578335904622612 0.087708072470055382 0 -2.4367414775800632e-05 0.086023585489204593 0 0.00014707515025392907 0.087108320109708384 0 0.00059373366804556878 0.086546903752757004 0 0.00085203067965403242 0.088123470142593766 0 0.00044083996060372162 0.089541719695842528 0 9.5036904621907713e-05 0.088950241815485234 0 0.0014223918864979248 0.10386101614167391 0 0.0014387351278192025 0.10374023707975683 0 0.0013691960012475167 0.10380822887948768 0 -0.0022583041680155624 0.088487110319909731 0 -1.8841959125563665e-06 0.09175373563086725 0 0.0033586482821529374 0.08753660457815271 0 -2.4367414775800632e-05 0.086023585489204593 0 0.00044083996060372162 0.089541719695842528 0 0.010164134339655687 0.094619382236442243 0 0.0095031748778247917 0.096212523125631708 0 0.010742324159105254 0.095968563748179261 0 0.010164134339655687 0.094619382236442243 0 0.010742324159105254 0.095968563748179261 0 0.011225941054383615 0.095339571207908272 0 0.0011578335904622612 0.087708072470055382 0 0.00044083996060372162 0.089541719695842528 0 0.00044083996060372162 0.089541719695842528 0 0.00060334351266165933 0.089560329832417726 0 0.0014223918864979248 0.10386101614167391 0 0.0013691960012475167 0.10380822887948768 0 0.0013364315364121941 0.10383477522322726 0 0.0014387351278192025 0.10374023707975683 0 0.0013724084999032988 0.10377401642811639 0 0.0013691960012475167 0.10380822887948768 0 -2.4367414775800632e-05 0.086023585489204593 0 9.5036904621907713e-05 0.088950241815485234 0 0.0014608279038068838 0.10368825057002976 0 0.0014387351278192025 0.10374023707975683 0 0.0013724084999032988 0.10377401642811639 0 0.00057246896821721086 0.089916464094738427 0 9.5036904621907713e-05 0.088950241815485234 0 -2.4367414775800632e-05 0.086023585489204593 0 -0.00048570798957981419 0.076657644825942853 0 -0.0031906215760643471 0.071470848086340841 0 -0.0024604132979297909 0.070519213413398479 0 -0.0025877420409002785 0.071239982284110936 0 -0.0083933292619057399 0.078432102508990117 0 -0.0032055260339556549 0.076941744195695841 0 -0.0064736607133323559 0.07530047504461744 0 -0.0065209722198705748 0.081143489255074933 0 -0.0083933292619057399 0.078432102508990117 0 -0.0032055260339556549 0.076941744195695841 0 -0.0032055260339556549 0.076941744195695841 0 -0.0064736607133323559 0.07530047504461744 0 -0.0034922380774901249 0.072862151006584497 0 9.5036904621907713e-05 0.088950241815485234 0 -0.0012852880641630352 0.087192290519593457 0 -0.0083933292619057399 0.078432102508990117 0 -0.0064736607133323559 0.07530047504461744 0 -0.0090987100331182298 0.072759051089823668 0 0.0014608279038068838 0.10368825057002976 0 0.0015339026328902515 0.10385681619646087 0 0.0016432225520931507 0.10314534375325328 0 -0.0064736607133323559 0.07530047504461744 0 -0.0090987100331182298 0.072759051089823668 0 -0.0058752447177479522 0.070297569253264358 0 -0.0090987100331182298 0.072759051089823668 0 -0.0058752447177479522 0.070297569253264358 0 -0.0097827445632307775 0.067097667078985235 0 -0.0012852880641630352 0.087192290519593457 0 -0.0014605551483565945 0.084126988030109831 0 -0.0065715802932861406 0.066925772146678705 0 -0.0058752447177479522 0.070297569253264358 0 -0.0097827445632307775 0.067097667078985235 0 -0.0065715802932861406 0.066925772146678705 0 -0.0075707198815040105 0.064578424449523053 0 -0.0097827445632307775 0.067097667078985235 0 -0.0042929631997468392 0.067203589442813669 0 -0.0058752447177479522 0.070297569253264358 0 -0.0020060178862452531 0.06903331310016679 0 -0.0042929631997468392 0.067203589442813669 0 -0.0020060178862452531 0.06903331310016679 0 -0.0025433787576733557 0.066192457977998387 0 -0.0042929631997468392 0.067203589442813669 0 -0.0052579013631360739 0.065388716926544757 0 -0.0037588461787429013 0.065492553306223431 0 -0.0042929631997468392 0.067203589442813669 0 -0.0025433787576733557 0.066192457977998387 0 -0.0037588461787429013 0.065492553306223431 0 -0.0065715802932861406 0.066925772146678705 0 -0.0042929631997468392 0.067203589442813669 0 -0.0052579013631360739 0.065388716926544757 0 -0.0065715802932861406 0.066925772146678705 0 -0.0042929631997468392 0.067203589442813669 0 -0.0058752447177479522 0.070297569253264358 0 -0.0034922380774901249 0.072862151006584497 0 -0.0058752447177479522 0.070297569253264358 0 -0.0020060178862452531 0.06903331310016679 0 -0.0064736607133323559 0.07530047504461744 0 -0.0034922380774901249 0.072862151006584497 0 -0.0058752447177479522 0.070297569253264358 0 9.6508131700948397e-05 0.07274416018301294 0 0.0034086358314999923 0.068555534358542003 0 -0.0020060178862452531 0.06903331310016679 0 -0.0034922380774901249 0.072862151006584497 0 9.6508131700948397e-05 0.07274416018301294 0 -0.0020060178862452531 0.06903331310016679 0 -0.00081998313696757719 0.069862810632902617 0 0.00027624716826936353 0.060634351147830431 0 -0.0017709958382825909 0.069776574076059 0 -0.0013112300185263877 0.069785402738002225 0 -0.0013380266406192128 0.069253579831089443 0 0.00081167877306166452 0.045238252348205679 0 0.00077674601101279466 0.045287652272846229 0 0.00071503757094365766 0.044995311827142552 0 0.00077674601101279466 0.045287652272846229 0 0.00038284449970731624 0.045024320783011579 0 0.00071503757094365766 0.044995311827142552 0 0.00098649083706729593 0.045244507489656006 0 0.00081167877306166452 0.045238252348205679 0 0.00077279639719738129 0.045289689383281144 0 0.00037751291020870576 0.060443358384835881 0 0.00027624716826936353 0.060634351147830431 0 0.00087002732743571992 0.045084482078994931 0 0.00081167877306166452 0.045238252348205679 0 0.00071503757094365766 0.044995311827142552 0 0.00027624716826936353 0.060634351147830431 0 -0.001685576984557281 0.055645605669698492 0 0.0034086358314999923 0.068555534358542003 0 -0.0020060178862452531 0.06903331310016679 0 -0.001649676717097663 0.06510046139156192 0 -0.0020060178862452531 0.06903331310016679 0 -0.0025433787576733557 0.066192457977998387 0 -0.001649676717097663 0.06510046139156192 0 0.00038284449970731624 0.045024320783011579 0 0.00071503757094365766 0.044995311827142552 0 0.00066010530179233333 0.044686079315278196 0 -0.0025433787576733557 0.066192457977998387 0 -0.0026175543745198381 0.064441939814951027 0 -0.0016586794243631368 0.06508478062858726 0 -0.0017259689948726316 0.065040431287260947 0 -0.0016833741998082377 0.062527811059483449 0 0.001450257958962991 0.060942327222567219 0 -0.001685576984557281 0.055645605669698492 0 0.00073556482394260703 0.053110814840494416 0 -0.0019180578741980897 0.056070429496930828 0 -0.001685576984557281 0.055645605669698492 0 -0.0015856996414099871 0.055804383798661282 0 -0.001685576984557281 0.055645605669698492 0 -0.0026175543745198381 0.064441939814951027 0 -0.0016833741998082377 0.062527811059483449 0 -0.0035332413384325657 0.062860007262775908 0 -0.0026175543745198381 0.064441939814951027 0 -0.0017259689948726316 0.065040431287260947 0 -0.0016833741998082377 0.062527811059483449 0 0.00071503757094365766 0.044995311827142552 0 0.00084353880308383512 0.044809649953308731 0 0.00066010530179233333 0.044686079315278196 0 0.00090038883109405091 0.044942723573645434 0 0.00087002732743571992 0.045084482078994931 0 0.00071503757094365766 0.044995311827142552 0 0.00090038883109405091 0.044942723573645434 0 0.00071503757094365766 0.044995311827142552 0 0.00084353880308383512 0.044809649953308731 0 0.00092588419806471488 0.04440130022884007 0 0.00094928672439760617 0.044662599059084686 0 0.00066010530179233333 0.044686079315278196 0 0.00094928672439760617 0.044662599059084686 0 0.00084353880308383512 0.044809649953308731 0 0.00066010530179233333 0.044686079315278196 0 -0.0011392531971141659 0.058685393095464736 0 0.003274939527506853 0.057221045943413568 0 0.001450257958962991 0.060942327222567219 0 0.0025601366177381932 0.051261292366403303 0 0.00073556482394260703 0.053110814840494416 0 -0.0016833741998082377 0.062527811059483449 0 -0.00080590106368926212 0.060773798929022259 0 -0.0029035810735349972 0.061109327143885388 0 -0.0016833741998082377 0.062527811059483449 0 -0.0029035810735349972 0.061109327143885388 0 -0.0035332413384325657 0.062860007262775908 0 -0.0016833741998082377 0.062527811059483449 0 0.001450257958962991 0.060942327222567219 0 -0.00080590106368926212 0.060773798929022259 0 -0.0011392531971141659 0.058685393095464736 0 0.001450257958962991 0.060942327222567219 0 -0.00080590106368926212 0.060773798929022259 0 -0.0011392531971141659 0.058685393095464736 0 -0.00080590106368926212 0.060773798929022259 0 -0.0029035810735349972 0.061109327143885388 0 -0.0011392531971141659 0.058685393095464736 0 -0.0029035810735349972 0.061109327143885388 0 -0.0057437022509752465 0.060091646479034935 0 0.0012759347077047835 0.065757225964314714 0 -0.0002032215745520121 0.070770661119836015 0 -0.0029035810735349972 0.061109327143885388 0 -0.0047716382140325477 0.061771610025677617 0 -0.0035332413384325657 0.062860007262775908 0 -0.0029035810735349972 0.061109327143885388 0 -0.0047716382140325477 0.061771610025677617 0 -0.0057437022509752465 0.060091646479034935 0 -0.0059816772434694949 0.061724376901877855 0 -0.0047716382140325477 0.061771610025677617 0 -0.0054973845283871033 0.063189704155372534 0 -0.0059816772434694949 0.061724376901877855 0 -0.0047716382140325477 0.061771610025677617 0 -0.0057437022509752465 0.060091646479034935 0 -0.0002032215745520121 0.070770661119836015 0 -0.00026599860754491583 0.080463545983060894 0 -0.0019269504730772293 0.058322106933659773 0 -0.002257061495963439 0.058215144778834722 0 -0.0024644723248920231 0.058381179621051306 0 -0.0057437022509752465 0.060091646479034935 0 -0.0075850286224839946 0.062014916132760868 0 -0.010441960408524737 0.061512848369222703 0 -0.0022330960147625171 0.058329200407348666 0 -0.002257061495963439 0.058215144778834722 0 -0.0024644723248920231 0.058381179621051306 0 -0.0019771323640953757 0.057333623862807243 0 -0.0019269504730772293 0.058322106933659773 0 -0.002257061495963439 0.058215144778834722 0 -0.0059816772434694949 0.061724376901877855 0 -0.0075850286224839946 0.062014916132760868 0 -0.0054973845283871033 0.063189704155372534 0 -0.0059816772434694949 0.061724376901877855 0 -0.0057437022509752465 0.060091646479034935 0 -0.0075850286224839946 0.062014916132760868 0 -0.0075850286224839946 0.062014916132760868 0 -0.0075707198815040105 0.064578424449523053 0 -0.0054973845283871033 0.063189704155372534 0 -0.0075707198815040105 0.064578424449523053 0 -0.010441960408524737 0.061512848369222703 0 -0.0097827445632307775 0.067097667078985235 0 -0.0075850286224839946 0.062014916132760868 0 -0.0075707198815040105 0.064578424449523053 0 -0.010441960408524737 0.061512848369222703 0 -0.0065715802932861406 0.066925772146678705 0 -0.0075707198815040105 0.064578424449523053 0 -0.0052579013631360739 0.065388716926544757 0 -0.0075707198815040105 0.064578424449523053 0 -0.0052579013631360739 0.065388716926544757 0 -0.0054973845283871033 0.063189704155372534 0 -0.0052579013631360739 0.065388716926544757 0 -0.0040722575123457051 0.064242577979689588 0 -0.0054973845283871033 0.063189704155372534 0 -0.0052579013631360739 0.065388716926544757 0 -0.0037588461787429013 0.065492553306223431 0 -0.0040722575123457051 0.064242577979689588 0 -0.0025433787576733557 0.066192457977998387 0 -0.0026175543745198381 0.064441939814951027 0 -0.0037588461787429013 0.065492553306223431 0 -0.0026175543745198381 0.064441939814951027 0 -0.0037588461787429013 0.065492553306223431 0 -0.0040722575123457051 0.064242577979689588 0 -0.0040722575123457051 0.064242577979689588 0 -0.0035332413384325657 0.062860007262775908 0 -0.0054973845283871033 0.063189704155372534 0 -0.0026175543745198381 0.064441939814951027 0 -0.0040722575123457051 0.064242577979689588 0 -0.0035332413384325657 0.062860007262775908 0 -0.0047716382140325477 0.061771610025677617 0 -0.0035332413384325657 0.062860007262775908 0 -0.0054973845283871033 0.063189704155372534 0 -0.0016716734607832334 0.093861912783475526 0 -0.0016900885577982581 0.10028915580927508 0 0.00067014661531057554 0.10131315902669434 0 0.0015117416142614991 0.10102734969353855 0 0.0016245870354854284 0.1021180237802206 0 -0.00026599860754491583 0.080463545983060894 0 -0.0014605551483565945 0.084126988030109831 0 0.0015588832092216815 0.083664357854182858 0 0.00021492877559164139 0.084069944999842383 0 0.0018534720583229607 0.086091566302620631 0 0.00021492877559164139 0.084069944999842383 0 -0.00083071469814290512 0.086904178384043698 0 0.0018534720583229607 0.086091566302620631 0 -0.0016716734607832334 0.093861912783475526 0 -0.00026599860754491583 0.080463545983060894 0 -0.00036414314850685469 0.076542844516128403 0 -0.00026599860754491583 0.080463545983060894 0 0.0013193480500392481 0.10334871038374702 0 0.0010573644722756046 0.10337742907924838 0 0.0011322878245503046 0.10307310248765054 0 -0.0012125514040682095 0.08990259345405073 0 -0.0016716734607832334 0.093861912783475526 0 0.0010248883837644539 0.10434411170306467 0 0.00060087025483292796 0.10450861018304645 0 0.00086545306799675609 0.10477786595590735 0 0.0013193480500392481 0.10334871038374702 0 0.0011322878245503046 0.10307310248765054 0 0.0013908565040582042 0.10298969311037835 0 -3.0486051105120226e-06 0.10296802126295997 0 -0.00058747586537641328 0.10066110548388905 0 0.00060087025483292796 0.10450861018304645 0 0.00086545306799675609 0.10477786595590735 0 0.00030202725245073519 0.10483814787687473 0 -0.00058747586537641328 0.10066110548388905 0 -0.0004480281580638328 0.10183331686346042 0 0.0002123492845155744 0.10393952019971628 0 -3.3188366800666265e-05 0.10403609990168262 0 0.00010964794464258619 0.10423337332130439 0 -0.0016716734607832334 0.093861912783475526 0 -0.00058747586537641328 0.10066110548388905 0 -3.3188366800666265e-05 0.10403609990168262 0 -5.0064371579259353e-05 0.10431762596200921 0 0.00010964794464258619 0.10423337332130439 0 -0.00058747586537641328 0.10066110548388905 0 -0.00062740733021395749 0.10324649841408989 0 -5.0064371579259353e-05 0.10431762596200921 0 -1.6539574215689677e-06 0.10441751694442923 0 0.00010964794464258619 0.10423337332130439 0 -3.7769435471994507e-05 0.10494393553041287 0 8.0621484309330822e-06 0.10471480754106796 0 0.00030202725245073519 0.10483814787687473 0 8.0621484309330822e-06 0.10471480754106796 0 0.00018754659016467375 0.10465121301901037 0 0.00030202725245073519 0.10483814787687473 0 8.0621484309330822e-06 0.10471480754106796 0 6.420447378905066e-05 0.10440264770761519 0 0.00018754659016467375 0.10465121301901037 0 -0.00062740733021395749 0.10324649841408989 0 -0.00058353978085227195 0.10375373488919998 0 6.420447378905066e-05 0.10440264770761519 0 0.00019593996303670445 0.10446861519036241 0 0.00018754659016467375 0.10465121301901037 0 0.00014576382404826081 0.1031010724228222 0 0.00062341456007486624 0.10286162095602791 0 0.00037903175451201585 0.10221317618387035 0 -5.0064371579259353e-05 0.10431762596200921 0 -1.6539574215689677e-06 0.10441751694442923 0 6.420447378905066e-05 0.10440264770761519 0 -0.0013449397136349251 0.10240061984734293 0 -0.0016900885577982581 0.10028915580927508 0 0.00014576382404826081 0.1031010724228222 0 0.00062341456007486624 0.10286162095602791 0 0.00060703715575029563 0.10342580374062411 0 0.00098221990475334722 0.10308450131871584 0 0.00062341456007486624 0.10286162095602791 0 0.00060703715575029563 0.10342580374062411 0 0.00098221990475334722 0.10308450131871584 0 0.00062341456007486624 0.10286162095602791 0 0.00098809595258544307 0.1024562187483041 0 0.00067014661531057554 0.10131315902669434 0 0.00098809595258544307 0.1024562187483041 0 0.00037903175451201585 0.10221317618387035 0 0.00062341456007486624 0.10286162095602791 0 0.00098809595258544307 0.1024562187483041 0 0.00037903175451201585 0.10221317618387035 0 0.00067014661531057554 0.10131315902669434 0 0.00098809595258544307 0.1024562187483041 0 0.0016245870354854284 0.1021180237802206 0 0.0016432225520931507 0.10314534375325328 0 0.00098809595258544307 0.1024562187483041 0 0.0016245870354854284 0.1021180237802206 0 0.0016432225520931507 0.10314534375325328 0 0.00098221990475334722 0.10308450131871584 0 0.00098809595258544307 0.1024562187483041 0 0.0014608279038068838 0.10368825057002976 0 0.0016432225520931507 0.10314534375325328 0 0.0013017732498306243 0.10343859728994848 0 0.0016432225520931507 0.10314534375325328 0 0.00098221990475334722 0.10308450131871584 0 0.0013017732498306243 0.10343859728994848 0 0.00098221990475334722 0.10308450131871584 0 0.0013017732498306243 0.10343859728994848 0 0.0009576153813996588 0.10345201702899272 0 0.0013017732498306243 0.10343859728994848 0 0.001173547994664658 0.10370676110389068 0 0.0009576153813996588 0.10345201702899272 0 0.0014608279038068838 0.10368825057002976 0 0.0013017732498306243 0.10343859728994848 0 0.001173547994664658 0.10370676110389068 0 0.00098221990475334722 0.10308450131871584 0 0.00060703715575029563 0.10342580374062411 0 0.0009576153813996588 0.10345201702899272 0 0.00060703715575029563 0.10342580374062411 0 0.0009576153813996588 0.10345201702899272 0 0.0006549413136250178 0.10385999256191575 0 0.001173547994664658 0.10370676110389068 0 0.0009576153813996588 0.10345201702899272 0 0.0006549413136250178 0.10385999256191575 0 0.00060703715575029563 0.10342580374062411 0 0.0006549413136250178 0.10385999256191575 0 0.00037348171694585094 0.10387142030978835 0 0.0006549413136250178 0.10385999256191575 0 0.00048644068019159981 0.10408228036931393 0 0.00067288306950861868 0.10418358885008287 0 0.0006549413136250178 0.10385999256191575 0 0.00048644068019159981 0.10408228036931393 0 0.00037348171694585094 0.10387142030978835 0 0.0006549413136250178 0.10385999256191575 0 0.00083697641646560529 0.10400907564688133 0 0.00067288306950861868 0.10418358885008287 0 0.001173547994664658 0.10370676110389068 0 0.0006549413136250178 0.10385999256191575 0 0.00083697641646560529 0.10400907564688133 0 0.00083697641646560529 0.10400907564688133 0 0.00088707157905614832 0.10425970727969611 0 0.00067288306950861868 0.10418358885008287 0 0.00048644068019159981 0.10408228036931393 0 0.00067288306950861868 0.10418358885008287 0 0.00045011197063255659 0.10429238700887628 0 0.001173547994664658 0.10370676110389068 0 0.00083697641646560529 0.10400907564688133 0 0.00088707157905614832 0.10425970727969611 0 0.001173547994664658 0.10370676110389068 0 0.0012575455941867273 0.1038082302500134 0 0.0012854311465837884 0.10377531702797241 0 0.0037829034978617273 0.10205356158097378 0 0.0043174611502328807 0.10100826773870385 0 0.0014608279038068838 0.10368825057002976 0 0.001173547994664658 0.10370676110389068 0 0.0012854311465837884 0.10377531702797241 0 0.0014608279038068838 0.10368825057002976 0 0.0012854311465837884 0.10377531702797241 0 0.0013724084999032988 0.10377401642811639 0 0.0012575455941867273 0.1038082302500134 0 0.0013020207840907484 0.10381017295817972 0 0.0012854311465837884 0.10377531702797241 0 0.0013020207840907484 0.10381017295817972 0 0.0012854311465837884 0.10377531702797241 0 0.0013724084999032988 0.10377401642811639 0 0.0013020207840907484 0.10381017295817972 0 0.0013724084999032988 0.10377401642811639 0 0.0013691960012475167 0.10380822887948768 0 0.00044083996060372162 0.089541719695842528 0 0.0063460224239315849 0.09657645483086949 0 0.0014223918864979248 0.10386101614167391 0 0.0013364315364121941 0.10383477522322726 0 0.0013057817066252275 0.10385601963436542 0 0.0014223918864979248 0.10386101614167391 0 0.0013057817066252275 0.10385601963436542 0 0.0012410314592714016 0.10388641237938001 0 0.010783256962181803 0.095909096931264093 0 0.011225941054383615 0.095339571207908272 0 0.014617361152510704 0.095085690140498766 0 0.0013020207840907484 0.10381017295817972 0 0.0013691960012475167 0.10380822887948768 0 0.0013364315364121941 0.10383477522322726 0 0.0013057817066252275 0.10385601963436542 0 0.0012837930524672307 0.10383470723891504 0 0.0012410314592714016 0.10388641237938001 0 0.0012575455941867273 0.1038082302500134 0 0.0013020207840907484 0.10381017295817972 0 0.0012837930524672307 0.10383470723891504 0 0.0013364315364121941 0.10383477522322726 0 0.0013057817066252275 0.10385601963436542 0 0.0012837930524672307 0.10383470723891504 0 0.0013020207840907484 0.10381017295817972 0 0.0013364315364121941 0.10383477522322726 0 0.0012837930524672307 0.10383470723891504 0 0.0012575455941867273 0.1038082302500134 0 0.0012837930524672307 0.10383470723891504 0 0.0012410314592714016 0.10388641237938001 0 0.00088707157905614832 0.10425970727969611 0 0.00078937333079254516 0.10432655916272879 0 0.00077662378127136568 0.10444432183660074 0 0.00088707157905614832 0.10425970727969611 0 0.00067288306950861868 0.10418358885008287 0 0.00078937333079254516 0.10432655916272879 0 0.0043174611502328807 0.10100826773870385 0 0.0063460224239315849 0.09657645483086949 0 0.00067288306950861868 0.10418358885008287 0 0.00078937333079254516 0.10432655916272879 0 0.0005874904300499584 0.10433051579726502 0 0.00067288306950861868 0.10418358885008287 0 0.0005874904300499584 0.10433051579726502 0 0.00045011197063255659 0.10429238700887628 0 0.0005874904300499584 0.10433051579726502 0 0.00043897063616840648 0.10449366930492568 0 0.00045011197063255659 0.10429238700887628 0 0.00078937333079254516 0.10432655916272879 0 0.0005874904300499584 0.10433051579726502 0 0.00043897063616840648 0.10449366930492568 0 0.00078937333079254516 0.10432655916272879 0 0.00077662378127136568 0.10444432183660074 0 0.00066479326867781405 0.10445200288283804 0 0.0040039446048248592 0.10042669294500911 0 0.0060299714911380116 0.098285229762769807 0 0.014617361152510704 0.095085690140498766 0 0.013468331394943422 0.092724184031191814 0 0.015247888710236277 0.092181026804580332 0 0.015795013215244846 0.088911395261067755 0 0.015575332525160029 0.089143124086423858 0 0.015742013572185524 0.089277837682808517 0 0.0063460224239315849 0.09657645483086949 0 0.010720908129273841 0.091548762050035343 0 0.0063460224239315849 0.09657645483086949 0 0.0060299714911380116 0.098285229762769807 0 0.015795013215244846 0.088911395261067755 0 0.015575332525160029 0.089143124086423858 0 0.015607387817759354 0.088940691184867901 0 0.011969042920278082 0.093646105271743788 0 0.014617361152510704 0.095085690140498766 0 0.013468331394943422 0.092724184031191814 0 0.011969042920278082 0.093646105271743788 0 0.011225941054383615 0.095339571207908272 0 0.014617361152510704 0.095085690140498766 0 0.0036067769060077284 0.099993718767946702 0 0.0026770331383246006 0.10091116582089754 0 0.00020665643681298831 0.10439670506661936 0 0.00016350703072618743 0.10431303056247172 0 0.00016945585719184054 0.10431918327237451 0 0.0051481592435020252 0.099664614193358134 0 0.0046269037518011343 0.099752922215341294 0 0.0050663583547479515 0.10018841318637917 0 0.0026770331383246006 0.10091116582089754 0 0.0064756821661454489 0.098692141629447575 0 0.0036067769060077284 0.099993718767946702 0 0.0060299714911380116 0.098285229762769807 0 0.0051481592435020252 0.099664614193358134 0 0.0056685594253275216 0.09957659114272864 0 0.0050663583547479515 0.10018841318637917 0 0.0060299714911380116 0.098285229762769807 0 0.0064756821661454489 0.098692141629447575 0 0.015575332525160029 0.089143124086423858 0 0.015607387817759354 0.088940691184867901 0 0.015194015540232518 0.08927229741458316 0 0.00020665643681298831 0.10439670506661936 0 0.00043897063616840648 0.10449366930492568 0 0.00024936459918266905 0.10433065306707452 0 0.00043897063616840648 0.10449366930492568 0 0.00045011197063255659 0.10429238700887628 0 0.00024936459918266905 0.10433065306707452 0 0.00045011197063255659 0.10429238700887628 0 0.00024936459918266905 0.10433065306707452 0 0.0002555807660878578 0.10419127301872579 0 0.00024936459918266905 0.10433065306707452 0 0.00016350703072618743 0.10431303056247172 0 0.00015200308415414524 0.10424324331917457 0 0.00020665643681298831 0.10439670506661936 0 0.00024936459918266905 0.10433065306707452 0 0.00016350703072618743 0.10431303056247172 0 0.00016350703072618743 0.10431303056247172 0 0.00015200308415414524 0.10424324331917457 0 0.00016552257661945252 0.10428233462451757 0 0.00015200308415414524 0.10424324331917457 0 0.00014034608901408244 0.10427030908672745 0 0.00016552257661945252 0.10428233462451757 0 0.00015200308415414524 0.10424324331917457 0 0.00014034608901408244 0.10427030908672745 0 6.4322610431390126e-05 0.10412154006487397 0 0.00048644068019159981 0.10408228036931393 0 0.00045011197063255659 0.10429238700887628 0 0.0002555807660878578 0.10419127301872579 0 0.00024936459918266905 0.10433065306707452 0 0.00015200308415414524 0.10424324331917457 0 0.0002555807660878578 0.10419127301872579 0 0.00015200308415414524 0.10424324331917457 0 0.0002555807660878578 0.10419127301872579 0 6.4322610431390126e-05 0.10412154006487397 0 0.0002555807660878578 0.10419127301872579 0 6.4322610431390126e-05 0.10412154006487397 0 0.00037348171694585094 0.10387142030978835 0 0.00048644068019159981 0.10408228036931393 0 0.0002555807660878578 0.10419127301872579 0 0.00037348171694585094 0.10387142030978835 0 0.00014576382404826081 0.1031010724228222 0 6.4322610431390126e-05 0.10412154006487397 0 0.00037348171694585094 0.10387142030978835 0 -1.6539574215689677e-06 0.10441751694442923 0 6.4322610431390126e-05 0.10412154006487397 0 6.420447378905066e-05 0.10440264770761519 0 -0.0013449397136349251 0.10240061984734293 0 -0.0012087630380646032 0.10294744908391623 0 0.00014576382404826081 0.1031010724228222 0 0.00060703715575029563 0.10342580374062411 0 0.00037348171694585094 0.10387142030978835 0 0.00014034608901408244 0.10427030908672745 0 6.420447378905066e-05 0.10440264770761519 0 0.00019593996303670445 0.10446861519036241 0 0.00014034608901408244 0.10427030908672745 0 6.4322610431390126e-05 0.10412154006487397 0 6.420447378905066e-05 0.10440264770761519 0 0.00014034608901408244 0.10427030908672745 0 0.00019593996303670445 0.10446861519036241 0 0.0002300588695949213 0.10434263081543808 0 0.00013283146164418214 0.10464327973045334 0 0.00016509776867527765 0.1046739175342612 0 0.00019593996303670445 0.10446861519036241 0 0.00027748078161432164 0.10438714608409277 0 0.0002300588695949213 0.10434263081543808 0 0.00019593996303670445 0.10446861519036241 0 0.00020362671780382925 0.10480585706242204 0 0.00023600415138452357 0.10476779083194639 0 0.00027748078161432164 0.10438714608409277 0 0.0002300588695949213 0.10434263081543808 0 0.00029700174444803709 0.10433095518267362 0 0.0002300588695949213 0.10434263081543808 0 0.00021633923528904938 0.10428466094860246 0 0.00029700174444803709 0.10433095518267362 0 0.0002300588695949213 0.10434263081543808 0 0.00016552257661945252 0.10428233462451757 0 0.00021633923528904938 0.10428466094860246 0 0.00014034608901408244 0.10427030908672745 0 0.0002300588695949213 0.10434263081543808 0 0.00016552257661945252 0.10428233462451757 0 0.00016350703072618743 0.10431303056247172 0 0.00016552257661945252 0.10428233462451757 0 0.00021633923528904938 0.10428466094860246 0 0.00016350703072618743 0.10431303056247172 0 0.00021633923528904938 0.10428466094860246 0 0.00016945585719184054 0.10431918327237451 0 0.00156277730846725 0.10291211223037436 0 0.0026770331383246006 0.10091116582089754 0 0.00156277730846725 0.10291211223037436 0 0.00078392419514165682 0.10398371016103558 0 -5.2175006322814667e-06 0.10498082732505952 0 -3.0017927575445529e-06 0.10496959539943043 0 -6.2111961173147779e-06 0.10496389387130221 0 -5.2175006322814667e-06 0.10498082732505952 0 -3.0017927575445529e-06 0.10496959539943043 0 -1.1937168338721575e-06 0.10498918373575428 0 0.0011472034075050812 0.10176875628936147 0 0.0026770331383246006 0.10091116582089754 0 -3.0017927575445529e-06 0.10496959539943043 0 2.4901881825371317e-05 0.10493697312240163 0 1.487198242289541e-05 0.10495784474262194 0 4.1836653213423621e-08 0.10500003901245474 0 -1.1937168338721575e-06 0.10498918373575428 0 -7.1572897560342809e-06 0.1049860153459594 0 4.1836653213423621e-08 0.10500003901245474 0 -1.1937168338721575e-06 0.10498918373575428 0 -1.0943126600999398e-08 0.10499997186411691 0 -3.0017927575445529e-06 0.10496959539943043 0 -1.1937168338721575e-06 0.10498918373575428 0 -7.1572897560342809e-06 0.1049860153459594 0 -5.2175006322814667e-06 0.10498082732505952 0 -1.1937168338721575e-06 0.10498918373575428 0 -2.2537110526905296e-06 0.10499417290255021 0 -1.1937168338721575e-06 0.10498918373575428 0 -1.0943126600999398e-08 0.10499997186411691 0 -7.7805448487825966e-08 0.10499747861519551 0 -1.0943126600999398e-08 0.10499997186411691 0 -7.7805448487825966e-08 0.10499747861519551 0 6.7510253031715719e-09 0.10500000915503555 0 -1.1937168338721575e-06 0.10498918373575428 0 -7.7805448487825966e-08 0.10499747861519551 0 -2.2537110526905296e-06 0.10499417290255021 0 -7.7805448487825966e-08 0.10499747861519551 0 -2.2537110526905296e-06 0.10499417290255021 0 -2.1124931159624945e-07 0.10499940891115987 0 0.00078392419514165682 0.10398371016103558 0 0.00021834425026083458 0.10474502966422992 0 0.00016509776867527765 0.1046739175342612 0 0.00021834425026083458 0.10474502966422992 0 0.00020362671780382925 0.10480585706242204 0 7.3874395301261279e-05 0.10496956250331807 0 8.275541711155633e-05 0.1049313222821612 0 0.00027748078161432164 0.10438714608409277 0 0.00029700174444803709 0.10433095518267362 0 0.0003472923513454411 0.10438101639414865 0 4.3295469385832173e-07 0.10499889497330432 0 0.00021834425026083458 0.10474502966422992 0 -7.7805448487825966e-08 0.10499747861519551 0 6.7510253031715719e-09 0.10500000915503555 0 -2.1124931159624945e-07 0.10499940891115987 0 7.3874395301261279e-05 0.10496956250331807 0 6.3451268796973892e-08 0.1049998350178664 0 8.275541711155633e-05 0.1049313222821612 0 4.5781909121508009e-10 0.10499999934798501 0 4.201510393011358e-07 0.10499958130737107 0 -1.209877431685384e-10 0.104999999864531 0 0.00021834425026083458 0.10474502966422992 0 6.9865242420928075e-07 0.10499923091401173 0 8.275541711155633e-05 0.1049313222821612 0 1.0232686850731463e-07 0.10500001509891206 0 0.0001254242175026157 0.10488149848423808 0 6.3451268796973892e-08 0.1049998350178664 0 8.275541711155633e-05 0.1049313222821612 0 1.0232686850731463e-07 0.10500001509891206 0 1.0232686850731463e-07 0.10500001509891206 0 6.7773100632359884e-05 0.10488653200527354 0 0.0001254242175026157 0.10488149848423808 0 1.0232686850731463e-07 0.10500001509891206 0 6.7773100632359884e-05 0.10488653200527354 0 -2.7654882061050893e-07 0.10499941696158126 0 6.7773100632359884e-05 0.10488653200527354 0 0.0001254242175026157 0.10488149848423808 0 0.00017782594378942869 0.10483633589197884 0 6.7773100632359884e-05 0.10488653200527354 0 0.00017782594378942869 0.10483633589197884 0 0.00015793167183551522 0.10476591553748293 0 0.00020362671780382925 0.10480585706242204 0 8.275541711155633e-05 0.1049313222821612 0 0.0001254242175026157 0.10488149848423808 0 0.00020362671780382925 0.10480585706242204 0 0.0001254242175026157 0.10488149848423808 0 0.00023600415138452357 0.10476779083194639 0 0.00019593996303670445 0.10446861519036241 0 0.00023600415138452357 0.10476779083194639 0 0.00018754659016467375 0.10465121301901037 0 0.00023600415138452357 0.10476779083194639 0 0.00018754659016467375 0.10465121301901037 0 0.00030202725245073519 0.10483814787687473 0 0.00023600415138452357 0.10476779083194639 0 0.00030202725245073519 0.10483814787687473 0 0.00017782594378942869 0.10483633589197884 0 0.0001254242175026157 0.10488149848423808 0 0.00023600415138452357 0.10476779083194639 0 0.00017782594378942869 0.10483633589197884 0 0.00015793167183551522 0.10476591553748293 0 0.00031629689259887549 0.10464143447601469 0 0.00019045323380443855 0.10459063635228762 0 0.00030202725245073519 0.10483814787687473 0 0.00015793167183551522 0.10476591553748293 0 0.00031629689259887549 0.10464143447601469 0 0.00030202725245073519 0.10483814787687473 0 0.00017782594378942869 0.10483633589197884 0 0.00015793167183551522 0.10476591553748293 0 0.00060087025483292796 0.10450861018304645 0 0.00030202725245073519 0.10483814787687473 0 0.00031629689259887549 0.10464143447601469 0 0.00060087025483292796 0.10450861018304645 0 0.00031629689259887549 0.10464143447601469 0 0.00029287910522255312 0.10444698800048467 0 0.00010960619051519075 0.10443493321438814 0 0.00029287910522255312 0.10444698800048467 0 0.00019045323380443855 0.10459063635228762 0 0.00031629689259887549 0.10464143447601469 0 0.00029287910522255312 0.10444698800048467 0 0.00019045323380443855 0.10459063635228762 0 6.7987862335230144e-05 0.10463327004075607 0 -9.8499279975237066e-05 0.10455424347646497 0 3.565361348985365e-05 0.10480440683804773 0 0.00010960619051519075 0.10443493321438814 0 0.00019045323380443855 0.10459063635228762 0 6.7987862335230144e-05 0.10463327004075607 0 8.4304424381077712e-06 0.10443796024119102 0 0.00010960619051519075 0.10443493321438814 0 6.7987862335230144e-05 0.10463327004075607 0 0.00015793167183551522 0.10476591553748293 0 0.00019045323380443855 0.10459063635228762 0 6.7987862335230144e-05 0.10463327004075607 0 8.4304424381077712e-06 0.10443796024119102 0 6.7987862335230144e-05 0.10463327004075607 0 -9.8499279975237066e-05 0.10455424347646497 0 -9.8499279975237066e-05 0.10455424347646497 0 -2.7654882061050893e-07 0.10499941696158126 0 3.565361348985365e-05 0.10480440683804773 0 -5.6841562832199961e-09 0.10500007075792993 0 -5.1124943315898573e-06 0.10500388182691042 0 4.4628292383189363e-10 0.10499996375583609 0 1.7103091519093247e-05 0.10477745025064318 0 -4.0254711169855228e-08 0.10499967523004677 0 6.7773100632359884e-05 0.10488653200527354 0 -2.7654882061050893e-07 0.10499941696158126 0 3.565361348985365e-05 0.10480440683804773 0 6.7773100632359884e-05 0.10488653200527354 0 0.00015793167183551522 0.10476591553748293 0 3.565361348985365e-05 0.10480440683804773 0 0.00015793167183551522 0.10476591553748293 0 6.7987862335230144e-05 0.10463327004075607 0 3.565361348985365e-05 0.10480440683804773 0 1.341837599764911e-05 0.1049774711099602 0 1.9197370612609228e-05 0.1049694287923132 0 2.0055396375712956e-05 0.10496448112868889 0 1.341837599764911e-05 0.1049774711099602 0 1.9197370612609228e-05 0.1049694287923132 0 1.1002762566613861e-05 0.10498386513350177 0 1.9197370612609228e-05 0.1049694287923132 0 2.0055396375712956e-05 0.10496448112868889 0 2.7875270448506987e-05 0.10495481759062437 0 1.9197370612609228e-05 0.1049694287923132 0 2.7875270448506987e-05 0.10495481759062437 0 2.1463990851273878e-05 0.10496977836973524 0 1.9197370612609228e-05 0.1049694287923132 0 1.1002762566613861e-05 0.10498386513350177 0 2.1463990851273878e-05 0.10496977836973524 0 1.341837599764911e-05 0.1049774711099602 0 1.1002762566613861e-05 0.10498386513350177 0 1.1918416681824552e-08 0.1049999660041486 0 1.1002762566613861e-05 0.10498386513350177 0 1.1918416681824552e-08 0.1049999660041486 0 1.2426995732314169e-08 0.10499996442010898 0 1.341837599764911e-05 0.1049774711099602 0 1.1918416681824552e-08 0.1049999660041486 0 1.5580962986262211e-05 0.10496981609294312 0 1.1918416681824552e-08 0.1049999660041486 0 1.5580962986262211e-05 0.10496981609294312 0 8.2413532368265498e-06 0.10498048317825234 0 1.341837599764911e-05 0.1049774711099602 0 1.5580962986262211e-05 0.10496981609294312 0 2.0055396375712956e-05 0.10496448112868889 0 1.5580962986262211e-05 0.10496981609294312 0 2.0055396375712956e-05 0.10496448112868889 0 2.3132838737835913e-05 0.10495218220354374 0 1.5580962986262211e-05 0.10496981609294312 0 2.3132838737835913e-05 0.10495218220354374 0 1.9706971956923316e-05 0.1049541330514572 0 2.3132838737835913e-05 0.10495218220354374 0 2.5605147935129939e-05 0.10493886060541918 0 2.2005839031356098e-05 0.10493217036740525 0 2.3132838737835913e-05 0.10495218220354374 0 2.5605147935129939e-05 0.10493886060541918 0 2.7875270448506987e-05 0.10495481759062437 0 2.0055396375712956e-05 0.10496448112868889 0 2.3132838737835913e-05 0.10495218220354374 0 2.7875270448506987e-05 0.10495481759062437 0 2.5605147935129939e-05 0.10493886060541918 0 1.71550250785008e-05 0.10492618410875718 0 1.6099301340743543e-05 0.10491151241184796 0 2.5605147935129939e-05 0.10493886060541918 0 1.6099301340743543e-05 0.10491151241184796 0 2.2005839031356098e-05 0.10493217036740525 0 0.0064276080681824844 0.098175160618725374 0 0.007757368250713932 0.09421205363821876 0 2.5605147935129939e-05 0.10493886060541918 0 3.298686361682991e-05 0.10494596743140966 0 1.71550250785008e-05 0.10492618410875718 0 0.011341642349023085 0.092603224231945835 0 0.010776813929376156 0.092324531475653185 0 0.010913537922498568 0.091669763394901141 0 0.011861863833459083 0.092183000681740401 0 0.011341642349023085 0.092603224231945835 0 0.010913537922498568 0.091669763394901141 0 0.0064276080681824844 0.098175160618725374 0 0.010503652988963896 0.09540257920024528 0 0.0056459377312357527 0.098856218638597573 0 0.0064276080681824844 0.098175160618725374 0 2.5605147935129939e-05 0.10493886060541918 0 2.7875270448506987e-05 0.10495481759062437 0 3.298686361682991e-05 0.10494596743140966 0 2.7875270448506987e-05 0.10495481759062437 0 3.3916755573537993e-05 0.10495053388048747 0 2.1463990851273878e-05 0.10496977836973524 0 0.011973900917217813 0.11142694059840366 0 0.0088478725337001914 0.10789379059686247 0 0.0055793396398334137 0.1081049401902211 0 0.0064276080681824844 0.098175160618725374 0 0.0042936809139033361 0.10202460056866969 0 0.010857139148202461 0.10712042955289776 0 0.014805678301915979 0.10504333593739433 0 0.0069809240912069694 0.10492666889063114 0 0.014805678301915979 0.10504333593739433 0 0.010902735464478791 0.09978737706280455 0 0.0078210055795508281 0.10502399278718835 0 0.0086808428905851588 0.10471197456138331 0 0.0061452811694969892 0.10463580545805712 0 0.0088478725337001914 0.10789379059686247 0 0.010857139148202461 0.10712042955289776 0 0.0069809240912069694 0.10492666889063114 0 0.011973900917217813 0.11142694059840366 0 0.0088478725337001914 0.10789379059686247 0 0.010857139148202461 0.10712042955289776 0 0.011973900917217813 0.11142694059840366 0 0.010857139148202461 0.10712042955289776 0 0.017016881974357165 0.10738666336086962 0 0.017016881974357165 0.10738666336086962 0 0.014805678301915979 0.10504333593739433 0 0.022155774979201515 0.10323227562702604 0 0.010857139148202461 0.10712042955289776 0 0.017016881974357165 0.10738666336086962 0 0.014805678301915979 0.10504333593739433 0 0.010503652988963896 0.09540257920024528 0 0.013853357792968042 0.091711921269577973 0 0.014805678301915979 0.10504333593739433 0 0.014107829850816305 0.093325628700986527 0 0.022155774979201515 0.10323227562702604 0 0.01516143092076922 0.093638876718482297 0 0.013853357792968042 0.091711921269577973 0 0.014107829850816305 0.093325628700986527 0 0.01490736335246365 0.092209870621819484 0 0.01505650343099719 0.092257908309585496 0 0.014805678301915979 0.10504333593739433 0 0.010902735464478791 0.09978737706280455 0 0.014107829850816305 0.093325628700986527 0 0.010902735464478791 0.09978737706280455 0 0.0076144572187254282 0.10031970869444724 0 0.0078210055795508281 0.10502399278718835 0 0.010902735464478791 0.09978737706280455 0 0.0099007908810892688 0.095472575590996811 0 0.014107829850816305 0.093325628700986527 0 0.010902735464478791 0.09978737706280455 0 0.0076144572187254282 0.10031970869444724 0 0.0099007908810892688 0.095472575590996811 0 0.0076144572187254282 0.10031970869444724 0 0.0050681785100980615 0.09545921074675523 0 0.0099007908810892688 0.095472575590996811 0 0.0042187763208934408 0.10217980271972471 0 0.0076144572187254282 0.10031970869444724 0 0.0050681785100980615 0.09545921074675523 0 0.0042187763208934408 0.10217980271972471 0 0.0076144572187254282 0.10031970869444724 0 0.0078210055795508281 0.10502399278718835 0 0.0061452811694969892 0.10463580545805712 0 0.0019236273401183814 0.10442370324670514 0 0.0069809240912069694 0.10492666889063114 0 0.0055793396398334137 0.1081049401902211 0 -0.00077387601899578579 0.10481515818804105 0 0.0042187763208934408 0.10217980271972471 0 0.0078210055795508281 0.10502399278718835 0 0.0016660623238507971 0.10562097598780711 0 1.1002762566613861e-05 0.10498386513350177 0 2.1463990851273878e-05 0.10496977836973524 0 9.2123512303382173e-06 0.10498717628629628 0 0.0042936809139033361 0.10202460056866969 0 0.0019236273401183814 0.10442370324670514 0 0.0088478725337001914 0.10789379059686247 0 0.0069809240912069694 0.10492666889063114 0 0.0055793396398334137 0.1081049401902211 0 1.1002762566613861e-05 0.10498386513350177 0 9.2123512303382173e-06 0.10498717628629628 0 1.2426995732314169e-08 0.10499996442010898 0 0.0019236273401183814 0.10442370324670514 0 4.8051897024098092e-06 0.10499650296866808 0 6.477490742674715e-06 0.104998474560098 0 4.6867062647327508e-09 0.10500000280052073 0 -2.5661769330544154e-09 0.10499999573102554 0 0.0019236273401183814 0.10442370324670514 0 3.9472322952399975e-06 0.10499745771733904 0 0.0016660623238507971 0.10562097598780711 0 0.00014737098816745348 0.10451601579885771 0 -1.3347601557599121e-06 0.10499559508456875 0 0.00014737098816745348 0.10451601579885771 0 -1.3347601557599121e-06 0.10499559508456875 0 5.8314769421584642e-07 0.10500079715949941 0 0.0042187763208934408 0.10217980271972471 0 0.00014737098816745348 0.10451601579885771 0 0.0050681785100980615 0.09545921074675523 0 0.0022461217613950844 0.10155021786997119 0 0.0033734662850716571 0.10035694814550782 0 0.0042187763208934408 0.10217980271972471 0 0.0016660623238507971 0.10562097598780711 0 0.00014737098816745348 0.10451601579885771 0 0.00014737098816745348 0.10451601579885771 0 5.8314769421584642e-07 0.10500079715949941 0 -9.4366043254506189e-05 0.10489684204224005 0 5.8314769421584642e-07 0.10500079715949941 0 -9.4366043254506189e-05 0.10489684204224005 0 -3.225981845448837e-05 0.10498117083009384 0 0.0033734662850716571 0.10035694814550782 0 0.0052493280806022447 0.098714448614493119 0 -9.4366043254506189e-05 0.10489684204224005 0 -3.225981845448837e-05 0.10498117083009384 0 -3.2404700361892162e-05 0.10496804327954597 0 5.8314769421584642e-07 0.10500079715949941 0 -3.225981845448837e-05 0.10498117083009384 0 -1.7627253052730029e-07 0.10499976853263153 0 -1.7627253052730029e-07 0.10499976853263153 0 -1.6712339360383208e-05 0.10498295165143773 0 -7.1572897560342809e-06 0.1049860153459594 0 -3.225981845448837e-05 0.10498117083009384 0 -1.7627253052730029e-07 0.10499976853263153 0 -1.6712339360383208e-05 0.10498295165143773 0 -3.225981845448837e-05 0.10498117083009384 0 -1.6712339360383208e-05 0.10498295165143773 0 -1.5070226928320915e-05 0.10497440468244307 0 -3.0017927575445529e-06 0.10496959539943043 0 -7.1572897560342809e-06 0.1049860153459594 0 -4.7751275929629693e-06 0.10496972139132719 0 -1.6712339360383208e-05 0.10498295165143773 0 -7.1572897560342809e-06 0.1049860153459594 0 -4.7751275929629693e-06 0.10496972139132719 0 4.1836653213423621e-08 0.10500003901245474 0 -1.7627253052730029e-07 0.10499976853263153 0 -7.1572897560342809e-06 0.1049860153459594 0 1.487198242289541e-05 0.10495784474262194 0 1.8374875523645523e-05 0.1049709448947177 0 5.4862494432112078e-05 0.10494852205405558 0 1.487198242289541e-05 0.10495784474262194 0 -4.7751275929629693e-06 0.10496972139132719 0 1.8374875523645523e-05 0.1049709448947177 0 2.4901881825371317e-05 0.10493697312240163 0 1.487198242289541e-05 0.10495784474262194 0 5.4862494432112078e-05 0.10494852205405558 0 -3.0017927575445529e-06 0.10496959539943043 0 1.487198242289541e-05 0.10495784474262194 0 -4.7751275929629693e-06 0.10496972139132719 0 -1.6712339360383208e-05 0.10498295165143773 0 -4.7751275929629693e-06 0.10496972139132719 0 -1.5070226928320915e-05 0.10497440468244307 0 -4.7751275929629693e-06 0.10496972139132719 0 -1.5070226928320915e-05 0.10497440468244307 0 1.8374875523645523e-05 0.1049709448947177 0 -1.5070226928320915e-05 0.10497440468244307 0 1.8374875523645523e-05 0.1049709448947177 0 -3.2404700361892162e-05 0.10496804327954597 0 0.014424975643305308 0.089244343815264124 0 0.014311595189318651 0.090748928944711996 0 0.014907348638354438 0.0900938906044709 0 0.014424975643305308 0.089244343815264124 0 0.014311595189318651 0.090748928944711996 0 0.011555350842843469 0.090191630369074641 0 0.0064967273762822474 0.097993717914718517 0 0.0052493280806022447 0.098714448614493119 0 -3.225981845448837e-05 0.10498117083009384 0 -1.5070226928320915e-05 0.10497440468244307 0 -3.2404700361892162e-05 0.10496804327954597 0 0.0050681785100980615 0.09545921074675523 0 0.011555350842843469 0.090191630369074641 0 0.0099007908810892688 0.095472575590996811 0 0.011555350842843469 0.090191630369074641 0 0.0099007908810892688 0.095472575590996811 0 0.014107829850816305 0.093325628700986527 0 0.014311595189318651 0.090748928944711996 0 0.014107829850816305 0.093325628700986527 0 0.01490736335246365 0.092209870621819484 0 0.014311595189318651 0.090748928944711996 0 0.011555350842843469 0.090191630369074641 0 0.014107829850816305 0.093325628700986527 0 0.0153206822148619 0.091157155692898284 0 0.01528330170478525 0.090443196812215243 0 0.01490736335246365 0.092209870621819484 0 0.014311595189318651 0.090748928944711996 0 0.01528330170478525 0.090443196812215243 0 0.01490736335246365 0.092209870621819484 0 0.0153206822148619 0.091157155692898284 0 0.015628703670476418 0.090197931041838736 0 0.01528330170478525 0.090443196812215243 0 0.015628703670476418 0.090197931041838736 0 0.0158089398049697 0.088842149641775447 0 0.015559450270763152 0.09162080273984996 0 0.015945921228992105 0.089782585582062244 0 0.015843401837854081 0.089968545701833907 0 0.0153206822148619 0.091157155692898284 0 0.015628703670476418 0.090197931041838736 0 0.015559450270763152 0.09162080273984996 0 0.015628703670476418 0.090197931041838736 0 0.015697659173159628 0.089891440551147547 0 0.01528330170478525 0.090443196812215243 0 0.015628703670476418 0.090197931041838736 0 0.015697659173159628 0.089891440551147547 0 0.0158089398049697 0.088842149641775447 0 0.015697659173159628 0.089891440551147547 0 0.015386494840713198 0.089816052089862985 0 0.015609908463203351 0.089960826812276823 0 0.015697659173159628 0.089891440551147547 0 0.015609908463203351 0.089960826812276823 0 0.0158089398049697 0.088842149641775447 0 0.014311595189318651 0.090748928944711996 0 0.01528330170478525 0.090443196812215243 0 0.014907348638354438 0.0900938906044709 0 0.015697659173159628 0.089891440551147547 0 0.01528330170478525 0.090443196812215243 0 0.015386494840713198 0.089816052089862985 0 0.01528330170478525 0.090443196812215243 0 0.014907348638354438 0.0900938906044709 0 0.015386494840713198 0.089816052089862985 0 0.0064967273762822474 0.097993717914718517 0 0.0064756821661454489 0.098692141629447575 0 0.014424975643305308 0.089244343815264124 0 0.015171544800773476 0.089417839860123305 0 0.015198616836701082 0.08920332640717106 0 0.014424975643305308 0.089244343815264124 0 0.014907348638354438 0.0900938906044709 0 0.015386494840713198 0.089816052089862985 0 0.014424975643305308 0.089244343815264124 0 0.015171544800773476 0.089417839860123305 0 0.015386494840713198 0.089816052089862985 0 0.015171544800773476 0.089417839860123305 0 0.015386494840713198 0.089816052089862985 0 0.015426269487487985 0.089605227706783946 0 0.015171544800773476 0.089417839860123305 0 0.015426269487487985 0.089605227706783946 0 0.015263634580400609 0.089321290981220547 0 0.015386494840713198 0.089816052089862985 0 0.015609908463203351 0.089960826812276823 0 0.015426269487487985 0.089605227706783946 0 0.015609908463203351 0.089960826812276823 0 0.015426269487487985 0.089605227706783946 0 0.015494835074877832 0.089334416932500924 0 0.015575332525160029 0.089143124086423858 0 0.015494835074877832 0.089334416932500924 0 0.015194015540232518 0.08927229741458316 0 0.015494835074877832 0.089334416932500924 0 0.015194015540232518 0.08927229741458316 0 0.015263634580400609 0.089321290981220547 0 0.015609908463203351 0.089960826812276823 0 0.015494835074877832 0.089334416932500924 0 0.015742013572185524 0.089277837682808517 0 0.015426269487487985 0.089605227706783946 0 0.015494835074877832 0.089334416932500924 0 0.015263634580400609 0.089321290981220547 0 0.015575332525160029 0.089143124086423858 0 0.015494835074877832 0.089334416932500924 0 0.015742013572185524 0.089277837682808517 0 0.015171544800773476 0.089417839860123305 0 0.015198616836701082 0.08920332640717106 0 0.015263634580400609 0.089321290981220547 0 0.0064756821661454489 0.098692141629447575 0 0.0065631144780412091 0.098570988696219969 0 0.011969042920278082 0.093646105271743788 0 0.013468331394943422 0.092724184031191814 0 0.011967380804063963 0.091382033199180104 0 0.013812459570124782 0.091321264378845066 0 0.013468331394943422 0.092724184031191814 0 0.011967380804063963 0.091382033199180104 0 0.013812459570124782 0.091321264378845066 0 0.013468331394943422 0.092724184031191814 0 0.015247888710236277 0.092181026804580332 0 0.011876283135225603 0.090443953352435047 0 0.010720908129273841 0.091548762050035343 0 0.015609908463203351 0.089960826812276823 0 0.013812459570124782 0.091321264378845066 0 0.013150605260254262 0.089743768881374461 0 0.015609908463203351 0.089960826812276823 0 0.013812459570124782 0.091321264378845066 0 0.015247888710236277 0.092181026804580332 0 0.013812459570124782 0.091321264378845066 0 0.013150605260254262 0.089743768881374461 0 0.011967380804063963 0.091382033199180104 0 0.013150605260254262 0.089743768881374461 0 0.013893756343998236 0.08899011806410502 0 0.011071145446227927 0.088350988619659621 0 0.015609908463203351 0.089960826812276823 0 0.013150605260254262 0.089743768881374461 0 0.013893756343998236 0.08899011806410502 0 0.015609908463203351 0.089960826812276823 0 0.013893756343998236 0.08899011806410502 0 0.0158089398049697 0.088842149641775447 0 0.013893756343998236 0.08899011806410502 0 0.0158089398049697 0.088842149641775447 0 0.013209612786273467 0.086699440586086432 0 0.013893756343998236 0.08899011806410502 0 0.013209612786273467 0.086699440586086432 0 0.011071145446227927 0.088350988619659621 0 0.013209612786273467 0.086699440586086432 0 0.013398778927846137 0.082197741944241065 0 0.01531436402159028 0.084911016858601543 0 0.013209612786273467 0.086699440586086432 0 0.013398778927846137 0.082197741944241065 0 0.01126056425947454 0.084151162024792933 0 0.013398778927846137 0.082197741944241065 0 0.016427675687239161 0.082486232017512318 0 0.014869108856773817 0.079146486517732345 0 0.013398778927846137 0.082197741944241065 0 0.016427675687239161 0.082486232017512318 0 0.01531436402159028 0.084911016858601543 0 0.0158089398049697 0.088842149641775447 0 0.01531436402159028 0.084911016858601543 0 0.017186962579092323 0.085215537178163783 0 0.0158089398049697 0.088842149641775447 0 0.013209612786273467 0.086699440586086432 0 0.01531436402159028 0.084911016858601543 0 0.016427675687239161 0.082486232017512318 0 0.01531436402159028 0.084911016858601543 0 0.017186962579092323 0.085215537178163783 0 0.0158089398049697 0.088842149641775447 0 0.019180493023888693 0.08609170458800823 0 0.017186962579092323 0.085215537178163783 0 0.019180493023888693 0.08609170458800823 0 0.019108217472158882 0.084209352900617138 0 0.017186962579092323 0.085215537178163783 0 0.0153206822148619 0.091157155692898284 0 0.015559450270763152 0.09162080273984996 0 0.01490736335246365 0.092209870621819484 0 0.015559450270763152 0.09162080273984996 0 0.01490736335246365 0.092209870621819484 0 0.01505650343099719 0.092257908309585496 0 0.015843401837854081 0.089968545701833907 0 0.013853357792968042 0.091711921269577973 0 0.019180493023888693 0.08609170458800823 0 0.019108217472158882 0.084209352900617138 0 0.021893891151015043 0.083734431039563628 0 0.011341642349023085 0.092603224231945835 0 0.010819944717990117 0.093027698953663751 0 0.010776813929376156 0.092324531475653185 0 0.010819944717990117 0.093027698953663751 0 0.010029186573838618 0.09199601206831956 0 0.010776813929376156 0.092324531475653185 0 0.013853357792968042 0.091711921269577973 0 0.013845395950807882 0.08507820198875117 0 0.019108217472158882 0.084209352900617138 0 0.021893891151015043 0.083734431039563628 0 0.018657757633862952 0.079583862606365671 0 0.01494063963412817 0.083771911219715459 0 0.013845395950807882 0.08507820198875117 0 0.016427675687239161 0.082486232017512318 0 0.019108217472158882 0.084209352900617138 0 0.018501306425169849 0.079513855565520361 0 0.016427675687239161 0.082486232017512318 0 0.019108217472158882 0.084209352900617138 0 0.017186962579092323 0.085215537178163783 0 0.010029186573838618 0.09199601206831956 0 0.010776813929376156 0.092324531475653185 0 0.010913537922498568 0.091669763394901141 0 0.007757368250713932 0.09421205363821876 0 0.010624619623605672 0.088281869436082627 0 0.010029186573838618 0.09199601206831956 0 0.010913537922498568 0.091669763394901141 0 0.0099485474722647554 0.091155457929190303 0 1.71550250785008e-05 0.10492618410875718 0 -2.5507581304599266e-05 0.10488816558693172 0 1.6099301340743543e-05 0.10491151241184796 0 0.018262542115297011 0.079624774796635142 0 0.017976156367919133 0.076429384056266883 0 0.015700464183631288 0.076262057499296293 0 0.013845395950807882 0.08507820198875117 0 0.013414100159051583 0.08204936979997475 0 0.013845395950807882 0.08507820198875117 0 0.010624619623605672 0.088281869436082627 0 0.018501306425169849 0.079513855565520361 0 0.015700464183631288 0.076262057499296293 0 0.014869108856773817 0.079146486517732345 0 0.015700464183631288 0.076262057499296293 0 0.013387771544075767 0.076523633510890671 0 0.014869108856773817 0.079146486517732345 0 0.011911672201285622 0.078256211555741001 0 0.013387771544075767 0.076523633510890671 0 0.01094928291607037 0.075217799908612826 0 0.011911672201285622 0.078256211555741001 0 0.013387771544075767 0.076523633510890671 0 0.014869108856773817 0.079146486517732345 0 0.013398778927846137 0.082197741944241065 0 0.011911672201285622 0.078256211555741001 0 0.010046584638328811 0.08086381453703323 0 0.013398778927846137 0.082197741944241065 0 0.011911672201285622 0.078256211555741001 0 0.014869108856773817 0.079146486517732345 0 0.016427675687239161 0.082486232017512318 0 0.018501306425169849 0.079513855565520361 0 0.014869108856773817 0.079146486517732345 0 0.0091194909872252539 0.07755221174783862 0 0.0064123171654483155 0.076919122891353803 0 0.0062659846192330117 0.07933954083081339 0 0.0091194909872252539 0.07755221174783862 0 0.0062659846192330117 0.07933954083081339 0 0.010046584638328811 0.08086381453703323 0 0.011911672201285622 0.078256211555741001 0 0.0091194909872252539 0.07755221174783862 0 0.010046584638328811 0.08086381453703323 0 0.011911672201285622 0.078256211555741001 0 0.0091194909872252539 0.07755221174783862 0 0.01094928291607037 0.075217799908612826 0 0.0091194909872252539 0.07755221174783862 0 0.0064123171654483155 0.076919122891353803 0 0.008113966439804797 0.07484333825033937 0 0.0064123171654483155 0.076919122891353803 0 0.0042645408123930407 0.075888738990155899 0 0.0059724167055260121 0.074863288502534292 0 0.0064123171654483155 0.076919122891353803 0 0.0042645408123930407 0.075888738990155899 0 0.0035508716328066063 0.078414936339278915 0 0.0042645408123930407 0.075888738990155899 0 0.0035508716328066063 0.078414936339278915 0 0.0024991428878872791 0.076435324103507646 0 0.0064123171654483155 0.076919122891353803 0 0.0035508716328066063 0.078414936339278915 0 0.0062659846192330117 0.07933954083081339 0 0.0062659846192330117 0.07933954083081339 0 0.004635311370407097 0.080533181795079553 0 0.0082945198424966213 0.081286803707224811 0 0.0035508716328066063 0.078414936339278915 0 0.004635311370407097 0.080533181795079553 0 0.001754813495542445 0.079538285072584841 0 0.0035508716328066063 0.078414936339278915 0 0.0062659846192330117 0.07933954083081339 0 0.004635311370407097 0.080533181795079553 0 0.004635311370407097 0.080533181795079553 0 0.0054658513496126798 0.083352557135407526 0 0.001872707833210625 0.083157152490379582 0 0.004635311370407097 0.080533181795079553 0 0.0082945198424966213 0.081286803707224811 0 0.0054658513496126798 0.083352557135407526 0 0.0062659846192330117 0.07933954083081339 0 0.0082535185650442384 0.084336872314447114 0 0.010046584638328811 0.08086381453703323 0 0.0077571035181163315 0.081644401729106003 0 0.008777417486192006 0.083289840165456624 0 0.0082535185650442384 0.084336872314447114 0 0.010046584638328811 0.08086381453703323 0 0.01126056425947454 0.084151162024792933 0 0.013398778927846137 0.082197741944241065 0 0.010046584638328811 0.08086381453703323 0 0.01126056425947454 0.084151162024792933 0 0.013209612786273467 0.086699440586086432 0 0.01126056425947454 0.084151162024792933 0 0.011071145446227927 0.088350988619659621 0 0.0082535185650442384 0.084336872314447114 0 0.01126056425947454 0.084151162024792933 0 0.011071145446227927 0.088350988619659621 0 0.008777417486192006 0.083289840165456624 0 0.010555520767235605 0.086069239824493909 0 0.0082945198424966213 0.081286803707224811 0 0.0080165524381249648 0.085031773281096734 0 0.0054658513496126798 0.083352557135407526 0 0.0082945198424966213 0.081286803707224811 0 0.010946148059839185 0.084938296456742932 0 0.0080165524381249648 0.085031773281096734 0 0.010946148059839185 0.084938296456742932 0 0.0080165524381249648 0.085031773281096734 0 0.009156744535602215 0.089248117330088417 0 0.0080165524381249648 0.085031773281096734 0 0.009156744535602215 0.089248117330088417 0 0.0062734728591733232 0.086877665054472211 0 0.011558941768123665 0.087633709101255258 0 0.010555520767235605 0.086069239824493909 0 0.013150605260254262 0.089743768881374461 0 0.010946148059839185 0.084938296456742932 0 0.009156744535602215 0.089248117330088417 0 0.013150605260254262 0.089743768881374461 0 0.009156744535602215 0.089248117330088417 0 0.011967380804063963 0.091382033199180104 0 0.0075332936487934763 0.093570386663601943 0 0.009156744535602215 0.089248117330088417 0 0.010247940848914847 0.092812476896234189 0 0.009156744535602215 0.089248117330088417 0 0.010247940848914847 0.092812476896234189 0 0.011967380804063963 0.091382033199180104 0 0.011969042920278082 0.093646105271743788 0 0.010247940848914847 0.092812476896234189 0 0.011967380804063963 0.091382033199180104 0 0.002857492867432435 0.088506297003031822 0 0.0041063362880208974 0.086343078560003519 0 0.0012052893829890951 0.08649498194245199 0 0.0075332936487934763 0.093570386663601943 0 0.009156744535602215 0.089248117330088417 0 0.0053952402943408459 0.090565193186873796 0 0.0041812727739856835 0.089882901739237936 0 0.0040267076215695719 0.088499104508512921 0 0.002857492867432435 0.088506297003031822 0 0.0053285095895065143 0.088137552718301287 0 0.0041063362880208974 0.086343078560003519 0 0.0053952402943408459 0.090565193186873796 0 0.0033996346915535101 0.087018763857240181 0 0.0062734728591733232 0.086877665054472211 0 0.009156744535602215 0.089248117330088417 0 0.0053952402943408459 0.090565193186873796 0 0.0062734728591733232 0.086877665054472211 0 0.0041063362880208974 0.086343078560003519 0 0.0028688532353498561 0.084551626752330841 0 0.0012052893829890951 0.08649498194245199 0 0.0040267076215695719 0.088499104508512921 0 0.0031126718412736974 0.086539331838348332 0 0.0033996346915535101 0.087018763857240181 0 0.0062734728591733232 0.086877665054472211 0 0.0054658513496126798 0.083352557135407526 0 0.0080165524381249648 0.085031773281096734 0 0.0062734728591733232 0.086877665054472211 0 0.0054658513496126798 0.083352557135407526 0 0.0033996346915535101 0.087018763857240181 0 0.0054658513496126798 0.083352557135407526 0 0.001872707833210625 0.083157152490379582 0 0.001872707833210625 0.083157152490379582 0 -0.0013157330925659145 0.082989876667319995 0 -0.0002401086018641527 0.081268239283592156 0 0.001872707833210625 0.083157152490379582 0 0.00072520251729595009 0.08450930706821691 0 -0.0013157330925659145 0.082989876667319995 0 0.0028688532353498561 0.084551626752330841 0 0.001872707833210625 0.083157152490379582 0 0.00072520251729595009 0.08450930706821691 0 0.0031126718412736974 0.086539331838348332 0 0.0025315625859943462 0.085453865635376672 0 0.0028688532353498561 0.084551626752330841 0 0.00072520251729595009 0.08450930706821691 0 0.0012052893829890951 0.08649498194245199 0 0.00072520251729595009 0.08450930706821691 0 0.0012052893829890951 0.08649498194245199 0 -0.0014904566030027723 0.085056675853373898 0 0.0001950898627269518 0.089053341127854541 0 0.0012052893829890951 0.08649498194245199 0 -0.001717522450329392 0.087343495652214082 0 0.0012052893829890951 0.08649498194245199 0 -0.001717522450329392 0.087343495652214082 0 -0.0014904566030027723 0.085056675853373898 0 -0.0044078196334870158 0.087742367563011195 0 -0.0043845365543025774 0.086465047264578182 0 -0.0027737978234770207 0.086714035015750965 0 -0.0043845365543025774 0.086465047264578182 0 -0.0027737978234770207 0.086714035015750965 0 -0.0040577814233023835 0.085220910175177661 0 -0.0011532768511316801 0.085721435232865795 0 -0.0021448950069352926 0.085278129831820329 0 -0.001717522450329392 0.087343495652214082 0 -0.0014904566030027723 0.085056675853373898 0 -0.0040577814233023835 0.085220910175177661 0 -0.0014904566030027723 0.085056675853373898 0 -0.0040577814233023835 0.085220910175177661 0 -0.0044681644678545816 0.083628351757612004 0 -0.0013157330925659145 0.082989876667319995 0 -0.00319449583049875 0.081340648944114025 0 -0.004056730668587887 0.083164979887622351 0 -0.003070821808212873 0.083110613592508556 0 -0.0044728956499697319 0.083463522214739891 0 -0.0014904566030027723 0.085056675853373898 0 -0.0013157330925659145 0.082989876667319995 0 -0.0044681644678545816 0.083628351757612004 0 0.00072520251729595009 0.08450930706821691 0 -0.0014904566030027723 0.085056675853373898 0 -0.0013157330925659145 0.082989876667319995 0 -0.0013157330925659145 0.082989876667319995 0 -0.00319449583049875 0.081340648944114025 0 -0.0002401086018641527 0.081268239283592156 0 -0.00319449583049875 0.081340648944114025 0 -0.0024758835413146198 0.078491256699261977 0 -0.0057098926081750713 0.080040821970707721 0 -0.00319449583049875 0.081340648944114025 0 -0.0024758835413146198 0.078491256699261977 0 -0.0002401086018641527 0.081268239283592156 0 -0.0024758835413146198 0.078491256699261977 0 0.001754813495542445 0.079538285072584841 0 0.00035653518774819736 0.075179430836886885 0 -0.0024758835413146198 0.078491256699261977 0 -0.0002401086018641527 0.081268239283592156 0 0.001754813495542445 0.079538285072584841 0 0.001872707833210625 0.083157152490379582 0 -0.0002401086018641527 0.081268239283592156 0 0.001754813495542445 0.079538285072584841 0 0.004635311370407097 0.080533181795079553 0 0.001872707833210625 0.083157152490379582 0 0.001754813495542445 0.079538285072584841 0 0.00073476846996108514 0.077724792243438173 0 -0.00014298268721594319 0.076208049651684123 0 0.0035508716328066063 0.078414936339278915 0 0.001754813495542445 0.079538285072584841 0 0.00039851357386989515 0.077417181114079373 0 0.0035508716328066063 0.078414936339278915 0 0.00039851357386989515 0.077417181114079373 0 0.0024991428878872791 0.076435324103507646 0 0.0042645408123930407 0.075888738990155899 0 0.0024991428878872791 0.076435324103507646 0 0.0029061937435972437 0.074817830550693756 0 0.00039851357386989515 0.077417181114079373 0 0.0024991428878872791 0.076435324103507646 0 0.0013202256957025214 0.075149487652996116 0 0.00039851357386989515 0.077417181114079373 0 0.00011460570562632772 0.075075575467628081 0 0.0013202256957025214 0.075149487652996116 0 0.00039851357386989515 0.077417181114079373 0 -0.0012143891751150988 0.074629712539735479 0 0.00011460570562632772 0.075075575467628081 0 -0.00014298268721594319 0.076208049651684123 0 -0.0016036483037005069 0.074232720953499504 0 -0.0028113353508516883 0.073044075155445295 0 -0.0018878720917500493 0.075057580464924417 0 -0.0013131180598425767 0.071318454923215133 0 0.00035653518774819736 0.075179430836886885 0 -0.0018878720917500493 0.075057580464924417 0 -0.0013131180598425767 0.071318454923215133 0 -0.0028113353508516883 0.073044075155445295 0 -0.0040772092263010361 0.07553357437872768 0 -0.0018878720917500493 0.075057580464924417 0 -0.0028113353508516883 0.073044075155445295 0 -0.0040772092263010361 0.07553357437872768 0 -0.0048689050978427129 0.07217033881022171 0 -0.0024758835413146198 0.078491256699261977 0 -0.0040772092263010361 0.07553357437872768 0 -0.0018878720917500493 0.075057580464924417 0 -0.0024758835413146198 0.078491256699261977 0 0.00035653518774819736 0.075179430836886885 0 -0.0018878720917500493 0.075057580464924417 0 -0.0059745378936206534 0.064178103280800397 0 -0.0061373567085622844 0.064016083377360519 0 -0.0059956010424639453 0.063453330419184939 0 -0.0062739604923825604 0.063791969725111586 0 -0.0061808175409834056 0.064251486276302616 0 -0.006784934445584939 0.06345292441059909 0 -0.0062468593570221978 0.064516655674448531 0 -0.0061808175409834056 0.064251486276302616 0 -0.006784934445584939 0.06345292441059909 0 -0.0062739604923825604 0.063791969725111586 0 -0.0059956010424639453 0.063453330419184939 0 -0.006784934445584939 0.06345292441059909 0 -0.0061373567085622844 0.064016083377360519 0 -0.0062739604923825604 0.063791969725111586 0 -0.0061808175409834056 0.064251486276302616 0 -0.0010163417186083168 0.077063870524078981 0 -0.0010981370254438279 0.076948677821308736 0 -0.0059745378936206534 0.064178103280800397 0 -0.0061373567085622844 0.064016083377360519 0 -0.0061808175409834056 0.064251486276302616 0 -0.0061373567085622844 0.064016083377360519 0 -0.0062739604923825604 0.063791969725111586 0 -0.0059956010424639453 0.063453330419184939 0 -0.0016036483037005069 0.074232720953499504 0 -0.0048418357041834651 0.066830784207034782 0 -0.0039212286885653477 0.069799965357410051 0 -0.00079513167969627412 0.070645065465967397 0 -0.0030269923741312516 0.06683622225980701 0 -0.0039212286885653477 0.069799965357410051 0 -0.003150611319695581 0.071435329259887312 0 -0.00079513167969627412 0.070645065465967397 0 -0.0028113353508516883 0.073044075155445295 0 -0.003150611319695581 0.071435329259887312 0 -0.0048689050978427129 0.07217033881022171 0 -0.0039212286885653477 0.069799965357410051 0 -0.003150611319695581 0.071435329259887312 0 -0.0048689050978427129 0.07217033881022171 0 -0.0028113353508516883 0.073044075155445295 0 -0.003150611319695581 0.071435329259887312 0 -0.00079513167969627412 0.070645065465967397 0 -0.0015091261458955588 0.073832589133021792 0 -0.0016036483037005069 0.074232720953499504 0 -0.00054038768664865582 0.073839626191411906 0 -0.0012143891751150988 0.074629712539735479 0 0.00011460570562632772 0.075075575467628081 0 -0.0059577296422635212 0.064193205919435128 0 -0.0062468593570221978 0.064516655674448531 0 -0.0061808175409834056 0.064251486276302616 0 -0.0010163417186083168 0.077063870524078981 0 -0.0016036483037005069 0.074232720953499504 0 -0.00054038768664865582 0.073839626191411906 0 0.0013202256957025214 0.075149487652996116 0 0.0022932567894281067 0.072874497111421757 0 -0.00054038768664865582 0.073839626191411906 0 0.00011460570562632772 0.075075575467628081 0 0.0013202256957025214 0.075149487652996116 0 0.0013202256957025214 0.075149487652996116 0 0.0029061937435972437 0.074817830550693756 0 0.0022932567894281067 0.072874497111421757 0 0.0024991428878872791 0.076435324103507646 0 0.0013202256957025214 0.075149487652996116 0 0.0029061937435972437 0.074817830550693756 0 0.0029061937435972437 0.074817830550693756 0 0.0022932567894281067 0.072874497111421757 0 0.0042413328509945765 0.073711253848793984 0 -0.0059745378936206534 0.064178103280800397 0 -0.00529225389172261 0.063294735359448726 0 -0.0059956010424639453 0.063453330419184939 0 0.0030387750292498578 0.091584341427544874 0 -0.00025503278157167932 0.092666988962971111 0 0.00088148812187582978 0.094144281190302742 0 -0.0010163417186083168 0.077063870524078981 0 0.00050758976853693366 0.080956257568307322 0 -0.0010163417186083168 0.077063870524078981 0 -0.001742244441771286 0.079616092537116406 0 -0.00529225389172261 0.063294735359448726 0 -0.0056928773015341699 0.062908592233413593 0 -0.0059956010424639453 0.063453330419184939 0 -0.00529225389172261 0.063294735359448726 0 -0.0051382079057240319 0.062643660895012762 0 -0.0053522865961133145 0.062848814755977089 0 -0.00529225389172261 0.063294735359448726 0 -0.0056928773015341699 0.062908592233413593 0 -0.0053522865961133145 0.062848814755977089 0 0.00088148812187582978 0.094144281190302742 0 -0.0012630681805681835 0.094269249727122403 0 -0.00099714356238707054 0.09501684599708142 0 -0.001742244441771286 0.079616092537116406 0 -0.0028898490388066054 0.083545546008372398 0 -0.00025503278157167932 0.092666988962971111 0 0.00088148812187582978 0.094144281190302742 0 -0.0012630681805681835 0.094269249727122403 0 0.00088148812187582978 0.094144281190302742 0 -0.00099714356238707054 0.09501684599708142 0 -0.0012482216699761693 0.09636529148815931 0 0.00088148812187582978 0.094144281190302742 0 -0.0012376379957704006 0.09654830522246842 0 -0.0012482216699761693 0.09636529148815931 0 -0.00529225389172261 0.063294735359448726 0 -0.0051382079057240319 0.062643660895012762 0 -0.0046481121718474697 0.062488970624952976 0 -0.0051382079057240319 0.062643660895012762 0 -0.0052197782407211232 0.062303014936678093 0 -0.0049751367352033078 0.062304374527975506 0 -0.0051382079057240319 0.062643660895012762 0 -0.0049751367352033078 0.062304374527975506 0 -0.0046481121718474697 0.062488970624952976 0 -0.0028898490388066054 0.083545546008372398 0 -0.0028859425802939291 0.083593977244508233 0 -0.0056928773015341699 0.062908592233413593 0 -0.0054186895163859869 0.062551851079082635 0 -0.0058672893071261322 0.062404698680247964 0 -0.0056928773015341699 0.062908592233413593 0 -0.0053522865961133145 0.062848814755977089 0 -0.0054186895163859869 0.062551851079082635 0 -0.0051382079057240319 0.062643660895012762 0 -0.0053522865961133145 0.062848814755977089 0 -0.0054186895163859869 0.062551851079082635 0 -0.0052197782407211232 0.062303014936678093 0 -0.0054186895163859869 0.062551851079082635 0 -0.005495462298798129 0.062112690205127233 0 -0.0051382079057240319 0.062643660895012762 0 -0.0052197782407211232 0.062303014936678093 0 -0.0054186895163859869 0.062551851079082635 0 -0.0054186895163859869 0.062551851079082635 0 -0.0058672893071261322 0.062404698680247964 0 -0.005495462298798129 0.062112690205127233 0 -0.0056928773015341699 0.062908592233413593 0 -0.0063344475808520201 0.062787308412964316 0 -0.0058672893071261322 0.062404698680247964 0 -0.0063344475808520201 0.062787308412964316 0 -0.0058672893071261322 0.062404698680247964 0 -0.0064310566269839813 0.062070222679607871 0 -0.0056928773015341699 0.062908592233413593 0 -0.0063344475808520201 0.062787308412964316 0 -0.0059956010424639453 0.063453330419184939 0 -0.0063344475808520201 0.062787308412964316 0 -0.0059956010424639453 0.063453330419184939 0 -0.006784934445584939 0.06345292441059909 0 -0.0048418357041834651 0.066830784207034782 0 -0.0061819376942986275 0.063891838118285874 0 -0.0063344475808520201 0.062787308412964316 0 -0.006784934445584939 0.06345292441059909 0 -0.0072590029745648842 0.062389687583704216 0 -0.0063344475808520201 0.062787308412964316 0 -0.0064310566269839813 0.062070222679607871 0 -0.0072590029745648842 0.062389687583704216 0 -0.0069269498465285911 0.061521469706569049 0 -0.0064310566269839813 0.062070222679607871 0 -0.0072590029745648842 0.062389687583704216 0 -0.0069269498465285911 0.061521469706569049 0 -0.0064310566269839813 0.062070222679607871 0 -0.0062558292486997952 0.061346937934667702 0 -0.0059284193078866709 0.06190965671000416 0 -0.0064310566269839813 0.062070222679607871 0 -0.0062558292486997952 0.061346937934667702 0 -0.0059284193078866709 0.06190965671000416 0 -0.0062558292486997952 0.061346937934667702 0 -0.0055299893288063241 0.061501857229437795 0 -0.0058672893071261322 0.062404698680247964 0 -0.0059284193078866709 0.06190965671000416 0 -0.0064310566269839813 0.062070222679607871 0 -0.0062558292486997952 0.061346937934667702 0 -0.0068145033452353971 0.060768750511990224 0 -0.0062731762573316032 0.060734316164610308 0 -0.0062558292486997952 0.061346937934667702 0 -0.0062731762573316032 0.060734316164610308 0 -0.0058442806086849422 0.060974297658064752 0 -0.0069269498465285911 0.061521469706569049 0 -0.0062558292486997952 0.061346937934667702 0 -0.0068145033452353971 0.060768750511990224 0 -0.0069269498465285911 0.061521469706569049 0 -0.0068145033452353971 0.060768750511990224 0 -0.0074109594836667004 0.060860528824175072 0 -0.0068145033452353971 0.060768750511990224 0 -0.0065575843407057388 0.060090067221619005 0 -0.0077657692211564799 0.060266602941046687 0 -0.0083768838182903173 0.07623847507805831 0 -0.0077368613480765496 0.0735488584042856 0 -0.0068145033452353971 0.060768750511990224 0 -0.0062731762573316032 0.060734316164610308 0 -0.0066023619148067036 0.060348417928777993 0 -0.0072670329218382269 0.072486078629726447 0 -0.0083768838182903173 0.07623847507805831 0 -0.0062731762573316032 0.060734316164610308 0 -0.0057393732608594676 0.060293981388092457 0 -0.0058442806086849422 0.060974297658064752 0 -0.0062731762573316032 0.060734316164610308 0 -0.0066023619148067036 0.060348417928777993 0 -0.0057393732608594676 0.060293981388092457 0 -0.022749917399850269 0.10181824171348756 0 -0.02416456691434234 0.10319841055250202 0 -0.02183693790831235 0.10298716335092062 0 -0.0083768838182903173 0.07623847507805831 0 -0.012022335851706549 0.08332589092887735 0 -0.011744305957531594 0.06449976011914775 0 -0.011992883392455344 0.060213779592373999 0 -0.015650489151143233 0.068475203674449328 0 -0.022749917399850269 0.10181824171348756 0 -0.02416456691434234 0.10319841055250202 0 -0.023349020719132405 0.10057128249133095 0 -0.0083768838182903173 0.07623847507805831 0 -0.015602051258095724 0.084255854687773385 0 -0.0094612021680074449 0.061948857088032439 0 -0.011992883392455344 0.060213779592373999 0 -0.0077657692211564799 0.060266602941046687 0 -0.011744305957531594 0.06449976011914775 0 -0.0094612021680074449 0.061948857088032439 0 -0.010390518531463879 0.065356281452453535 0 -0.011744305957531594 0.06449976011914775 0 -0.0094612021680074449 0.061948857088032439 0 -0.011992883392455344 0.060213779592373999 0 -0.019257584514350095 0.10267886401928443 0 -0.02183693790831235 0.10298716335092062 0 -0.020542818194825913 0.10121520066288765 0 -0.012188764256354784 0.090803906480692739 0 -0.012022335851706549 0.08332589092887735 0 -0.02183693790831235 0.10298716335092062 0 -0.021791045181501167 0.10139783707613893 0 -0.020542818194825913 0.10121520066288765 0 -0.022749917399850269 0.10181824171348756 0 -0.02183693790831235 0.10298716335092062 0 -0.021791045181501167 0.10139783707613893 0 -0.0048948318676242863 0.060246146240756394 0 -0.0057393732608594676 0.060293981388092457 0 -0.0053554504884940294 0.060863471141452567 0 -0.0057393732608594676 0.060293981388092457 0 -0.0058442806086849422 0.060974297658064752 0 -0.0053554504884940294 0.060863471141452567 0 -0.0048948318676242863 0.060246146240756394 0 -0.0053554504884940294 0.060863471141452567 0 -0.0047769715967063602 0.061326239854240336 0 -0.012188764256354784 0.090803906480692739 0 -0.0066924063678532857 0.082478341450253762 0 -0.0053554504884940294 0.060863471141452567 0 -0.0047769715967063602 0.061326239854240336 0 -0.0055299893288063241 0.061501857229437795 0 -0.0047769715967063602 0.061326239854240336 0 -0.0055299893288063241 0.061501857229437795 0 -0.0050744308791856613 0.061912363357815345 0 -0.0058442806086849422 0.060974297658064752 0 -0.0053554504884940294 0.060863471141452567 0 -0.0055299893288063241 0.061501857229437795 0 -0.0062558292486997952 0.061346937934667702 0 -0.0058442806086849422 0.060974297658064752 0 -0.0055299893288063241 0.061501857229437795 0 -0.0059284193078866709 0.06190965671000416 0 -0.0055299893288063241 0.061501857229437795 0 -0.005495462298798129 0.062112690205127233 0 -0.0055299893288063241 0.061501857229437795 0 -0.005495462298798129 0.062112690205127233 0 -0.0050744308791856613 0.061912363357815345 0 -0.0052197782407211232 0.062303014936678093 0 -0.005495462298798129 0.062112690205127233 0 -0.0050744308791856613 0.061912363357815345 0 -0.0058672893071261322 0.062404698680247964 0 -0.0059284193078866709 0.06190965671000416 0 -0.005495462298798129 0.062112690205127233 0 -0.0028898490388066054 0.083545546008372398 0 -0.0066924063678532857 0.082478341450253762 0 -0.0046481121718474697 0.062488970624952976 0 -0.0047769715967063602 0.061326239854240336 0 -0.0050744308791856613 0.061912363357815345 0 -0.0052197782407211232 0.062303014936678093 0 -0.0049751367352033078 0.062304374527975506 0 -0.0050744308791856613 0.061912363357815345 0 -0.0049751367352033078 0.062304374527975506 0 -0.0046481121718474697 0.062488970624952976 0 -0.0050744308791856613 0.061912363357815345 0 -0.0031178390585407082 0.098065691935975641 0 -0.0030520783575370886 0.099720741445116459 0 -0.003819465137125503 0.098907118660161178 0 -0.0028898490388066054 0.083545546008372398 0 -0.0056996130581740238 0.091233651542174776 0 -0.0043016370974557454 0.097613634663242549 0 -0.0051220474597240637 0.097510049995926926 0 -0.0049756341111417083 0.096580906640220732 0 -0.0027312792640364889 0.098196769462169903 0 -0.0043016370974557454 0.097613634663242549 0 -0.0029164404219317284 0.096562401188941466 0 -0.0027312792640364889 0.098196769462169903 0 -0.0043016370974557454 0.097613634663242549 0 -0.0044924870411539586 0.098672292567711262 0 -0.0027312792640364889 0.098196769462169903 0 -0.0044924870411539586 0.098672292567711262 0 -0.004365137848165712 0.099723217746222115 0 -0.0043016370974557454 0.097613634663242549 0 -0.0044924870411539586 0.098672292567711262 0 -0.0052326278935504464 0.098321548111164933 0 -0.0044924870411539586 0.098672292567711262 0 -0.004365137848165712 0.099723217746222115 0 -0.0053618182341994575 0.099142618887971393 0 -0.003819465137125503 0.098907118660161178 0 -0.004365137848165712 0.099723217746222115 0 -0.0038045736747849483 0.099708995429974523 0 -0.0056996130581740238 0.091233651542174776 0 -0.0063826907179291553 0.093361079946130313 0 -0.004365137848165712 0.099723217746222115 0 -0.0038045736747849483 0.099708995429974523 0 -0.0045562283264034276 0.10061068413713931 0 -0.004365137848165712 0.099723217746222115 0 -0.0045562283264034276 0.10061068413713931 0 -0.0050566457807162532 0.10002589102102227 0 -0.0030520783575370886 0.099720741445116459 0 -0.003819465137125503 0.098907118660161178 0 -0.0038045736747849483 0.099708995429974523 0 -0.0030520783575370886 0.099720741445116459 0 -0.0038045736747849483 0.099708995429974523 0 -0.0038274560715520827 0.10057760281882069 0 -0.0030044730834923638 0.10142237686488584 0 -0.0030520783575370886 0.099720741445116459 0 -0.0038274560715520827 0.10057760281882069 0 -0.0038274560715520827 0.10057760281882069 0 -0.0045562283264034276 0.10061068413713931 0 -0.0047729071633349739 0.10155618173567565 0 -0.0038045736747849483 0.099708995429974523 0 -0.0038274560715520827 0.10057760281882069 0 -0.0045562283264034276 0.10061068413713931 0 -0.0047729071633349739 0.10155618173567565 0 -0.0048322899429626949 0.10150704365755125 0 -0.0048495833525504005 0.10128659559046715 0 -0.0045562283264034276 0.10061068413713931 0 -0.0047729071633349739 0.10155618173567565 0 -0.0048322899429626949 0.10150704365755125 0 -0.0060580556183966435 0.10172607453149687 0 -0.0047729071633349739 0.10155618173567565 0 -0.0054701922897257534 0.10103755081431637 0 -0.012188764256354784 0.090803906480692739 0 -0.0078311931917307114 0.093141493154085736 0 -0.0030044730834923638 0.10142237686488584 0 -0.0038274560715520827 0.10057760281882069 0 -0.0047729071633349739 0.10155618173567565 0 -0.0037354083248454174 0.10234593030848517 0 -0.0031551213487977544 0.10255279048665661 0 -0.0037616459005128723 0.10182529797707872 0 -0.0037354083248454174 0.10234593030848517 0 -0.0043020467386169449 0.10318669952758232 0 -0.0031551213487977544 0.10255279048665661 0 -0.002610053092283785 0.10270484785459619 0 -0.0028918794992300579 0.10245106040161844 0 -0.0048322899429626949 0.10150704365755125 0 -0.0053490500422296791 0.10103454390645096 0 -0.00441227383751178 0.10175566271131949 0 -0.0043356001177008536 0.10136826562825918 0 -0.0043773178020853672 0.10148720694090241 0 -0.0037354083248454174 0.10234593030848517 0 -0.0043020467386169449 0.10318669952758232 0 -0.00441227383751178 0.10175566271131949 0 -0.0045562283264034276 0.10061068413713931 0 -0.0053490500422296791 0.10103454390645096 0 -0.0050566457807162532 0.10002589102102227 0 -0.0045562283264034276 0.10061068413713931 0 -0.0048322899429626949 0.10150704365755125 0 -0.0053490500422296791 0.10103454390645096 0 -0.0043020467386169449 0.10318669952758232 0 -0.003379639736118586 0.10393089345140821 0 -0.0031551213487977544 0.10255279048665661 0 -0.0043020467386169449 0.10318669952758232 0 -0.003379639736118586 0.10393089345140821 0 -0.0043260686996945659 0.10438806255811746 0 -0.0059394232643892797 0.096358261380090904 0 -0.0060391857046847427 0.096608803011995356 0 -0.0057438543723054526 0.096743914701286612 0 -0.0037808510768518387 0.10111166856326552 0 -0.0040561608668892284 0.10011730951671635 0 -0.0059394232643892797 0.096358261380090904 0 -0.0062370836972286516 0.096605105221284154 0 -0.0060391857046847427 0.096608803011995356 0 -0.0043356001177008536 0.10136826562825918 0 -0.0040561608668892284 0.10011730951671635 0 -0.0053490500422296791 0.10103454390645096 0 -0.0050566457807162532 0.10002589102102227 0 -0.005709554148713848 0.09941018026498448 0 -0.0040561608668892284 0.10011730951671635 0 -0.0041083460149956043 0.10011935989668899 0 -0.004365137848165712 0.099723217746222115 0 -0.0050566457807162532 0.10002589102102227 0 -0.0053618182341994575 0.099142618887971393 0 -0.0050566457807162532 0.10002589102102227 0 -0.005709554148713848 0.09941018026498448 0 -0.0053618182341994575 0.099142618887971393 0 -0.0059878336184889282 0.099443137580803101 0 -0.0052326278935504464 0.098321548111164933 0 -0.0060029715549264947 0.097520059715833177 0 -0.0062370836972286516 0.096605105221284154 0 -0.0060360128999100955 0.096706546449382508 0 -0.006164449273038883 0.096692328813437645 0 -0.0040561608668892284 0.10011730951671635 0 -0.0045148309975746193 0.098154706749135151 0 -0.0059878336184889282 0.099443137580803101 0 -0.0053618182341994575 0.099142618887971393 0 -0.0052326278935504464 0.098321548111164933 0 -0.0044924870411539586 0.098672292567711262 0 -0.0053618182341994575 0.099142618887971393 0 -0.0052326278935504464 0.098321548111164933 0 -0.0060360128999100955 0.096706546449382508 0 -0.006164449273038883 0.096692328813437645 0 -0.0062279121441290866 0.096743792396180722 0 -0.0043016370974557454 0.097613634663242549 0 -0.0052326278935504464 0.098321548111164933 0 -0.0051220474597240637 0.097510049995926926 0 -0.0052326278935504464 0.098321548111164933 0 -0.0060029715549264947 0.097520059715833177 0 -0.0051220474597240637 0.097510049995926926 0 -0.0060391857046847427 0.096608803011995356 0 -0.0061005776107830884 0.096710769818601897 0 -0.0059693282795486701 0.096791094655318585 0 -0.0060391857046847427 0.096608803011995356 0 -0.0059693282795486701 0.096791094655318585 0 -0.0057438543723054526 0.096743914701286612 0 -0.0062370836972286516 0.096605105221284154 0 -0.0060391857046847427 0.096608803011995356 0 -0.006164449273038883 0.096692328813437645 0 -0.0060391857046847427 0.096608803011995356 0 -0.006164449273038883 0.096692328813437645 0 -0.0061005776107830884 0.096710769818601897 0 -0.0061005776107830884 0.096710769818601897 0 -0.0062279121441290866 0.096743792396180722 0 -0.0059693282795486701 0.096791094655318585 0 -0.006164449273038883 0.096692328813437645 0 -0.0061005776107830884 0.096710769818601897 0 -0.0062279121441290866 0.096743792396180722 0 -0.0062279121441290866 0.096743792396180722 0 -0.0059693282795486701 0.096791094655318585 0 -0.0057102852260032142 0.097227423910473496 0 -0.0062279121441290866 0.096743792396180722 0 -0.0064015886814945194 0.095959658980130244 0 -0.0078749086953254603 0.095625590596033677 0 -0.0064015886814945194 0.095959658980130244 0 -0.0061190625521667253 0.09493520241515728 0 -0.0078749086953254603 0.095625590596033677 0 -0.0032516254140280872 0.094359171209951229 0 -0.00016965688265314582 0.094929273928524557 0 0.0089702551806854335 0.070385229402366078 0 0.011893088193326842 0.071076484767357145 0 0.012700893462229489 0.069263227305885716 0 0.0020139823202662138 0.087264576869737168 0 -0.00016965688265314582 0.094929273928524557 0 0.010163882810649871 0.071634524699193791 0 0.0089702551806854335 0.070385229402366078 0 0.011893088193326842 0.071076484767357145 0 -0.0061190625521667253 0.09493520241515728 0 -0.0058634747680662899 0.095594004035803731 0 -0.0044022012882974091 0.095150610642057515 0 0.0089702551806854335 0.070385229402366078 0 0.005405277521672241 0.071664129267590415 0 0.0081631322198277532 0.071897768906760154 0 0.010163882810649871 0.071634524699193791 0 0.0089702551806854335 0.070385229402366078 0 0.0081631322198277532 0.071897768906760154 0 -0.0060360128999100955 0.096706546449382508 0 -0.0064015886814945194 0.095959658980130244 0 -0.0058634747680662899 0.095594004035803731 0 -0.0058634747680662899 0.095594004035803731 0 -0.0049756341111417083 0.096580906640220732 0 -0.0044022012882974091 0.095150610642057515 0 -0.0060029715549264947 0.097520059715833177 0 -0.0058634747680662899 0.095594004035803731 0 -0.0049756341111417083 0.096580906640220732 0 -0.0045148309975746193 0.098154706749135151 0 -0.0046486950017066361 0.097442273613806821 0 -0.0064015886814945194 0.095959658980130244 0 -0.0061190625521667253 0.09493520241515728 0 -0.0058634747680662899 0.095594004035803731 0 -0.0060360128999100955 0.096706546449382508 0 -0.0062279121441290866 0.096743792396180722 0 -0.0064015886814945194 0.095959658980130244 0 -0.0060029715549264947 0.097520059715833177 0 -0.0051220474597240637 0.097510049995926926 0 -0.0049756341111417083 0.096580906640220732 0 -0.0029164404219317284 0.096562401188941466 0 -0.0023320506227615112 0.095288764262320705 0 -0.0044022012882974091 0.095150610642057515 0 -0.0049756341111417083 0.096580906640220732 0 -0.0029164404219317284 0.096562401188941466 0 -0.0044022012882974091 0.095150610642057515 0 -0.0043016370974557454 0.097613634663242549 0 -0.0049756341111417083 0.096580906640220732 0 -0.0029164404219317284 0.096562401188941466 0 -0.0012393311490381904 0.096539672454302033 0 -0.0012482216699761693 0.09636529148815931 0 -0.0029164404219317284 0.096562401188941466 0 -0.0012393311490381904 0.096539672454302033 0 -0.0027312792640364889 0.098196769462169903 0 -0.0029164404219317284 0.096562401188941466 0 -0.00099714356238707054 0.09501684599708142 0 -0.0012482216699761693 0.09636529148815931 0 -0.0023320506227615112 0.095288764262320705 0 -0.0012482216699761693 0.09636529148815931 0 -0.0029164404219317284 0.096562401188941466 0 -0.0023320506227615112 0.095288764262320705 0 -0.0012630681805681835 0.094269249727122403 0 -0.0023320506227615112 0.095288764262320705 0 -0.0033816811458651907 0.093794533090270513 0 -0.00025503278157167932 0.092666988962971111 0 -0.0012630681805681835 0.094269249727122403 0 -0.0033816811458651907 0.093794533090270513 0 -0.0012630681805681835 0.094269249727122403 0 -0.00099714356238707054 0.09501684599708142 0 -0.0023320506227615112 0.095288764262320705 0 0.0020139823202662138 0.087264576869737168 0 0.0013747392117088508 0.083710087167698816 0 -0.0023320506227615112 0.095288764262320705 0 -0.0033816811458651907 0.093794533090270513 0 -0.0044022012882974091 0.095150610642057515 0 -0.0061190625521667253 0.09493520241515728 0 -0.0033816811458651907 0.093794533090270513 0 -0.0044022012882974091 0.095150610642057515 0 0.005405277521672241 0.071664129267590415 0 0.0068778837767122019 0.073209940079319719 0 0.0081631322198277532 0.071897768906760154 0 0.005405277521672241 0.071664129267590415 0 0.0068778837767122019 0.073209940079319719 0 0.0042413328509945765 0.073711253848793984 0 0.00050758976853693366 0.080956257568307322 0 0.0013747392117088508 0.083710087167698816 0 0.0022932567894281067 0.072874497111421757 0 0.005405277521672241 0.071664129267590415 0 0.0042413328509945765 0.073711253848793984 0 0.0042645408123930407 0.075888738990155899 0 0.0029061937435972437 0.074817830550693756 0 0.0042413328509945765 0.073711253848793984 0 0.0042645408123930407 0.075888738990155899 0 0.0042413328509945765 0.073711253848793984 0 0.0059724167055260121 0.074863288502534292 0 0.0064123171654483155 0.076919122891353803 0 0.0059724167055260121 0.074863288502534292 0 0.008113966439804797 0.07484333825033937 0 0.0068778837767122019 0.073209940079319719 0 0.0042413328509945765 0.073711253848793984 0 0.0059724167055260121 0.074863288502534292 0 0.0068778837767122019 0.073209940079319719 0 0.0059724167055260121 0.074863288502534292 0 0.008113966439804797 0.07484333825033937 0 0.008113966439804797 0.07484333825033937 0 0.01094928291607037 0.075217799908612826 0 0.0093825429056694533 0.072935573738013154 0 0.0091194909872252539 0.07755221174783862 0 0.008113966439804797 0.07484333825033937 0 0.01094928291607037 0.075217799908612826 0 0.01094928291607037 0.075217799908612826 0 0.0093825429056694533 0.072935573738013154 0 0.011518418642711191 0.07253824577125921 0 0.010163882810649871 0.071634524699193791 0 0.011518418642711191 0.07253824577125921 0 0.011893088193326842 0.071076484767357145 0 0.010163882810649871 0.071634524699193791 0 0.0093825429056694533 0.072935573738013154 0 0.011518418642711191 0.07253824577125921 0 0.0068778837767122019 0.073209940079319719 0 0.0093825429056694533 0.072935573738013154 0 0.0081631322198277532 0.071897768906760154 0 0.010163882810649871 0.071634524699193791 0 0.0093825429056694533 0.072935573738013154 0 0.0081631322198277532 0.071897768906760154 0 0.0068778837767122019 0.073209940079319719 0 0.008113966439804797 0.07484333825033937 0 0.0093825429056694533 0.072935573738013154 0 0.014738969525040686 0.072692298481795273 0 0.01343178246953578 0.074348490677500406 0 0.015590434432547767 0.074226954664134162 0 0.014738969525040686 0.072692298481795273 0 0.013291205323494039 0.071879260462460959 0 0.01343178246953578 0.074348490677500406 0 0.014738969525040686 0.072692298481795273 0 0.015590434432547767 0.074226954664134162 0 0.016572771783887136 0.072270160933025823 0 0.014738969525040686 0.072692298481795273 0 0.016572771783887136 0.072270160933025823 0 0.014677425128734878 0.070775184307755867 0 0.014738969525040686 0.072692298481795273 0 0.013291205323494039 0.071879260462460959 0 0.014677425128734878 0.070775184307755867 0 0.011518418642711191 0.07253824577125921 0 0.013291205323494039 0.071879260462460959 0 0.01343178246953578 0.074348490677500406 0 0.011518418642711191 0.07253824577125921 0 0.013291205323494039 0.071879260462460959 0 0.011893088193326842 0.071076484767357145 0 0.01094928291607037 0.075217799908612826 0 0.011518418642711191 0.07253824577125921 0 0.01343178246953578 0.074348490677500406 0 0.013387771544075767 0.076523633510890671 0 0.01094928291607037 0.075217799908612826 0 0.01343178246953578 0.074348490677500406 0 0.015700464183631288 0.076262057499296293 0 0.013387771544075767 0.076523633510890671 0 0.01343178246953578 0.074348490677500406 0 0.010624619623605672 0.088281869436082627 0 0.010920473119940799 0.083938154010208654 0 0.017976156367919133 0.076429384056266883 0 0.015700464183631288 0.076262057499296293 0 0.01343178246953578 0.074348490677500406 0 0.016910603134839598 0.076240033721464637 0 0.01343178246953578 0.074348490677500406 0 0.015590434432547767 0.074226954664134162 0 0.016910603134839598 0.076240033721464637 0 0.015590434432547767 0.074226954664134162 0 0.016572771783887136 0.072270160933025823 0 -2.5507581304599266e-05 0.10488816558693172 0 1.1234476355027465e-06 0.10487651407185185 0 -4.4507859210382326e-05 0.10479616612558056 0 0.010624619623605672 0.088281869436082627 0 0.0030629147953062492 0.095001614642738569 0 -2.5507581304599266e-05 0.10488816558693172 0 1.1234476355027465e-06 0.10487651407185185 0 1.6099301340743543e-05 0.10491151241184796 0 1.1234476355027465e-06 0.10487651407185185 0 -1.8845397770476018e-05 0.10485361293522519 0 -1.5818180041984587e-06 0.10487116333166206 0 1.1234476355027465e-06 0.10487651407185185 0 -1.5818180041984587e-06 0.10487116333166206 0 7.2226843030552552e-06 0.1048874591666825 0 0.0034886921275391015 0.097833895263907025 0 0.0030629147953062492 0.095001614642738569 0 1.1234476355027465e-06 0.10487651407185185 0 -1.8845397770476018e-05 0.10485361293522519 0 -3.6214159243497399e-05 0.10484557299889018 0 -1.8845397770476018e-05 0.10485361293522519 0 -3.6214159243497399e-05 0.10484557299889018 0 -3.77276788937071e-05 0.10483116321361591 0 0.0030629147953062492 0.095001614642738569 0 0.0030498737241484524 0.095756336548741758 0 -1.8845397770476018e-05 0.10485361293522519 0 -3.77276788937071e-05 0.10483116321361591 0 -2.0061710260817886e-05 0.10483486408791268 0 -3.77276788937071e-05 0.10483116321361591 0 -3.7284600843119762e-05 0.10483850449554141 0 -2.0061710260817886e-05 0.10483486408791268 0 -3.0243543119189865e-05 0.1049015916373673 0 -2.8965770991447495e-05 0.10489504948820068 0 -3.7284600843119762e-05 0.10483850449554141 0 -2.0061710260817886e-05 0.10483486408791268 0 -4.3615491714057284e-05 0.10485421994785657 0 -3.5700804443310176e-05 0.10481374228465153 0 -3.77276788937071e-05 0.10483116321361591 0 -2.7205122995117175e-05 0.10482452865182934 0 -1.8845397770476018e-05 0.10485361293522519 0 -1.5818180041984587e-06 0.10487116333166206 0 -2.0061710260817886e-05 0.10483486408791268 0 -8.5792663664846082e-05 0.10493132434738392 0 -6.4919670354739837e-05 0.10493487174607259 0 -8.0316050302263827e-05 0.10492124013830899 0 -8.5792663664846082e-05 0.10493132434738392 0 -6.4919670354739837e-05 0.10493487174607259 0 -5.238644016310524e-05 0.10495159500545947 0 -6.4919670354739837e-05 0.10493487174607259 0 -8.0316050302263827e-05 0.10492124013830899 0 -7.224885525582752e-05 0.10492720379207403 0 -8.5792663664846082e-05 0.10493132434738392 0 -8.0316050302263827e-05 0.10492124013830899 0 -8.0241931370678138e-05 0.10491269637441093 0 -8.5792663664846082e-05 0.10493132434738392 0 -8.0241931370678138e-05 0.10491269637441093 0 -6.8357721856760763e-05 0.10489418831492461 0 -8.0316050302263827e-05 0.10492124013830899 0 -8.2344532375580221e-05 0.10491404512994992 0 -8.9144387879415069e-05 0.10491798693410886 0 -8.0316050302263827e-05 0.10492124013830899 0 -8.0241931370678138e-05 0.10491269637441093 0 -8.2344532375580221e-05 0.10491404512994992 0 -8.0241931370678138e-05 0.10491269637441093 0 -8.2344532375580221e-05 0.10491404512994992 0 -7.6204165803097208e-05 0.104906530167215 0 -8.2988165518370385e-05 0.10491462764010669 0 -8.3544407055868557e-05 0.10492310684585764 0 -7.6204165803097208e-05 0.104906530167215 0 -8.2344532375580221e-05 0.10491404512994992 0 -8.2988165518370385e-05 0.10491462764010669 0 -8.9144387879415069e-05 0.10491798693410886 0 -8.2344532375580221e-05 0.10491404512994992 0 -8.2988165518370385e-05 0.10491462764010669 0 -7.6204165803097208e-05 0.104906530167215 0 -8.2988165518370385e-05 0.10491462764010669 0 -8.3544407055868557e-05 0.10492310684585764 0 -8.9144387879415069e-05 0.10491798693410886 0 -0.001392718304784457 0.099789954500307906 0 -0.0013219102767634788 0.099897378938071976 0 -8.9144387879415069e-05 0.10491798693410886 0 -8.7747111782593434e-05 0.10492365845717976 0 -0.00010503778638153739 0.10492809590142931 0 -8.5475539023724504e-05 0.10492384928197186 0 -8.9144387879415069e-05 0.10491798693410886 0 -0.00010503778638153739 0.10492809590142931 0 -0.001392718304784457 0.099789954500307906 0 -0.0013870309108445693 0.099847437868641239 0 -8.0316050302263827e-05 0.10492124013830899 0 -8.9144387879415069e-05 0.10491798693410886 0 -8.7747111782593434e-05 0.10492365845717976 0 -8.0316050302263827e-05 0.10492124013830899 0 -8.7747111782593434e-05 0.10492365845717976 0 -7.224885525582752e-05 0.10492720379207403 0 -8.7747111782593434e-05 0.10492365845717976 0 -8.0054543628673466e-05 0.10492038928400914 0 -0.00010503778638153739 0.10492809590142931 0 -8.7747111782593434e-05 0.10492365845717976 0 -8.0054543628673466e-05 0.10492038928400914 0 -7.224885525582752e-05 0.10492720379207403 0 -8.3544407055868557e-05 0.10492310684585764 0 -7.6204165803097208e-05 0.104906530167215 0 -4.6518338045797529e-05 0.10487077979192148 0 -6.8357721856760763e-05 0.10489418831492461 0 -7.6204165803097208e-05 0.104906530167215 0 -4.6518338045797529e-05 0.10487077979192148 0 -0.0048062569625346588 0.096972729095870444 0 -0.0052622304521824205 0.097101931959020019 0 -0.0051703034864120749 0.096859430868998175 0 -0.001392718304784457 0.099789954500307906 0 -0.0019844343232348028 0.098223380511359329 0 -8.5792663664846082e-05 0.10493132434738392 0 -6.8357721856760763e-05 0.10489418831492461 0 -4.3615491714057284e-05 0.10485421994785657 0 -6.8357721856760763e-05 0.10489418831492461 0 -4.6518338045797529e-05 0.10487077979192148 0 -4.3615491714057284e-05 0.10485421994785657 0 -8.0241931370678138e-05 0.10491269637441093 0 -6.8357721856760763e-05 0.10489418831492461 0 -7.6204165803097208e-05 0.104906530167215 0 -0.0052622304521824205 0.097101931959020019 0 -0.0055354024905452321 0.096972086634576002 0 -0.0057102852260032142 0.097227423910473496 0 -4.6518338045797529e-05 0.10487077979192148 0 -4.3615491714057284e-05 0.10485421994785657 0 1.1475316913210203e-06 0.10482735890680692 0 -0.0019844343232348028 0.098223380511359329 0 -0.00016965688265314582 0.094929273928524557 0 -0.0052622304521824205 0.097101931959020019 0 -0.0055354024905452321 0.096972086634576002 0 -0.0054282794688741672 0.096813987875755042 0 -4.3615491714057284e-05 0.10485421994785657 0 -2.7205122995117175e-05 0.10482452865182934 0 1.1475316913210203e-06 0.10482735890680692 0 -3.7284600843119762e-05 0.10483850449554141 0 -4.3615491714057284e-05 0.10485421994785657 0 -2.7205122995117175e-05 0.10482452865182934 0 0.0030629147953062492 0.095001614642738569 0 0.0021903132538826993 0.09418278234585821 0 -3.77276788937071e-05 0.10483116321361591 0 -3.7284600843119762e-05 0.10483850449554141 0 -2.7205122995117175e-05 0.10482452865182934 0 0.014677425128734878 0.070775184307755867 0 0.011893088193326842 0.071076484767357145 0 0.012700893462229489 0.069263227305885716 0 0.013291205323494039 0.071879260462460959 0 0.014677425128734878 0.070775184307755867 0 0.011893088193326842 0.071076484767357145 0 0.0021903132538826993 0.09418278234585821 0 -0.00016965688265314582 0.094929273928524557 0 -0.0055354024905452321 0.096972086634576002 0 -0.0057102852260032142 0.097227423910473496 0 -0.0057438543723054526 0.096743914701286612 0 -0.0059693282795486701 0.096791094655318585 0 -0.0057102852260032142 0.097227423910473496 0 -0.0057438543723054526 0.096743914701286612 0 -0.0055354024905452321 0.096972086634576002 0 -0.0057438543723054526 0.096743914701286612 0 -0.0054282794688741672 0.096813987875755042 0 -0.0057438543723054526 0.096743914701286612 0 -0.0054282794688741672 0.096813987875755042 0 -0.0055543268790363802 0.096509352295092332 0 -0.0054282794688741672 0.096813987875755042 0 -0.0055543268790363802 0.096509352295092332 0 -0.0051843729696504385 0.096551412442522203 0 -0.0052622304521824205 0.097101931959020019 0 -0.0054282794688741672 0.096813987875755042 0 -0.0051703034864120749 0.096859430868998175 0 -0.0054282794688741672 0.096813987875755042 0 -0.0051843729696504385 0.096551412442522203 0 -0.0051703034864120749 0.096859430868998175 0 -0.0028058117062572737 0.10224628247788435 0 -0.0024166315000415215 0.10074215476561688 0 -0.0055543268790363802 0.096509352295092332 0 -0.0055484917387274794 0.096156789248753774 0 -0.0051843729696504385 0.096551412442522203 0 -0.0059394232643892797 0.096358261380090904 0 -0.0057438543723054526 0.096743914701286612 0 -0.0055543268790363802 0.096509352295092332 0 -0.0059394232643892797 0.096358261380090904 0 -0.0055543268790363802 0.096509352295092332 0 -0.0055484917387274794 0.096156789248753774 0 -0.0037808510768518387 0.10111166856326552 0 -0.0028058117062572737 0.10224628247788435 0 -0.003379639736118586 0.10393089345140821 0 -0.0023932581492458775 0.10344255144934521 0 -0.0031551213487977544 0.10255279048665661 0 -0.0028058117062572737 0.10224628247788435 0 -0.002610053092283785 0.10270484785459619 0 -0.0028058117062572737 0.10224628247788435 0 -0.0012878010700556964 0.1029036962265772 0 -0.00049869943867370599 0.10463869965421475 0 -0.00029631754697164228 0.10454203056591763 0 -0.00031645600074940136 0.10483217961316529 0 -0.00022617103925977582 0.10400731995646861 0 0.00016811696120801555 0.10423132322604881 0 0.00010730120749465677 0.10389305923288072 0 -0.0004450405916264225 0.10494955623709357 0 -0.00022617103925977582 0.10400731995646861 0 0.00016811696120801555 0.10423132322604881 0 -0.0004450405916264225 0.10494955623709357 0 -0.00022617103925977582 0.10400731995646861 0 -0.0016798563265529446 0.10418009269483221 0 -0.00022617103925977582 0.10400731995646861 0 -0.0016798563265529446 0.10418009269483221 0 -0.0018086738470332164 0.10263380624838167 0 -0.00088014813020018514 0.1031044279548763 0 -0.0012878010700556964 0.1029036962265772 0 -3.116687474615041e-06 0.10437971466247968 0 -0.00029631754697164228 0.10454203056591763 0 -0.00016072532383036342 0.10467746203740809 0 -3.116687474615041e-06 0.10437971466247968 0 0.00016811696120801555 0.10423132322604881 0 0.00010730120749465677 0.10389305923288072 0 -0.00029631754697164228 0.10454203056591763 0 -0.00016072532383036342 0.10467746203740809 0 -0.00031645600074940136 0.10483217961316529 0 -3.116687474615041e-06 0.10437971466247968 0 -0.00016072532383036342 0.10467746203740809 0 -2.8571131381088064e-05 0.10471113599661352 0 -0.00016072532383036342 0.10467746203740809 0 -0.00012554138867615944 0.10480382719009032 0 -2.8571131381088064e-05 0.10471113599661352 0 -0.00012554138867615944 0.10480382719009032 0 -6.8911700396523851e-05 0.10485977796278387 0 -3.7811024776093064e-05 0.10481120960746192 0 -0.00016072532383036342 0.10467746203740809 0 -0.00012554138867615944 0.10480382719009032 0 -0.00031645600074940136 0.10483217961316529 0 -0.00012554138867615944 0.10480382719009032 0 -0.00031645600074940136 0.10483217961316529 0 -0.00016823149119782449 0.10487489938901345 0 -0.0048062569625346588 0.096972729095870444 0 -0.0051843729696504385 0.096551412442522203 0 -0.0051703034864120749 0.096859430868998175 0 -0.00014949053224535218 0.10494729441894581 0 -0.00031645600074940136 0.10483217961316529 0 -0.00016823149119782449 0.10487489938901345 0 -0.001392718304784457 0.099789954500307906 0 -0.0024166315000415215 0.10074215476561688 0 -0.00010529076605014002 0.10488717828343865 0 -6.0507687073658393e-05 0.10490232713360691 0 -6.8911700396523851e-05 0.10485977796278387 0 -0.00012554138867615944 0.10480382719009032 0 -0.00010529076605014002 0.10488717828343865 0 -6.8911700396523851e-05 0.10485977796278387 0 -0.00012554138867615944 0.10480382719009032 0 -0.00010529076605014002 0.10488717828343865 0 -0.00016823149119782449 0.10487489938901345 0 -0.00010529076605014002 0.10488717828343865 0 -0.00016823149119782449 0.10487489938901345 0 -0.00010503778638153739 0.10492809590142931 0 -0.00014949053224535218 0.10494729441894581 0 -0.00016823149119782449 0.10487489938901345 0 -0.00010503778638153739 0.10492809590142931 0 -8.0054543628673466e-05 0.10492038928400914 0 -0.00010529076605014002 0.10488717828343865 0 -0.00010503778638153739 0.10492809590142931 0 -8.0054543628673466e-05 0.10492038928400914 0 -0.00010529076605014002 0.10488717828343865 0 -6.0507687073658393e-05 0.10490232713360691 0 -8.0054543628673466e-05 0.10492038928400914 0 -6.0507687073658393e-05 0.10490232713360691 0 -5.7394044211065283e-05 0.1049235332976932 0 -6.0507687073658393e-05 0.10490232713360691 0 -3.228822450192159e-05 0.10491972461534665 0 -5.7394044211065283e-05 0.1049235332976932 0 -6.0507687073658393e-05 0.10490232713360691 0 -3.228822450192159e-05 0.10491972461534665 0 -3.0951212697659204e-05 0.10487757205265053 0 -6.0507687073658393e-05 0.10490232713360691 0 -3.0951212697659204e-05 0.10487757205265053 0 -6.8911700396523851e-05 0.10485977796278387 0 -3.228822450192159e-05 0.10491972461534665 0 2.6196484711270287e-06 0.10489932251768457 0 -2.3811460136942378e-07 0.10493835201900174 0 -3.228822450192159e-05 0.10491972461534665 0 -3.0951212697659204e-05 0.10487757205265053 0 2.6196484711270287e-06 0.10489932251768457 0 2.6196484711270287e-06 0.10489932251768457 0 8.6346960136043719e-06 0.10482957577948403 0 1.8369318464157002e-05 0.10492669278785861 0 -3.0951212697659204e-05 0.10487757205265053 0 2.6196484711270287e-06 0.10489932251768457 0 8.6346960136043719e-06 0.10482957577948403 0 8.6346960136043719e-06 0.10482957577948403 0 -3.7811024776093064e-05 0.10481120960746192 0 -2.8571131381088064e-05 0.10471113599661352 0 -3.0951212697659204e-05 0.10487757205265053 0 -6.8911700396523851e-05 0.10485977796278387 0 -3.7811024776093064e-05 0.10481120960746192 0 -3.0951212697659204e-05 0.10487757205265053 0 8.6346960136043719e-06 0.10482957577948403 0 -3.7811024776093064e-05 0.10481120960746192 0 -0.00012554138867615944 0.10480382719009032 0 -3.7811024776093064e-05 0.10481120960746192 0 -2.8571131381088064e-05 0.10471113599661352 0 8.6346960136043719e-06 0.10482957577948403 0 -2.8571131381088064e-05 0.10471113599661352 0 1.5826299966682723e-05 0.10470973326961408 0 -3.116687474615041e-06 0.10437971466247968 0 -2.8571131381088064e-05 0.10471113599661352 0 1.5826299966682723e-05 0.10470973326961408 0 8.6346960136043719e-06 0.10482957577948403 0 1.5826299966682723e-05 0.10470973326961408 0 1.7113539853545514e-05 0.10486728592765983 0 1.5826299966682723e-05 0.10470973326961408 0 1.4230514322447933e-05 0.10474152685997747 0 -7.2941024450916647e-06 0.10456032344972013 0 1.5826299966682723e-05 0.10470973326961408 0 1.4230514322447933e-05 0.10474152685997747 0 1.7113539853545514e-05 0.10486728592765983 0 -3.116687474615041e-06 0.10437971466247968 0 1.5826299966682723e-05 0.10470973326961408 0 -7.2941024450916647e-06 0.10456032344972013 0 1.4230514322447933e-05 0.10474152685997747 0 1.7113539853545514e-05 0.10486728592765983 0 -1.2378489158447529e-06 0.10482572524122261 0 1.7113539853545514e-05 0.10486728592765983 0 5.4179660794664418e-08 0.1049998346553736 0 -1.2378489158447529e-06 0.10482572524122261 0 5.4179660794664418e-08 0.1049998346553736 0 -1.2378489158447529e-06 0.10482572524122261 0 -1.0507787474882868e-08 0.10499973202346746 0 1.7113539853545514e-05 0.10486728592765983 0 5.4179660794664418e-08 0.1049998346553736 0 1.8369318464157002e-05 0.10492669278785861 0 5.4179660794664418e-08 0.1049998346553736 0 1.8369318464157002e-05 0.10492669278785861 0 1.0112044978109171e-08 0.10499992457224507 0 8.6346960136043719e-06 0.10482957577948403 0 1.7113539853545514e-05 0.10486728592765983 0 1.8369318464157002e-05 0.10492669278785861 0 1.8369318464157002e-05 0.10492669278785861 0 1.0052188753201555e-05 0.10497013742386323 0 -2.3811460136942378e-07 0.10493835201900174 0 2.6196484711270287e-06 0.10489932251768457 0 1.8369318464157002e-05 0.10492669278785861 0 -2.3811460136942378e-07 0.10493835201900174 0 1.8369318464157002e-05 0.10492669278785861 0 1.0112044978109171e-08 0.10499992457224507 0 1.0052188753201555e-05 0.10497013742386323 0 1.0112044978109171e-08 0.10499992457224507 0 1.6722292806112123e-08 0.10499994720581267 0 1.0052188753201555e-05 0.10497013742386323 0 1.6722292806112123e-08 0.10499994720581267 0 7.0881031173105851e-06 0.10497132248061489 0 1.0052188753201555e-05 0.10497013742386323 0 2.6681288930077745e-09 0.10499999434959233 0 7.6437595080530391e-06 0.10498269706304982 0 4.6186220710941302e-06 0.1049879705896567 0 3.9433439319007015e-09 0.10499997795449031 0 3.2879206463317237e-07 0.10499076873299916 0 7.0881031173105851e-06 0.10497132248061489 0 1.2364711168239259e-06 0.10495876257284502 0 1.0052188753201555e-05 0.10497013742386323 0 1.2364711168239259e-06 0.10495876257284502 0 1.0052188753201555e-05 0.10497013742386323 0 -2.3811460136942378e-07 0.10493835201900174 0 -2.3811460136942378e-07 0.10493835201900174 0 -1.4384626943952755e-05 0.10495046017487365 0 -2.6021300011856189e-05 0.1049378260190203 0 -3.228822450192159e-05 0.10491972461534665 0 -2.3811460136942378e-07 0.10493835201900174 0 -2.6021300011856189e-05 0.1049378260190203 0 -1.4384626943952755e-05 0.10495046017487365 0 -2.6021300011856189e-05 0.1049378260190203 0 -3.2966025856708568e-05 0.10495299756459955 0 1.2364711168239259e-06 0.10495876257284502 0 -2.3811460136942378e-07 0.10493835201900174 0 -1.4384626943952755e-05 0.10495046017487365 0 1.2364711168239259e-06 0.10495876257284502 0 -1.4384626943952755e-05 0.10495046017487365 0 -1.2263956110874939e-05 0.10496196413009355 0 -7.224885525582752e-05 0.10492720379207403 0 -5.7394044211065283e-05 0.1049235332976932 0 -4.7383496910928946e-05 0.1049371656449254 0 -8.0054543628673466e-05 0.10492038928400914 0 -7.224885525582752e-05 0.10492720379207403 0 -5.7394044211065283e-05 0.1049235332976932 0 -3.228822450192159e-05 0.10491972461534665 0 -5.7394044211065283e-05 0.1049235332976932 0 -4.7383496910928946e-05 0.1049371656449254 0 -3.228822450192159e-05 0.10491972461534665 0 -2.6021300011856189e-05 0.1049378260190203 0 -4.7383496910928946e-05 0.1049371656449254 0 -2.6021300011856189e-05 0.1049378260190203 0 -4.7383496910928946e-05 0.1049371656449254 0 -3.2966025856708568e-05 0.10495299756459955 0 -4.7383496910928946e-05 0.1049371656449254 0 -4.9045217771162433e-05 0.10494405261908296 0 -3.2966025856708568e-05 0.10495299756459955 0 -6.4919670354739837e-05 0.10493487174607259 0 -7.224885525582752e-05 0.10492720379207403 0 -4.7383496910928946e-05 0.1049371656449254 0 -6.4919670354739837e-05 0.10493487174607259 0 -4.7383496910928946e-05 0.1049371656449254 0 -4.9045217771162433e-05 0.10494405261908296 0 -1.5818180041984587e-06 0.10487116333166206 0 -2.0061710260817886e-05 0.10483486408791268 0 2.1968887367363692e-05 0.10488866008552697 0 -3.0243543119189865e-05 0.1049015916373673 0 -1.9270233351038874e-05 0.10491869305480435 0 -8.5792663664846082e-05 0.10493132434738392 0 -5.238644016310524e-05 0.10495159500545947 0 -2.6397997759970732e-05 0.10498271056041374 0 -5.238644016310524e-05 0.10495159500545947 0 -4.9045217771162433e-05 0.10494405261908296 0 -3.2966025856708568e-05 0.10495299756459955 0 -6.4919670354739837e-05 0.10493487174607259 0 -5.238644016310524e-05 0.10495159500545947 0 -4.9045217771162433e-05 0.10494405261908296 0 -5.238644016310524e-05 0.10495159500545947 0 -3.2966025856708568e-05 0.10495299756459955 0 -3.3574237133153643e-05 0.1049636494647799 0 -3.2966025856708568e-05 0.10495299756459955 0 -2.7707614571159047e-05 0.10496183569526832 0 -3.3574237133153643e-05 0.1049636494647799 0 -5.238644016310524e-05 0.10495159500545947 0 -3.3574237133153643e-05 0.1049636494647799 0 -2.6397997759970732e-05 0.10498271056041374 0 -2.7707614571159047e-05 0.10496183569526832 0 -3.3574237133153643e-05 0.1049636494647799 0 -2.041964908170117e-05 0.10497058504791705 0 -3.3574237133153643e-05 0.1049636494647799 0 -2.041964908170117e-05 0.10497058504791705 0 -2.6397997759970732e-05 0.10498271056041374 0 7.0881031173105851e-06 0.10497132248061489 0 1.2364711168239259e-06 0.10495876257284502 0 -1.2263956110874939e-05 0.10496196413009355 0 3.2879206463317237e-07 0.10499076873299916 0 -6.404411854962913e-06 0.10498810452664889 0 7.6437595080530391e-06 0.10498269706304982 0 -2.041964908170117e-05 0.10497058504791705 0 -4.0085776004010643e-06 0.10497631282343448 0 7.0881031173105851e-06 0.10497132248061489 0 -1.2263956110874939e-05 0.10496196413009355 0 -2.041964908170117e-05 0.10497058504791705 0 -3.2966025856708568e-05 0.10495299756459955 0 -2.7707614571159047e-05 0.10496183569526832 0 -1.2263956110874939e-05 0.10496196413009355 0 -1.4384626943952755e-05 0.10495046017487365 0 -3.2966025856708568e-05 0.10495299756459955 0 -1.2263956110874939e-05 0.10496196413009355 0 -2.041964908170117e-05 0.10497058504791705 0 -4.0085776004010643e-06 0.10497631282343448 0 -2.6397997759970732e-05 0.10498271056041374 0 -2.7707614571159047e-05 0.10496183569526832 0 -1.2263956110874939e-05 0.10496196413009355 0 -2.041964908170117e-05 0.10497058504791705 0 -4.0085776004010643e-06 0.10497631282343448 0 -2.6397997759970732e-05 0.10498271056041374 0 1.3308099499674649e-05 0.10497212918005554 0 -1.9270233351038874e-05 0.10491869305480435 0 -1.2597552600794559e-05 0.10492828933660556 0 2.1286926908527443e-05 0.10493038678060111 0 2.1968887367363692e-05 0.10488866008552697 0 1.3308099499674649e-05 0.10497212918005554 0 1.1234476355027465e-06 0.10487651407185185 0 1.515754939487948e-05 0.10490599170749615 0 7.2226843030552552e-06 0.1048874591666825 0 -1.5818180041984587e-06 0.10487116333166206 0 2.1968887367363692e-05 0.10488866008552697 0 7.2226843030552552e-06 0.1048874591666825 0 2.1286926908527443e-05 0.10493038678060111 0 2.1968887367363692e-05 0.10488866008552697 0 1.515754939487948e-05 0.10490599170749615 0 2.1968887367363692e-05 0.10488866008552697 0 1.515754939487948e-05 0.10490599170749615 0 7.2226843030552552e-06 0.1048874591666825 0 1.1234476355027465e-06 0.10487651407185185 0 1.515754939487948e-05 0.10490599170749615 0 1.6099301340743543e-05 0.10491151241184796 0 1.515754939487948e-05 0.10490599170749615 0 1.6099301340743543e-05 0.10491151241184796 0 2.2005839031356098e-05 0.10493217036740525 0 2.1286926908527443e-05 0.10493038678060111 0 1.9706971956923316e-05 0.1049541330514572 0 1.3308099499674649e-05 0.10497212918005554 0 2.1286926908527443e-05 0.10493038678060111 0 2.2005839031356098e-05 0.10493217036740525 0 1.9706971956923316e-05 0.1049541330514572 0 2.1286926908527443e-05 0.10493038678060111 0 1.515754939487948e-05 0.10490599170749615 0 2.2005839031356098e-05 0.10493217036740525 0 2.3132838737835913e-05 0.10495218220354374 0 2.2005839031356098e-05 0.10493217036740525 0 1.9706971956923316e-05 0.1049541330514572 0 1.5580962986262211e-05 0.10496981609294312 0 1.9706971956923316e-05 0.1049541330514572 0 8.2413532368265498e-06 0.10498048317825234 0 1.9706971956923316e-05 0.1049541330514572 0 8.2413532368265498e-06 0.10498048317825234 0 1.3308099499674649e-05 0.10497212918005554 0 1.1918416681824552e-08 0.1049999660041486 0 4.411538975248064e-09 0.1049999619717453 0 8.2413532368265498e-06 0.10498048317825234 0 4.411538975248064e-09 0.1049999619717453 0 8.2413532368265498e-06 0.10498048317825234 0 4.6186220710941302e-06 0.1049879705896567 0 2.6681288930077745e-09 0.10499999434959233 0 4.411538975248064e-09 0.1049999619717453 0 4.6186220710941302e-06 0.1049879705896567 0 7.6437595080530391e-06 0.10498269706304982 0 -4.0085776004010643e-06 0.10497631282343448 0 1.3308099499674649e-05 0.10497212918005554 0 7.6437595080530391e-06 0.10498269706304982 0 4.6186220710941302e-06 0.1049879705896567 0 1.3308099499674649e-05 0.10497212918005554 0 8.2413532368265498e-06 0.10498048317825234 0 4.6186220710941302e-06 0.1049879705896567 0 1.3308099499674649e-05 0.10497212918005554 0 -0.013433041603974289 0.029710363870103347 0 -0.01405698129890849 0.026707579594874464 0 -0.015964727726963317 0.029975341021346913 0 -0.019234760580052801 0.031648382366026823 0 -0.016136012136384888 0.029798913985400542 0 -0.018660984934676307 0.035546302843177613 0 -0.015743599418388276 0.029049141861102513 0 -0.017681636229791617 0.033460142348117561 0 -0.013433041603974289 0.029710363870103347 0 -0.012773499615185282 0.028032114254657247 0 -0.01405698129890849 0.026707579594874464 0 -0.013433041603974289 0.029710363870103347 0 -0.011198782598429593 0.030120348322528353 0 -0.012773499615185282 0.028032114254657247 0 -0.012773499615185282 0.028032114254657247 0 -0.012873461098285481 0.026500272777397048 0 -0.01405698129890849 0.026707579594874464 0 -0.012773499615185282 0.028032114254657247 0 -0.012873461098285481 0.026500272777397048 0 -0.011186198812017963 0.026526569888696627 0 -0.012873461098285481 0.026500272777397048 0 -0.01405698129890849 0.026707579594874464 0 -0.013802801416120758 0.024135645152408392 0 -0.012873461098285481 0.026500272777397048 0 -0.011186198812017963 0.026526569888696627 0 -0.012248093674289544 0.025721337304455423 0 -0.019234760580052801 0.031648382366026823 0 -0.016295303498157422 0.028230522559962855 0 -0.022928800468672225 0.030459672381610826 0 -0.019234760580052801 0.031648382366026823 0 -0.016295303498157422 0.028230522559962855 0 -0.016136012136384888 0.029798913985400542 0 -0.016295303498157422 0.028230522559962855 0 -0.022928800468672225 0.030459672381610826 0 -0.023063735785909728 0.02488118847711902 0 -0.022928800468672225 0.030459672381610826 0 -0.027385984001436381 0.033531180684885808 0 -0.028457974558207332 0.029743899744509927 0 -0.022928800468672225 0.030459672381610826 0 -0.023063735785909728 0.02488118847711902 0 -0.028457974558207332 0.029743899744509927 0 -0.027385984001436381 0.033531180684885808 0 -0.022104822744831706 0.034171821221073324 0 -0.025178880012160176 0.036246805966126505 0 -0.022928800468672225 0.030459672381610826 0 -0.027385984001436381 0.033531180684885808 0 -0.022104822744831706 0.034171821221073324 0 -0.019234760580052801 0.031648382366026823 0 -0.022928800468672225 0.030459672381610826 0 -0.022104822744831706 0.034171821221073324 0 -0.019234760580052801 0.031648382366026823 0 -0.022104822744831706 0.034171821221073324 0 -0.018660984934676307 0.035546302843177613 0 -0.022104822744831706 0.034171821221073324 0 -0.02107356045578751 0.041099569304817167 0 -0.018660984934676307 0.035546302843177613 0 -0.022104822744831706 0.034171821221073324 0 -0.025178880012160176 0.036246805966126505 0 -0.02107356045578751 0.041099569304817167 0 -0.019949301309020884 0.038648162641323661 0 -0.017681636229791617 0.033460142348117561 0 -0.025178880012160176 0.036246805966126505 0 -0.025127790615719604 0.039793052147426837 0 -0.031352642697935772 0.035970798779188892 0 -0.025178880012160176 0.036246805966126505 0 -0.025127790615719604 0.039793052147426837 0 -0.02107356045578751 0.041099569304817167 0 -0.025127790615719604 0.039793052147426837 0 -0.025136389385908436 0.043084906352244837 0 -0.027669811831175839 0.042653877184057325 0 -0.025127790615719604 0.039793052147426837 0 -0.025136389385908436 0.043084906352244837 0 -0.02107356045578751 0.041099569304817167 0 -0.019937515269538814 0.036253646624988374 0 -0.015490123355605453 0.038718004539626573 0 -0.014144622720636517 0.033723650821570625 0 -0.015490123355605453 0.038718004539626573 0 -0.014144622720636517 0.033723650821570625 0 -0.01143079356122439 0.03736969751483115 0 -0.013433041603974289 0.029710363870103347 0 -0.014144622720636517 0.033723650821570625 0 -0.015964727726963317 0.029975341021346913 0 -0.019937515269538814 0.036253646624988374 0 -0.014144622720636517 0.033723650821570625 0 -0.015964727726963317 0.029975341021346913 0 -0.013433041603974289 0.029710363870103347 0 -0.014144622720636517 0.033723650821570625 0 -0.012036224429937058 0.032032454462521377 0 -0.011198782598429593 0.030120348322528353 0 -0.012036224429937058 0.032032454462521377 0 -0.010026539670475612 0.031867691678157527 0 -0.013433041603974289 0.029710363870103347 0 -0.011198782598429593 0.030120348322528353 0 -0.012036224429937058 0.032032454462521377 0 -0.014144622720636517 0.033723650821570625 0 -0.012036224429937058 0.032032454462521377 0 -0.011127859092196442 0.034408803012675106 0 -0.012036224429937058 0.032032454462521377 0 -0.011127859092196442 0.034408803012675106 0 -0.010026539670475612 0.031867691678157527 0 -0.014144622720636517 0.033723650821570625 0 -0.011127859092196442 0.034408803012675106 0 -0.01143079356122439 0.03736969751483115 0 -0.011127859092196442 0.034408803012675106 0 -0.01143079356122439 0.03736969751483115 0 -0.010621048645919137 0.035964861517230676 0 -0.011127859092196442 0.034408803012675106 0 -0.010621048645919137 0.035964861517230676 0 -0.0096733566219903994 0.034276781038050749 0 -0.0096733566219903994 0.034276781038050749 0 -0.0098264715954418224 0.035786923946264398 0 -0.0088841840740678454 0.034798990120298558 0 -0.010621048645919137 0.035964861517230676 0 -0.0096733566219903994 0.034276781038050749 0 -0.0098264715954418224 0.035786923946264398 0 -0.011127859092196442 0.034408803012675106 0 -0.0096733566219903994 0.034276781038050749 0 -0.010026539670475612 0.031867691678157527 0 -0.0096733566219903994 0.034276781038050749 0 -0.0078997442093838074 0.033452106781001557 0 -0.0083400681080862057 0.031942594982470228 0 -0.0096733566219903994 0.034276781038050749 0 -0.0078997442093838074 0.033452106781001557 0 -0.0088841840740678454 0.034798990120298558 0 -0.0078997442093838074 0.033452106781001557 0 -0.0068048197395730679 0.031563332662354421 0 -0.0057646456786886813 0.033380523942539451 0 -0.0078997442093838074 0.033452106781001557 0 -0.0057646456786886813 0.033380523942539451 0 -0.0077536957288519125 0.034805730430717656 0 -0.0078997442093838074 0.033452106781001557 0 -0.0077536957288519125 0.034805730430717656 0 -0.0088841840740678454 0.034798990120298558 0 -0.0078997442093838074 0.033452106781001557 0 -0.0068048197395730679 0.031563332662354421 0 -0.0083400681080862057 0.031942594982470228 0 -0.0068048197395730679 0.031563332662354421 0 -0.0056699383128941102 0.030101528424591292 0 -0.0078182355560800013 0.029027229725094462 0 -0.0068048197395730679 0.031563332662354421 0 -0.0083400681080862057 0.031942594982470228 0 -0.0078182355560800013 0.029027229725094462 0 -0.011198782598429593 0.030120348322528353 0 -0.010026539670475612 0.031867691678157527 0 -0.0078182355560800013 0.029027229725094462 0 -0.010026539670475612 0.031867691678157527 0 -0.0083400681080862057 0.031942594982470228 0 -0.0078182355560800013 0.029027229725094462 0 -0.0096733566219903994 0.034276781038050749 0 -0.010026539670475612 0.031867691678157527 0 -0.0083400681080862057 0.031942594982470228 0 -0.0039959248223865396 0.030564226705226006 0 -0.0050532356883419569 0.031628726295509516 0 -0.0057646456786886813 0.033380523942539451 0 -0.0039959248223865396 0.030564226705226006 0 -0.0044680984720112766 0.030557958295483776 0 -0.0050532356883419569 0.031628726295509516 0 -0.0041121104517083378 0.029515928839625647 0 -0.0044680984720112766 0.030557958295483776 0 -0.0047676162542049727 0.030546951074901713 0 -0.0039959248223865396 0.030564226705226006 0 -0.0041121104517083378 0.029515928839625647 0 -0.0044680984720112766 0.030557958295483776 0 -0.0044680984720112766 0.030557958295483776 0 -0.0047676162542049727 0.030546951074901713 0 -0.0050532356883419569 0.031628726295509516 0 -0.0068048197395730679 0.031563332662354421 0 -0.0055514873935448494 0.03118155583160561 0 -0.0057646456786886813 0.033380523942539451 0 -0.0047676162542049727 0.030546951074901713 0 -0.0055514873935448494 0.03118155583160561 0 -0.0050532356883419569 0.031628726295509516 0 -0.0055514873935448494 0.03118155583160561 0 -0.0050532356883419569 0.031628726295509516 0 -0.0057646456786886813 0.033380523942539451 0 -0.0068048197395730679 0.031563332662354421 0 -0.0055514873935448494 0.03118155583160561 0 -0.0056699383128941102 0.030101528424591292 0 -0.0056699383128941102 0.030101528424591292 0 -0.0050792282548100583 0.029783762156813422 0 -0.005016858661135595 0.030143008964109111 0 -0.0056699383128941102 0.030101528424591292 0 -0.0050135331634729302 0.029327560603990548 0 -0.0050075276139527275 0.029467267639862484 0 -0.0056699383128941102 0.030101528424591292 0 -0.0050792282548100583 0.029783762156813422 0 -0.0050075276139527275 0.029467267639862484 0 -0.0049184664749678166 0.029532819769351747 0 -0.0050792282548100583 0.029783762156813422 0 -0.0050075276139527275 0.029467267639862484 0 -0.0047676162542049727 0.030546951074901713 0 -0.0055514873935448494 0.03118155583160561 0 -0.005016858661135595 0.030143008964109111 0 -0.0055514873935448494 0.03118155583160561 0 -0.0056699383128941102 0.030101528424591292 0 -0.005016858661135595 0.030143008964109111 0 -0.0040090316779042966 0.028667622812493226 0 -0.0041121104517083378 0.029515928839625647 0 -0.0044769684930728911 0.029649171216589477 0 -0.0053685145556814067 0.026839588482008805 0 -0.0073195135785596738 0.026589574889413669 0 -0.0040090316779042966 0.028667622812493226 0 -0.0047260087899481124 0.029507967663561622 0 -0.0050246658734874623 0.029439230464642075 0 -0.0040090316779042966 0.028667622812493226 0 -0.0047260087899481124 0.029507967663561622 0 -0.0044769684930728911 0.029649171216589477 0 -0.0047676162542049727 0.030546951074901713 0 -0.005016858661135595 0.030143008964109111 0 -0.0044769684930728911 0.029649171216589477 0 -0.005016858661135595 0.030143008964109111 0 -0.0047260087899481124 0.029507967663561622 0 -0.0044769684930728911 0.029649171216589477 0 -0.0050792282548100583 0.029783762156813422 0 -0.005016858661135595 0.030143008964109111 0 -0.0047260087899481124 0.029507967663561622 0 -0.0049184664749678166 0.029532819769351747 0 -0.0047260087899481124 0.029507967663561622 0 -0.0050246658734874623 0.029439230464642075 0 -0.0049184664749678166 0.029532819769351747 0 -0.0050792282548100583 0.029783762156813422 0 -0.0047260087899481124 0.029507967663561622 0 -0.0041121104517083378 0.029515928839625647 0 -0.0047676162542049727 0.030546951074901713 0 -0.0044769684930728911 0.029649171216589477 0 -0.006905297469587692 0.024976888457982706 0 -0.0078866880577916423 0.023255034427735063 0 -0.0090525545368640367 0.024365598871774235 0 -0.0078866880577916423 0.023255034427735063 0 -0.0090525545368640367 0.024365598871774235 0 -0.008902604333802187 0.02271874111984375 0 -0.0058536294567538838 0.029700836390140907 0 -0.0075531233440158827 0.027953669929359735 0 -0.0064141413824544101 0.026129391640464298 0 -0.0058536294567538838 0.029700836390140907 0 -0.0075531233440158827 0.027953669929359735 0 -0.0096476525729693625 0.028880059038487706 0 -0.0056699383128941102 0.030101528424591292 0 -0.0050135331634729302 0.029327560603990548 0 -0.0078182355560800013 0.029027229725094462 0 -0.0073195135785596738 0.026589574889413669 0 -0.0078093590207654381 0.023428702586723534 0 -0.0049184664749678166 0.029532819769351747 0 -0.0050246658734874623 0.029439230464642075 0 -0.0050075276139527275 0.029467267639862484 0 -0.0073195135785596738 0.026589574889413669 0 -0.0073154446571497425 0.026601927727971503 0 -0.0090525545368640367 0.024365598871774235 0 -0.009558373910925979 0.021451016980167482 0 -0.008902604333802187 0.02271874111984375 0 -0.0075531233440158827 0.027953669929359735 0 -0.0064141413824544101 0.026129391640464298 0 -0.0085850266801874419 0.026502671178675989 0 -0.009558373910925979 0.021451016980167482 0 -0.0089145706862055248 0.022022342517014338 0 -0.0085222763693002107 0.021296293097654836 0 -0.009558373910925979 0.021451016980167482 0 -0.008902604333802187 0.02271874111984375 0 -0.0089145706862055248 0.022022342517014338 0 -0.0066407158583598833 0.022217387989598446 0 -0.0078866880577916423 0.023255034427735063 0 -0.0074075668021439866 0.02067687130274487 0 -0.0072750360114358708 0.020900609584787132 0 -0.006767140906124413 0.018859479464900832 0 -0.0078866880577916423 0.023255034427735063 0 -0.0085222763693002107 0.021296293097654836 0 -0.0069123554214325124 0.020436852861672652 0 -0.0078866880577916423 0.023255034427735063 0 -0.0089145706862055248 0.022022342517014338 0 -0.0085222763693002107 0.021296293097654836 0 -0.0078866880577916423 0.023255034427735063 0 -0.008902604333802187 0.02271874111984375 0 -0.0089145706862055248 0.022022342517014338 0 -0.012773499615185282 0.028032114254657247 0 -0.0096476525729693625 0.028880059038487706 0 -0.011186198812017963 0.026526569888696627 0 -0.011198782598429593 0.030120348322528353 0 -0.012773499615185282 0.028032114254657247 0 -0.0078182355560800013 0.029027229725094462 0 -0.010375110968397607 0.027559254923597957 0 -0.0086685733194723901 0.027566973112722631 0 -0.0073195135785596738 0.026589574889413669 0 -0.0086685733194723901 0.027566973112722631 0 -0.0075531233440158827 0.027953669929359735 0 -0.0096476525729693625 0.028880059038487706 0 -0.0085850266801874419 0.026502671178675989 0 -0.0085850266801874419 0.026502671178675989 0 -0.011186198812017963 0.026526569888696627 0 -0.009762560095019069 0.02463440078464298 0 -0.0096476525729693625 0.028880059038487706 0 -0.0085850266801874419 0.026502671178675989 0 -0.011186198812017963 0.026526569888696627 0 -0.0064141413824544101 0.026129391640464298 0 -0.0085850266801874419 0.026502671178675989 0 -0.0081098639732604325 0.024493643780786081 0 -0.011752021297638695 0.024573563532422182 0 -0.011298486924073103 0.022476645599159729 0 -0.013802801416120758 0.024135645152408392 0 -0.011186198812017963 0.026526569888696627 0 -0.011752021297638695 0.024573563532422182 0 -0.012248093674289544 0.025721337304455423 0 -0.011752021297638695 0.024573563532422182 0 -0.009762560095019069 0.02463440078464298 0 -0.011298486924073103 0.022476645599159729 0 -0.011186198812017963 0.026526569888696627 0 -0.011752021297638695 0.024573563532422182 0 -0.009762560095019069 0.02463440078464298 0 -0.0085850266801874419 0.026502671178675989 0 -0.009762560095019069 0.02463440078464298 0 -0.0081098639732604325 0.024493643780786081 0 -0.009762560095019069 0.02463440078464298 0 -0.0081098639732604325 0.024493643780786081 0 -0.0090428528286459406 0.022786562536789658 0 -0.0090428528286459406 0.022786562536789658 0 -0.0067565971397725681 0.022218550449321913 0 -0.0095122135292610467 0.020283450197267402 0 -0.0081098639732604325 0.024493643780786081 0 -0.0090428528286459406 0.022786562536789658 0 -0.0067565971397725681 0.022218550449321913 0 -0.0090428528286459406 0.022786562536789658 0 -0.011298486924073103 0.022476645599159729 0 -0.0095122135292610467 0.020283450197267402 0 -0.011298486924073103 0.022476645599159729 0 -0.012197415009521637 0.019168255089317764 0 -0.014443796194813875 0.02084861556549478 0 -0.009762560095019069 0.02463440078464298 0 -0.0090428528286459406 0.022786562536789658 0 -0.011298486924073103 0.022476645599159729 0 -0.0051420672151990298 0.017157795690753059 0 -0.008062893188927351 0.01862137999934288 0 -0.0058298988427912873 0.019938253938469427 0 -0.0085222763693002107 0.021296293097654836 0 -0.008062893188927351 0.01862137999934288 0 -0.0058298988427912873 0.019938253938469427 0 -0.0072693633370269706 0.019284387745737409 0 -0.006767140906124413 0.018859479464900832 0 -0.0078093590207654381 0.023428702586723534 0 -0.0082998429068708423 0.01962968282617639 0 -0.009558373910925979 0.021451016980167482 0 -0.0085222763693002107 0.021296293097654836 0 -0.008062893188927351 0.01862137999934288 0 -0.009558373910925979 0.021451016980167482 0 -0.008062893188927351 0.01862137999934288 0 -0.0099385987014404143 0.017094727098916625 0 -0.0064141413824544101 0.026129391640464298 0 -0.0081098639732604325 0.024493643780786081 0 -0.0067565971397725681 0.022218550449321913 0 -0.008062893188927351 0.01862137999934288 0 -0.0099385987014404143 0.017094727098916625 0 -0.0070174663102271799 0.016241426375930908 0 -0.0051420672151990298 0.017157795690753059 0 -0.008062893188927351 0.01862137999934288 0 -0.0070174663102271799 0.016241426375930908 0 -0.0045032351645200612 0.014505736888984622 0 -0.0070174663102271799 0.016241426375930908 0 -0.0074004662018348115 0.013912326747454089 0 -0.0054647165731773282 0.014091256341435664 0 -0.0059192176024371653 0.014025264642302523 0 -0.0099385987014404143 0.017094727098916625 0 -0.0070174663102271799 0.016241426375930908 0 -0.0074004662018348115 0.013912326747454089 0 -0.0082998429068708423 0.01962968282617639 0 -0.0087866477472146164 0.015692232535101394 0 -0.0099385987014404143 0.017094727098916625 0 -0.0074004662018348115 0.013912326747454089 0 -0.010054779559307782 0.013267292473782253 0 -0.0074004662018348115 0.013912326747454089 0 -0.0084746261703756952 0.011687267091373335 0 -0.010054779559307782 0.013267292473782253 0 -0.0099947056649263444 0.010197060969401605 0 -0.0084746261703756952 0.011687267091373335 0 -0.010054779559307782 0.013267292473782253 0 -0.0074004662018348115 0.013912326747454089 0 -0.0084746261703756952 0.011687267091373335 0 -0.0065287580866216499 0.012011061225858958 0 -0.0051654662665723446 0.014317108517549314 0 -0.0074004662018348115 0.013912326747454089 0 -0.0065287580866216499 0.012011061225858958 0 -0.011298486924073103 0.022476645599159729 0 -0.012197415009521637 0.019168255089317764 0 -0.0095122135292610467 0.020283450197267402 0 -0.012197415009521637 0.019168255089317764 0 -0.0095122135292610467 0.020283450197267402 0 -0.010288319237688743 0.016801249848757398 0 -0.0095122135292610467 0.020283450197267402 0 -0.0073376865730956243 0.017525024197141581 0 -0.010288319237688743 0.016801249848757398 0 -0.0067565971397725681 0.022218550449321913 0 -0.0095122135292610467 0.020283450197267402 0 -0.0073376865730956243 0.017525024197141581 0 -0.0092672683240527503 0.012185407214503634 0 -0.0087866477472146164 0.015692232535101394 0 -0.0083405746353536828 0.01250756829170804 0 -0.0073376865730956243 0.017525024197141581 0 -0.010288319237688743 0.016801249848757398 0 -0.011582239359866934 0.01453366553503908 0 -0.010288319237688743 0.016801249848757398 0 -0.012674579423532031 0.016587350486258558 0 -0.012197415009521637 0.019168255089317764 0 -0.010288319237688743 0.016801249848757398 0 -0.012674579423532031 0.016587350486258558 0 -0.011582239359866934 0.01453366553503908 0 -0.012674579423532031 0.016587350486258558 0 -0.013584292743005068 0.015090368840375784 0 -0.012197415009521637 0.019168255089317764 0 -0.012674579423532031 0.016587350486258558 0 -0.015320091886455238 0.017000768381238124 0 -0.012674579423532031 0.016587350486258558 0 -0.013584292743005068 0.015090368840375784 0 -0.015320091886455238 0.017000768381238124 0 -0.015183801630410063 0.014668440229938075 0 -0.015320091886455238 0.017000768381238124 0 -0.016644213993212243 0.015033522380449093 0 -0.015183801630410063 0.014668440229938075 0 -0.013584292743005068 0.015090368840375784 0 -0.015320091886455238 0.017000768381238124 0 -0.015320091886455238 0.017000768381238124 0 -0.018296259893015712 0.016040943084134198 0 -0.017178684632730843 0.019119011898226162 0 -0.018073197174521639 0.014087812651654843 0 -0.018296259893015712 0.016040943084134198 0 -0.016644213993212243 0.015033522380449093 0 -0.015320091886455238 0.017000768381238124 0 -0.018296259893015712 0.016040943084134198 0 -0.016644213993212243 0.015033522380449093 0 -0.012197415009521637 0.019168255089317764 0 -0.015320091886455238 0.017000768381238124 0 -0.014443796194813875 0.02084861556549478 0 -0.015320091886455238 0.017000768381238124 0 -0.017178684632730843 0.019119011898226162 0 -0.014443796194813875 0.02084861556549478 0 -0.011298486924073103 0.022476645599159729 0 -0.014443796194813875 0.02084861556549478 0 -0.013802801416120758 0.024135645152408392 0 -0.014443796194813875 0.02084861556549478 0 -0.017293449589723207 0.023402006767194325 0 -0.013802801416120758 0.024135645152408392 0 -0.017178684632730843 0.019119011898226162 0 -0.014443796194813875 0.02084861556549478 0 -0.017293449589723207 0.023402006767194325 0 -0.017178684632730843 0.019119011898226162 0 -0.017293449589723207 0.023402006767194325 0 -0.020202507804007813 0.02122207140451465 0 -0.016295303498157422 0.028230522559962855 0 -0.017293449589723207 0.023402006767194325 0 -0.013802801416120758 0.024135645152408392 0 -0.016295303498157422 0.028230522559962855 0 -0.017293449589723207 0.023402006767194325 0 -0.021716064984283506 0.024866499773945637 0 -0.015743599418388276 0.029049141861102513 0 -0.014841978198145124 0.026898845339150476 0 -0.016295303498157422 0.028230522559962855 0 -0.016136012136384888 0.029798913985400542 0 -0.013802801416120758 0.024135645152408392 0 -0.012873461098285481 0.026500272777397048 0 -0.012248093674289544 0.025721337304455423 0 -0.013802801416120758 0.024135645152408392 0 -0.011752021297638695 0.024573563532422182 0 -0.012248093674289544 0.025721337304455423 0 -0.013802801416120758 0.024135645152408392 0 -0.021716064984283506 0.024866499773945637 0 -0.020202507804007813 0.02122207140451465 0 -0.027679675801810678 0.021947677525672823 0 -0.023063735785909728 0.02488118847711902 0 -0.0279247226314502 0.025550578088422607 0 -0.028457974558207332 0.029743899744509927 0 -0.019448201359651796 0.026636125251736063 0 -0.022745978310906162 0.024816563195248803 0 -0.017293449589723207 0.023402006767194325 0 -0.021716064984283506 0.024866499773945637 0 -0.020202507804007813 0.02122207140451465 0 -0.022745978310906162 0.024816563195248803 0 -0.028152854373243733 0.021868994797159851 0 -0.023063735785909728 0.02488118847711902 0 -0.0279247226314502 0.025550578088422607 0 -0.029214176472990423 0.021728120726061395 0 -0.020202507804007813 0.02122207140451465 0 -0.021695654899860493 0.017734660549630393 0 -0.027679675801810678 0.021947677525672823 0 -0.018296259893015712 0.016040943084134198 0 -0.017178684632730843 0.019119011898226162 0 -0.021695654899860493 0.017734660549630393 0 -0.017178684632730843 0.019119011898226162 0 -0.020202507804007813 0.02122207140451465 0 -0.021695654899860493 0.017734660549630393 0 -0.020623647100360087 0.013801627913388473 0 -0.018296259893015712 0.016040943084134198 0 -0.021695654899860493 0.017734660549630393 0 -0.020623647100360087 0.013801627913388473 0 -0.021695654899860493 0.017734660549630393 0 -0.023460261864790458 0.014944224882178824 0 -0.021695654899860493 0.017734660549630393 0 -0.023460261864790458 0.014944224882178824 0 -0.025784068367957189 0.016521193823644895 0 -0.025193191202226607 0.022189213555323592 0 -0.026962678257772266 0.023831618637855729 0 -0.025930702362509786 0.014230169325448886 0 -0.023460261864790458 0.014944224882178824 0 -0.025784068367957189 0.016521193823644895 0 -0.021695654899860493 0.017734660549630393 0 -0.028773582742576544 0.015933430787234575 0 -0.027679675801810678 0.021947677525672823 0 -0.028773582742576544 0.015933430787234575 0 -0.034783966263718595 0.018373726250204905 0 -0.027679675801810678 0.021947677525672823 0 -0.031507056078918766 0.020020494076413275 0 -0.028152854373243733 0.021868994797159851 0 -0.027472513578680583 0.014342648429274706 0 -0.025784068367957189 0.016521193823644895 0 -0.029415567362022995 0.015620830059848601 0 -0.028773582742576544 0.015933430787234575 0 -0.036349791207642396 0.014401973574801462 0 -0.034783966263718595 0.018373726250204905 0 -0.027472513578680583 0.014342648429274706 0 -0.025930702362509786 0.014230169325448886 0 -0.025784068367957189 0.016521193823644895 0 -0.026962678257772266 0.023831618637855729 0 -0.020818259766581599 0.03290670330865901 0 -0.019563161395682493 0.049565284076561959 0 -0.017762790882137093 0.048482339679030137 0 -0.019045803304426026 0.047194873718685228 0 -0.019563161395682493 0.049565284076561959 0 -0.017011888986049141 0.050157718043310845 0 -0.017762790882137093 0.048482339679030137 0 -0.020818259766581599 0.03290670330865901 0 -0.014639902792571231 0.044854348938611663 0 -0.017762790882137093 0.048482339679030137 0 -0.017192378836720236 0.046779830169339016 0 -0.019045803304426026 0.047194873718685228 0 -0.036349791207642396 0.014401973574801462 0 -0.037373469563940623 0.019687383235018452 0 -0.034783966263718595 0.018373726250204905 0 -0.037373469563940623 0.019687383235018452 0 -0.034783966263718595 0.018373726250204905 0 -0.034292189235434388 0.022787573802412208 0 -0.020818259766581599 0.03290670330865901 0 -0.021974854103915503 0.037870430509968883 0 -0.037373469563940623 0.019687383235018452 0 -0.038458511287783569 0.024416218160933038 0 -0.034292189235434388 0.022787573802412208 0 -0.038458511287783569 0.024416218160933038 0 -0.034292189235434388 0.022787573802412208 0 -0.034890515031549572 0.030016336567412712 0 -0.021974854103915503 0.037870430509968883 0 -0.021703158947093432 0.049188660538602921 0 -0.017192378836720236 0.046779830169339016 0 -0.019045803304426026 0.047194873718685228 0 -0.018553757317391239 0.044847917209381236 0 -0.01454698098004451 0.059235571373229837 0 -0.021703158947093432 0.049188660538602921 0 -0.012151440907626468 0.083859385539676159 0 -0.014098359571591328 0.081307460591363401 0 -0.011319673843265172 0.08181982186166542 0 -0.021703158947093432 0.049188660538602921 0 -0.019069029078638632 0.060269577888410232 0 -0.014098359571591328 0.081307460591363401 0 -0.01131465955697448 0.079368321268639047 0 -0.013363925560332729 0.077304365063538633 0 -0.014098359571591328 0.081307460591363401 0 -0.011319673843265172 0.08181982186166542 0 -0.01131465955697448 0.079368321268639047 0 -0.021703158947093432 0.049188660538602921 0 -0.030105626695546405 0.037886586030764474 0 -0.030908476221253728 0.025924872719780515 0 -0.034292189235434388 0.022787573802412208 0 -0.034890515031549572 0.030016336567412712 0 -0.0279247226314502 0.025550578088422607 0 -0.030908476221253728 0.025924872719780515 0 -0.028457974558207332 0.029743899744509927 0 -0.0279247226314502 0.025550578088422607 0 -0.030908476221253728 0.025924872719780515 0 -0.029214176472990423 0.021728120726061395 0 -0.034783966263718595 0.018373726250204905 0 -0.029214176472990423 0.021728120726061395 0 -0.034292189235434388 0.022787573802412208 0 -0.030908476221253728 0.025924872719780515 0 -0.029214176472990423 0.021728120726061395 0 -0.034292189235434388 0.022787573802412208 0 -0.0055896004891773992 0.085654901659988847 0 -0.0070830123678426856 0.084212992659491823 0 -0.0044681644678545816 0.083628351757612004 0 -0.0040577814233023835 0.085220910175177661 0 -0.0055896004891773992 0.085654901659988847 0 -0.0044681644678545816 0.083628351757612004 0 -0.0043845365543025774 0.086465047264578182 0 -0.0040577814233023835 0.085220910175177661 0 -0.0055896004891773992 0.085654901659988847 0 -0.0043845365543025774 0.086465047264578182 0 -0.0055896004891773992 0.085654901659988847 0 -0.0053361457516595294 0.086925155577398536 0 -0.0044078196334870158 0.087742367563011195 0 -0.0043845365543025774 0.086465047264578182 0 -0.0053361457516595294 0.086925155577398536 0 -0.0061049391159021874 0.087287572056737706 0 -0.0053361457516595294 0.086925155577398536 0 -0.0061756074667847606 0.086685003213184328 0 -0.0055896004891773992 0.085654901659988847 0 -0.0053361457516595294 0.086925155577398536 0 -0.0061756074667847606 0.086685003213184328 0 -0.0055896004891773992 0.085654901659988847 0 -0.0061756074667847606 0.086685003213184328 0 -0.0070684163656035276 0.086258642201115954 0 -0.0061756074667847606 0.086685003213184328 0 -0.0067684932370279715 0.087201952523081772 0 -0.0070684163656035276 0.086258642201115954 0 -0.0061049391159021874 0.087287572056737706 0 -0.0061756074667847606 0.086685003213184328 0 -0.0067684932370279715 0.087201952523081772 0 -0.0067684932370279715 0.087201952523081772 0 -0.0074517411598354379 0.087155285103991939 0 -0.0070684163656035276 0.086258642201115954 0 -0.0074517411598354379 0.087155285103991939 0 -0.0070684163656035276 0.086258642201115954 0 -0.0084062234244266874 0.086612971780751821 0 -0.0070684163656035276 0.086258642201115954 0 -0.0070830123678426856 0.084212992659491823 0 -0.0083397968740576301 0.085553394057958393 0 -0.0055896004891773992 0.085654901659988847 0 -0.0070684163656035276 0.086258642201115954 0 -0.0070830123678426856 0.084212992659491823 0 -0.0069100814972401581 0.083845794729724296 0 -0.010157752789942997 0.084847014710264831 0 -0.0093182640192979137 0.082548104401493627 0 -0.0070830123678426856 0.084212992659491823 0 -0.0083397968740576301 0.085553394057958393 0 -0.010157752789942997 0.084847014710264831 0 -0.006833524307457926 0.084082291169692028 0 -0.0083078131609660676 0.084486770050662671 0 -0.0083397968740576301 0.085553394057958393 0 -0.0093198550581103708 0.085713681768863334 0 -0.010157752789942997 0.084847014710264831 0 -0.010281924480802604 0.056963908112353856 0 -0.011231944567722961 0.06139510522836468 0 -0.0070684163656035276 0.086258642201115954 0 -0.0083397968740576301 0.085553394057958393 0 -0.0084062234244266874 0.086612971780751821 0 -0.0086171144278238392 0.08771731043944532 0 -0.0084062234244266874 0.086612971780751821 0 -0.010214825012623982 0.086033108485542284 0 -0.0078589619054621578 0.087786165082411771 0 -0.0074517411598354379 0.087155285103991939 0 -0.0084062234244266874 0.086612971780751821 0 -0.0084062234244266874 0.086612971780751821 0 -0.0093198550581103708 0.085713681768863334 0 -0.010214825012623982 0.086033108485542284 0 -0.0083397968740576301 0.085553394057958393 0 -0.0084062234244266874 0.086612971780751821 0 -0.0093198550581103708 0.085713681768863334 0 -0.014405319595426885 0.050743802718406381 0 -0.017011888986049141 0.050157718043310845 0 -0.015802069916590861 0.048737225964331096 0 -0.017011888986049141 0.050157718043310845 0 -0.017762790882137093 0.048482339679030137 0 -0.015802069916590861 0.048737225964331096 0 -0.01454698098004451 0.059235571373229837 0 -0.011231944567722961 0.06139510522836468 0 -0.012151440907626468 0.083859385539676159 0 -0.010214825012623982 0.086033108485542284 0 -0.010157752789942997 0.084847014710264831 0 -0.017762790882137093 0.048482339679030137 0 -0.017192378836720236 0.046779830169339016 0 -0.015802069916590861 0.048737225964331096 0 -0.0093198550581103708 0.085713681768863334 0 -0.010214825012623982 0.086033108485542284 0 -0.010157752789942997 0.084847014710264831 0 -0.012151440907626468 0.083859385539676159 0 -0.010157752789942997 0.084847014710264831 0 -0.010728067112289639 0.083279579816149363 0 -0.010157752789942997 0.084847014710264831 0 -0.010728067112289639 0.083279579816149363 0 -0.0093182640192979137 0.082548104401493627 0 -0.012151440907626468 0.083859385539676159 0 -0.010728067112289639 0.083279579816149363 0 -0.011319673843265172 0.08181982186166542 0 -0.010728067112289639 0.083279579816149363 0 -0.011319673843265172 0.08181982186166542 0 -0.0093182640192979137 0.082548104401493627 0 -0.011319673843265172 0.08181982186166542 0 -0.0096109999259898771 0.080798089063428419 0 -0.0093182640192979137 0.082548104401493627 0 -0.011319673843265172 0.08181982186166542 0 -0.01131465955697448 0.079368321268639047 0 -0.0096109999259898771 0.080798089063428419 0 -0.01131465955697448 0.079368321268639047 0 -0.0096109999259898771 0.080798089063428419 0 -0.0089263550282535076 0.078891595238650788 0 -0.0096109999259898771 0.080798089063428419 0 -0.0076338243890838276 0.080979915565663016 0 -0.0093182640192979137 0.082548104401493627 0 -0.0096109999259898771 0.080798089063428419 0 -0.0076338243890838276 0.080979915565663016 0 -0.0089263550282535076 0.078891595238650788 0 -0.0076338243890838276 0.080979915565663016 0 -0.0076711192559706957 0.078983650669297592 0 -0.0089263550282535076 0.078891595238650788 0 -0.0069100814972401581 0.083845794729724296 0 -0.0076338243890838276 0.080979915565663016 0 -0.0093182640192979137 0.082548104401493627 0 -0.0069100814972401581 0.083845794729724296 0 -0.0076338243890838276 0.080979915565663016 0 -0.0056121168849126973 0.081956415681055134 0 -0.0076338243890838276 0.080979915565663016 0 -0.0057098926081750713 0.080040821970707721 0 -0.0076711192559706957 0.078983650669297592 0 -0.0076338243890838276 0.080979915565663016 0 -0.0056121168849126973 0.081956415681055134 0 -0.0057098926081750713 0.080040821970707721 0 -0.00319449583049875 0.081340648944114025 0 -0.0056121168849126973 0.081956415681055134 0 -0.0057098926081750713 0.080040821970707721 0 -0.00319449583049875 0.081340648944114025 0 -0.0056121168849126973 0.081956415681055134 0 -0.004056730668587887 0.083164979887622351 0 -0.006833524307457926 0.084082291169692028 0 -0.0044728956499697319 0.083463522214739891 0 -0.0069100814972401581 0.083845794729724296 0 -0.0056121168849126973 0.081956415681055134 0 -0.004056730668587887 0.083164979887622351 0 -0.0024758835413146198 0.078491256699261977 0 -0.0057098926081750713 0.080040821970707721 0 -0.0062736641341820179 0.077570322869039782 0 -0.0024758835413146198 0.078491256699261977 0 -0.0040772092263010361 0.07553357437872768 0 -0.0062736641341820179 0.077570322869039782 0 -0.0061376342321732306 0.077949787733940831 0 -0.0063179257672239097 0.076363284762113945 0 -0.0057098926081750713 0.080040821970707721 0 -0.0076711192559706957 0.078983650669297592 0 -0.0060406481366044639 0.076170080345502725 0 -0.0060406481366044639 0.076170080345502725 0 -0.0084109392264614773 0.076980599500565142 0 -0.0087667421229605785 0.074079132267204292 0 -0.0076711192559706957 0.078983650669297592 0 -0.0060406481366044639 0.076170080345502725 0 -0.0084109392264614773 0.076980599500565142 0 -0.0084109392264614773 0.076980599500565142 0 -0.010615784474779984 0.075742512893635247 0 -0.0087667421229605785 0.074079132267204292 0 -0.0084109392264614773 0.076980599500565142 0 -0.0089263550282535076 0.078891595238650788 0 -0.010615784474779984 0.075742512893635247 0 -0.0076711192559706957 0.078983650669297592 0 -0.0084109392264614773 0.076980599500565142 0 -0.0089263550282535076 0.078891595238650788 0 -0.0089263550282535076 0.078891595238650788 0 -0.011582808012943781 0.074491366375258619 0 -0.010038060558601694 0.068396093060035912 0 -0.01131465955697448 0.079368321268639047 0 -0.0089263550282535076 0.078891595238650788 0 -0.011582808012943781 0.074491366375258619 0 -0.01131465955697448 0.079368321268639047 0 -0.011582808012943781 0.074491366375258619 0 -0.015938948022961818 0.074650687338550889 0 -0.011582808012943781 0.074491366375258619 0 -0.012368478831045086 0.071051410963067121 0 -0.015938948022961818 0.074650687338550889 0 -0.0099183915605081923 0.075094728777636288 0 -0.010684869570599892 0.072123279152169081 0 -0.011582808012943781 0.074491366375258619 0 -0.012368478831045086 0.071051410963067121 0 -0.010038060558601694 0.068396093060035912 0 -0.012368478831045086 0.071051410963067121 0 -0.010038060558601694 0.068396093060035912 0 -0.013271924643102175 0.067861826183673188 0 -0.010038060558601694 0.068396093060035912 0 -0.012048537561609242 0.063521287153311748 0 -0.013271924643102175 0.067861826183673188 0 -0.010615784474779984 0.075742512893635247 0 -0.012003716849663696 0.071674392747089311 0 -0.0087667421229605785 0.074079132267204292 0 -0.010684869570599892 0.072123279152169081 0 -0.011885008606419594 0.068093658393580642 0 -0.012003716849663696 0.071674392747089311 0 -0.0087667421229605785 0.074079132267204292 0 -0.0088241326658172001 0.071150080499020968 0 -0.0060406481366044639 0.076170080345502725 0 -0.0087667421229605785 0.074079132267204292 0 -0.0065528146996403219 0.072645970712883784 0 -0.0063179257672239097 0.076363284762113945 0 -0.006646530681093131 0.073562805717538329 0 -0.0087667421229605785 0.074079132267204292 0 -0.0065528146996403219 0.072645970712883784 0 -0.0088241326658172001 0.071150080499020968 0 -0.0040772092263010361 0.07553357437872768 0 -0.0070559636060451092 0.073894411090955944 0 -0.0048689050978427129 0.07217033881022171 0 -0.0040772092263010361 0.07553357437872768 0 -0.0062736641341820179 0.077570322869039782 0 -0.0070559636060451092 0.073894411090955944 0 -0.029251806220020393 0.041261147828066148 0 -0.029271858191925092 0.041104533173565147 0 -0.029078072876443609 0.041081505309887571 0 -0.028457974558207332 0.029743899744509927 0 -0.034890515031549572 0.030016336567412712 0 -0.031352642697935772 0.035970798779188892 0 -0.030105626695546405 0.037886586030764474 0 -0.029722506142144903 0.038916249360963079 0 -0.027385984001436381 0.033531180684885808 0 -0.025178880012160176 0.036246805966126505 0 -0.031352642697935772 0.035970798779188892 0 -0.027385984001436381 0.033531180684885808 0 -0.028457974558207332 0.029743899744509927 0 -0.031352642697935772 0.035970798779188892 0 -0.030908476221253728 0.025924872719780515 0 -0.028457974558207332 0.029743899744509927 0 -0.034890515031549572 0.030016336567412712 0 -0.028963979998761286 0.041705715918627227 0 -0.029251806220020393 0.041261147828066148 0 -0.028926908069629997 0.041276649744941843 0 -0.014371337499289009 0.066547442887411268 0 -0.019069029078638632 0.060269577888410232 0 -0.012368478831045086 0.071051410963067121 0 -0.015938948022961818 0.074650687338550889 0 -0.013271924643102175 0.067861826183673188 0 -0.019069029078638632 0.060269577888410232 0 -0.018834418955954634 0.063964888218526625 0 -0.013649373354906347 0.069403504386309572 0 -0.013271924643102175 0.067861826183673188 0 -0.015380307743840634 0.067180577833401922 0 -0.029251806220020393 0.041261147828066148 0 -0.028926908069629997 0.041276649744941843 0 -0.029271858191925092 0.041104533173565147 0 -0.019069029078638632 0.060269577888410232 0 -0.022089664412100661 0.055614869932092241 0 -0.015380307743840634 0.067180577833401922 0 -0.014211475606904117 0.065423427834801998 0 -0.015301576757802259 0.064722571866468889 0 -0.013271924643102175 0.067861826183673188 0 -0.015380307743840634 0.067180577833401922 0 -0.014211475606904117 0.065423427834801998 0 -0.012048537561609242 0.063521287153311748 0 -0.013271924643102175 0.067861826183673188 0 -0.014211475606904117 0.065423427834801998 0 -0.012048537561609242 0.063521287153311748 0 -0.014211475606904117 0.065423427834801998 0 -0.014318433227890268 0.063192724469410655 0 -0.014211475606904117 0.065423427834801998 0 -0.015301576757802259 0.064722571866468889 0 -0.014318433227890268 0.063192724469410655 0 -0.015301576757802259 0.064722571866468889 0 -0.015457271174594205 0.062998165380128923 0 -0.014318433227890268 0.063192724469410655 0 -0.015301576757802259 0.064722571866468889 0 -0.016917139486064162 0.064499300094577314 0 -0.015457271174594205 0.062998165380128923 0 -0.022089664412100661 0.055614869932092241 0 -0.022731593670346391 0.054178454927107551 0 -0.029271858191925092 0.041104533173565147 0 -0.029083760317941968 0.041873600041770632 0 -0.029078072876443609 0.041081505309887571 0 -0.015380307743840634 0.067180577833401922 0 -0.015301576757802259 0.064722571866468889 0 -0.016917139486064162 0.064499300094577314 0 -0.028632309712327185 0.040681777970271435 0 -0.029722506142144903 0.038916249360963079 0 -0.025127790615719604 0.039793052147426837 0 -0.027669811831175839 0.042653877184057325 0 -0.031352642697935772 0.035970798779188892 0 -0.022731593670346391 0.054178454927107551 0 -0.02224451491387934 0.054257157092973712 0 -0.027669811831175839 0.042653877184057325 0 -0.029083760317941968 0.041873600041770632 0 -0.027789820519434089 0.044905908955355643 0 -0.027669811831175839 0.042653877184057325 0 -0.029083760317941968 0.041873600041770632 0 -0.029078072876443609 0.041081505309887571 0 -0.016917139486064162 0.064499300094577314 0 -0.017704967618712601 0.061311564171915668 0 -0.01619526349616324 0.061478146311268543 0 -0.016917139486064162 0.064499300094577314 0 -0.017704967618712601 0.061311564171915668 0 -0.019415495963153943 0.061462678147696639 0 -0.017704967618712601 0.061311564171915668 0 -0.017626583548092236 0.059743174582538486 0 -0.01619526349616324 0.061478146311268543 0 -0.017704967618712601 0.061311564171915668 0 -0.017626583548092236 0.059743174582538486 0 -0.018895128063972168 0.059193922513383471 0 -0.017626583548092236 0.059743174582538486 0 -0.015388559821245677 0.059871081912668545 0 -0.020058926436276634 0.056825272588567191 0 -0.017626583548092236 0.059743174582538486 0 -0.01619526349616324 0.061478146311268543 0 -0.015388559821245677 0.059871081912668545 0 -0.014842950519774524 0.061521983220811614 0 -0.014457577049676804 0.061053568141135148 0 -0.015388559821245677 0.059871081912668545 0 -0.01619526349616324 0.061478146311268543 0 -0.014842950519774524 0.061521983220811614 0 -0.015388559821245677 0.059871081912668545 0 -0.016917139486064162 0.064499300094577314 0 -0.01619526349616324 0.061478146311268543 0 -0.015457271174594205 0.062998165380128923 0 -0.01619526349616324 0.061478146311268543 0 -0.015457271174594205 0.062998165380128923 0 -0.014842950519774524 0.061521983220811614 0 -0.014318433227890268 0.063192724469410655 0 -0.013511594015084141 0.061236142428848665 0 -0.014842950519774524 0.061521983220811614 0 -0.015457271174594205 0.062998165380128923 0 -0.014318433227890268 0.063192724469410655 0 -0.014842950519774524 0.061521983220811614 0 -0.012048537561609242 0.063521287153311748 0 -0.014318433227890268 0.063192724469410655 0 -0.013511594015084141 0.061236142428848665 0 -0.013511594015084141 0.061236142428848665 0 -0.014842950519774524 0.061521983220811614 0 -0.014457577049676804 0.061053568141135148 0 -0.014457577049676804 0.061053568141135148 0 -0.013776084935640589 0.062339596318449084 0 -0.014505540691391356 0.061383811941991467 0 -0.013511594015084141 0.061236142428848665 0 -0.014457577049676804 0.061053568141135148 0 -0.013776084935640589 0.062339596318449084 0 -0.012861193247103189 0.065005585381808131 0 -0.01325977103748913 0.063665481166082741 0 -0.013776084935640589 0.062339596318449084 0 -0.014505540691391356 0.061383811941991467 0 -0.014232475636157399 0.06147604418464285 0 -0.014505540691391356 0.061383811941991467 0 -0.014613873805662547 0.061338570915885349 0 -0.014232475636157399 0.06147604418464285 0 -0.014505540691391356 0.061383811941991467 0 -0.014613873805662547 0.061338570915885349 0 -0.014716412890968549 0.061143317979011291 0 -0.014505540691391356 0.061383811941991467 0 -0.014716412890968549 0.061143317979011291 0 -0.014855465189678015 0.060832544531185528 0 -0.014716412890968549 0.061143317979011291 0 -0.014560213112984924 0.061383646223673038 0 -0.01472085601695995 0.06077810610302526 0 -0.014613873805662547 0.061338570915885349 0 -0.014716412890968549 0.061143317979011291 0 -0.014560213112984924 0.061383646223673038 0 -0.014613873805662547 0.061338570915885349 0 -0.014560213112984924 0.061383646223673038 0 -0.014573143237838282 0.061306885493696492 0 -0.0053751923997654863 0.06366507805454949 0 -0.0072250391261686128 0.063352005992030322 0 -0.014172353991423301 0.061425153916919328 0 -0.013940869260504717 0.060270859515015568 0 -0.01366573710426979 0.06097776153217805 0 -0.014172353991423301 0.061425153916919328 0 -0.013891341184871274 0.061623024217236241 0 -0.01366573710426979 0.06097776153217805 0 -0.013940869260504717 0.060270859515015568 0 -0.015388559821245677 0.059871081912668545 0 -0.013214849760200978 0.059833950212646668 0 -0.014560213112984924 0.061383646223673038 0 -0.01472085601695995 0.06077810610302526 0 -0.013940869260504717 0.060270859515015568 0 -0.015851452028693095 0.05243162168430722 0 -0.014587014007632624 0.050573633430801027 0 -0.01472085601695995 0.06077810610302526 0 -0.013940869260504717 0.060270859515015568 0 -0.015388559821245677 0.059871081912668545 0 -0.014457577049676804 0.061053568141135148 0 -0.015388559821245677 0.059871081912668545 0 -0.014855465189678015 0.060832544531185528 0 -0.014457577049676804 0.061053568141135148 0 -0.014505540691391356 0.061383811941991467 0 -0.014855465189678015 0.060832544531185528 0 -0.014716412890968549 0.061143317979011291 0 -0.01472085601695995 0.06077810610302526 0 -0.014855465189678015 0.060832544531185528 0 -0.01472085601695995 0.06077810610302526 0 -0.015388559821245677 0.059871081912668545 0 -0.014855465189678015 0.060832544531185528 0 -0.0039212286885653477 0.069799965357410051 0 -0.0072691571782306967 0.06929602075639095 0 -0.0064629376633307759 0.066593724834317233 0 -0.0039212286885653477 0.069799965357410051 0 -0.0030269923741312516 0.06683622225980701 0 -0.0064629376633307759 0.066593724834317233 0 -0.0070559636060451092 0.073894411090955944 0 -0.0048689050978427129 0.07217033881022171 0 -0.0072691571782306967 0.06929602075639095 0 -0.0039212286885653477 0.069799965357410051 0 -0.0048689050978427129 0.07217033881022171 0 -0.0072691571782306967 0.06929602075639095 0 -0.006646530681093131 0.073562805717538329 0 -0.0068355932340703387 0.071815659052235581 0 -0.0065528146996403219 0.072645970712883784 0 -0.0072691571782306967 0.06929602075639095 0 -0.0088241326658172001 0.071150080499020968 0 -0.0072691571782306967 0.06929602075639095 0 -0.0097626727398987118 0.068143826287960049 0 -0.0064629376633307759 0.066593724834317233 0 -0.0072691571782306967 0.06929602075639095 0 -0.0097626727398987118 0.068143826287960049 0 -0.0088241326658172001 0.071150080499020968 0 -0.012003716849663696 0.071674392747089311 0 -0.0097626727398987118 0.068143826287960049 0 -0.0088241326658172001 0.071150080499020968 0 -0.011885008606419594 0.068093658393580642 0 -0.012861193247103189 0.065005585381808131 0 -0.012003716849663696 0.071674392747089311 0 -0.01312017202260982 0.067403635958814059 0 -0.0097626727398987118 0.068143826287960049 0 -0.01312017202260982 0.067403635958814059 0 -0.013776084935640589 0.062339596318449084 0 -0.0096541629594463566 0.064514332089721488 0 -0.013776084935640589 0.062339596318449084 0 -0.0096541629594463566 0.064514332089721488 0 -0.01181568436889396 0.061788321505175596 0 -0.01312017202260982 0.067403635958814059 0 -0.0097626727398987118 0.068143826287960049 0 -0.0096541629594463566 0.064514332089721488 0 -0.0096541629594463566 0.064514332089721488 0 -0.0089947082901162146 0.062105706941930135 0 -0.01181568436889396 0.061788321505175596 0 -0.0097626727398987118 0.068143826287960049 0 -0.0096541629594463566 0.064514332089721488 0 -0.0064629376633307759 0.066593724834317233 0 -0.0096541629594463566 0.064514332089721488 0 -0.0053622239748561621 0.063602977048158885 0 -0.0064629376633307759 0.066593724834317233 0 -0.0096541629594463566 0.064514332089721488 0 -0.0053622239748561621 0.063602977048158885 0 -0.0089947082901162146 0.062105706941930135 0 -0.0030269923741312516 0.06683622225980701 0 -0.0053622239748561621 0.063602977048158885 0 -0.0064629376633307759 0.066593724834317233 0 -0.0074109594836667004 0.060860528824175072 0 -0.0075463048878272069 0.061320071285775234 0 -0.00797530546569457 0.060331280061546193 0 -0.0069269498465285911 0.061521469706569049 0 -0.0074109594836667004 0.060860528824175072 0 -0.0075463048878272069 0.061320071285775234 0 -0.0069269498465285911 0.061521469706569049 0 -0.0072590029745648842 0.062389687583704216 0 -0.0075463048878272069 0.061320071285775234 0 -0.0061819376942986275 0.063891838118285874 0 -0.0067491845707366585 0.062778306357601357 0 -0.0053622239748561621 0.063602977048158885 0 -0.0075463048878272069 0.061320071285775234 0 -0.0089947082901162146 0.062105706941930135 0 -0.0075463048878272069 0.061320071285775234 0 -0.0091789174251747235 0.060673357301309926 0 -0.00797530546569457 0.060331280061546193 0 -0.0075463048878272069 0.061320071285775234 0 -0.0091789174251747235 0.060673357301309926 0 -0.0089947082901162146 0.062105706941930135 0 -0.0091789174251747235 0.060673357301309926 0 -0.0089947082901162146 0.062105706941930135 0 -0.010595553111737077 0.061027899113559457 0 -0.0091789174251747235 0.060673357301309926 0 -0.010595553111737077 0.061027899113559457 0 -0.010746850245857946 0.060196114097299691 0 -0.0089947082901162146 0.062105706941930135 0 -0.01181568436889396 0.061788321505175596 0 -0.010595553111737077 0.061027899113559457 0 -0.01181568436889396 0.061788321505175596 0 -0.012005473414801715 0.060647015029458851 0 -0.010595553111737077 0.061027899113559457 0 -0.012005473414801715 0.060647015029458851 0 -0.010746850245857946 0.060196114097299691 0 -0.012453270631913368 0.059515251357833435 0 -0.012005473414801715 0.060647015029458851 0 -0.010595553111737077 0.061027899113559457 0 -0.010746850245857946 0.060196114097299691 0 -0.0029402373990378679 0.061836146084563136 0 -0.00022285235505299216 0.062068536868877158 0 -0.010746850245857946 0.060196114097299691 0 -0.0095491469907052484 0.059340957886390586 0 -0.012453270631913368 0.059515251357833435 0 0.006884320893500777 0.061671600212459647 0 0.0039202084862098819 0.060929884415478933 0 0.0091877638273676846 0.059158910158695122 0 0.006884320893500777 0.061671600212459647 0 0.0064077544657651815 0.064422633806487162 0 0.01029734066605466 0.06065582625251649 0 0.006884320893500777 0.061671600212459647 0 0.0064077544657651815 0.064422633806487162 0 0.0045448952240847865 0.063258730732497812 0 0.0064077544657651815 0.064422633806487162 0 0.0045448952240847865 0.063258730732497812 0 0.0042624611143311664 0.065648576371750977 0 0.006884320893500777 0.061671600212459647 0 0.0045448952240847865 0.063258730732497812 0 0.0039202084862098819 0.060929884415478933 0 0.0020726871872206146 0.063649378436958545 0 0.0039202084862098819 0.060929884415478933 0 -0.0023254732208751595 0.062738338474300284 0 0.0045448952240847865 0.063258730732497812 0 0.0020726871872206146 0.063649378436958545 0 0.0039202084862098819 0.060929884415478933 0 0.0045448952240847865 0.063258730732497812 0 0.0020726871872206146 0.063649378436958545 0 0.0042624611143311664 0.065648576371750977 0 -0.0091789174251747235 0.060673357301309926 0 -0.0095491469907052484 0.059340957886390586 0 -0.00797530546569457 0.060331280061546193 0 -0.0091789174251747235 0.060673357301309926 0 -0.010746850245857946 0.060196114097299691 0 -0.0095491469907052484 0.059340957886390586 0 -0.0095491469907052484 0.059340957886390586 0 -0.00797530546569457 0.060331280061546193 0 -0.0072775859628688424 0.060579646718902327 0 -0.0029402373990378679 0.061836146084563136 0 -0.0058122884142601076 0.06270120872240964 0 0.0020726871872206146 0.063649378436958545 0 -0.0023254732208751595 0.062738338474300284 0 -0.00014263274796061791 0.065758933619484719 0 -0.0023254732208751595 0.062738338474300284 0 -0.0067990778821472092 0.065191278423252619 0 -0.010390518531463879 0.065356281452453535 0 -0.0058122884142601076 0.06270120872240964 0 -0.008197467435719457 0.063718309703492459 0 -0.0094612021680074449 0.061948857088032439 0 -0.0072775859628688424 0.060579646718902327 0 -0.0077657692211564799 0.060266602941046687 0 -0.0094612021680074449 0.061948857088032439 0 -0.0072775859628688424 0.060579646718902327 0 -0.010390518531463879 0.065356281452453535 0 -0.00797530546569457 0.060331280061546193 0 -0.0072775859628688424 0.060579646718902327 0 -0.0077657692211564799 0.060266602941046687 0 -0.0068145033452353971 0.060768750511990224 0 -0.0074109594836667004 0.060860528824175072 0 -0.0077657692211564799 0.060266602941046687 0 -0.0074109594836667004 0.060860528824175072 0 -0.00797530546569457 0.060331280061546193 0 -0.0077657692211564799 0.060266602941046687 0 0.021216857661533712 0.07391877870855626 0 0.021186347024827617 0.075506319597838156 0 0.022277655379835518 0.076469487950704046 0 0.021216857661533712 0.07391877870855626 0 0.021186347024827617 0.075506319597838156 0 0.02030072943085787 0.07584503380055875 0 0.020895379986971604 0.0746502320298678 0 0.020378284709773122 0.07529442564562569 0 0.020193716572538524 0.076355822155159223 0 -0.0019951167920898363 0.046772108747125445 0 -0.0016201417963318809 0.046902935545526818 0 -0.0015268379210688961 0.047853742874662514 0 0.003173035972810882 0.061726199440744485 0 0.0072682505806408396 0.06790012526516212 0 0.003173035972810882 0.061726199440744485 0 0.0050169214372705303 0.05579924618009692 0 0.003173035972810882 0.061726199440744485 0 0.0048657750591926908 0.063486110948470509 0 -0.014870906633985067 0.060816943300560866 0 -0.014354373846307302 0.060963912468317318 0 -0.014452775884919385 0.060322387912075462 0 0.020895379986971604 0.0746502320298678 0 0.020378284709773122 0.07529442564562569 0 0.020000110811415721 0.07545247186300931 0 0.020378284709773122 0.07529442564562569 0 0.020012675224287426 0.075457379840212377 0 0.020193716572538524 0.076355822155159223 0 0.0051713159268718502 0.063494144900607674 0 0.0048657750591926908 0.063486110948470509 0 -0.0012105243432092784 0.047077714342449825 0 -0.0016201417963318809 0.046902935545526818 0 -0.0015268379210688961 0.047853742874662514 0 -0.0012105243432092784 0.047077714342449825 0 -0.0010860358658714472 0.04749397435180526 0 -0.00088401125972079856 0.047199029331914485 0 -0.0012105243432092784 0.047077714342449825 0 -0.0012963688230026526 0.046609546715547685 0 -0.00070765547914403799 0.046628623492953464 0 -0.0012105243432092784 0.047077714342449825 0 -0.0016201417963318809 0.046902935545526818 0 -0.0012963688230026526 0.046609546715547685 0 -0.0019951167920898363 0.046772108747125445 0 -0.0016201417963318809 0.046902935545526818 0 -0.0012963688230026526 0.046609546715547685 0 -0.014172353991423301 0.061425153916919328 0 -0.014414138844948271 0.062139435844360838 0 -0.013891341184871274 0.061623024217236241 0 0.003173035972810882 0.061726199440744485 0 -0.0034195815931087063 0.056514231672950638 0 -0.0019951167920898363 0.046772108747125445 0 -0.0012963688230026526 0.046609546715547685 0 -0.0011326818535460643 0.045935137024638195 0 -0.0012963688230026526 0.046609546715547685 0 -0.0011326818535460643 0.045935137024638195 0 -0.00070765547914403799 0.046628623492953464 0 -0.014560213112984924 0.061383646223673038 0 -0.014564671818148758 0.061287798805008703 0 -0.014573143237838282 0.061306885493696492 0 -0.0053751923997654863 0.06366507805454949 0 0.003173035972810882 0.061726199440744485 0 0.003173035972810882 0.061726199440744485 0 0.0019885892563584057 0.060850048564615226 0 -0.014870906633985067 0.060816943300560866 0 -0.014573143237838282 0.061306885493696492 0 -0.014354373846307302 0.060963912468317318 0 -0.014613873805662547 0.061338570915885349 0 -0.014573143237838282 0.061306885493696492 0 -0.014232475636157399 0.06147604418464285 0 -0.014232475636157399 0.06147604418464285 0 -0.013137180968401687 0.061230682552586735 0 -0.013835487090821733 0.060895145814003487 0 -0.014573143237838282 0.061306885493696492 0 -0.014232475636157399 0.06147604418464285 0 -0.014354373846307302 0.060963912468317318 0 -0.014232475636157399 0.06147604418464285 0 -0.014354373846307302 0.060963912468317318 0 -0.013835487090821733 0.060895145814003487 0 -0.013776084935640589 0.062339596318449084 0 -0.01181568436889396 0.061788321505175596 0 -0.013137180968401687 0.061230682552586735 0 -0.013776084935640589 0.062339596318449084 0 -0.014232475636157399 0.06147604418464285 0 -0.013137180968401687 0.061230682552586735 0 -0.01181568436889396 0.061788321505175596 0 -0.012005473414801715 0.060647015029458851 0 -0.013137180968401687 0.061230682552586735 0 -0.012005473414801715 0.060647015029458851 0 -0.013137180968401687 0.061230682552586735 0 -0.01321591790712945 0.060529398217364035 0 -0.013137180968401687 0.061230682552586735 0 -0.01321591790712945 0.060529398217364035 0 -0.013835487090821733 0.060895145814003487 0 -0.012005473414801715 0.060647015029458851 0 -0.01321591790712945 0.060529398217364035 0 -0.012453270631913368 0.059515251357833435 0 -0.01321591790712945 0.060529398217364035 0 -0.014452775884919385 0.060322387912075462 0 -0.012453270631913368 0.059515251357833435 0 0.0048657750591926908 0.063486110948470509 0 -0.00022285235505299216 0.062068536868877158 0 -0.01321591790712945 0.060529398217364035 0 -0.013835487090821733 0.060895145814003487 0 -0.014452775884919385 0.060322387912075462 0 -0.014354373846307302 0.060963912468317318 0 -0.013835487090821733 0.060895145814003487 0 -0.014452775884919385 0.060322387912075462 0 0.018183990674669404 0.077276586643058642 0 0.019495220223347712 0.078045152485309091 0 0.020193716572538524 0.076355822155159223 0 0.008464636663428499 0.069897766279546122 0 0.0072682505806408396 0.06790012526516212 0 0.0048657750591926908 0.063486110948470509 0 0.010054490435836722 0.066440655450479474 0 0.020012675224287426 0.075457379840212377 0 0.018183990674669404 0.077276586643058642 0 0.020193716572538524 0.076355822155159223 0 0.006884320893500777 0.061671600212459647 0 0.01029734066605466 0.06065582625251649 0 0.0091877638273676846 0.059158910158695122 0 0.013864859676313296 0.057413760701487883 0 0.01029734066605466 0.06065582625251649 0 0.0091877638273676846 0.059158910158695122 0 0.018183990674669404 0.077276586643058642 0 0.019495220223347712 0.078045152485309091 0 0.018116933897631648 0.079389313475167783 0 0.016286279951772672 0.079288710129905751 0 0.018183990674669404 0.077276586643058642 0 0.018116933897631648 0.079389313475167783 0 0.0097386751384959287 0.070489074148252867 0 0.010054490435836722 0.066440655450479474 0 0.019495220223347712 0.078045152485309091 0 0.020337650123216661 0.079435433499494626 0 0.018116933897631648 0.079389313475167783 0 0.021040451994257119 0.077393535464542182 0 0.022755757995509138 0.077306190074449749 0 0.020337650123216661 0.079435433499494626 0 -0.0014805267322734318 0.036513992593059243 0 -0.0024533244855857337 0.037264849113261334 0 -0.0017831397697039306 0.037728387017407411 0 0.019495220223347712 0.078045152485309091 0 0.021040451994257119 0.077393535464542182 0 0.020337650123216661 0.079435433499494626 0 0.0029036553336429117 0.052840344460209597 0 0.0062486452310442806 0.056050113369035225 0 0.021040451994257119 0.077393535464542182 0 0.021145004426364584 0.076410160879059857 0 0.02030072943085787 0.07584503380055875 0 0.019495220223347712 0.078045152485309091 0 0.021040451994257119 0.077393535464542182 0 0.02030072943085787 0.07584503380055875 0 0.021040451994257119 0.077393535464542182 0 0.021145004426364584 0.076410160879059857 0 0.022475644640453755 0.076627302501486763 0 0.021040451994257119 0.077393535464542182 0 0.022475644640453755 0.076627302501486763 0 0.022755757995509138 0.077306190074449749 0 0.0096261722106564043 0.060196196573463853 0 0.0050169214372705303 0.05579924618009692 0 0.021145004426364584 0.076410160879059857 0 0.021186347024827617 0.075506319597838156 0 0.022475644640453755 0.076627302501486763 0 0.021145004426364584 0.076410160879059857 0 0.021186347024827617 0.075506319597838156 0 0.02030072943085787 0.07584503380055875 0 -0.0010860358658714472 0.04749397435180526 0 -0.0013091319443226707 0.048044690492500437 0 -0.00050130463038731054 0.04729894646756732 0 -0.0012105243432092784 0.047077714342449825 0 -0.0010860358658714472 0.04749397435180526 0 -0.0015268379210688961 0.047853742874662514 0 0.0021090186287943246 0.050868725027680597 0 0.0032412951697394121 0.053469656166311622 0 0.0041892409802572637 0.052669418634421324 0 0.0050169214372705303 0.05579924618009692 0 0.0029036553336429117 0.052840344460209597 0 0.0050169214372705303 0.05579924618009692 0 0.0030108551459893285 0.052186101354756063 0 0.0029036553336429117 0.052840344460209597 0 0.0030108551459893285 0.052186101354756063 0 -0.0010860358658714472 0.04749397435180526 0 -0.0015268379210688961 0.047853742874662514 0 -0.0013091319443226707 0.048044690492500437 0 0.00082598798657186568 0.045495147876190356 0 0.00047717600043683498 0.045789733465311594 0 -0.0019611147458555747 0.043671401381536731 0 0.00082598798657186568 0.045495147876190356 0 -0.0019611147458555747 0.043671401381536731 0 -0.00097811744266426952 0.041380839797565766 0 0.0030108551459893285 0.052186101354756063 0 -0.0011800650661189253 0.038145353173907846 0 0.0029036553336429117 0.052840344460209597 0 -0.0011304143555311286 0.039934888289392664 0 0.00018015749317828498 0.018661769087876964 0 0.0012486385920198572 0.018733292673358076 0 0.00099343821289402806 0.016954921584304731 0 -0.0011564277343229673 0.047869087930950981 0 -0.00062893692601367879 0.048320776709259279 0 -0.00065180222577801276 0.047792259450218068 0 0.0012486385920198572 0.018733292673358076 0 0.0018717402898011182 0.017782476336213264 0 0.0032906418615197349 0.01951922915889651 0 0.00018015749317828498 0.018661769087876964 0 0.0012486385920198572 0.018733292673358076 0 0.0014941409508400815 0.019856555261842608 0 0.0012486385920198572 0.018733292673358076 0 0.0018717402898011182 0.017782476336213264 0 0.00099343821289402806 0.016954921584304731 0 0.0018717402898011182 0.017782476336213264 0 0.0019685722835630411 0.016971556841264255 0 0.00099343821289402806 0.016954921584304731 0 -0.00062893692601367879 0.048320776709259279 0 -0.00022538483314506132 0.047478501808706733 0 -0.00065180222577801276 0.047792259450218068 0 -0.0011564277343229673 0.047869087930950981 0 -0.00065180222577801276 0.047792259450218068 0 -0.00050130463038731054 0.04729894646756732 0 -0.00022538483314506132 0.047478501808706733 0 -0.00065180222577801276 0.047792259450218068 0 -0.00050130463038731054 0.04729894646756732 0 -0.0011800650661189253 0.038145353173907846 0 0.00054872444319713676 0.033475615549737284 0 0.0030108551459893285 0.052186101354756063 0 0.0023647984108562271 0.051312235752173627 0 0.0035029863091045107 0.018008625157784858 0 0.0028780227104848832 0.017891155133244723 0 0.0035314540967172235 0.01749320482618676 0 0.0035029863091045107 0.018008625157784858 0 0.0028780227104848832 0.017891155133244723 0 0.0029431087866179902 0.018277598644982022 0 0.0018717402898011182 0.017782476336213264 0 0.0028780227104848832 0.017891155133244723 0 0.002960409690311157 0.018853575211752963 0 0.00084199644947329205 0.020743803802636702 0 0.0013865955850971929 0.022720698987651011 0 0.0014612488877158492 0.021232469792107238 0 0.0013865955850971929 0.022720698987651011 0 0.0019685722835630411 0.016971556841264255 0 0.0028780227104848832 0.017891155133244723 0 0.0027694974824230526 0.016678158160582438 0 0.0018717402898011182 0.017782476336213264 0 0.0019685722835630411 0.016971556841264255 0 0.0028780227104848832 0.017891155133244723 0 0.0035314540967172235 0.01749320482618676 0 0.0035731436167530536 0.016758481092890166 0 0.0039898344320395936 0.017194398144481385 0 0.0035314540967172235 0.01749320482618676 0 0.0035731436167530536 0.016758481092890166 0 0.0027694974824230526 0.016678158160582438 0 0.0028780227104848832 0.017891155133244723 0 0.0035314540967172235 0.01749320482618676 0 0.0027694974824230526 0.016678158160582438 0 0.0040658386585472753 0.015679743620188022 0 0.0027694974824230526 0.016678158160582438 0 0.0028932924848722643 0.014899607055173774 0 0.0040658386585472753 0.015679743620188022 0 0.0035731436167530536 0.016758481092890166 0 0.0039898344320395936 0.017194398144481385 0 0.0040658386585472753 0.015679743620188022 0 0.0035731436167530536 0.016758481092890166 0 0.0027694974824230526 0.016678158160582438 0 0.0019685722835630411 0.016971556841264255 0 0.0027694974824230526 0.016678158160582438 0 0.0016256436813286163 0.015396571930637617 0 0.0027694974824230526 0.016678158160582438 0 0.0028932924848722643 0.014899607055173774 0 0.0016256436813286163 0.015396571930637617 0 0.0028932924848722643 0.014899607055173774 0 0.0016256436813286163 0.015396571930637617 0 0.0023508482800819338 0.013571014105988582 0 0.0040658386585472753 0.015679743620188022 0 0.0028932924848722643 0.014899607055173774 0 0.0042550541148655818 0.014285695961222434 0 -0.00050130463038731054 0.04729894646756732 0 0.00023668227694604302 0.046465677750775931 0 -0.00070765547914403799 0.046628623492953464 0 -0.0012105243432092784 0.047077714342449825 0 -0.00088401125972079856 0.047199029331914485 0 -0.00070765547914403799 0.046628623492953464 0 -0.0010860358658714472 0.04749397435180526 0 -0.00088401125972079856 0.047199029331914485 0 -0.00050130463038731054 0.04729894646756732 0 -0.00088401125972079856 0.047199029331914485 0 -0.00050130463038731054 0.04729894646756732 0 -0.00070765547914403799 0.046628623492953464 0 0.0019685722835630411 0.016971556841264255 0 0.00099343821289402806 0.016954921584304731 0 0.0016256436813286163 0.015396571930637617 0 0.00054872444319713676 0.033475615549737284 0 0.0013818575902065746 0.03173619219367578 0 -0.00022538483314506132 0.047478501808706733 0 -0.00050130463038731054 0.04729894646756732 0 0.00023668227694604302 0.046465677750775931 0 0.0013818575902065746 0.03173619219367578 0 0.001898385014613715 0.031687704630307498 0 0.00023668227694604302 0.046465677750775931 0 -0.00025984733468384651 0.045914647742459354 0 0.00069062895200999578 0.045419210311713414 0 -0.0011326818535460643 0.045935137024638195 0 -0.00025984733468384651 0.045914647742459354 0 -0.00070765547914403799 0.046628623492953464 0 0.00023668227694604302 0.046465677750775931 0 -0.00025984733468384651 0.045914647742459354 0 -0.00070765547914403799 0.046628623492953464 0 -0.0011326818535460643 0.045935137024638195 0 -0.00025984733468384651 0.045914647742459354 0 -0.00030332305572804266 0.045164419648136903 0 -0.0034195815931087063 0.056514231672950638 0 -0.0060250720866784225 0.051714617634091194 0 -0.013891341184871274 0.061623024217236241 0 -0.01366573710426979 0.06097776153217805 0 -0.012846018090542963 0.060875537858856341 0 -0.013940869260504717 0.060270859515015568 0 -0.01366573710426979 0.06097776153217805 0 -0.013412795173985531 0.060543981939158546 0 -0.013412795173985531 0.060543981939158546 0 -0.012846018090542963 0.060875537858856341 0 -0.013214849760200978 0.059833950212646668 0 -0.01366573710426979 0.06097776153217805 0 -0.013412795173985531 0.060543981939158546 0 -0.012846018090542963 0.060875537858856341 0 -0.013940869260504717 0.060270859515015568 0 -0.013412795173985531 0.060543981939158546 0 -0.013214849760200978 0.059833950212646668 0 -0.00030332305572804266 0.045164419648136903 0 0.00069062895200999578 0.045419210311713414 0 0.00053305126193250486 0.044399368818705334 0 -0.012846018090542963 0.060875537858856341 0 -0.011595197225679862 0.059757981178459624 0 -0.013214849760200978 0.059833950212646668 0 -0.0060250720866784225 0.051714617634091194 0 -0.0063481241857777284 0.044447278544674465 0 -0.00025984733468384651 0.045914647742459354 0 -0.00030332305572804266 0.045164419648136903 0 0.00069062895200999578 0.045419210311713414 0 0.0028932924848722643 0.014899607055173774 0 0.0023508482800819338 0.013571014105988582 0 0.0042550541148655818 0.014285695961222434 0 0.0023508482800819338 0.013571014105988582 0 0.0042550541148655818 0.014285695961222434 0 0.0039325249023459399 0.012959981216524865 0 0.0042550541148655818 0.014285695961222434 0 0.0039325249023459399 0.012959981216524865 0 0.0053695446298779193 0.013479566964247092 0 0.0039325249023459399 0.012959981216524865 0 0.0031571140321197057 0.011759131835130991 0 0.0045344147596408169 0.011721926939047398 0 0.0023508482800819338 0.013571014105988582 0 0.0039325249023459399 0.012959981216524865 0 0.0031571140321197057 0.011759131835130991 0 0.00069062895200999578 0.045419210311713414 0 0.00053305126193250486 0.044399368818705334 0 0.0011394943069652442 0.044379147270337219 0 0.001898385014613715 0.031687704630307498 0 0.00091878850092300005 0.03667258643913926 0 -0.0022200382326274097 0.037493501585289531 0 -0.00045296957674823208 0.036270161295360509 0 -0.00010720901396798621 0.035596546456016488 0 -0.0022200382326274097 0.037493501585289531 0 -0.0009741527399636877 0.037463916822887584 0 -0.00045296957674823208 0.036270161295360509 0 -0.0063481241857777284 0.044447278544674465 0 0.00091878850092300005 0.03667258643913926 0 -0.018918789232014944 0.054595665401123671 0 -0.0078258061940042079 0.04489262473210056 0 -0.017221312458236996 0.046891237820769434 0 -0.0063481241857777284 0.044447278544674465 0 -0.0030576551895899946 0.038576037898956743 0 0.00091878850092300005 0.03667258643913926 0 -0.00057689606038193873 0.029696319231681607 0 -0.00095395359506528763 0.03743442127961466 0 0.00064597113177201817 0.037397652033472721 0 -0.00045296957674823208 0.036270161295360509 0 -0.010345460632094782 0.038216187839510231 0 -0.011018818428005736 0.036396668847513566 0 -0.010018273375793677 0.036924988395777403 0 0.00064597113177201817 0.037397652033472721 0 -0.00045296957674823208 0.036270161295360509 0 -0.00010720901396798621 0.035596546456016488 0 -0.00057689606038193873 0.029696319231681607 0 -0.0030576551895899946 0.038576037898956743 0 0.00091878850092300005 0.03667258643913926 0 0.00076813669530467461 0.036769041538791833 0 -0.010304680147122122 0.036472906560079947 0 -0.010821143991522028 0.036309027635856729 0 -0.011018818428005736 0.036396668847513566 0 -0.010304680147122122 0.036472906560079947 0 -0.011018818428005736 0.036396668847513566 0 -0.010018273375793677 0.036924988395777403 0 -0.010304680147122122 0.036472906560079947 0 -0.010821143991522028 0.036309027635856729 0 -0.010415337719056708 0.036104906320062066 0 -0.003121104551949611 0.038599848445782473 0 -0.0030576551895899946 0.038576037898956743 0 -0.0038543404589440173 0.037977400887515771 0 -0.0030576551895899946 0.038576037898956743 0 -0.01143079356122439 0.03736969751483115 0 -0.0078258061940042079 0.04489262473210056 0 -0.013245933928468479 0.041832855774942404 0 -0.01143079356122439 0.03736969751483115 0 -0.010821143991522028 0.036309027635856729 0 -0.010706977184116043 0.036212834166935534 0 -0.01143079356122439 0.03736969751483115 0 -0.010621048645919137 0.035964861517230676 0 -0.010821143991522028 0.036309027635856729 0 -0.010621048645919137 0.035964861517230676 0 -0.010821143991522028 0.036309027635856729 0 -0.010415337719056708 0.036104906320062066 0 -0.019937515269538814 0.036253646624988374 0 -0.015490123355605453 0.038718004539626573 0 -0.017221312458236996 0.046891237820769434 0 -0.0078258061940042079 0.04489262473210056 0 -0.017221312458236996 0.046891237820769434 0 -0.013245933928468479 0.041832855774942404 0 -0.015490123355605453 0.038718004539626573 0 -0.017221312458236996 0.046891237820769434 0 -0.013245933928468479 0.041832855774942404 0 -0.015490123355605453 0.038718004539626573 0 -0.01143079356122439 0.03736969751483115 0 -0.013245933928468479 0.041832855774942404 0 -0.025136389385908436 0.043084906352244837 0 -0.02107356045578751 0.041099569304817167 0 -0.02328721864207469 0.047714535109776357 0 -0.019937515269538814 0.036253646624988374 0 -0.017221312458236996 0.046891237820769434 0 -0.02328721864207469 0.047714535109776357 0 -0.019949301309020884 0.038648162641323661 0 -0.021328749767908137 0.04201779459655184 0 -0.017221312458236996 0.046891237820769434 0 -0.02328721864207469 0.047714535109776357 0 -0.019865702498427541 0.050239972297214559 0 -0.025136389385908436 0.043084906352244837 0 -0.02328721864207469 0.047714535109776357 0 -0.027789820519434089 0.044905908955355643 0 -0.025136389385908436 0.043084906352244837 0 -0.027669811831175839 0.042653877184057325 0 -0.027789820519434089 0.044905908955355643 0 -0.017704967618712601 0.061311564171915668 0 -0.019415495963153943 0.061462678147696639 0 -0.018895128063972168 0.059193922513383471 0 -0.019622246390456101 0.057923906413292904 0 -0.020058926436276634 0.056825272588567191 0 -0.020081588649616816 0.054605480433972765 0 -0.02328721864207469 0.047714535109776357 0 -0.027789820519434089 0.044905908955355643 0 -0.020081588649616816 0.054605480433972765 0 -0.019415495963153943 0.061462678147696639 0 -0.019622246390456101 0.057923906413292904 0 -0.020081588649616816 0.054605480433972765 0 -0.02224451491387934 0.054257157092973712 0 -0.021166723308772048 0.055038729249187152 0 -0.019415495963153943 0.061462678147696639 0 -0.019622246390456101 0.057923906413292904 0 -0.018895128063972168 0.059193922513383471 0 -0.017626583548092236 0.059743174582538486 0 -0.018895128063972168 0.059193922513383471 0 -0.020058926436276634 0.056825272588567191 0 -0.019622246390456101 0.057923906413292904 0 -0.018895128063972168 0.059193922513383471 0 -0.020058926436276634 0.056825272588567191 0 -0.018918789232014944 0.054595665401123671 0 -0.017221312458236996 0.046891237820769434 0 -0.019865702498427541 0.050239972297214559 0 -0.0063481241857777284 0.044447278544674465 0 -0.014587014007632624 0.050573633430801027 0 -0.018918789232014944 0.054595665401123671 0 -0.020058926436276634 0.056825272588567191 0 -0.020081588649616816 0.054605480433972765 0 -0.018918789232014944 0.054595665401123671 0 -0.020081588649616816 0.054605480433972765 0 -0.019865702498427541 0.050239972297214559 0 -0.02328721864207469 0.047714535109776357 0 -0.020081588649616816 0.054605480433972765 0 -0.019865702498427541 0.050239972297214559 0 0.0088588890471950552 0.018026340285283871 0 0.0083615103144867031 0.017587640793330955 0 0.0090428083339330681 0.019353709183760486 0 0.0088588890471950552 0.018026340285283871 0 0.0090428083339330681 0.019353709183760486 0 0.0090917885078567184 0.017868105511629963 0 -0.0036749778669204493 0.035657385666620599 0 -0.0069501777786317694 0.035621492858647574 0 -0.0066247635769859673 0.037658370849766601 0 0.00059952013719608379 0.027556578744911624 0 0.00050374199000685486 0.027127777988736956 0 0.0088588890471950552 0.018026340285283871 0 0.0090917885078567184 0.017868105511629963 0 0.0087612977886146297 0.017506154263907146 0 0.0088588890471950552 0.018026340285283871 0 0.0083615103144867031 0.017587640793330955 0 0.0087612977886146297 0.017506154263907146 0 0.0073999219210834138 0.018054913405998504 0 0.0083615103144867031 0.017587640793330955 0 0.0078865550472207429 0.017104492262656073 0 0.0073999219210834138 0.018054913405998504 0 0.0083615103144867031 0.017587640793330955 0 0.0090428083339330681 0.019353709183760486 0 -0.0011016952956077954 0.028730360462217813 0 -0.0038612606352703693 0.029793226258514206 0 -0.00035686888086411183 0.033352539992279676 0 -0.0036749778669204493 0.035657385666620599 0 -0.0057646456786886813 0.033380523942539451 0 -0.0011016952956077954 0.028730360462217813 0 0.00059952013719608379 0.027556578744911624 0 0.0066603254576197302 0.022861191655830365 0 0.0073999219210834138 0.018054913405998504 0 0.0090428083339330681 0.019353709183760486 0 -0.0036749778669204493 0.035657385666620599 0 -0.0057646456786886813 0.033380523942539451 0 -0.0069501777786317694 0.035621492858647574 0 -0.0057646456786886813 0.033380523942539451 0 -0.0077536957288519125 0.034805730430717656 0 -0.0069501777786317694 0.035621492858647574 0 -0.0077536957288519125 0.034805730430717656 0 -0.0088841840740678454 0.034798990120298558 0 -0.0087001113641434306 0.035863786183621439 0 -0.0069501777786317694 0.035621492858647574 0 -0.0087001113641434306 0.035863786183621439 0 -0.0078174685616026127 0.036897651646865419 0 -0.0077536957288519125 0.034805730430717656 0 -0.0069501777786317694 0.035621492858647574 0 -0.0087001113641434306 0.035863786183621439 0 -0.010621048645919137 0.035964861517230676 0 -0.010415337719056708 0.036104906320062066 0 -0.0098264715954418224 0.035786923946264398 0 -0.0098264715954418224 0.035786923946264398 0 -0.0088841840740678454 0.034798990120298558 0 -0.0087001113641434306 0.035863786183621439 0 -0.0087001113641434306 0.035863786183621439 0 -0.0094997038991781243 0.03636503406673014 0 -0.0089679928196420167 0.037141363270704421 0 -0.0098264715954418224 0.035786923946264398 0 -0.0087001113641434306 0.035863786183621439 0 -0.0094997038991781243 0.03636503406673014 0 -0.010304680147122122 0.036472906560079947 0 -0.0098264715954418224 0.035786923946264398 0 -0.0094997038991781243 0.03636503406673014 0 -0.010304680147122122 0.036472906560079947 0 -0.0094997038991781243 0.03636503406673014 0 -0.010018273375793677 0.036924988395777403 0 -0.010304680147122122 0.036472906560079947 0 -0.010415337719056708 0.036104906320062066 0 -0.0098264715954418224 0.035786923946264398 0 -0.010345460632094782 0.038216187839510231 0 -0.0089679928196420167 0.037141363270704421 0 -0.0078761282241139752 0.038350114489075063 0 -0.00057689606038193873 0.029696319231681607 0 0.0002823912414510208 0.026874931508240277 0 -0.0094997038991781243 0.03636503406673014 0 -0.010018273375793677 0.036924988395777403 0 -0.0089679928196420167 0.037141363270704421 0 -0.010345460632094782 0.038216187839510231 0 -0.010018273375793677 0.036924988395777403 0 -0.0089679928196420167 0.037141363270704421 0 -0.0069501777786317694 0.035621492858647574 0 -0.0078174685616026127 0.036897651646865419 0 -0.0066247635769859673 0.037658370849766601 0 -0.0089679928196420167 0.037141363270704421 0 -0.0078174685616026127 0.036897651646865419 0 -0.0078761282241139752 0.038350114489075063 0 -0.0087001113641434306 0.035863786183621439 0 -0.0089679928196420167 0.037141363270704421 0 -0.0078174685616026127 0.036897651646865419 0 0.0090168248846081295 0.017595180830020839 0 0.0090917885078567184 0.017868105511629963 0 0.0089088157551831144 0.017430430645580284 0 -0.0078174685616026127 0.036897651646865419 0 -0.0078761282241139752 0.038350114489075063 0 -0.0066247635769859673 0.037658370849766601 0 0.0002823912414510208 0.026874931508240277 0 0.00050374199000685486 0.027127777988736956 0 0.0090917885078567184 0.017868105511629963 0 0.0089088157551831144 0.017430430645580284 0 0.0087612977886146297 0.017506154263907146 0 0.0089088157551831144 0.017430430645580284 0 0.0087188540450397149 0.017190926533969496 0 0.0087612977886146297 0.017506154263907146 0 0.0089088157551831144 0.017430430645580284 0 0.0089035192659683276 0.017195897925764075 0 0.0090556512154756179 0.017462126593809187 0 0.0090168248846081295 0.017595180830020839 0 0.0089088157551831144 0.017430430645580284 0 0.0090556512154756179 0.017462126593809187 0 0.0002823912414510208 0.026874931508240277 0 0.0017074511996293029 0.025757573111219907 0 0.0089088157551831144 0.017430430645580284 0 0.0089035192659683276 0.017195897925764075 0 0.0087188540450397149 0.017190926533969496 0 0.0094087281153910733 0.017626947721249415 0 0.0090556512154756179 0.017462126593809187 0 0.0090972639681958407 0.016987947950185135 0 0.0094087281153910733 0.017626947721249415 0 0.0088126801920788891 0.017638101665309717 0 0.0090556512154756179 0.017462126593809187 0 -0.00057689606038193873 0.029696319231681607 0 0.0021260123458324144 0.020023517579428569 0 0.0039325249023459399 0.012959981216524865 0 0.0045344147596408169 0.011721926939047398 0 0.0053695446298779193 0.013479566964247092 0 0.0089035192659683276 0.017195897925764075 0 0.0090556512154756179 0.017462126593809187 0 0.0090972639681958407 0.016987947950185135 0 0.0089035192659683276 0.017195897925764075 0 0.0090972639681958407 0.016987947950185135 0 0.0085810828278786201 0.016786723743627836 0 0.0090972639681958407 0.016987947950185135 0 0.0085810828278786201 0.016786723743627836 0 0.0084460512347972506 0.016457046658902682 0 0.0089035192659683276 0.017195897925764075 0 0.0087188540450397149 0.017190926533969496 0 0.0085810828278786201 0.016786723743627836 0 0.0087188540450397149 0.017190926533969496 0 0.0085810828278786201 0.016786723743627836 0 0.0084211100498416767 0.016830046417027334 0 0.0084211100498416767 0.016830046417027334 0 0.0082580728744374183 0.016897529649102766 0 0.0081531848643388669 0.016513377890350355 0 0.0085810828278786201 0.016786723743627836 0 0.0084211100498416767 0.016830046417027334 0 0.0081531848643388669 0.016513377890350355 0 0.0087188540450397149 0.017190926533969496 0 0.0084211100498416767 0.016830046417027334 0 0.0082580728744374183 0.016897529649102766 0 0.0087188540450397149 0.017190926533969496 0 0.0087612977886146297 0.017506154263907146 0 0.0082580728744374183 0.016897529649102766 0 0.0083615103144867031 0.017587640793330955 0 0.0087612977886146297 0.017506154263907146 0 0.0082580728744374183 0.016897529649102766 0 0.0083615103144867031 0.017587640793330955 0 0.0078865550472207429 0.017104492262656073 0 0.0082580728744374183 0.016897529649102766 0 0.0082580728744374183 0.016897529649102766 0 0.0080123639137087699 0.016574759272132356 0 0.0081531848643388669 0.016513377890350355 0 0.0078865550472207429 0.017104492262656073 0 0.0082580728744374183 0.016897529649102766 0 0.0080123639137087699 0.016574759272132356 0 0.0080120179198485166 0.016332124129913212 0 0.0080123639137087699 0.016574759272132356 0 0.0081531848643388669 0.016513377890350355 0 0.0081531848643388669 0.016513377890350355 0 0.0080038744973263271 0.016428413232206451 0 0.0084460512347972506 0.016457046658902682 0 0.0081531848643388669 0.016513377890350355 0 0.0079595403086186074 0.016416673086487716 0 0.0080038744973263271 0.016428413232206451 0 0.0079595403086186074 0.016416673086487716 0 0.0080038744973263271 0.016428413232206451 0 0.0075521241948374286 0.016533318090444237 0 0.0080120179198485166 0.016332124129913212 0 0.0081531848643388669 0.016513377890350355 0 0.0079595403086186074 0.016416673086487716 0 0.0080120179198485166 0.016332124129913212 0 0.0080355783984408548 0.016349479297883902 0 0.0079595403086186074 0.016416673086487716 0 0.0042550541148655818 0.014285695961222434 0 0.0053695446298779193 0.013479566964247092 0 0.006416388190080332 0.015216709055799648 0 0.0040658386585472753 0.015679743620188022 0 0.0042550541148655818 0.014285695961222434 0 0.006416388190080332 0.015216709055799648 0 0.0021260123458324144 0.020023517579428569 0 0.0042343337309355697 0.017924295135282087 0 0.0085810828278786201 0.016786723743627836 0 0.0081531848643388669 0.016513377890350355 0 0.0084460512347972506 0.016457046658902682 0 0.0042343337309355697 0.017924295135282087 0 0.0049711001258267639 0.017696199936935175 0 0.0080038744973263271 0.016428413232206451 0 0.0084460512347972506 0.016457046658902682 0 0.0075521241948374286 0.016533318090444237 0 0.006416388190080332 0.015216709055799648 0 0.0059158510791607662 0.016678429669185837 0 0.0075521241948374286 0.016533318090444237 0 0.0042810851582170233 0.016143979789662592 0 0.0046253149914700399 0.016601834286316182 0 0.0040658386585472753 0.015679743620188022 0 0.006416388190080332 0.015216709055799648 0 0.0059158510791607662 0.016678429669185837 0 0.0039898344320395936 0.017194398144481385 0 0.0035339015259103009 0.017738283821405007 0 0.0036276824771245891 0.017756398017151339 0 0.0035314540967172235 0.01749320482618676 0 0.0039898344320395936 0.017194398144481385 0 0.0036276824771245891 0.017756398017151339 0 0.0046253149914700399 0.016601834286316182 0 0.0051425082867026803 0.017327094916174866 0 0.0075521241948374286 0.016533318090444237 0 0.0073445219309005742 0.017086255215143092 0 0.0077781197834183042 0.016639210073654608 0 0.0059158510791607662 0.016678429669185837 0 0.0075521241948374286 0.016533318090444237 0 0.0073445219309005742 0.017086255215143092 0 0.0051425082867026803 0.017327094916174866 0 0.0056541294074670964 0.018181993889827507 0 0.0035339015259103009 0.017738283821405007 0 0.0034895752074965607 0.017889571273337519 0 0.003317998165403741 0.018098379674204246 0 0.0035339015259103009 0.017738283821405007 0 0.0034895752074965607 0.017889571273337519 0 0.0036276824771245891 0.017756398017151339 0 0.0035029863091045107 0.018008625157784858 0 0.0035314540967172235 0.01749320482618676 0 0.0036276824771245891 0.017756398017151339 0 0.0034895752074965607 0.017889571273337519 0 0.0036276824771245891 0.017756398017151339 0 0.0034926706815454644 0.017969092859157428 0 0.0035029863091045107 0.018008625157784858 0 0.0036276824771245891 0.017756398017151339 0 0.0034926706815454644 0.017969092859157428 0 0.0080355783984408548 0.016349479297883902 0 0.0079595403086186074 0.016416673086487716 0 0.0079051033206685353 0.016643463577091757 0 0.0079595403086186074 0.016416673086487716 0 0.0075521241948374286 0.016533318090444237 0 0.0077781197834183042 0.016639210073654608 0 0.0079595403086186074 0.016416673086487716 0 0.0079051033206685353 0.016643463577091757 0 0.0077781197834183042 0.016639210073654608 0 0.0073445219309005742 0.017086255215143092 0 0.0077781197834183042 0.016639210073654608 0 0.0077023195554183051 0.016898758031797526 0 0.0079051033206685353 0.016643463577091757 0 0.0077781197834183042 0.016639210073654608 0 0.0077023195554183051 0.016898758031797526 0 0.0073445219309005742 0.017086255215143092 0 0.0077023195554183051 0.016898758031797526 0 0.0076856566134736633 0.017035298364869125 0 0.0080123936861956173 0.016666104174092883 0 0.0079051033206685353 0.016643463577091757 0 0.0078587875111232088 0.016911135026660171 0 0.0080123936861956173 0.016666104174092883 0 0.0078587875111232088 0.016911135026660171 0 0.0080557721187250915 0.016954671608906027 0 0.0079051033206685353 0.016643463577091757 0 0.0077023195554183051 0.016898758031797526 0 0.0078587875111232088 0.016911135026660171 0 0.0078587875111232088 0.016911135026660171 0 0.0076856566134736633 0.017035298364869125 0 0.0078592430070939991 0.017231464527304684 0 0.0078587875111232088 0.016911135026660171 0 0.0078592430070939991 0.017231464527304684 0 0.0080557721187250915 0.016954671608906027 0 0.0077023195554183051 0.016898758031797526 0 0.0078587875111232088 0.016911135026660171 0 0.0076856566134736633 0.017035298364869125 0 0.0039473415301333747 0.018297669197773481 0 0.0037667343478909863 0.020074430761752804 0 0.0030959992693218303 0.019162026904649607 0 0.0037667343478909863 0.020074430761752804 0 0.0055432080350487469 0.020195238768395921 0 0.0044249399976283464 0.021592892834374783 0 0.0039473415301333747 0.018297669197773481 0 0.0037667343478909863 0.020074430761752804 0 0.0055432080350487469 0.020195238768395921 0 0.0056541294074670964 0.018181993889827507 0 0.0062860733878313986 0.019503362531907265 0 0.0062860733878313986 0.019503362531907265 0 0.0073228602858735874 0.017871543181383013 0 0.0026462453561880085 0.023223120540373007 0 0.0034094037923659 0.021695443067955743 0 0.0035029863091045107 0.018008625157784858 0 0.0035570823595435009 0.017871301369221312 0 0.0034926706815454644 0.017969092859157428 0 0.0035570823595435009 0.017871301369221312 0 0.0034926706815454644 0.017969092859157428 0 0.003317998165403741 0.018098379674204246 0 -2.4310694144402954e-05 0.019009106076914108 0 0.003317998165403741 0.018098379674204246 0 0.0019531713283421435 0.01929368170065068 0 0.0035339015259103009 0.017738283821405007 0 0.0039473415301333747 0.018297669197773481 0 0.003317998165403741 0.018098379674204246 0 0.0034895752074965607 0.017889571273337519 0 0.0034926706815454644 0.017969092859157428 0 0.003317998165403741 0.018098379674204246 0 0.003317998165403741 0.018098379674204246 0 0.0030959992693218303 0.019162026904649607 0 0.0019531713283421435 0.01929368170065068 0 0.0039473415301333747 0.018297669197773481 0 0.003317998165403741 0.018098379674204246 0 0.0030959992693218303 0.019162026904649607 0 0.0037667343478909863 0.020074430761752804 0 0.0030959992693218303 0.019162026904649607 0 0.0024420579795399423 0.020266865589409867 0 0.0037667343478909863 0.020074430761752804 0 0.0024420579795399423 0.020266865589409867 0 0.0026861365794783095 0.021600062916813711 0 0.0030959992693218303 0.019162026904649607 0 0.0024420579795399423 0.020266865589409867 0 0.0019531713283421435 0.01929368170065068 0 0.0024420579795399423 0.020266865589409867 0 0.0019531713283421435 0.01929368170065068 0 0.00084863316544853931 0.01985366938350408 0 -2.4310694144402954e-05 0.019009106076914108 0 0.0019531713283421435 0.01929368170065068 0 0.00084863316544853931 0.01985366938350408 0 -2.4310694144402954e-05 0.019009106076914108 0 0.00084863316544853931 0.01985366938350408 0 0.00027335981789000739 0.02080949432832703 0 0.0026462453561880085 0.023223120540373007 0 0.001736284383288822 0.025026016356886813 0 0.00084863316544853931 0.01985366938350408 0 0.00027335981789000739 0.02080949432832703 0 0.0015491868662769331 0.021027609719599494 0 0.0024420579795399423 0.020266865589409867 0 0.00084863316544853931 0.01985366938350408 0 0.0015491868662769331 0.021027609719599494 0 0.00027335981789000739 0.02080949432832703 0 0.0015491868662769331 0.021027609719599494 0 0.0014873279074960795 0.022549849035506657 0 0.001736284383288822 0.025026016356886813 0 0.001130573779282757 0.028714131032399996 0 0.00069666980137632188 0.028554783757181325 0 0.00052024514326334597 0.027240555474084098 0 0.0014097046846147964 0.028767900372144578 0 7.9755608490397729e-05 0.023790842574329809 0 0.0013671086342516299 0.025350381230944369 0 0.00028500161891313976 0.025424416182809561 0 0.001736284383288822 0.025026016356886813 0 0.0017722612821778753 0.024898693034917142 0 0.0026861365794783095 0.021600062916813711 0 0.0014873279074960795 0.022549849035506657 0 0.0030179741572497858 0.023042829727351624 0 0.0015491868662769331 0.021027609719599494 0 0.0026861365794783095 0.021600062916813711 0 0.0014873279074960795 0.022549849035506657 0 0.0024420579795399423 0.020266865589409867 0 0.0015491868662769331 0.021027609719599494 0 0.0026861365794783095 0.021600062916813711 0 0.0018582941737380584 0.02680302033299236 0 0.0013671086342516299 0.025350381230944369 0 0.0027462253978351239 0.026945417089600365 0 0.0017722612821778753 0.024898693034917142 0 0.0027272541857212571 0.026074114737408501 0 0.0014873279074960795 0.022549849035506657 0 0.0030179741572497858 0.023042829727351624 0 0.0024642974338627563 0.024838417789523528 0 0.00082417895034913138 0.025819357980342364 0 -0.0021090287173018704 0.023288895139530336 0 -0.0015844726765386816 0.027570928568267823 0 0.001130573779282757 0.028714131032399996 0 0.00035932859636228774 0.030673830188515036 0 0.0010479543256366711 0.027670576753678768 0 0.001130573779282757 0.028714131032399996 0 0.0018582941737380584 0.02680302033299236 0 0.0013671086342516299 0.025350381230944369 0 0.00028500161891313976 0.025424416182809561 0 -0.00022760174910074304 0.036100538934263161 0 -0.00044247308564400966 0.035004479810038021 0 0.00015606907343380152 0.03553996668768597 0 0.0056676102918019064 0.021411200296595587 0 0.0042927190280873835 0.021165581209462742 0 0.0046013070859521601 0.023053494232489202 0 0.0056676102918019064 0.021411200296595587 0 0.0065842249675085859 0.022072182484825637 0 0.0068992919283961448 0.021266643527161688 0 0.0062860733878313986 0.019503362531907265 0 0.0064947394766064126 0.019893191918638052 0 0.0055762376017615351 0.019632877980149253 0 0.0056676102918019064 0.021411200296595587 0 0.0068992919283961448 0.021266643527161688 0 0.0055762376017615351 0.019632877980149253 0 0.0056676102918019064 0.021411200296595587 0 0.0042927190280873835 0.021165581209462742 0 0.0062860733878313986 0.019503362531907265 0 0.0051676003898848437 0.020770335951245205 0 0.0037667343478909863 0.020074430761752804 0 0.0026861365794783095 0.021600062916813711 0 0.0044249399976283464 0.021592892834374783 0 0.0051676003898848437 0.020770335951245205 0 0.0046813198765197689 0.021336257912836994 0 0.0026861365794783095 0.021600062916813711 0 0.0044249399976283464 0.021592892834374783 0 0.0030179741572497858 0.023042829727351624 0 0.0042927190280873835 0.021165581209462742 0 0.0046013070859521601 0.023053494232489202 0 0.0030179741572497858 0.023042829727351624 0 0.0030179741572497858 0.023042829727351624 0 0.0038055128713848116 0.024632833341119695 0 0.0024642974338627563 0.024838417789523528 0 0.0046013070859521601 0.023053494232489202 0 0.0038055128713848116 0.024632833341119695 0 0.0050262168791134609 0.025138326133051628 0 0.0046013070859521601 0.023053494232489202 0 0.0030179741572497858 0.023042829727351624 0 0.0038055128713848116 0.024632833341119695 0 0.0060304506788692583 0.023469454792284395 0 0.0069121452036658704 0.027215072753888556 0 0.0076609310745304757 0.022207075694085417 0 0.0046013070859521601 0.023053494232489202 0 0.0060304506788692583 0.023469454792284395 0 0.0050262168791134609 0.025138326133051628 0 0.0056676102918019064 0.021411200296595587 0 0.0046013070859521601 0.023053494232489202 0 0.0060304506788692583 0.023469454792284395 0 0.0065842249675085859 0.022072182484825637 0 0.0060304506788692583 0.023469454792284395 0 0.0076609310745304757 0.022207075694085417 0 0.0056676102918019064 0.021411200296595587 0 0.0065842249675085859 0.022072182484825637 0 0.0060304506788692583 0.023469454792284395 0 0.0069121452036658704 0.027215072753888556 0 0.0050262168791134609 0.025138326133051628 0 0.0044152877502407076 0.028483489764509321 0 0.0060304506788692583 0.023469454792284395 0 0.0069121452036658704 0.027215072753888556 0 0.0050262168791134609 0.025138326133051628 0 0.0062225287622939612 0.025517995786560908 0 0.0048171255706915437 0.027534374739361978 0 0.0070755142645649201 0.023549173305678683 0 0.0064464164915880966 0.02497885575064103 0 0.0076407552002600672 0.024816775836431385 0 0.0069121452036658704 0.027215072753888556 0 0.0044152877502407076 0.028483489764509321 0 0.0048036409809023555 0.032390750297756975 0 0.0029760183875155548 0.030117377701894588 0 0.0044152877502407076 0.028483489764509321 0 0.0048036409809023555 0.032390750297756975 0 0.0029760183875155548 0.030117377701894588 0 0.0044152877502407076 0.028483489764509321 0 0.0036712042943772005 0.028166121376179697 0 0.0029760183875155548 0.030117377701894588 0 0.0036712042943772005 0.028166121376179697 0 0.0022393140550309547 0.029272633310189401 0 0.0044152877502407076 0.028483489764509321 0 0.0036712042943772005 0.028166121376179697 0 0.0027462253978351239 0.026945417089600365 0 0.0038055128713848116 0.024632833341119695 0 0.0050262168791134609 0.025138326133051628 0 0.0044152877502407076 0.028483489764509321 0 0.0034125576004485464 0.026943967595419539 0 0.0027272541857212571 0.026074114737408501 0 0.0038055128713848116 0.024632833341119695 0 0.0044152877502407076 0.028483489764509321 0 0.0024642974338627563 0.024838417789523528 0 0.0010479543256366711 0.027670576753678768 0 0.001693292298153814 0.027935029610313321 0 0.00082417895034913138 0.025819357980342364 0 0.0036712042943772005 0.028166121376179697 0 0.0012539419848440554 0.028263515857248969 0 0.0018582941737380584 0.02680302033299236 0 0.0036712042943772005 0.028166121376179697 0 0.0027462253978351239 0.026945417089600365 0 0.00082417895034913138 0.025819357980342364 0 0.0012539419848440554 0.028263515857248969 0 -0.0015844726765386816 0.027570928568267823 0 -0.0015844726765386816 0.027570928568267823 0 0.0010243108624833331 0.030503323641117932 0 -0.00067222382655677474 0.032655365499953404 0 0.00035932859636228774 0.030673830188515036 0 0.00018451241014675815 0.031481690247891082 0 -0.00044247308564400966 0.035004479810038021 0 -0.00067222382655677474 0.032655365499953404 0 0.00050094949582836859 0.033898455988045993 0 0.0012539419848440554 0.028263515857248969 0 -0.0015844726765386816 0.027570928568267823 0 0.0010243108624833331 0.030503323641117932 0 0.0012539419848440554 0.028263515857248969 0 0.0022393140550309547 0.029272633310189401 0 0.0010243108624833331 0.030503323641117932 0 0.0036712042943772005 0.028166121376179697 0 0.0012539419848440554 0.028263515857248969 0 0.0022393140550309547 0.029272633310189401 0 0.0029760183875155548 0.030117377701894588 0 0.0010243108624833331 0.030503323641117932 0 0.0021432937736203528 0.032008324443218099 0 0.0029760183875155548 0.030117377701894588 0 0.0022393140550309547 0.029272633310189401 0 0.0010243108624833331 0.030503323641117932 0 0.0021432937736203528 0.032008324443218099 0 0.00069702648010021393 0.032327602239743077 0 0.0011408986700163098 0.033223714772658508 0 0.0010243108624833331 0.030503323641117932 0 0.0021432937736203528 0.032008324443218099 0 0.00069702648010021393 0.032327602239743077 0 0.0010243108624833331 0.030503323641117932 0 0.00069702648010021393 0.032327602239743077 0 -0.00067222382655677474 0.032655365499953404 0 0.00069702648010021393 0.032327602239743077 0 3.7559738741148716e-05 0.032951275446089688 0 -0.00067222382655677474 0.032655365499953404 0 3.7559738741148716e-05 0.032951275446089688 0 0.00022187900326212551 0.033487140384888335 0 0.0011408986700163098 0.033223714772658508 0 0.00069702648010021393 0.032327602239743077 0 3.7559738741148716e-05 0.032951275446089688 0 0.0011408986700163098 0.033223714772658508 0 0.0021432937736203528 0.032008324443218099 0 0.0011408986700163098 0.033223714772658508 0 0.0026398811365301584 0.033456149512514355 0 0.0011408986700163098 0.033223714772658508 0 0.0014946427989362045 0.034260113506265066 0 0.0026398811365301584 0.033456149512514355 0 -0.00039775813408502651 0.032942934649798569 0 -0.00035014405767554727 0.032799028745433965 0 0.00050094949582836859 0.033898455988045993 0 -0.00039775813408502651 0.032942934649798569 0 -0.00067222382655677474 0.032655365499953404 0 0.00050094949582836859 0.033898455988045993 0 -0.00039775813408502651 0.032942934649798569 0 -0.00067222382655677474 0.032655365499953404 0 -0.00041096475354110749 0.032935475412006768 0 3.7559738741148716e-05 0.032951275446089688 0 -0.00067222382655677474 0.032655365499953404 0 -0.00041096475354110749 0.032935475412006768 0 3.7559738741148716e-05 0.032951275446089688 0 -0.00012663868557663012 0.033256624401319226 0 -0.00041096475354110749 0.032935475412006768 0 3.7559738741148716e-05 0.032951275446089688 0 0.00022187900326212551 0.033487140384888335 0 -0.00012663868557663012 0.033256624401319226 0 -0.00012663868557663012 0.033256624401319226 0 -0.00041096475354110749 0.032935475412006768 0 -0.00049823011825997127 0.0329161308459733 0 -0.00039775813408502651 0.032942934649798569 0 -0.00041096475354110749 0.032935475412006768 0 -0.00049823011825997127 0.0329161308459733 0 -0.00039775813408502651 0.032942934649798569 0 -0.00049823011825997127 0.0329161308459733 0 -0.00035014405767554727 0.032799028745433965 0 0.0015289391742544388 0.032588502751573843 0 0.0016708116057946108 0.031049354718420567 0 -0.00049823011825997127 0.0329161308459733 0 -0.00035014405767554727 0.032799028745433965 0 -0.00057080896819492431 0.032476277095268243 0 0.00099221774487930786 0.034241518582591148 0 0.00095881620047771616 0.034372943519774032 0 0.0011112364859844931 0.034422045893635934 0 -0.00049823011825997127 0.0329161308459733 0 -0.00074227789152868276 0.032748120718316856 0 -0.00057080896819492431 0.032476277095268243 0 0.0025850099823433005 0.030105463040839327 0 0.0028244547418192893 0.029955567022711696 0 -0.00012663868557663012 0.033256624401319226 0 -0.00049823011825997127 0.0329161308459733 0 0.00025127947999780163 0.034298583276250356 0 0.0028244547418192893 0.029955567022711696 0 0.0016708116057946108 0.031049354718420567 0 0.0020320473142268732 0.026622754642395545 0 0.0030743734864676743 0.027316584609197926 0 0.0023008216910571158 0.02754143387598116 0 0.0014946427989362045 0.034260113506265066 0 0.00025792898226189074 0.034465539834164879 0 0.0027916898647395742 0.036295898897505154 0 0.0014946427989362045 0.034260113506265066 0 0.0026398811365301584 0.033456149512514355 0 0.0027916898647395742 0.036295898897505154 0 0.0028244547418192893 0.029955567022711696 0 0.003763695756242112 0.026798401603361204 0 0.00022187900326212551 0.033487140384888335 0 0.0011408986700163098 0.033223714772658508 0 0.00048568807247094484 0.034068260384674344 0 0.0014946427989362045 0.034260113506265066 0 0.00048568807247094484 0.034068260384674344 0 0.00025792898226189074 0.034465539834164879 0 0.0011408986700163098 0.033223714772658508 0 0.0014946427989362045 0.034260113506265066 0 0.00048568807247094484 0.034068260384674344 0 0.00022187900326212551 0.033487140384888335 0 -0.00012663868557663012 0.033256624401319226 0 0.00025127947999780163 0.034298583276250356 0 0.00022187900326212551 0.033487140384888335 0 0.00048568807247094484 0.034068260384674344 0 0.00025127947999780163 0.034298583276250356 0 0.0027956348417747718 0.030001699567501827 0 0.0028244547418192893 0.029955567022711696 0 0.0020320473142268732 0.026622754642395545 0 0.0023008216910571158 0.02754143387598116 0 0.0015677062822853887 0.027336255553061416 0 0.0069676450225408942 0.025917146259739912 0 0.0064464164915880966 0.02497885575064103 0 0.0058433506207980421 0.026323583063018009 0 0.0048171255706915437 0.027534374739361978 0 0.003763695756242112 0.026798401603361204 0 0.0048036409809023555 0.032390750297756975 0 0.0026398811365301584 0.033456149512514355 0 0.0027916898647395742 0.036295898897505154 0 0.0069676450225408942 0.025917146259739912 0 0.0064464164915880966 0.02497885575064103 0 0.0076407552002600672 0.024816775836431385 0 0.0029760183875155548 0.030117377701894588 0 0.0021432937736203528 0.032008324443218099 0 0.0048036409809023555 0.032390750297756975 0 0.0021432937736203528 0.032008324443218099 0 0.0048036409809023555 0.032390750297756975 0 0.0026398811365301584 0.033456149512514355 0 0.0011729547755286892 0.034449284215551462 0 0.0010769435252433971 0.034524156758997407 0 0.0011339650638906029 0.034355442362623258 0 0.00050817782371262031 0.03748652340732242 0 0.0014435959443983952 0.038117067627902255 0 0.0022600569142488315 0.036129686510500705 0 0.0013487041626811613 0.034959988623221375 0 0.0022600569142488315 0.036129686510500705 0 0.001662524426410074 0.034155713389420708 0 0.00050817782371262031 0.03748652340732242 0 0.0013487041626811613 0.034959988623221375 0 0.0022600569142488315 0.036129686510500705 0 0.0011824426075943714 0.03602933571042452 0 0.0013147247052403496 0.035588314203884551 0 0.0011729547755286892 0.034449284215551462 0 0.0013487041626811613 0.034959988623221375 0 0.0010769435252433971 0.034524156758997407 0 0.0010769435252433971 0.034524156758997407 0 0.00093427645608089663 0.034311083607532523 0 0.000860526395150362 0.034406676423022094 0 0.0008741654574242533 0.03429837330901931 0 0.00093427645608089663 0.034311083607532523 0 0.000860526395150362 0.034406676423022094 0 0.00095881620047771616 0.034372943519774032 0 0.0008741654574242533 0.03429837330901931 0 0.000860526395150362 0.034406676423022094 0 0.00099221774487930786 0.034241518582591148 0 0.00095881620047771616 0.034372943519774032 0 0.0008741654574242533 0.03429837330901931 0 0.0015289391742544388 0.032588502751573843 0 0.0014860736101579032 0.033043996687619044 0 0.00075060054702131749 0.034143634790904431 0 0.00093427645608089663 0.034311083607532523 0 0.00091514875775828718 0.034250996931579632 0 0.00099221774487930786 0.034241518582591148 0 0.00075060054702131749 0.034143634790904431 0 0.00050094949582836859 0.033898455988045993 0 0.00099221774487930786 0.034241518582591148 0 0.0008741654574242533 0.03429837330901931 0 0.00075060054702131749 0.034143634790904431 0 0.0008741654574242533 0.03429837330901931 0 0.00075060054702131749 0.034143634790904431 0 0.00093427645608089663 0.034311083607532523 0 0.0010769435252433971 0.034524156758997407 0 0.0011339650638906029 0.034355442362623258 0 0.00093427645608089663 0.034311083607532523 0 0.0011339650638906029 0.034355442362623258 0 0.00093427645608089663 0.034311083607532523 0 0.00091514875775828718 0.034250996931579632 0 0.0011339650638906029 0.034355442362623258 0 0.00091514875775828718 0.034250996931579632 0 0.0015055430092912919 0.034612258896812041 0 0.00091514875775828718 0.034250996931579632 0 0.00063184862542871398 0.035035956404930652 0 0.0015055430092912919 0.034612258896812041 0 0.00091514875775828718 0.034250996931579632 0 0.00050094949582836859 0.033898455988045993 0 0.00063184862542871398 0.035035956404930652 0 0.00075060054702131749 0.034143634790904431 0 0.00091514875775828718 0.034250996931579632 0 0.00050094949582836859 0.033898455988045993 0 -0.00044247308564400966 0.035004479810038021 0 0.00050094949582836859 0.033898455988045993 0 0.00063184862542871398 0.035035956404930652 0 -0.00044247308564400966 0.035004479810038021 0 0.00063184862542871398 0.035035956404930652 0 0.00015606907343380152 0.03553996668768597 0 0.00063184862542871398 0.035035956404930652 0 0.0015055430092912919 0.034612258896812041 0 0.0014830913284537171 0.036085406813422011 0 0.00097605560325479386 0.039210237240831253 0 0.00095965220912173866 0.039236542673774702 0 0.00085764106814304722 0.039260157536157268 0 0.0010323970638766384 0.036785567423251155 0 0.00087759650294987794 0.037529448390869156 0 0.00097605560325479386 0.039210237240831253 0 0.00062182109229459389 0.038992726514555681 0 0.0012592748989381591 0.039041304195309851 0 0.00097605560325479386 0.039210237240831253 0 0.00062182109229459389 0.038992726514555681 0 0.00085764106814304722 0.039260157536157268 0 0.00097605560325479386 0.039210237240831253 0 0.0011001694411204705 0.039283164725049627 0 0.00095965220912173866 0.039236542673774702 0 0.00050817782371262031 0.03748652340732242 0 0.00062182109229459389 0.038992726514555681 0 0.0012592748989381591 0.039041304195309851 0 0.0011824426075943714 0.03602933571042452 0 0.0010323970638766384 0.036785567423251155 0 0.0011729547755286892 0.034449284215551462 0 0.0011339650638906029 0.034355442362623258 0 0.0015055430092912919 0.034612258896812041 0 0.00050817782371262031 0.03748652340732242 0 0.0014435959443983952 0.038117067627902255 0 0.0012592748989381591 0.039041304195309851 0 0.0014435959443983952 0.038117067627902255 0 0.0012592748989381591 0.039041304195309851 0 0.0020424758493254739 0.039410158633998993 0 0.0012592748989381591 0.039041304195309851 0 0.0015218130696278177 0.039227894515290795 0 0.0020424758493254739 0.039410158633998993 0 0.0012592748989381591 0.039041304195309851 0 0.0015218130696278177 0.039227894515290795 0 0.0012489228612581834 0.039252387524115376 0 0.00097605560325479386 0.039210237240831253 0 0.0012592748989381591 0.039041304195309851 0 0.0012489228612581834 0.039252387524115376 0 0.0012489228612581834 0.039252387524115376 0 0.0011001694411204705 0.039283164725049627 0 0.0012598381833877994 0.039403117444730393 0 0.00097605560325479386 0.039210237240831253 0 0.0012489228612581834 0.039252387524115376 0 0.0011001694411204705 0.039283164725049627 0 0.0015218130696278177 0.039227894515290795 0 0.0012489228612581834 0.039252387524115376 0 0.0012598381833877994 0.039403117444730393 0 -0.00044097280995466771 0.039769545877803507 0 0.0003468287645717968 0.039101243133322784 0 -8.9149909311159203e-05 0.039099416818205807 0 -0.00011736786713933874 0.039436933686271429 0 0.00010475464548327395 0.039525856900279474 0 0.00070438900902089442 0.038996967666188424 0 -0.00044097280995466771 0.039769545877803507 0 -0.00052125687440027517 0.039279118399016884 0 -8.9149909311159203e-05 0.039099416818205807 0 -0.00050276974153280437 0.039670781457845757 0 0.00010064187000943581 0.039416749452920112 0 -0.00044097280995466771 0.039769545877803507 0 0.00070438900902089442 0.038996967666188424 0 0.0003468287645717968 0.039101243133322784 0 0.0012598381833877994 0.039403117444730393 0 0.00095965220912173866 0.039236542673774702 0 0.00076249738334197069 0.03901274144201361 0 0.0011001694411204705 0.039283164725049627 0 0.0012598381833877994 0.039403117444730393 0 0.00095965220912173866 0.039236542673774702 0 0.00010475464548327395 0.039525856900279474 0 0.00070438900902089442 0.038996967666188424 0 0.00076249738334197069 0.03901274144201361 0 0.00050614762906800372 0.039441063846182782 0 0.00072531915246868859 0.039295935818156817 0 0.00095965220912173866 0.039236542673774702 0 0.00085764106814304722 0.039260157536157268 0 0.00076249738334197069 0.03901274144201361 0 0.0003468287645717968 0.039101243133322784 0 0.00034653688462171577 0.038528395470475693 0 -8.9149909311159203e-05 0.039099416818205807 0 0.0003468287645717968 0.039101243133322784 0 0.00056120788190400553 0.038787874463434305 0 0.00034653688462171577 0.038528395470475693 0 0.00070438900902089442 0.038996967666188424 0 0.0003468287645717968 0.039101243133322784 0 0.00057389227530002084 0.038933424392321378 0 0.00067212994996339152 0.038863541375231951 0 0.00056120788190400553 0.038787874463434305 0 0.00075786788633345396 0.03874149314454374 0 0.00070438900902089442 0.038996967666188424 0 0.00067212994996339152 0.038863541375231951 0 0.00075190662878896067 0.038806965492305306 0 0.00070438900902089442 0.038996967666188424 0 0.00067212994996339152 0.038863541375231951 0 0.00057389227530002084 0.038933424392321378 0 0.0003468287645717968 0.039101243133322784 0 0.00057389227530002084 0.038933424392321378 0 0.00056120788190400553 0.038787874463434305 0 0.00067212994996339152 0.038863541375231951 0 0.00057389227530002084 0.038933424392321378 0 0.00056120788190400553 0.038787874463434305 0 0.00056120788190400553 0.038787874463434305 0 0.00075786788633345396 0.03874149314454374 0 0.00071193965757163904 0.038701442143699347 0 0.00056120788190400553 0.038787874463434305 0 0.00034653688462171577 0.038528395470475693 0 0.00071193965757163904 0.038701442143699347 0 0.00034653688462171577 0.038528395470475693 0 -8.9149909311159203e-05 0.039099416818205807 0 -0.00078703119650626557 0.038851051995829722 0 -0.00019710214571172084 0.038620050695988686 0 -0.00078069300101897478 0.038425003932778361 0 -0.0011621978003469018 0.039020936009071722 0 -0.00090437154120321067 0.034848468890960452 0 -0.0015639001417413173 0.03668639795373372 0 -0.00052125687440027517 0.039279118399016884 0 -8.9149909311159203e-05 0.039099416818205807 0 -0.00078703119650626557 0.038851051995829722 0 0.00063184862542871398 0.035035956404930652 0 0.00064802136728410898 0.035981275077574829 0 0.00015606907343380152 0.03553996668768597 0 0.0010271092672266852 0.035188918272654926 0 0.0010856410699906561 0.034801405544986848 0 -0.00022760174910074304 0.036100538934263161 0 0.00064802136728410898 0.035981275077574829 0 0.00015606907343380152 0.03553996668768597 0 0.00085764106814304722 0.039260157536157268 0 0.00076249738334197069 0.03901274144201361 0 0.00076567418695472225 0.038339648968799593 0 0.00045143656548073731 0.037104206574278591 0 0.0014830913284537171 0.036085406813422011 0 0.00076567418695472225 0.038339648968799593 0 0.00087759650294987794 0.037529448390869156 0 0.00076401039297772227 0.037908977722867679 0 0.00063184862542871398 0.035035956404930652 0 0.00045143656548073731 0.037104206574278591 0 0.0014830913284537171 0.036085406813422011 0 0.00045143656548073731 0.037104206574278591 0 0.00076567418695472225 0.038339648968799593 0 0.00069851689473146615 0.039063011390804293 0 0.00075190662878896067 0.038806965492305306 0 0.00075786788633345396 0.03874149314454374 0 0.00076567418695472225 0.038339648968799593 0 0.00076249738334197069 0.03901274144201361 0 0.00075190662878896067 0.038806965492305306 0 0.00076567418695472225 0.038339648968799593 0 0.00070438900902089442 0.038996967666188424 0 0.00076249738334197069 0.03901274144201361 0 0.00075190662878896067 0.038806965492305306 0 0.00067212994996339152 0.038863541375231951 0 0.00075190662878896067 0.038806965492305306 0 0.00075786788633345396 0.03874149314454374 0 0.00075786788633345396 0.03874149314454374 0 0.00071193965757163904 0.038701442143699347 0 0.00082659444941801511 0.038636096780558057 0 0.00071193965757163904 0.038701442143699347 0 0.00082659444941801511 0.038636096780558057 0 0.00081296187381243664 0.038785210622193138 0 0.00075786788633345396 0.03874149314454374 0 0.00082659444941801511 0.038636096780558057 0 0.00076567418695472225 0.038339648968799593 0 0.00082659444941801511 0.038636096780558057 0 0.00076567418695472225 0.038339648968799593 0 0.00069851689473146615 0.039063011390804293 0 0.00082659444941801511 0.038636096780558057 0 0.00069851689473146615 0.039063011390804293 0 0.00081296187381243664 0.038785210622193138 0 0.00052024514326334597 0.027240555474084098 0 0.0014097046846147964 0.028767900372144578 0 0.0021419087835265849 0.028635830910717672 0 -0.00022760174910074304 0.036100538934263161 0 0.00064802136728410898 0.035981275077574829 0 0.0007157380783804993 0.036877908928370486 0 0.0010856410699906561 0.034801405544986848 0 0.0011464430228585905 0.031123389174770696 0 0.001130573779282757 0.028714131032399996 0 0.0011464430228585905 0.031123389174770696 0 0.0013605755752423294 0.025715962004311421 0 0.0011880533470488856 0.02441253906453009 0 0.002046117905138852 0.025450989969775371 0 0.0026462453561880085 0.023223120540373007 0 0.0021123707340773932 0.025122811731954658 0 0.001736284383288822 0.025026016356886813 0 0.0021123707340773932 0.025122811731954658 0 0.00069666980137632188 0.028554783757181325 0 0.0014840716956359575 0.029505732966267899 0 0.0014097046846147964 0.028767900372144578 0 0.0014097046846147964 0.028767900372144578 0 0.002186594933410683 0.029235882780365065 0 0.0021419087835265849 0.028635830910717672 0 0.0014840716956359575 0.029505732966267899 0 0.0014097046846147964 0.028767900372144578 0 0.002186594933410683 0.029235882780365065 0 0.0021123707340773932 0.025122811731954658 0 0.0014015896668052867 0.028183557544720125 0 0.00036709058506560245 0.030919060207939685 0 -0.00095393143943331784 0.032878896637457647 0 0.0033901696530284492 0.020906217782716004 0 0.00288618262051969 0.021102856988586247 0 0.0028509320596476666 0.020244850349883516 0 0.0014015896668052867 0.028183557544720125 0 0.00036709058506560245 0.030919060207939685 0 -0.0014990414373047853 0.033843286834236021 0 -0.001894029984864535 0.028378280360348059 0 0.0025880051471835505 0.032260235343155662 0 0.0014015896668052867 0.028183557544720125 0 0.0011464430228585905 0.031123389174770696 0 0.00069851689473146615 0.039063011390804293 0 0.00081296187381243664 0.038785210622193138 0 0.00083758645401355665 0.038738475390920811 0 0.0011464430228585905 0.031123389174770696 0 0.00036709058506560245 0.030919060207939685 0 0.00071193965757163904 0.038701442143699347 0 0.00081296187381243664 0.038785210622193138 0 0.00083758645401355665 0.038738475390920811 0 0.00288618262051969 0.021102856988586247 0 0.0028509320596476666 0.020244850349883516 0 0.0014941409508400815 0.019856555261842608 0 0.0032906418615197349 0.01951922915889651 0 0.0028509320596476666 0.020244850349883516 0 0.0014941409508400815 0.019856555261842608 0 0.0014015896668052867 0.028183557544720125 0 0.0013865955850971929 0.022720698987651011 0 0.0033901696530284492 0.020906217782716004 0 0.0032906418615197349 0.01951922915889651 0 0.0028509320596476666 0.020244850349883516 0 0.0025835349183536468 0.021613563964467883 0 0.0026462453561880085 0.023223120540373007 0 0.0035029863091045107 0.018008625157784858 0 0.003590111829747169 0.018598419379732369 0 0.0033233110384522139 0.018362414619429508 0 0.0018292505646484009 0.024248612709304857 0 0.0030222679849838938 0.023787576517330725 0 0.0031735396270890039 0.025873551538389227 0 0.0035029863091045107 0.018008625157784858 0 0.0029431087866179902 0.018277598644982022 0 0.0033233110384522139 0.018362414619429508 0 0.0032928414005972775 0.01870412906075853 0 0.0029431087866179902 0.018277598644982022 0 0.0033233110384522139 0.018362414619429508 0 0.0021123707340773932 0.025122811731954658 0 0.0013865955850971929 0.022720698987651011 0 0.003590111829747169 0.018598419379732369 0 0.0032928414005972775 0.01870412906075853 0 0.0033233110384522139 0.018362414619429508 0 -0.00038407747918466691 0.038057264726325937 0 -0.0008254319077154466 0.037966886431477415 0 -0.00078069300101897478 0.038425003932778361 0 -0.0008254319077154466 0.037966886431477415 0 -0.00078069300101897478 0.038425003932778361 0 -0.001402735000136766 0.038469288886156777 0 -0.00019710214571172084 0.038620050695988686 0 -0.00038407747918466691 0.038057264726325937 0 -0.00078069300101897478 0.038425003932778361 0 0.00034653688462171577 0.038528395470475693 0 0.00071193965757163904 0.038701442143699347 0 0.00083758645401355665 0.038738475390920811 0 0.00075577270733261429 0.038229934132573189 0 6.1628324418765073e-05 0.038122845365928935 0 7.8451597260683806e-06 0.037591986595017814 0 -0.00090437154120321067 0.034848468890960452 0 0.00036709058506560245 0.030919060207939685 0 -0.00019710214571172084 0.038620050695988686 0 0.00075577270733261429 0.038229934132573189 0 6.1628324418765073e-05 0.038122845365928935 0 -0.00019710214571172084 0.038620050695988686 0 -0.00038407747918466691 0.038057264726325937 0 6.1628324418765073e-05 0.038122845365928935 0 -0.00038407747918466691 0.038057264726325937 0 6.1628324418765073e-05 0.038122845365928935 0 7.8451597260683806e-06 0.037591986595017814 0 0.0012486385920198572 0.018733292673358076 0 0.0032906418615197349 0.01951922915889651 0 0.0014941409508400815 0.019856555261842608 0 -0.00038407747918466691 0.038057264726325937 0 7.8451597260683806e-06 0.037591986595017814 0 -0.00057717430163429703 0.037619505692691131 0 -0.0011800650661189253 0.038145353173907846 0 -0.00095393143943331784 0.032878896637457647 0 -0.0007433315085015826 0.03694269744024764 0 7.8451597260683806e-06 0.037591986595017814 0 -0.00057717430163429703 0.037619505692691131 0 -0.00038407747918466691 0.038057264726325937 0 -0.0008254319077154466 0.037966886431477415 0 -0.00057717430163429703 0.037619505692691131 0 -0.0011989263007604225 0.039672781176653189 0 -0.0011304143555311286 0.039934888289392664 0 -0.0008254319077154466 0.037966886431477415 0 -0.00057717430163429703 0.037619505692691131 0 -0.0010065960398542985 0.037547758545299015 0 -0.0007433315085015826 0.03694269744024764 0 -0.00057717430163429703 0.037619505692691131 0 -0.0010065960398542985 0.037547758545299015 0 -0.0011800650661189253 0.038145353173907846 0 -0.0011304143555311286 0.039934888289392664 0 -0.0014805267322734318 0.036513992593059243 0 -0.0010177257680167239 0.037568716535537956 0 -0.0017831397697039306 0.037728387017407411 0 -0.0008254319077154466 0.037966886431477415 0 -0.0010107608926156011 0.037545355104700563 0 -0.001402735000136766 0.038469288886156777 0 -0.0011304143555311286 0.039934888289392664 0 -0.00094532007873003555 0.039153350787929191 0 -0.0010177257680167239 0.037568716535537956 0 -0.001402735000136766 0.038469288886156777 0 -0.0017831397697039306 0.037728387017407411 0 -0.001402735000136766 0.038469288886156777 0 -0.0023198769352267621 0.038405612938929697 0 -0.0017455029648018583 0.038835783212971299 0 -0.001402735000136766 0.038469288886156777 0 -0.0023198769352267621 0.038405612938929697 0 -0.0017831397697039306 0.037728387017407411 0 -0.0023198769352267621 0.038405612938929697 0 -0.0024533244855857337 0.037264849113261334 0 -0.0017831397697039306 0.037728387017407411 0 0.020337650123216661 0.079435433499494626 0 0.018116933897631648 0.079389313475167783 0 0.018287862637456159 0.081400817107919729 0 0.0062486452310442806 0.056050113369035225 0 0.0064498886314940497 0.058897654384902555 0 0.018116933897631648 0.079389313475167783 0 0.018287862637456159 0.081400817107919729 0 0.016317724709826079 0.081364124234225454 0 0.0064498886314940497 0.058897654384902555 0 0.0058443226662975249 0.061367020060996612 0 -0.0023198769352267621 0.038405612938929697 0 -0.0024533244855857337 0.037264849113261334 0 -0.0035299393759173642 0.038034845811518392 0 -0.0023198769352267621 0.038405612938929697 0 -0.0035299393759173642 0.038034845811518392 0 -0.0032993122777555234 0.038979380180100706 0 -0.0023198769352267621 0.038405612938929697 0 -0.0032993122777555234 0.038979380180100706 0 -0.0021126255711519065 0.039437151994306141 0 -0.0035299393759173642 0.038034845811518392 0 -0.0032993122777555234 0.038979380180100706 0 -0.0047430000721864589 0.038888932750951892 0 -0.0032993122777555234 0.038979380180100706 0 -0.0038893498927797024 0.039816968936726087 0 -0.0047430000721864589 0.038888932750951892 0 -0.0038893498927797024 0.039816968936726087 0 -0.0030138883093128962 0.039925826513606773 0 -0.0035521316151729434 0.041017504909975744 0 -0.0032993122777555234 0.038979380180100706 0 -0.0038893498927797024 0.039816968936726087 0 -0.0030138883093128962 0.039925826513606773 0 -0.0032993122777555234 0.038979380180100706 0 -0.0030138883093128962 0.039925826513606773 0 -0.0021126255711519065 0.039437151994306141 0 -0.0021126255711519065 0.039437151994306141 0 -0.0013806092745655201 0.039773432485118075 0 -0.0020714692987992534 0.040445068882879659 0 -0.0030138883093128962 0.039925826513606773 0 -0.0021126255711519065 0.039437151994306141 0 -0.0020714692987992534 0.040445068882879659 0 -0.0021126255711519065 0.039437151994306141 0 -0.0013806092745655201 0.039773432485118075 0 -0.00094646378111902085 0.039429633427325382 0 -0.00011736786713933874 0.039436933686271429 0 0.00010475464548327395 0.039525856900279474 0 -0.0007364438817890434 0.040073291043292936 0 -0.00044097280995466771 0.039769545877803507 0 -0.0013806092745655201 0.039773432485118075 0 -0.0020714692987992534 0.040445068882879659 0 -0.00050276974153280437 0.039670781457845757 0 -0.0017331958218627863 0.040158245335704987 0 -0.00044097280995466771 0.039769545877803507 0 -0.00052125687440027517 0.039279118399016884 0 -0.00094646378111902085 0.039429633427325382 0 -0.00044097280995466771 0.039769545877803507 0 -0.0013806092745655201 0.039773432485118075 0 -0.00094646378111902085 0.039429633427325382 0 -0.0019514048839327756 0.037298283100271133 0 -0.0015639001417413173 0.03668639795373372 0 -0.0021126255711519065 0.039437151994306141 0 -0.0011621978003469018 0.039020936009071722 0 -0.0017455029648018583 0.038835783212971299 0 -0.0021126255711519065 0.039437151994306141 0 -0.00094646378111902085 0.039429633427325382 0 -0.00078703119650626557 0.038851051995829722 0 -0.00052125687440027517 0.039279118399016884 0 -0.00094646378111902085 0.039429633427325382 0 -0.00078703119650626557 0.038851051995829722 0 -0.00078069300101897478 0.038425003932778361 0 -0.001402735000136766 0.038469288886156777 0 -0.0011621978003469018 0.039020936009071722 0 -0.001402735000136766 0.038469288886156777 0 -0.0011621978003469018 0.039020936009071722 0 -0.0017455029648018583 0.038835783212971299 0 -0.0023198769352267621 0.038405612938929697 0 -0.0021126255711519065 0.039437151994306141 0 -0.0017455029648018583 0.038835783212971299 0 -0.00029884007852142854 0.069311044854230841 0 -0.0014723056967782537 0.072191629598351528 0 -0.0047400186234000143 0.07271113778517943 0 -0.0057909110656520334 0.069841818460970082 0 -0.0015298859186470028 0.070210479477179261 0 -0.0077417827244549223 0.072148353327436965 0 -0.0015298859186470028 0.070210479477179261 0 -0.0077417827244549223 0.072148353327436965 0 -0.0078616386484667133 0.074805331889634744 0 -0.00092705297818034785 0.070797233963890496 0 -0.0053059831514589029 0.075025960501712036 0 -0.0057909110656520334 0.069841818460970082 0 -0.0034675056185874747 0.066979193573308698 0 -0.0015298859186470028 0.070210479477179261 0 -0.0057909110656520334 0.069841818460970082 0 -0.0064126991862151804 0.068272042440795169 0 -0.0034675056185874747 0.066979193573308698 0 -0.0064126991862151804 0.068272042440795169 0 -0.0067990778821472092 0.065191278423252619 0 -0.0034675056185874747 0.066979193573308698 0 -0.0023254732208751595 0.062738338474300284 0 -0.0067990778821472092 0.065191278423252619 0 -0.0034675056185874747 0.066979193573308698 0 -0.0034675056185874747 0.066979193573308698 0 -0.00014263274796061791 0.065758933619484719 0 -0.0015298859186470028 0.070210479477179261 0 -0.00014263274796061791 0.065758933619484719 0 -0.0015298859186470028 0.070210479477179261 0 0.0042624611143311664 0.065648576371750977 0 -0.0023254732208751595 0.062738338474300284 0 -0.0034675056185874747 0.066979193573308698 0 -0.00014263274796061791 0.065758933619484719 0 0.014465793881656027 0.081341504343541871 0 0.014499884365174902 0.083365129482436309 0 0.012773126449235462 0.083412749576666237 0 -0.00029884007852142854 0.069311044854230841 0 0.0024396054250306149 0.068443710894274604 0 -0.0014723056967782537 0.072191629598351528 0 0.007870832559499167 0.074198341374773047 0 0.0055855681345393648 0.077542182060174131 0 0.016317724709826079 0.081364124234225454 0 0.016301138907279033 0.083392842539810066 0 0.014499884365174902 0.083365129482436309 0 0.014465793881656027 0.081341504343541871 0 0.016317724709826079 0.081364124234225454 0 0.014499884365174902 0.083365129482436309 0 -0.00092705297818034785 0.070797233963890496 0 0.0016864168528895858 0.068584446925560427 0 0.0020726871872206146 0.063649378436958545 0 -0.00014263274796061791 0.065758933619484719 0 0.0042624611143311664 0.065648576371750977 0 0.0097386751384959287 0.070489074148252867 0 0.007870832559499167 0.074198341374773047 0 0.0064077544657651815 0.064422633806487162 0 0.0024396054250306149 0.068443710894274604 0 0.0042624611143311664 0.065648576371750977 0 -0.00029884007852142854 0.069311044854230841 0 0.0024396054250306149 0.068443710894274604 0 0.0042624611143311664 0.065648576371750977 0 0.016286279951772672 0.079288710129905751 0 0.014465793881656027 0.081341504343541871 0 0.016317724709826079 0.081364124234225454 0 0.016286279951772672 0.079288710129905751 0 0.018116933897631648 0.079389313475167783 0 0.016317724709826079 0.081364124234225454 0 0.018287862637456159 0.081400817107919729 0 0.016317724709826079 0.081364124234225454 0 0.016301138907279033 0.083392842539810066 0 -0.0038893498927797024 0.039816968936726087 0 -0.0047430000721864589 0.038888932750951892 0 -0.0048557502875474935 0.040326044243332228 0 -0.0047430000721864589 0.038888932750951892 0 -0.0060518031197870862 0.03983923635720292 0 -0.0048557502875474935 0.040326044243332228 0 0.0058443226662975249 0.061367020060996612 0 0.005301471152414341 0.063968290430516994 0 0.016301138907279033 0.083392842539810066 0 0.014378990515786097 0.085321262031394188 0 0.014499884365174902 0.083365129482436309 0 0.014378990515786097 0.085321262031394188 0 0.014499884365174902 0.083365129482436309 0 0.012773126449235462 0.083412749576666237 0 0.014378990515786097 0.085321262031394188 0 0.012530542409696645 0.085535043128831603 0 0.012773126449235462 0.083412749576666237 0 0.014378990515786097 0.085321262031394188 0 0.012530542409696645 0.085535043128831603 0 0.012577076999711353 0.08705469220104145 0 0.012530542409696645 0.085535043128831603 0 0.012773126449235462 0.083412749576666237 0 0.01138147290489828 0.085389205747590485 0 0.012530542409696645 0.085535043128831603 0 0.01138147290489828 0.085389205747590485 0 0.01170201753380074 0.086388817432894477 0 -0.0014723056967782537 0.072191629598351528 0 -0.0047400186234000143 0.07271113778517943 0 -0.0052919995691878717 0.075719411268938649 0 0.0055855681345393648 0.077542182060174131 0 0.0031988392922239661 0.080780559058699866 0 -0.0074509573985269625 0.040839929621599456 0 -0.0068398977202683555 0.042202119175988519 0 -0.0090040871692663813 0.042030593690714484 0 0.005641251818276685 0.067377667495090388 0 0.0083444459721725671 0.072778323717526766 0 0.012530542409696645 0.085535043128831603 0 0.012577076999711353 0.08705469220104145 0 0.01170201753380074 0.086388817432894477 0 0.012577076999711353 0.08705469220104145 0 0.01170201753380074 0.086388817432894477 0 0.011606152989655774 0.087235890817709077 0 0.005301471152414341 0.063968290430516994 0 0.005641251818276685 0.067377667495090388 0 -0.0060518031197870862 0.03983923635720292 0 -0.0074509573985269625 0.040839929621599456 0 -0.0062364227309097261 0.041159821704343347 0 -0.0074509573985269625 0.040839929621599456 0 -0.0062364227309097261 0.041159821704343347 0 -0.0068398977202683555 0.042202119175988519 0 -0.0046469855967697753 0.04108150626948804 0 -0.0057147203468489232 0.042636158485307218 0 -0.0068398977202683555 0.042202119175988519 0 -0.0047572477577131587 0.041304031295988974 0 -0.0057178057343716731 0.041669055393831776 0 -0.0062364227309097261 0.041159821704343347 0 -0.0051298029465163975 0.041620828038808552 0 -0.0068398977202683555 0.042202119175988519 0 -0.0062364227309097261 0.041159821704343347 0 -0.0048557502875474935 0.040326044243332228 0 -0.0051298029465163975 0.041620828038808552 0 -0.0060518031197870862 0.03983923635720292 0 -0.0062364227309097261 0.041159821704343347 0 -0.0048557502875474935 0.040326044243332228 0 -0.0048557502875474935 0.040326044243332228 0 -0.0051298029465163975 0.041620828038808552 0 -0.0035521316151729434 0.041017504909975744 0 -0.0047572477577131587 0.041304031295988974 0 -0.003198072320438305 0.040715260620810267 0 -0.0046469855967697753 0.04108150626948804 0 -0.003874732056403418 0.042445013135363766 0 -0.0031565074929496601 0.041576340368833321 0 -0.0046469855967697753 0.04108150626948804 0 -0.003874732056403418 0.042445013135363766 0 -0.0047678609514985437 0.042640612605880597 0 -0.003874732056403418 0.042445013135363766 0 -0.0044172987180822647 0.043301945432030101 0 -0.0047678609514985437 0.042640612605880597 0 -0.003874732056403418 0.042445013135363766 0 -0.0036679368929858872 0.04345637251606739 0 -0.0044172987180822647 0.043301945432030101 0 -0.003874732056403418 0.042445013135363766 0 -0.0036679368929858872 0.04345637251606739 0 -0.0028419048647215154 0.042660897126934869 0 -0.0016126053974820709 0.055907373163526994 0 -0.0020105129390238781 0.057182671354828504 0 -0.0036679368929858872 0.04345637251606739 0 -0.0041212960843767417 0.044186811045433101 0 -0.0030324802786155076 0.044027181155819953 0 -0.0039470457747969919 0.044247539648731925 0 -0.0046189038194735616 0.044135553069738834 0 -0.0043986242158371193 0.045310169452280363 0 -0.0036679368929858872 0.04345637251606739 0 -0.0039470457747969919 0.044247539648731925 0 -0.0046189038194735616 0.044135553069738834 0 -0.0036679368929858872 0.04345637251606739 0 -0.0046189038194735616 0.044135553069738834 0 -0.0044172987180822647 0.043301945432030101 0 -0.0046189038194735616 0.044135553069738834 0 -0.0044172987180822647 0.043301945432030101 0 -0.005278412692489797 0.043738089935525852 0 -0.0046189038194735616 0.044135553069738834 0 -0.005278412692489797 0.043738089935525852 0 -0.0053655918587536501 0.044846885769152821 0 -0.005278412692489797 0.043738089935525852 0 -0.0064445620866834348 0.045016824403558801 0 -0.0053655918587536501 0.044846885769152821 0 -0.005278412692489797 0.043738089935525852 0 -0.0057147203468489232 0.042636158485307218 0 -0.0067035308782998331 0.043584628519854111 0 -0.0046469855967697753 0.04108150626948804 0 -0.0047678609514985437 0.042640612605880597 0 -0.0057147203468489232 0.042636158485307218 0 -0.0044172987180822647 0.043301945432030101 0 -0.005278412692489797 0.043738089935525852 0 -0.0047678609514985437 0.042640612605880597 0 -0.005278412692489797 0.043738089935525852 0 -0.0047678609514985437 0.042640612605880597 0 -0.0057147203468489232 0.042636158485307218 0 -0.0057147203468489232 0.042636158485307218 0 -0.0068398977202683555 0.042202119175988519 0 -0.0067035308782998331 0.043584628519854111 0 -0.005278412692489797 0.043738089935525852 0 -0.0067035308782998331 0.043584628519854111 0 -0.0064445620866834348 0.045016824403558801 0 -0.0067035308782998331 0.043584628519854111 0 -0.0064445620866834348 0.045016824403558801 0 -0.0085501419853828212 0.043979182923733172 0 -0.0068398977202683555 0.042202119175988519 0 -0.0090040871692663813 0.042030593690714484 0 -0.0085501419853828212 0.043979182923733172 0 -0.0068398977202683555 0.042202119175988519 0 -0.0067035308782998331 0.043584628519854111 0 -0.0085501419853828212 0.043979182923733172 0 0.00074489412917784904 0.040099089480420153 0 0.0014710296128003231 0.038974943459006102 0 -0.00084342970936707043 0.039881527015118122 0 0.00074489412917784904 0.040099089480420153 0 -0.00084342970936707043 0.039881527015118122 0 -8.1846007822075224e-05 0.041527626824767051 0 0.00074489412917784904 0.040099089480420153 0 0.0020424758493254739 0.039410158633998993 0 0.0010493214567834758 0.041349892970453064 0 0.00074489412917784904 0.040099089480420153 0 0.0020424758493254739 0.039410158633998993 0 0.0014710296128003231 0.038974943459006102 0 0.0015218130696278177 0.039227894515290795 0 0.0012598381833877994 0.039403117444730393 0 0.0014710296128003231 0.038974943459006102 0 0.00050614762906800372 0.039441063846182782 0 -0.00010949770677683833 0.039769939495980074 0 -0.00011736786713933874 0.039436933686271429 0 -0.0007364438817890434 0.040073291043292936 0 -0.0012183563132137669 0.039862631180558356 0 0.0015218130696278177 0.039227894515290795 0 0.0020424758493254739 0.039410158633998993 0 0.0014710296128003231 0.038974943459006102 0 -0.00010949770677683833 0.039769939495980074 0 -0.0012303521994074683 0.040352087327800386 0 -0.0007364438817890434 0.040073291043292936 0 -0.0012183563132137669 0.039862631180558356 0 -0.0018081241239459936 0.040745343191357045 0 -0.0030138883093128962 0.039925826513606773 0 -0.0020714692987992534 0.040445068882879659 0 -0.0035521316151729434 0.041017504909975744 0 -0.0012183563132137669 0.039862631180558356 0 -0.0026871399886427543 0.040349336579489505 0 -0.0018081241239459936 0.040745343191357045 0 -0.0017331958218627863 0.040158245335704987 0 -0.003198072320438305 0.040715260620810267 0 -0.0038893498927797024 0.039816968936726087 0 -0.0048557502875474935 0.040326044243332228 0 -0.0035521316151729434 0.041017504909975744 0 -0.0026871399886427543 0.040349336579489505 0 -0.0031565074929496601 0.041576340368833321 0 -0.0018081241239459936 0.040745343191357045 0 -0.0046469855967697753 0.04108150626948804 0 -0.0026871399886427543 0.040349336579489505 0 -0.0031565074929496601 0.041576340368833321 0 -0.0031565074929496601 0.041576340368833321 0 -0.00084342970936707043 0.039881527015118122 0 -0.0016403712950905757 0.042152817400394421 0 -0.0020042999812744933 0.040771043706547744 0 -0.0012303521994074683 0.040352087327800386 0 -0.00084342970936707043 0.039881527015118122 0 -0.0016403712950905757 0.042152817400394421 0 -8.1846007822075224e-05 0.041527626824767051 0 -0.0016403712950905757 0.042152817400394421 0 -0.00054343785111177819 0.04283943737616222 0 -8.1846007822075224e-05 0.041527626824767051 0 -0.003874732056403418 0.042445013135363766 0 -0.0031565074929496601 0.041576340368833321 0 -0.0028419048647215154 0.042660897126934869 0 -0.0031565074929496601 0.041576340368833321 0 -0.0016403712950905757 0.042152817400394421 0 -0.0028419048647215154 0.042660897126934869 0 -0.0016403712950905757 0.042152817400394421 0 -0.0028419048647215154 0.042660897126934869 0 -0.0023127378893661324 0.043478146163895059 0 -0.0036679368929858872 0.04345637251606739 0 -0.0029741863830110488 0.043420218603799812 0 -0.0030324802786155076 0.044027181155819953 0 -0.0036679368929858872 0.04345637251606739 0 -0.0028419048647215154 0.042660897126934869 0 -0.0029741863830110488 0.043420218603799812 0 -0.0028419048647215154 0.042660897126934869 0 -0.0029741863830110488 0.043420218603799812 0 -0.0023127378893661324 0.043478146163895059 0 -0.0029741863830110488 0.043420218603799812 0 -0.0023127378893661324 0.043478146163895059 0 -0.0030324802786155076 0.044027181155819953 0 -0.0023127378893661324 0.043478146163895059 0 -0.002211967490069645 0.044331963161201693 0 -0.0030324802786155076 0.044027181155819953 0 -0.002211967490069645 0.044331963161201693 0 -0.0030324802786155076 0.044027181155819953 0 -0.0027659606849138501 0.045209862774075016 0 -0.0041212960843767417 0.044186811045433101 0 -0.0030324802786155076 0.044027181155819953 0 -0.0027659606849138501 0.045209862774075016 0 -0.0016403712950905757 0.042152817400394421 0 -0.0023127378893661324 0.043478146163895059 0 -0.0012453411694615722 0.043813585924496141 0 -0.0016403712950905757 0.042152817400394421 0 -0.00054343785111177819 0.04283943737616222 0 -0.0012453411694615722 0.043813585924496141 0 -0.00054343785111177819 0.04283943737616222 0 -0.0012453411694615722 0.043813585924496141 0 -0.00030461881055045151 0.044086085828813633 0 -0.0023127378893661324 0.043478146163895059 0 -0.002211967490069645 0.044331963161201693 0 -0.0012453411694615722 0.043813585924496141 0 -0.002211967490069645 0.044331963161201693 0 -0.0012453411694615722 0.043813585924496141 0 -0.0014268187847752227 0.044907233348040428 0 -0.0012453411694615722 0.043813585924496141 0 -0.00030461881055045151 0.044086085828813633 0 -0.0014268187847752227 0.044907233348040428 0 -0.00030461881055045151 0.044086085828813633 0 0.00094740151849221743 0.044323417990641947 0 0.00061245617630673326 0.042892514864342417 0 -0.00054343785111177819 0.04283943737616222 0 -0.00030461881055045151 0.044086085828813633 0 0.00061245617630673326 0.042892514864342417 0 -0.00054343785111177819 0.04283943737616222 0 0.00061245617630673326 0.042892514864342417 0 -8.1846007822075224e-05 0.041527626824767051 0 0.00061245617630673326 0.042892514864342417 0 0.0010493214567834758 0.041349892970453064 0 -8.1846007822075224e-05 0.041527626824767051 0 0.00074489412917784904 0.040099089480420153 0 0.0010493214567834758 0.041349892970453064 0 -8.1846007822075224e-05 0.041527626824767051 0 0.001273880558284306 0.039751947306362237 0 0.00098952455254470908 0.040267099907693477 0 0.0014435959443983952 0.038117067627902255 0 0.0020424758493254739 0.039410158633998993 0 0.0022600569142488315 0.036129686510500705 0 0.0020424758493254739 0.039410158633998993 0 0.0010493214567834758 0.041349892970453064 0 0.0027283992893457351 0.042998269849175597 0 0.00061245617630673326 0.042892514864342417 0 0.0010493214567834758 0.041349892970453064 0 0.0027283992893457351 0.042998269849175597 0 0.00094740151849221743 0.044323417990641947 0 0.00061245617630673326 0.042892514864342417 0 0.0027283992893457351 0.042998269849175597 0 0.00094740151849221743 0.044323417990641947 0 0.0027283992893457351 0.042998269849175597 0 0.0016028972698884645 0.045443759888612115 0 0.0027283992893457351 0.042998269849175597 0 0.0016028972698884645 0.045443759888612115 0 0.0029307424014195661 0.046056544273096293 0 0.00098952455254470908 0.040267099907693477 0 -0.00012504080039995528 0.042914913557647857 0 0.0016028972698884645 0.045443759888612115 0 0.0012730098745636169 0.046941748816309824 0 0.0029307424014195661 0.046056544273096293 0 0.0012730098745636169 0.046941748816309824 0 0.0029307424014195661 0.046056544273096293 0 0.0031379697983750453 0.049035030882790404 0 0.0012730098745636169 0.046941748816309824 0 -0.00037305214280418245 0.047101733493226564 0 0.00061242514458339354 0.04858149328248014 0 0.0012730098745636169 0.046941748816309824 0 -0.00037305214280418245 0.047101733493226564 0 -0.00011702228170767515 0.045718494779348258 0 0.00094740151849221743 0.044323417990641947 0 0.0016028972698884645 0.045443759888612115 0 -0.00011702228170767515 0.045718494779348258 0 0.0016028972698884645 0.045443759888612115 0 0.0012730098745636169 0.046941748816309824 0 -0.00011702228170767515 0.045718494779348258 0 -0.00030461881055045151 0.044086085828813633 0 0.00094740151849221743 0.044323417990641947 0 -0.00011702228170767515 0.045718494779348258 0 -0.00030461881055045151 0.044086085828813633 0 -0.00011702228170767515 0.045718494779348258 0 -0.0014268187847752227 0.044907233348040428 0 -0.00011702228170767515 0.045718494779348258 0 -0.0014268187847752227 0.044907233348040428 0 -0.0017353211712068765 0.046136221890334707 0 -0.0014268187847752227 0.044907233348040428 0 -0.0017353211712068765 0.046136221890334707 0 -0.0027659606849138501 0.045209862774075016 0 -0.0041212960843767417 0.044186811045433101 0 -0.0027659606849138501 0.045209862774075016 0 -0.0029399932902357344 0.046197031498941915 0 -0.002211967490069645 0.044331963161201693 0 -0.0014268187847752227 0.044907233348040428 0 -0.0027659606849138501 0.045209862774075016 0 -0.0017353211712068765 0.046136221890334707 0 -0.0027659606849138501 0.045209862774075016 0 -0.0029868513655770652 0.046302168520762493 0 -0.0027232640314519092 0.062236832798962749 0 -0.0031008900797792407 0.065191254318174088 0 -0.0017667039706251301 0.074445602509257386 0 -0.0028690910004151166 0.072731373176610936 0 -0.001512174625054823 0.072960817179454171 0 -0.0031008900797792407 0.065191254318174088 0 -0.0044629665514044937 0.074439455632779233 0 -0.0017353211712068765 0.046136221890334707 0 -0.0029868513655770652 0.046302168520762493 0 -0.0018781142861557876 0.048136991504846072 0 -0.001736603030412843 0.069548842907109554 0 -0.0018658959943454647 0.070323267618705054 0 -0.0022461387197463796 0.069843343979694938 0 -0.0031008900797792407 0.065191254318174088 0 -0.0030807541447071562 0.076823643174558115 0 -0.00037305214280418245 0.047101733493226564 0 -0.0017353211712068765 0.046136221890334707 0 -0.0018781142861557876 0.048136991504846072 0 -0.00037305214280418245 0.047101733493226564 0 -0.00011702228170767515 0.045718494779348258 0 -0.0017353211712068765 0.046136221890334707 0 -0.00037305214280418245 0.047101733493226564 0 -0.0018781142861557876 0.048136991504846072 0 0.00061242514458339354 0.04858149328248014 0 -0.008457813654508364 0.0915854546702142 0 -0.009634211021658361 0.089775975812051823 0 -0.010308274443936474 0.091320446989142379 0 -0.0044629665514044937 0.074439455632779233 0 -0.003908919390922614 0.066076307615281216 0 -0.0044629665514044937 0.074439455632779233 0 -0.0047971899792715678 0.085650897819139274 0 -0.0060045749510195742 0.095175642930071053 0 -0.0040449265616821807 0.095500624412732313 0 -0.0054880298499481658 0.093053824668069079 0 -0.0030807541447071562 0.076823643174558115 0 -0.0038934771895934232 0.087890763157219734 0 -0.0040449265616821807 0.095500624412732313 0 -0.0054880298499481658 0.093053824668069079 0 -0.0034978528646638475 0.092421313037200054 0 -0.0044629665514044937 0.074439455632779233 0 -0.0030807541447071562 0.076823643174558115 0 -0.0054880298499481658 0.093053824668069079 0 -0.0034978528646638475 0.092421313037200054 0 -0.0056180454519587962 0.090454423504648745 0 -0.0060045749510195742 0.095175642930071053 0 -0.0054880298499481658 0.093053824668069079 0 -0.0083121794919637868 0.091682144616101857 0 -0.0054880298499481658 0.093053824668069079 0 -0.0083121794919637868 0.091682144616101857 0 -0.0056180454519587962 0.090454423504648745 0 -0.009634211021658361 0.089775975812051823 0 -0.011182935477967518 0.089935144586467841 0 -0.010308274443936474 0.091320446989142379 0 -0.011182935477967518 0.089935144586467841 0 -0.012560749980331557 0.088994227982719068 0 -0.012213195675003433 0.09102690087456225 0 -0.003908919390922614 0.066076307615281216 0 -0.0022732357181001811 0.055852288721224191 0 0.0012730098745636169 0.046941748816309824 0 0.00061242514458339354 0.04858149328248014 0 0.0031379697983750453 0.049035030882790404 0 -0.011182935477967518 0.089935144586467841 0 -0.010308274443936474 0.091320446989142379 0 -0.012213195675003433 0.09102690087456225 0 7.9654193983830565e-05 0.07087206368547791 0 -0.0016338806092859647 0.079567164068658228 0 7.9654193983830565e-05 0.07087206368547791 0 0.0027621378564232626 0.068756569707056139 0 -0.0080204364150592445 0.046261479049769343 0 -0.0064445620866834348 0.045016824403558801 0 -0.0085501419853828212 0.043979182923733172 0 -0.0080204364150592445 0.046261479049769343 0 -0.0064445620866834348 0.045016824403558801 0 -0.0062705266391172168 0.046219189038461797 0 -0.0064445620866834348 0.045016824403558801 0 -0.0062705266391172168 0.046219189038461797 0 -0.0053352343870558703 0.045925745729580941 0 -0.0080204364150592445 0.046261479049769343 0 -0.0062705266391172168 0.046219189038461797 0 -0.0073388477496090041 0.048678628730203989 0 -0.0062705266391172168 0.046219189038461797 0 -0.0055395587515864641 0.047055381881565009 0 -0.0073388477496090041 0.048678628730203989 0 -0.0011729692765048954 0.07418517351930061 0 -0.0012590646030243968 0.061440853159443892 0 -0.0052371610964815898 0.047100793713387559 0 -0.0053352343870558703 0.045925745729580941 0 -0.0043986242158371193 0.045310169452280363 0 -0.0055395587515864641 0.047055381881565009 0 -0.0052371610964815898 0.047100793713387559 0 -0.0056415234881002658 0.04649650137698131 0 -0.0013120561421320505 0.074034489619380126 0 -0.0011729692765048954 0.07418517351930061 0 -0.0052371610964815898 0.047100793713387559 0 -0.0056415234881002658 0.04649650137698131 0 -0.0053352343870558703 0.045925745729580941 0 -0.0062705266391172168 0.046219189038461797 0 -0.0055395587515864641 0.047055381881565009 0 -0.0056415234881002658 0.04649650137698131 0 -0.0062705266391172168 0.046219189038461797 0 -0.0056415234881002658 0.04649650137698131 0 -0.0053352343870558703 0.045925745729580941 0 -0.0064445620866834348 0.045016824403558801 0 -0.0053352343870558703 0.045925745729580941 0 -0.0053655918587536501 0.044846885769152821 0 -0.0046189038194735616 0.044135553069738834 0 -0.0053655918587536501 0.044846885769152821 0 -0.0043986242158371193 0.045310169452280363 0 -0.0053352343870558703 0.045925745729580941 0 -0.0053655918587536501 0.044846885769152821 0 -0.0043986242158371193 0.045310169452280363 0 -0.00240363713356137 0.068483041343929643 0 -0.0027072959807059689 0.069072565211797707 0 -0.0022709077915172198 0.06936088915083985 0 -0.00240363713356137 0.068483041343929643 0 -0.001736603030412843 0.069548842907109554 0 -0.0022709077915172198 0.06936088915083985 0 -0.0020105129390238781 0.057182671354828504 0 -0.0031008900797792407 0.065191254318174088 0 -0.0020105129390238781 0.057182671354828504 0 -0.0012590646030243968 0.061440853159443892 0 -0.0018658959943454647 0.070323267618705054 0 -0.0032692359252654477 0.070086166523247492 0 -0.0022461387197463796 0.069843343979694938 0 -0.001736603030412843 0.069548842907109554 0 -0.0022709077915172198 0.06936088915083985 0 -0.0022461387197463796 0.069843343979694938 0 -0.0032692359252654477 0.070086166523247492 0 -0.0022709077915172198 0.06936088915083985 0 -0.0022461387197463796 0.069843343979694938 0 -0.0030807541447071562 0.076823643174558115 0 -0.0011729692765048954 0.07418517351930061 0 -0.0032055234831652032 0.070058371962126803 0 -0.0027072959807059689 0.069072565211797707 0 -0.0022709077915172198 0.06936088915083985 0 -0.0011729692765048954 0.07418517351930061 0 -0.0010043694365315121 0.072968365628735071 0 -0.0038699449921116057 0.097497808385827486 0 -0.0032717532347021979 0.093905522004902223 0 -0.00027038553988400035 0.095147149199184849 0 -0.0038699449921116057 0.097497808385827486 0 0.00078840477113410268 0.098322423489591707 0 -0.00027038553988400035 0.095147149199184849 0 -0.0032717532347021979 0.093905522004902223 0 -8.4204581871604646e-05 0.092399125436610594 0 -0.00027038553988400035 0.095147149199184849 0 -8.4204581871604646e-05 0.092399125436610594 0 0.001733992477152719 0.093356989102740609 0 -0.00027038553988400035 0.095147149199184849 0 0.001733992477152719 0.093356989102740609 0 -0.00027038553988400035 0.095147149199184849 0 0.0024389910737774943 0.095345008403628487 0 -0.0011729692765048954 0.07418517351930061 0 -0.0012487450414860465 0.08591184088209837 0 0.00078840477113410268 0.098322423489591707 0 -0.00027038553988400035 0.095147149199184849 0 0.0024389910737774943 0.095345008403628487 0 -0.0011729692765048954 0.07418517351930061 0 -0.0016338806092859647 0.079567164068658228 0 0.0030238366758951166 0.095605637683519276 0 0.0041356139512723428 0.093685698717700813 0 0.0058221164151807513 0.093799449774262869 0 -0.0055395587515864641 0.047055381881565009 0 -0.0052332316493338641 0.047103091176513408 0 -0.0073388477496090041 0.048678628730203989 0 0.0041356139512723428 0.093685698717700813 0 0.0056930124627217549 0.093333588512676369 0 0.0058221164151807513 0.093799449774262869 0 0.001733992477152719 0.093356989102740609 0 0.0024389910737774943 0.095345008403628487 0 0.0041828915532301086 0.09239077196421798 0 0.0041356139512723428 0.093685698717700813 0 0.0052373569435387153 0.091520693702700759 0 0.0056930124627217549 0.093333588512676369 0 -0.0012487450414860465 0.08591184088209837 0 0.00048800091485043693 0.088329697107059429 0 -0.0016338806092859647 0.079567164068658228 0 0.0017746323575250427 0.082592531075370415 0 0.006770743725431216 0.092133988063001909 0 0.0058604603284444431 0.093938912537003261 0 0.0093092156428382731 0.091575555485436874 0 0.0056930124627217549 0.093333588512676369 0 0.006770743725431216 0.092133988063001909 0 0.0058604603284444431 0.093938912537003261 0 0.0052373569435387153 0.091520693702700759 0 0.0056930124627217549 0.093333588512676369 0 0.006770743725431216 0.092133988063001909 0 0.010121577052954708 0.091700579119408029 0 0.0098357667976228663 0.091719436827947101 0 0.0098464673813365607 0.091749251257122966 0 -0.001473032325299057 0.080007886924984936 0 -0.0016338806092859647 0.079567164068658228 0 0.0061795495063299523 0.089276821898467154 0 0.0042904250858997331 0.085830380314653412 0 0.0079477446033107517 0.087737266190767424 0 0.0061795495063299523 0.089276821898467154 0 0.0077496498451664775 0.089358581925952071 0 0.0079477446033107517 0.087737266190767424 0 0.0061795495063299523 0.089276821898467154 0 0.0077496498451664775 0.089358581925952071 0 0.0076926706111170411 0.090519640685596842 0 0.0052373569435387153 0.091520693702700759 0 0.006770743725431216 0.092133988063001909 0 0.0076926706111170411 0.090519640685596842 0 0.00048800091485043693 0.088329697107059429 0 0.0014114490036680116 0.088306658840935831 0 0.006770743725431216 0.092133988063001909 0 0.0076926706111170411 0.090519640685596842 0 0.0093092156428382731 0.091575555485436874 0 0.0052373569435387153 0.091520693702700759 0 0.0061795495063299523 0.089276821898467154 0 0.0076926706111170411 0.090519640685596842 0 0.0041828915532301086 0.09239077196421798 0 0.0061795495063299523 0.089276821898467154 0 0.0036967319656192629 0.089983955251289258 0 0.001733992477152719 0.093356989102740609 0 0.0041828915532301086 0.09239077196421798 0 0.001852523388384558 0.091170504933662494 0 0.0041828915532301086 0.09239077196421798 0 0.0036967319656192629 0.089983955251289258 0 0.001852523388384558 0.091170504933662494 0 0.0036967319656192629 0.089983955251289258 0 0.0019490801804983797 0.088610740800049048 0 0.001852523388384558 0.091170504933662494 0 0.0061795495063299523 0.089276821898467154 0 0.0038219343211140437 0.088120519891734306 0 0.0042904250858997331 0.085830380314653412 0 0.0036967319656192629 0.089983955251289258 0 0.0038219343211140437 0.088120519891734306 0 0.0019490801804983797 0.088610740800049048 0 0.0061795495063299523 0.089276821898467154 0 0.0036967319656192629 0.089983955251289258 0 0.0038219343211140437 0.088120519891734306 0 0.0038219343211140437 0.088120519891734306 0 0.0019490801804983797 0.088610740800049048 0 0.0029533548401969628 0.086356989770365572 0 -0.00034060471787536586 0.088098056066846009 0 0.0019490801804983797 0.088610740800049048 0 0.0011104312522766209 0.085902152976339491 0 0.0019490801804983797 0.088610740800049048 0 0.0011104312522766209 0.085902152976339491 0 0.0029533548401969628 0.086356989770365572 0 -0.00034060471787536586 0.088098056066846009 0 0.0019490801804983797 0.088610740800049048 0 -0.00015739475215615476 0.090141241466853608 0 0.0019490801804983797 0.088610740800049048 0 0.001852523388384558 0.091170504933662494 0 -0.00015739475215615476 0.090141241466853608 0 -8.4204581871604646e-05 0.092399125436610594 0 0.001733992477152719 0.093356989102740609 0 0.001852523388384558 0.091170504933662494 0 -8.4204581871604646e-05 0.092399125436610594 0 0.001852523388384558 0.091170504933662494 0 -0.00015739475215615476 0.090141241466853608 0 -8.4204581871604646e-05 0.092399125436610594 0 -0.00015739475215615476 0.090141241466853608 0 -0.0027247159998251363 0.090239187095781742 0 -0.0038934771895934232 0.087890763157219734 0 -0.0035300641559931067 0.088782923313694875 0 -0.0032717532347021979 0.093905522004902223 0 -8.4204581871604646e-05 0.092399125436610594 0 -0.0027247159998251363 0.090239187095781742 0 -0.00034060471787536586 0.088098056066846009 0 -0.0027247159998251363 0.090239187095781742 0 -0.0021759426115519091 0.086347189866480586 0 -0.0035300641559931067 0.088782923313694875 0 -0.0032484734925655361 0.088040378723372267 0 -0.00034060471787536586 0.088098056066846009 0 -0.00015739475215615476 0.090141241466853608 0 -0.0027247159998251363 0.090239187095781742 0 -0.0021759426115519091 0.086347189866480586 0 -0.0024756167758767877 0.0829130762914774 0 -0.000361882805578655 0.084574574153296916 0 -0.0021759426115519091 0.086347189866480586 0 -0.0024756167758767877 0.0829130762914774 0 -0.0046721015185981112 0.084843690167697522 0 -0.0027344542369893117 0.083155308898518229 0 -0.00067430130433008726 0.08318997700961786 0 -0.0021702792945288911 0.083398199391731626 0 0.0020544857620919065 0.083194556983899659 0 -0.00070623234818284789 0.081345452813403954 0 -0.0024756167758767877 0.0829130762914774 0 0.0020544857620919065 0.083194556983899659 0 -0.000361882805578655 0.084574574153296916 0 0.0020544857620919065 0.083194556983899659 0 0.0015807292133640527 0.081393788990075128 0 -0.00070623234818284789 0.081345452813403954 0 0.0020544857620919065 0.083194556983899659 0 0.0011104312522766209 0.085902152976339491 0 0.002665903936493891 0.084909720854841733 0 -0.00034060471787536586 0.088098056066846009 0 -0.0021759426115519091 0.086347189866480586 0 0.0011104312522766209 0.085902152976339491 0 -0.0021759426115519091 0.086347189866480586 0 -0.000361882805578655 0.084574574153296916 0 0.0011104312522766209 0.085902152976339491 0 0.0020544857620919065 0.083194556983899659 0 -0.000361882805578655 0.084574574153296916 0 0.0011104312522766209 0.085902152976339491 0 0.0011104312522766209 0.085902152976339491 0 0.0029533548401969628 0.086356989770365572 0 0.002665903936493891 0.084909720854841733 0 0.0029533548401969628 0.086356989770365572 0 0.0042904250858997331 0.085830380314653412 0 0.0038735835153501357 0.084919182713788982 0 0.0038219343211140437 0.088120519891734306 0 0.0029533548401969628 0.086356989770365572 0 0.0042904250858997331 0.085830380314653412 0 0.0038735835153501357 0.084919182713788982 0 0.0046156701735239137 0.084255821176518017 0 0.0029603706770485456 0.083707741007469555 0 0.0038735835153501357 0.084919182713788982 0 0.0046156701735239137 0.084255821176518017 0 0.0050744595696991732 0.085620332658729231 0 0.0042904250858997331 0.085830380314653412 0 0.0038735835153501357 0.084919182713788982 0 0.0050744595696991732 0.085620332658729231 0 0.0038735835153501357 0.084919182713788982 0 0.002665903936493891 0.084909720854841733 0 0.0029603706770485456 0.083707741007469555 0 0.0029533548401969628 0.086356989770365572 0 0.0038735835153501357 0.084919182713788982 0 0.002665903936493891 0.084909720854841733 0 0.0020544857620919065 0.083194556983899659 0 0.002665903936493891 0.084909720854841733 0 0.0029603706770485456 0.083707741007469555 0 0.0020544857620919065 0.083194556983899659 0 0.0029603706770485456 0.083707741007469555 0 0.0015807292133640527 0.081393788990075128 0 0.0038059469015941593 0.085835042945741999 0 0.0034338374884690173 0.08365623806751965 0 0.0014610538478727489 0.082806587280396637 0 0.0046156701735239137 0.084255821176518017 0 0.0029603706770485456 0.083707741007469555 0 0.0015807292133640527 0.081393788990075128 0 0.0043162183097517591 0.085016746196322199 0 0.0020342081074090751 0.08247781082364844 0 0.0034338374884690173 0.08365623806751965 0 0.0040658036760542349 0.085097138935556593 0 0.0041461905856828019 0.083947586216536765 0 0.0038059469015941593 0.085835042945741999 0 0.0034338374884690173 0.08365623806751965 0 0.0040658036760542349 0.085097138935556593 0 0.0038059469015941593 0.085835042945741999 0 0.0040668810339642017 0.085610025804024423 0 0.004046376597021689 0.085869987110062065 0 0.0040668810339642017 0.085610025804024423 0 0.0046991606819683333 0.085534222555117972 0 0.004046376597021689 0.085869987110062065 0 0.0046991606819683333 0.085534222555117972 0 0.0040658036760542349 0.085097138935556593 0 0.0049049468919350817 0.084298328558462102 0 0.0040668810339642017 0.085610025804024423 0 0.0046991606819683333 0.085534222555117972 0 0.0040658036760542349 0.085097138935556593 0 0.0038059469015941593 0.085835042945741999 0 0.0040668810339642017 0.085610025804024423 0 0.0040658036760542349 0.085097138935556593 0 0.0049049468919350817 0.084298328558462102 0 0.0041461905856828019 0.083947586216536765 0 0.0044587999665390001 0.082837146622327509 0 0.0040658036760542349 0.085097138935556593 0 0.0049049468919350817 0.084298328558462102 0 0.0041461905856828019 0.083947586216536765 0 0.0049049468919350817 0.084298328558462102 0 0.00581592595840959 0.08515686803361204 0 0.0062124275182721764 0.083145739440678268 0 0.0046991606819683333 0.085534222555117972 0 0.0049049468919350817 0.084298328558462102 0 0.00581592595840959 0.08515686803361204 0 0.0046991606819683333 0.085534222555117972 0 0.0061294185431358221 0.086305565621658656 0 0.00581592595840959 0.08515686803361204 0 0.004046376597021689 0.085869987110062065 0 0.006676400381146739 0.087675046781997765 0 0.0056762250142034284 0.087938207240763469 0 0.0038059469015941593 0.085835042945741999 0 0.004046376597021689 0.085869987110062065 0 0.0056762250142034284 0.087938207240763469 0 0.0043162183097517591 0.085016746196322199 0 0.0067343220492004242 0.087615480852438393 0 0.0060053796383534768 0.087152728546213254 0 0.0067343220492004242 0.087615480852438393 0 0.0046156701735239137 0.084255821176518017 0 0.0050744595696991732 0.085620332658729231 0 0.007477102190599807 0.087481235557017159 0 0.004046376597021689 0.085869987110062065 0 0.0066327096739329525 0.088201836001357642 0 0.0061294185431358221 0.086305565621658656 0 0.0046991606819683333 0.085534222555117972 0 0.004046376597021689 0.085869987110062065 0 0.0061294185431358221 0.086305565621658656 0 0.0054688228237725752 0.087093794823555143 0 0.006823667354799356 0.088088179640742933 0 0.0042904250858997331 0.085830380314653412 0 0.0050744595696991732 0.085620332658729231 0 0.007477102190599807 0.087481235557017159 0 -0.010704864782209224 0.087834333944382309 0 -0.0079446546020837516 0.088588030606455426 0 -0.0087763096971873178 0.085080720333173002 0 -0.010704864782209224 0.087834333944382309 0 -0.011544000299196775 0.085102749062529043 0 -0.01320950720838077 0.086186002862796138 0 -0.010704864782209224 0.087834333944382309 0 -0.01320950720838077 0.086186002862796138 0 -0.012560749980331557 0.088994227982719068 0 -0.011182935477967518 0.089935144586467841 0 -0.010704864782209224 0.087834333944382309 0 -0.012560749980331557 0.088994227982719068 0 -0.0047971899792715678 0.085650897819139274 0 -0.0062881706105902702 0.086419966409953308 0 -0.009634211021658361 0.089775975812051823 0 -0.011182935477967518 0.089935144586467841 0 -0.010704864782209224 0.087834333944382309 0 -0.0083121794919637868 0.091682144616101857 0 -0.010704864782209224 0.087834333944382309 0 -0.0079446546020837516 0.088588030606455426 0 -0.0083121794919637868 0.091682144616101857 0 -0.0056180454519587962 0.090454423504648745 0 -0.0079446546020837516 0.088588030606455426 0 -0.0056180454519587962 0.090454423504648745 0 -0.0059155684821761284 0.0873079447631913 0 -0.0079446546020837516 0.088588030606455426 0 -0.0028987056935261086 0.08935078642402039 0 -0.0056180454519587962 0.090454423504648745 0 -0.0059155684821761284 0.0873079447631913 0 -0.0034978528646638475 0.092421313037200054 0 -0.0028987056935261086 0.08935078642402039 0 -0.0056180454519587962 0.090454423504648745 0 -0.0028987056935261086 0.08935078642402039 0 -0.0021759426115519091 0.086347189866480586 0 -0.0059155684821761284 0.0873079447631913 0 -0.0059155684821761284 0.0873079447631913 0 -0.0079446546020837516 0.088588030606455426 0 -0.0087763096971873178 0.085080720333173002 0 -0.0046721015185981112 0.084843690167697522 0 -0.006717932262930203 0.082898286908856839 0 -0.0087763096971873178 0.085080720333173002 0 -0.0059155684821761284 0.0873079447631913 0 -0.0046721015185981112 0.084843690167697522 0 -0.0087763096971873178 0.085080720333173002 0 -0.0021759426115519091 0.086347189866480586 0 -0.0059155684821761284 0.0873079447631913 0 -0.0046721015185981112 0.084843690167697522 0 -0.0027344542369893117 0.083155308898518229 0 -0.0061334049922753663 0.083097507767632986 0 -0.0021702792945288911 0.083398199391731626 0 -0.0065287644430063949 0.083313393929542776 0 -0.0035800947970414318 0.080514297897720799 0 -0.0024756167758767877 0.0829130762914774 0 -0.0046721015185981112 0.084843690167697522 0 -0.006717932262930203 0.082898286908856839 0 -0.0061334049922753663 0.083097507767632986 0 -0.0081238708725182018 0.083061484935423244 0 -0.0065287644430063949 0.083313393929542776 0 -0.01069578362112728 0.083039581771835111 0 -0.00875049701041891 0.081248763809730784 0 -0.0087763096971873178 0.085080720333173002 0 -0.011297311626996546 0.083945672277686567 0 -0.01069578362112728 0.083039581771835111 0 -0.006717932262930203 0.082898286908856839 0 -0.0087763096971873178 0.085080720333173002 0 -0.01069578362112728 0.083039581771835111 0 -0.010704864782209224 0.087834333944382309 0 -0.0087763096971873178 0.085080720333173002 0 -0.011544000299196775 0.085102749062529043 0 -0.011544000299196775 0.085102749062529043 0 -0.012158079747766838 0.082879369806688294 0 -0.01320950720838077 0.086186002862796138 0 -0.0087763096971873178 0.085080720333173002 0 -0.011544000299196775 0.085102749062529043 0 -0.011297311626996546 0.083945672277686567 0 -0.011544000299196775 0.085102749062529043 0 -0.011297311626996546 0.083945672277686567 0 -0.012158079747766838 0.082879369806688294 0 -0.011297311626996546 0.083945672277686567 0 -0.01069578362112728 0.083039581771835111 0 -0.012158079747766838 0.082879369806688294 0 -0.0089805784896325527 0.060169086981655538 0 -0.0090200049024736027 0.060095635365383919 0 -0.0090291479883052358 0.060248411881860947 0 -0.012701370251003118 0.081926472456114896 0 -0.013895737300501532 0.082498489037010861 0 -0.014108116373746173 0.080691887374746807 0 -0.010977349766572409 0.068988379958586449 0 -0.012514685015516168 0.064321277061815049 0 -0.0090200049024736027 0.060095635365383919 0 -0.0089637362251795746 0.060116262815187033 0 -0.0089375424082900317 0.060068478614529588 0 -0.0089805784896325527 0.060169086981655538 0 -0.0090200049024736027 0.060095635365383919 0 -0.0089637362251795746 0.060116262815187033 0 -0.0064985951149535417 0.050687028200561209 0 -0.007327609996690544 0.052776022529943012 0 -0.0085173517221660121 0.049818430929751426 0 -0.0066928540439602155 0.050579180035583024 0 -0.0073621798298055237 0.047057416610621856 0 -0.0064985951149535417 0.050687028200561209 0 -0.0085173517221660121 0.049818430929751426 0 -0.0076173830396961953 0.048706488841640604 0 -0.0088552448478039086 0.054966793064059036 0 -0.0094044083714910076 0.052487481759836141 0 -0.0089805784896325527 0.060169086981655538 0 -0.008912616030028641 0.060123757904162793 0 -0.0089739054590910056 0.060259045257486578 0 -0.0088552448478039086 0.054966793064059036 0 -0.01177510533924098 0.06177371008227734 0 -0.0089805784896325527 0.060169086981655538 0 -0.0089637362251795746 0.060116262815187033 0 -0.008912616030028641 0.060123757904162793 0 -0.0089375424082900317 0.060068478614529588 0 -0.0089174093613974565 0.060103445434047879 0 -0.0088711753932525835 0.060013428134705719 0 -0.0089637362251795746 0.060116262815187033 0 -0.0089375424082900317 0.060068478614529588 0 -0.008912616030028641 0.060123757904162793 0 -0.0087280117442082635 0.055303582833736716 0 -0.0088552448478039086 0.054966793064059036 0 -0.0088552448478039086 0.054966793064059036 0 -0.0066928540439602155 0.050579180035583024 0 -0.0089375424082900317 0.060068478614529588 0 -0.0088711753932525835 0.060013428134705719 0 -0.0089476434142769738 0.059994687048155311 0 -0.010977349766572409 0.068988379958586449 0 -0.0094762743654269212 0.071011714171256304 0 -0.0090200049024736027 0.060095635365383919 0 -0.0090017339833609756 0.059972413717224012 0 -0.0089476434142769738 0.059994687048155311 0 -0.012701370251003118 0.081926472456114896 0 -0.013895737300501532 0.082498489037010861 0 -0.013765776159529394 0.084066266994196739 0 -0.012292549254991221 0.079416895783082975 0 -0.0094762743654269212 0.071011714171256304 0 -0.0090200049024736027 0.060095635365383919 0 -0.0089375424082900317 0.060068478614529588 0 -0.0089476434142769738 0.059994687048155311 0 -0.0057218368626412988 0.066227083521352828 0 -0.0042938047758775801 0.063196382163246176 0 -0.0059837534768485794 0.062194465062861228 0 -0.0094762743654269212 0.071011714171256304 0 -0.0051432152344517207 0.055897077550571522 0 -0.0094762743654269212 0.071011714171256304 0 -0.0063170229185568992 0.071060612621043129 0 -0.0090017339833609756 0.059972413717224012 0 -0.0089476434142769738 0.059994687048155311 0 -0.0089145414632986943 0.05982720956725078 0 -0.0088711753932525835 0.060013428134705719 0 -0.0089476434142769738 0.059994687048155311 0 -0.0089145414632986943 0.05982720956725078 0 -0.0046603144071354075 0.051763359412363881 0 -0.0066391825454264553 0.046756472334404976 0 -0.0027282546212447525 0.046975687862098665 0 -0.0066928540439602155 0.050579180035583024 0 -0.0051432152344517207 0.055897077550571522 0 -0.0045722628482903586 0.051487022438861441 0 -0.0045950973242240949 0.05139994380150073 0 -0.0045327760149067552 0.051404298062996935 0 -0.0066391825454264553 0.046756472334404976 0 -0.0027282546212447525 0.046975687862098665 0 -0.0054451232285034007 0.044170611157100706 0 -0.0051432152344517207 0.055897077550571522 0 -0.0030744961130954609 0.049312866606558536 0 -0.0042938047758775801 0.063196382163246176 0 -0.0059837534768485794 0.062194465062861228 0 -0.0052356917737863612 0.060756266710306886 0 -0.0051432152344517207 0.055897077550571522 0 -0.0039184253424829991 0.055826883220936985 0 -0.0029608577732447724 0.035523573320264956 0 -0.0061026583679055701 0.037192971707681051 0 -0.0035129669141814317 0.041407090134988708 0 -0.0029608577732447724 0.035523573320264956 0 -0.0035129669141814317 0.041407090134988708 0 -0.00039491554485190754 0.03754094529134825 0 -0.0029608577732447724 0.035523573320264956 0 -0.0061026583679055701 0.037192971707681051 0 -0.0042236852733017844 0.032515172454534128 0 -0.003695691415005785 0.042771796265081104 0 -0.00071008358190853484 0.036819488835367988 0 -0.0027282546212447525 0.046975687862098665 0 -0.0054451232285034007 0.044170611157100706 0 -0.0024727715192491965 0.042982423419857953 0 -0.0079877020046713286 0.041888095574103119 0 -0.0061026583679055701 0.037192971707681051 0 -0.0035129669141814317 0.041407090134988708 0 -0.0066928540439602155 0.050579180035583024 0 -0.003695691415005785 0.042771796265081104 0 -0.003963462992285601 0.038098854479144371 0 -0.0019357516768421668 0.032186309829778721 0 -0.0079877020046713286 0.041888095574103119 0 -0.0035129669141814317 0.041407090134988708 0 -0.0066458336795908179 0.045277147897718535 0 -0.003963462992285601 0.038098854479144371 0 -0.0073621798298055237 0.047057416610621856 0 -0.0053624776093090763 0.032121186711665077 0 -0.008202362013898807 0.03564625142397454 0 -0.0052262044482852647 0.03585059109063924 0 -0.0053624776093090763 0.032121186711665077 0 -0.0052262044482852647 0.03585059109063924 0 -0.0021924732844000178 0.035443983291188093 0 -0.003722687009837519 0.026799084679398164 0 -0.0023248444067617089 0.024438382924736123 0 -0.0041353670066200986 0.016382296201481097 0 -0.0039529422777693224 0.016407829470597188 0 -0.003953892766718807 0.01613318599772973 0 -0.0017099753502186042 0.019470013691734379 0 -0.0022202681019981244 0.017349847035422587 0 -0.0039529422777693224 0.016407829470597188 0 -0.003953892766718807 0.01613318599772973 0 -0.0038648303155926853 0.016062565349377982 0 -0.003953892766718807 0.01613318599772973 0 -0.0038648303155926853 0.016062565349377982 0 -0.003927436014690742 0.01618838066484304 0 -0.0053624776093090763 0.032121186711665077 0 -0.0021924732844000178 0.035443983291188093 0 -0.00079998665613538022 0.032077871987646292 0 -0.004668421074468368 0.013895435481778282 0 -0.0051701707386932654 0.012496190877601673 0 -0.0065865302961911881 0.013096336497483544 0 -0.004668421074468368 0.013895435481778282 0 -0.0039816194455420829 0.012399697376171226 0 -0.0051701707386932654 0.012496190877601673 0 -0.0017426033669202053 0.012879415965276151 0 -0.0030856290502461756 0.012971200102398234 0 -0.0031673631944135021 0.014571726991042524 0 -0.004668421074468368 0.013895435481778282 0 -0.0030856290502461756 0.012971200102398234 0 -0.0039816194455420829 0.012399697376171226 0 -0.004668421074468368 0.013895435481778282 0 -0.0030856290502461756 0.012971200102398234 0 -0.0031673631944135021 0.014571726991042524 0 -0.0038648303155926853 0.016062565349377982 0 -0.003976739812641834 0.016306837703540678 0 -0.003927436014690742 0.01618838066484304 0 -0.0022202681019981244 0.017349847035422587 0 -0.0027817511868103262 0.017200381121755311 0 -0.0031673631944135021 0.014571726991042524 0 -0.0048711305890957336 0.015061175442625906 0 -0.0047464082302215854 0.016284570928309709 0 -0.004668421074468368 0.013895435481778282 0 -0.0048711305890957336 0.015061175442625906 0 -0.0061342403783506225 0.01459135099430166 0 -0.004668421074468368 0.013895435481778282 0 -0.0031673631944135021 0.014571726991042524 0 -0.0048711305890957336 0.015061175442625906 0 -0.0047464082302215854 0.016284570928309709 0 -0.003976739812641834 0.016306837703540678 0 -0.0059192820764053114 0.016706431834461414 0 -0.003976739812641834 0.016306837703540678 0 -0.0037650214446555749 0.016139604554095358 0 -0.0034869077273068697 0.016232069271618688 0 -0.0048828933496207127 0.012112175060905631 0 -0.0047173300209869618 0.010462010625586124 0 -0.0048711305890957336 0.015061175442625906 0 -0.0047464082302215854 0.016284570928309709 0 -0.0058004673838014335 0.015637119544070665 0 -0.0038648303155926853 0.016062565349377982 0 -0.0047464082302215854 0.016284570928309709 0 -0.003976739812641834 0.016306837703540678 0 -0.003976739812641834 0.016306837703540678 0 -0.0039369576748736063 0.016166689300046406 0 -0.0037650214446555749 0.016139604554095358 0 -0.003976739812641834 0.016306837703540678 0 -0.003927436014690742 0.01618838066484304 0 -0.0039775025071841705 0.016225039774392963 0 -0.003976739812641834 0.016306837703540678 0 -0.0039369576748736063 0.016166689300046406 0 -0.0039775025071841705 0.016225039774392963 0 -0.0039369576748736063 0.016166689300046406 0 -0.0039775025071841705 0.016225039774392963 0 -0.003978046217283363 0.015980862671644936 0 -0.0039369576748736063 0.016166689300046406 0 -0.0037650214446555749 0.016139604554095358 0 -0.003978046217283363 0.015980862671644936 0 -0.0037650214446555749 0.016139604554095358 0 -0.0034869077273068697 0.016232069271618688 0 -0.0035678110040598368 0.015944198717244281 0 -0.0037650214446555749 0.016139604554095358 0 -0.003978046217283363 0.015980862671644936 0 -0.0035678110040598368 0.015944198717244281 0 -0.0053624776093090763 0.032121186711665077 0 -0.00079998665613538022 0.032077871987646292 0 -0.0025095555077750882 0.028581924723281454 0 -0.0023248444067617089 0.024438382924736123 0 -0.0010637382799935872 0.022617197762945136 0 -0.003953892766718807 0.01613318599772973 0 -0.003927436014690742 0.01618838066484304 0 -0.0039775025071841705 0.016225039774392963 0 -0.00079998665613538022 0.032077871987646292 0 -0.0025095555077750882 0.028581924723281454 0 0.00059400412362515989 0.02870035221327126 0 0.00059400412362515989 0.02870035221327126 0 0.00035198416045950095 0.025038658361803467 0 0.0019848067447161906 0.025316117815382476 0 -0.0025095555077750882 0.028581924723281454 0 0.00059400412362515989 0.02870035221327126 0 0.00035198416045950095 0.025038658361803467 0 -0.0019357516768421668 0.032186309829778721 0 0.00061947891343600589 0.024584601331037067 0 -0.0010637382799935872 0.022617197762945136 0 0.00050926419732214251 0.020784668334949942 0 -0.00039491554485190754 0.03754094529134825 0 -0.0007566512010857867 0.033102460210226906 0 0.0027103274713484947 0.033684070618777012 0 -0.0029608577732447724 0.035523573320264956 0 -0.00039491554485190754 0.03754094529134825 0 -0.0007566512010857867 0.033102460210226906 0 0.00016698156772550251 0.030898770186069471 0 0.00061947891343600589 0.024584601331037067 0 0.0013535248686171724 0.030621800849686884 0 0.0025153372000386392 0.030820834317531676 0 0.0025347537656802937 0.029717740807250904 0 0.00061947891343600589 0.024584601331037067 0 0.00050926419732214251 0.020784668334949942 0 0.0025153372000386392 0.030820834317531676 0 0.0025347537656802937 0.029717740807250904 0 0.0035408899955203586 0.029597228310535614 0 0.0013535248686171724 0.030621800849686884 0 0.0025347537656802937 0.029717740807250904 0 0.0015830647981849803 0.029514172500538224 0 0.0013535248686171724 0.030621800849686884 0 0.0015830647981849803 0.029514172500538224 0 0.00085484624309342531 0.029927281445028063 0 0.0015830647981849803 0.029514172500538224 0 0.00077164933092723148 0.028996059364424905 0 0.00085484624309342531 0.029927281445028063 0 0.0032221557093845797 0.01043087785962255 0 0.0042392264427037109 0.010646472324873505 0 0.0042250817210205223 0.011636189258254374 0 0.00050926419732214251 0.020784668334949942 0 0.00071374068292210367 0.012734128542055622 0 0.0020878542049508741 0.011341211963195963 0 0.0032221557093845797 0.01043087785962255 0 0.0042250817210205223 0.011636189258254374 0 0.0012622676097959005 0.011285248131177563 0 0.0024063730539290442 0.010566763223189541 0 0.0025391349354161622 0.0097140955267875657 0 0.00061947891343600589 0.024584601331037067 0 0.0031331295954940552 0.020561477478286593 0 0.0024063730539290442 0.010566763223189541 0 0.0020878542049508741 0.011341211963195963 0 0.0032221557093845797 0.01043087785962255 0 0.0010993335001565118 0.019067431784784091 0 0.00050926419732214251 0.020784668334949942 0 0.0012622676097959005 0.011285248131177563 0 0.0024063730539290442 0.010566763223189541 0 0.0020642152862433241 0.011425569094059314 0 0.0025347537656802937 0.029717740807250904 0 0.0035408899955203586 0.029597228310535614 0 0.0028950063470874416 0.028836145620951603 0 0.0024063730539290442 0.010566763223189541 0 0.0025391349354161622 0.0097140955267875657 0 0.0032221557093845797 0.01043087785962255 0 0.0025391349354161622 0.0097140955267875657 0 0.0032221557093845797 0.01043087785962255 0 0.0033229909989885408 0.0094701849798411782 0 0.0032221557093845797 0.01043087785962255 0 0.0033229909989885408 0.0094701849798411782 0 0.0039749004335813748 0.0097600755644924372 0 0.0033229909989885408 0.0094701849798411782 0 0.0039749004335813748 0.0097600755644924372 0 0.0038528984430768868 0.0091627626787522155 0 0.0032221557093845797 0.01043087785962255 0 0.0039749004335813748 0.0097600755644924372 0 0.0042392264427037109 0.010646472324873505 0 0.0031331295954940552 0.020561477478286593 0 0.0046353051218658977 0.01837075991159005 0 0.0033229909989885408 0.0094701849798411782 0 0.0037321001851504314 0.0082751204577212519 0 0.0038528984430768868 0.0091627626787522155 0 0.0037321001851504314 0.0082751204577212519 0 0.0038528984430768868 0.0091627626787522155 0 0.0045286636127365521 0.0094386028087342731 0 0.0025391349354161622 0.0097140955267875657 0 0.0033229909989885408 0.0094701849798411782 0 0.0037321001851504314 0.0082751204577212519 0 0.0035408899955203586 0.029597228310535614 0 0.0046093117428443013 0.028281727753693701 0 0.0034615861950954385 0.028366853972006351 0 0.0035408899955203586 0.029597228310535614 0 0.0034615861950954385 0.028366853972006351 0 0.0028950063470874416 0.028836145620951603 0 0.0034615861950954385 0.028366853972006351 0 0.0028950063470874416 0.028836145620951603 0 0.0027853753527518938 0.027944459066471677 0 0.0034615861950954385 0.028366853972006351 0 0.0030900767786729171 0.027278265046524926 0 0.0027853753527518938 0.027944459066471677 0 0.0046093117428443013 0.028281727753693701 0 0.0034615861950954385 0.028366853972006351 0 0.0030900767786729171 0.027278265046524926 0 0.0070299009647015638 0.02708591009911257 0 0.0058433506207980421 0.026323583063018009 0 0.0065215318368380413 0.026604834150905123 0 0.0046353051218658977 0.01837075991159005 0 0.003763695756242112 0.026798401603361204 0 0.0069676450225408942 0.025917146259739912 0 0.0058433506207980421 0.026323583063018009 0 0.0065215318368380413 0.026604834150905123 0 0.003763695756242112 0.026798401603361204 0 0.0036577975744698007 0.02698119575722473 0 0.0069676450225408942 0.025917146259739912 0 0.0065215318368380413 0.026604834150905123 0 0.0072602701993381277 0.026879097653030353 0 0.0064951704673595024 0.017943389920778159 0 0.0055458756261908678 0.016825565579893738 0 0.0070299009647015638 0.02708591009911257 0 0.0065215318368380413 0.026604834150905123 0 0.0072250239910831744 0.026838404401452923 0 0.0046353051218658977 0.01837075991159005 0 0.0055458756261908678 0.016825565579893738 0 0.0015830647981849803 0.029514172500538224 0 0.002080458527439895 0.028696722812841271 0 0.00077164933092723148 0.028996059364424905 0 0.002080458527439895 0.028696722812841271 0 0.0016476486978757449 0.027659146827459357 0 0.00077164933092723148 0.028996059364424905 0 0.0025347537656802937 0.029717740807250904 0 0.0028950063470874416 0.028836145620951603 0 0.0020362440677958575 0.02850293400906213 0 0.0025347537656802937 0.029717740807250904 0 0.0015830647981849803 0.029514172500538224 0 0.002080458527439895 0.028696722812841271 0 0.0016811530703241128 0.029642020351563322 0 0.0015637201251264064 0.029689410606575827 0 0.0028950063470874416 0.028836145620951603 0 0.0020362440677958575 0.02850293400906213 0 0.0027853753527518938 0.027944459066471677 0 0.0020362440677958575 0.02850293400906213 0 0.0023008216910571158 0.02754143387598116 0 0.0015677062822853887 0.027336255553061416 0 0.0020362440677958575 0.02850293400906213 0 0.0027853753527518938 0.027944459066471677 0 0.0023008216910571158 0.02754143387598116 0 0.0030743734864676743 0.027316584609197926 0 0.0027853753527518938 0.027944459066471677 0 0.0023008216910571158 0.02754143387598116 0 0.0011112364859844931 0.034422045893635934 0 0.000970275075311125 0.034483157953888302 0 0.00095538454350384185 0.034756396510889125 0 0.0015637201251264064 0.029689410606575827 0 0.0016708116057946108 0.031049354718420567 0 0.0016708116057946108 0.031049354718420567 0 0.0010845675981338014 0.032972128104763208 0 0.00095881620047771616 0.034372943519774032 0 0.0011112364859844931 0.034422045893635934 0 0.000970275075311125 0.034483157953888302 0 0.000970275075311125 0.034483157953888302 0 0.000860526395150362 0.034406676423022094 0 0.00095538454350384185 0.034756396510889125 0 0.00095881620047771616 0.034372943519774032 0 0.000970275075311125 0.034483157953888302 0 0.000860526395150362 0.034406676423022094 0 0.000860526395150362 0.034406676423022094 0 0.00095538454350384185 0.034756396510889125 0 0.00066266977958021425 0.034751103392947874 0 0.0010769435252433971 0.034524156758997407 0 0.000860526395150362 0.034406676423022094 0 0.0010038217756071542 0.03435914299559422 0 0.00092820781074924412 0.034158149751369972 0 0.0010038217756071542 0.03435914299559422 0 0.0011453702585391213 0.034334092747401693 0 0.001437202506579467 0.035587725468398085 0 0.0011933670369320543 0.036773707769561799 0 0.000860526395150362 0.034406676423022094 0 0.00092820781074924412 0.034158149751369972 0 0.0010038217756071542 0.03435914299559422 0 0.0013487041626811613 0.034959988623221375 0 0.0010769435252433971 0.034524156758997407 0 0.0011453702585391213 0.034334092747401693 0 0.0010769435252433971 0.034524156758997407 0 0.0010038217756071542 0.03435914299559422 0 0.0011453702585391213 0.034334092747401693 0 0.0013487041626811613 0.034959988623221375 0 0.0011453702585391213 0.034334092747401693 0 0.001662524426410074 0.034155713389420708 0 0.001662524426410074 0.034155713389420708 0 0.0013827953709835913 0.034070346235534975 0 0.001507958756274257 0.033860080004079703 0 -0.00012504080039995528 0.042914913557647857 0 -0.0022732357181001811 0.055852288721224191 0 0.0011453702585391213 0.034334092747401693 0 0.001662524426410074 0.034155713389420708 0 0.0013827953709835913 0.034070346235534975 0 0.00092820781074924412 0.034158149751369972 0 0.0011453702585391213 0.034334092747401693 0 0.0011632167687595501 0.034025879661156042 0 0.0011453702585391213 0.034334092747401693 0 0.0013827953709835913 0.034070346235534975 0 0.0011632167687595501 0.034025879661156042 0 0.0011632167687595501 0.034025879661156042 0 0.0010789080716701184 0.033789360215683566 0 0.001507958756274257 0.033860080004079703 0 -0.00078623802038382514 0.043415011327895228 0 -0.0022732357181001811 0.055852288721224191 0 0.00092820781074924412 0.034158149751369972 0 0.0011632167687595501 0.034025879661156042 0 0.0010789080716701184 0.033789360215683566 0 0.0013827953709835913 0.034070346235534975 0 0.0011632167687595501 0.034025879661156042 0 0.001507958756274257 0.033860080004079703 0 -0.0022732357181001811 0.055852288721224191 0 -0.0039184253424829991 0.055826883220936985 0 -0.0044980799312232403 0.051327539266727847 0 -0.0046209974647008793 0.051322690768394491 0 -0.0045950973242240949 0.05139994380150073 0 -0.0063170229185568992 0.071060612621043129 0 -0.0022732357181001811 0.055852288721224191 0 -0.0059837534768485794 0.062194465062861228 0 -0.0062305020793515121 0.058174208395328983 0 -0.0052356917737863612 0.060756266710306886 0 -0.0044980799312232403 0.051327539266727847 0 -0.0045950973242240949 0.05139994380150073 0 -0.0045327760149067552 0.051404298062996935 0 -0.0042497718959952748 0.041584013207515182 0 -0.0054451232285034007 0.044170611157100706 0 -0.0024727715192491965 0.042982423419857953 0 -0.00078623802038382514 0.043415011327895228 0 -0.0030744961130954609 0.049312866606558536 0 -0.0027282546212447525 0.046975687862098665 0 -0.0024727715192491965 0.042982423419857953 0 -0.00079535685616862514 0.042166131098813474 0 -0.00078623802038382514 0.043415011327895228 0 -0.00086561518103873167 0.038030162391509657 0 -0.0042497718959952748 0.041584013207515182 0 -0.0024727715192491965 0.042982423419857953 0 -0.0018364820245897495 0.04199457694291589 0 -0.0024727715192491965 0.042982423419857953 0 -0.0018355769599972952 0.04198701075651564 0 -0.00079535685616862514 0.042166131098813474 0 -0.00086561518103873167 0.038030162391509657 0 -0.00071008358190853484 0.036819488835367988 0 -0.0010095917917445989 0.038294868873059176 0 -0.00086561518103873167 0.038030162391509657 0 0.00016698156772550251 0.030898770186069471 0 -0.00071008358190853484 0.036819488835367988 0 -0.0029608577732447724 0.035523573320264956 0 -0.0007566512010857867 0.033102460210226906 0 -0.0042236852733017844 0.032515172454534128 0 0.0013535248686171724 0.030621800849686884 0 0.00020802142014133567 0.030442317763993004 0 0.00085484624309342531 0.029927281445028063 0 -0.00013529767472974255 0.030394569346471022 0 0.00020617879222951976 0.030455451595999401 0 0.00036230625917154947 0.03005753213780939 0 0.00077164933092723148 0.028996059364424905 0 0.00036230625917154947 0.03005753213780939 0 0.00085484624309342531 0.029927281445028063 0 0.00020802142014133567 0.030442317763993004 0 0.00036230625917154947 0.03005753213780939 0 0.00085484624309342531 0.029927281445028063 0 0.00077164933092723148 0.028996059364424905 0 -0.00013529767472974255 0.030394569346471022 0 0.00036230625917154947 0.03005753213780939 0 -0.00071008358190853484 0.036819488835367988 0 -0.00055176634715627527 0.036342317950757819 0 0.0010845675981338014 0.032972128104763208 0 -0.00086561518103873167 0.038030162391509657 0 0.0011933670369320543 0.036773707769561799 0 -0.00078623802038382514 0.043415011327895228 0 0.00066266977958021425 0.034751103392947874 0 0.00047068720968992007 0.035163639870539193 0 0.00070772588940674419 0.035195350163433677 0 0.00095538454350384185 0.034756396510889125 0 0.00066266977958021425 0.034751103392947874 0 0.00070772588940674419 0.035195350163433677 0 -2.4905069418226663e-05 0.10492936485295079 0 -1.4388656276562772e-08 0.10499993680894996 0 -1.7727162133809642e-05 0.10496400257711408 0 -1.4388656276562772e-08 0.10499993680894996 0 -1.7727162133809642e-05 0.10496400257711408 0 -6.7940603847145035e-09 0.10499996153239376 0 -0.00035255235130450031 0.10313264569073141 0 -0.00056867711012473514 0.10141343810463371 0 -2.4905069418226663e-05 0.10492936485295079 0 -1.7727162133809642e-05 0.10496400257711408 0 -4.8196875884481271e-06 0.10493360299956674 0 -0.00035255235130450031 0.10313264569073141 0 -2.9567534005515086e-05 0.10046225428692929 0 -0.0014216753843159433 0.099705493614474824 0 -0.00061122297854119775 0.099329900731386783 0 -0.00036374423951529312 0.099518256223649987 0 -0.00056867711012473514 0.10141343810463371 0 -0.00082366609509279044 0.099316239544940538 0 -0.00061122297854119775 0.099329900731386783 0 -0.00036374423951529312 0.099518256223649987 0 0.00020138355377747556 0.098960838654675629 0 -4.8196875884481271e-06 0.10493360299956674 0 2.383305280460468e-07 0.10489097590645979 0 4.0176880216899473e-05 0.10489467981152971 0 -2.4905069418226663e-05 0.10492936485295079 0 -4.8196875884481271e-06 0.10493360299956674 0 2.383305280460468e-07 0.10489097590645979 0 -2.4905069418226663e-05 0.10492936485295079 0 -1.6190434152485497e-05 0.10482429636508764 0 -2.9435180295968834e-05 0.1048639109347055 0 -2.4905069418226663e-05 0.10492936485295079 0 2.383305280460468e-07 0.10489097590645979 0 -1.6190434152485497e-05 0.10482429636508764 0 2.383305280460468e-07 0.10489097590645979 0 -1.6190434152485497e-05 0.10482429636508764 0 5.5841833228506018e-05 0.10483546394498554 0 0.00052907861520821748 0.10164720450282044 0 0.00010524276938117035 0.10056506903904441 0 -1.6190434152485497e-05 0.10482429636508764 0 -1.1605541276054686e-05 0.10466997551798796 0 4.7665699467499883e-05 0.10468888467477099 0 -1.6190434152485497e-05 0.10482429636508764 0 -2.9435180295968834e-05 0.1048639109347055 0 -3.3120020129353474e-05 0.10473195128307437 0 -2.4905069418226663e-05 0.10492936485295079 0 -2.9435180295968834e-05 0.1048639109347055 0 -5.5900343111416448e-08 0.10499985462762608 0 -2.4905069418226663e-05 0.10492936485295079 0 -1.4388656276562772e-08 0.10499993680894996 0 -5.5900343111416448e-08 0.10499985462762608 0 -5.5900343111416448e-08 0.10499985462762608 0 -2.9750723770273133e-05 0.10483412839767245 0 -1.7014447502971724e-08 0.10499980554170546 0 -2.9435180295968834e-05 0.1048639109347055 0 -5.5900343111416448e-08 0.10499985462762608 0 -2.9750723770273133e-05 0.10483412839767245 0 -1.7014447502971724e-08 0.10499980554170546 0 -1.2378489158447529e-06 0.10482572524122261 0 -1.0507787474882868e-08 0.10499973202346746 0 -2.9750723770273133e-05 0.10483412839767245 0 -1.7014447502971724e-08 0.10499980554170546 0 -1.2378489158447529e-06 0.10482572524122261 0 -2.9750723770273133e-05 0.10483412839767245 0 -1.2378489158447529e-06 0.10482572524122261 0 -3.0655957250034973e-05 0.10464294976730117 0 -3.116687474615041e-06 0.10437971466247968 0 -7.2941024450916647e-06 0.10456032344972013 0 -8.7999539131529306e-06 0.10429378247017913 0 -7.2941024450916647e-06 0.10456032344972013 0 -2.4765472932627224e-05 0.10446343605201998 0 -8.7999539131529306e-06 0.10429378247017913 0 1.4230514322447933e-05 0.10474152685997747 0 -1.2378489158447529e-06 0.10482572524122261 0 -7.2941024450916647e-06 0.10456032344972013 0 -1.2378489158447529e-06 0.10482572524122261 0 -7.2941024450916647e-06 0.10456032344972013 0 -3.0655957250034973e-05 0.10464294976730117 0 -3.0655957250034973e-05 0.10464294976730117 0 -2.4765472932627224e-05 0.10446343605201998 0 -2.8099236867020969e-05 0.10456443351237034 0 -7.2941024450916647e-06 0.10456032344972013 0 -3.0655957250034973e-05 0.10464294976730117 0 -2.4765472932627224e-05 0.10446343605201998 0 -3.0655957250034973e-05 0.10464294976730117 0 -2.8099236867020969e-05 0.10456443351237034 0 -3.3120020129353474e-05 0.10473195128307437 0 -2.9750723770273133e-05 0.10483412839767245 0 -3.0655957250034973e-05 0.10464294976730117 0 -3.3120020129353474e-05 0.10473195128307437 0 -2.9435180295968834e-05 0.1048639109347055 0 -2.9750723770273133e-05 0.10483412839767245 0 -3.3120020129353474e-05 0.10473195128307437 0 -2.8099236867020969e-05 0.10456443351237034 0 -3.3120020129353474e-05 0.10473195128307437 0 -1.1605541276054686e-05 0.10466997551798796 0 -1.6190434152485497e-05 0.10482429636508764 0 -3.3120020129353474e-05 0.10473195128307437 0 -1.1605541276054686e-05 0.10466997551798796 0 -1.1605541276054686e-05 0.10466997551798796 0 1.5217631029355092e-05 0.10449973998601045 0 4.7665699467499883e-05 0.10468888467477099 0 0.00011169440058244442 0.10455572692836798 0 0.00017813256325645559 0.10465346755507109 0 4.7665699467499883e-05 0.10468888467477099 0 0.00011169440058244442 0.10455572692836798 0 1.5217631029355092e-05 0.10449973998601045 0 0.00014034684212970992 0.1043948568847255 0 0.00011169440058244442 0.10455572692836798 0 1.5217631029355092e-05 0.10449973998601045 0 4.7665699467499883e-05 0.10468888467477099 0 0.00011169440058244442 0.10455572692836798 0 0.00020557507845873113 0.10451940141984889 0 0.00017813256325645559 0.10465346755507109 0 0.00011169440058244442 0.10455572692836798 0 0.00014034684212970992 0.1043948568847255 0 0.00020557507845873113 0.10451940141984889 0 3.9533702313028028e-05 0.10423823541109659 0 1.5217631029355092e-05 0.10449973998601045 0 0.00014034684212970992 0.1043948568847255 0 3.9533702313028028e-05 0.10423823541109659 0 1.5217631029355092e-05 0.10449973998601045 0 -5.1423743063058431e-06 0.10435474701481436 0 -2.8099236867020969e-05 0.10456443351237034 0 -1.1605541276054686e-05 0.10466997551798796 0 1.5217631029355092e-05 0.10449973998601045 0 -2.8099236867020969e-05 0.10456443351237034 0 1.5217631029355092e-05 0.10449973998601045 0 -5.1423743063058431e-06 0.10435474701481436 0 -2.4765472932627224e-05 0.10446343605201998 0 -2.8099236867020969e-05 0.10456443351237034 0 -5.1423743063058431e-06 0.10435474701481436 0 -2.4765472932627224e-05 0.10446343605201998 0 -5.1423743063058431e-06 0.10435474701481436 0 -8.7999539131529306e-06 0.10429378247017913 0 -5.1423743063058431e-06 0.10435474701481436 0 3.4222902784058602e-05 0.10413038040057343 0 -8.7999539131529306e-06 0.10429378247017913 0 3.9533702313028028e-05 0.10423823541109659 0 -5.1423743063058431e-06 0.10435474701481436 0 3.4222902784058602e-05 0.10413038040057343 0 3.9533702313028028e-05 0.10423823541109659 0 3.4222902784058602e-05 0.10413038040057343 0 4.1446253266790707e-05 0.1039066101004016 0 3.4222902784058602e-05 0.10413038040057343 0 0.00010730120749465677 0.10389305923288072 0 4.1446253266790707e-05 0.1039066101004016 0 3.4222902784058602e-05 0.10413038040057343 0 0.00010730120749465677 0.10389305923288072 0 -8.7999539131529306e-06 0.10429378247017913 0 -3.116687474615041e-06 0.10437971466247968 0 0.00010730120749465677 0.10389305923288072 0 -8.7999539131529306e-06 0.10429378247017913 0 -0.00022617103925977582 0.10400731995646861 0 -0.0018086738470332164 0.10263380624838167 0 1.311874948738476e-05 0.10315137695962637 0 -0.0018086738470332164 0.10263380624838167 0 1.311874948738476e-05 0.10315137695962637 0 -0.0016837128338542731 0.10122662048759674 0 -0.0018086738470332164 0.10263380624838167 0 -0.0016837128338542731 0.10122662048759674 0 -0.0027999940725250737 0.10122659744492181 0 -0.00022617103925977582 0.10400731995646861 0 0.00010730120749465677 0.10389305923288072 0 1.311874948738476e-05 0.10315137695962637 0 0.00010730120749465677 0.10389305923288072 0 1.311874948738476e-05 0.10315137695962637 0 4.1446253266790707e-05 0.1039066101004016 0 1.311874948738476e-05 0.10315137695962637 0 4.1446253266790707e-05 0.1039066101004016 0 0.00025883430502653392 0.10401502379155735 0 3.9533702313028028e-05 0.10423823541109659 0 4.1446253266790707e-05 0.1039066101004016 0 0.00021622031584010823 0.10424062887755367 0 4.1446253266790707e-05 0.1039066101004016 0 0.00025883430502653392 0.10401502379155735 0 0.00021622031584010823 0.10424062887755367 0 1.311874948738476e-05 0.10315137695962637 0 0.00025883430502653392 0.10401502379155735 0 0.00062647739746148241 0.10426186660542169 0 -0.0016837128338542731 0.10122662048759674 0 -0.00068811721577247348 0.098681660638397006 0 -0.0027011757122613368 0.10007982275753957 0 1.311874948738476e-05 0.10315137695962637 0 -0.0016837128338542731 0.10122662048759674 0 -0.00068811721577247348 0.098681660638397006 0 -0.0022659762818142055 0.10236798226036727 0 -0.003608399896536637 0.10096769957658565 0 0.00025883430502653392 0.10401502379155735 0 0.00050914190022679562 0.10423461648926904 0 0.00062647739746148241 0.10426186660542169 0 0.00025883430502653392 0.10401502379155735 0 0.00050914190022679562 0.10423461648926904 0 0.00033375662015639813 0.10419941863202807 0 0.00050999100639361372 0.10424400354976286 0 0.0004045884654611078 0.10434910404482096 0 0.0005121298615878326 0.10452621567723838 0 -0.003608399896536637 0.10096769957658565 0 -0.0050802847248290249 0.099788883872761913 0 -0.0035588119010899035 0.10098507750972689 0 -0.003608399896536637 0.10096769957658565 0 0.00050914190022679562 0.10423461648926904 0 0.0004045884654611078 0.10434910404482096 0 0.00033375662015639813 0.10419941863202807 0 0.00050914190022679562 0.10423461648926904 0 0.00050999100639361372 0.10424400354976286 0 0.0004045884654611078 0.10434910404482096 0 3.9533702313028028e-05 0.10423823541109659 0 0.00021622031584010823 0.10424062887755367 0 0.00014034684212970992 0.1043948568847255 0 0.0004045884654611078 0.10434910404482096 0 0.00021622031584010823 0.10424062887755367 0 0.00033375662015639813 0.10419941863202807 0 0.00025883430502653392 0.10401502379155735 0 0.00021622031584010823 0.10424062887755367 0 0.00033375662015639813 0.10419941863202807 0 0.0004045884654611078 0.10434910404482096 0 0.00021622031584010823 0.10424062887755367 0 0.00025931595580512958 0.10440925441801854 0 0.0004045884654611078 0.10434910404482096 0 0.00025931595580512958 0.10440925441801854 0 0.00035190993566610316 0.10449225063740411 0 0.00025931595580512958 0.10440925441801854 0 0.00014034684212970992 0.1043948568847255 0 0.00020557507845873113 0.10451940141984889 0 0.00021622031584010823 0.10424062887755367 0 0.00025931595580512958 0.10440925441801854 0 0.00014034684212970992 0.1043948568847255 0 0.00020557507845873113 0.10451940141984889 0 0.00035284591904486198 0.1046380308998901 0 0.00017813256325645559 0.10465346755507109 0 0.00025931595580512958 0.10440925441801854 0 0.00020557507845873113 0.10451940141984889 0 0.00035190993566610316 0.10449225063740411 0 0.00020557507845873113 0.10451940141984889 0 0.00035190993566610316 0.10449225063740411 0 0.00035284591904486198 0.1046380308998901 0 0.00035190993566610316 0.10449225063740411 0 0.00035284591904486198 0.1046380308998901 0 0.0005121298615878326 0.10452621567723838 0 0.0004045884654611078 0.10434910404482096 0 0.00035190993566610316 0.10449225063740411 0 0.0005121298615878326 0.10452621567723838 0 0.00035284591904486198 0.1046380308998901 0 0.00045416937204421052 0.10467207445378165 0 0.0005121298615878326 0.10452621567723838 0 0.00035284591904486198 0.1046380308998901 0 0.00045416937204421052 0.10467207445378165 0 0.00039132266058935198 0.1048004712862213 0 0.00035284591904486198 0.1046380308998901 0 0.00039132266058935198 0.1048004712862213 0 0.00025954578858190504 0.10474887889628762 0 -0.0097446306660375088 0.088086963734518658 0 -0.0072857636619758741 0.087043641435443769 0 -0.010870589729074294 0.085877467730727131 0 -0.0097446306660375088 0.088086963734518658 0 -0.010870589729074294 0.085877467730727131 0 -0.011467014973196432 0.087401894733824967 0 -0.005580870281883199 0.095630861948005727 0 -0.0033934563342602336 0.096076132457742422 0 0.00039132266058935198 0.1048004712862213 0 0.00021314082230187206 0.10486498977082669 0 0.00025954578858190504 0.10474887889628762 0 0.00021314082230187206 0.10486498977082669 0 0.00025954578858190504 0.10474887889628762 0 0.00014414776974241002 0.10475156405161898 0 0.00035284591904486198 0.1046380308998901 0 0.00025954578858190504 0.10474887889628762 0 0.00017813256325645559 0.10465346755507109 0 0.00025954578858190504 0.10474887889628762 0 0.00017813256325645559 0.10465346755507109 0 0.00014414776974241002 0.10475156405161898 0 0.00017813256325645559 0.10465346755507109 0 0.00014414776974241002 0.10475156405161898 0 4.7665699467499883e-05 0.10468888467477099 0 0.00014414776974241002 0.10475156405161898 0 4.7665699467499883e-05 0.10468888467477099 0 4.5183571477207534e-05 0.1047974739089667 0 -1.6190434152485497e-05 0.10482429636508764 0 4.7665699467499883e-05 0.10468888467477099 0 4.5183571477207534e-05 0.1047974739089667 0 -0.0033934563342602336 0.096076132457742422 0 0.00010524276938117035 0.10056506903904441 0 0.00021314082230187206 0.10486498977082669 0 0.00014414776974241002 0.10475156405161898 0 4.5183571477207534e-05 0.1047974739089667 0 0.00010274179812344331 0.10482863853755293 0 5.5841833228506018e-05 0.10483546394498554 0 8.7180809446550127e-05 0.10484565211834428 0 -0.0011477121392105892 0.09581953532872621 0 -0.00082366609509279044 0.099316239544940538 0 9.5475661798147455e-05 0.093883535738715607 0 0.00028471179276810506 0.09344664111125528 0 -0.00018705097612973942 0.093514088391362979 0 0.0010123032374540787 0.098593122262870564 0 0.00020138355377747556 0.098960838654675629 0 0.00069827442236525998 0.099340963393954249 0 -0.0011477121392105892 0.09581953532872621 0 0.00147664572306192 0.096546784607517089 0 5.5841833228506018e-05 0.10483546394498554 0 8.7180809446550127e-05 0.10484565211834428 0 4.0176880216899473e-05 0.10489467981152971 0 2.383305280460468e-07 0.10489097590645979 0 5.5841833228506018e-05 0.10483546394498554 0 4.0176880216899473e-05 0.10489467981152971 0 -2.9567534005515086e-05 0.10046225428692929 0 0.00147664572306192 0.096546784607517089 0 -0.00036374423951529312 0.099518256223649987 0 0.00020138355377747556 0.098960838654675629 0 0.00069827442236525998 0.099340963393954249 0 0.00147664572306192 0.096546784607517089 0 0.0028136906691136787 0.093821905800135746 0 0.0076242342375769804 0.08979463527703023 0 0.0090597343626523975 0.090894168596684005 0 0.0077753492093553837 0.090955642258270811 0 0.0055076523260426426 0.089763157196215776 0 0.0076242342375769804 0.08979463527703023 0 0.0077753492093553837 0.090955642258270811 0 0.0028136906691136787 0.093821905800135746 0 0.0023025066160169655 0.092154573703563253 0 0.0076242342375769804 0.08979463527703023 0 0.0093168319456920848 0.090167281188668541 0 0.0090597343626523975 0.090894168596684005 0 -0.0072116287645311861 0.087050506691230892 0 -0.0097603702396648947 0.085881319646496437 0 -0.010870589729074294 0.085877467730727131 0 -0.00018705097612973942 0.093514088391362979 0 -0.0006638851856269909 0.093584683915583416 0 -0.0005238888388316835 0.093769142473556583 0 -0.0033934563342602336 0.096076132457742422 0 -0.008746543554649518 0.092267647733409008 0 -0.0072116287645311861 0.087050506691230892 0 -0.0060433310218435156 0.086569383924088833 0 -0.0097603702396648947 0.085881319646496437 0 -0.0011477121392105892 0.09581953532872621 0 -0.0041383160238838423 0.092159309378701357 0 9.5475661798147455e-05 0.093883535738715607 0 -0.00018705097612973942 0.093514088391362979 0 -0.0005238888388316835 0.093769142473556583 0 -0.0033934563342602336 0.096076132457742422 0 -0.0011477121392105892 0.09581953532872621 0 -0.0016310119238901902 0.091000540162846699 0 -0.0034796589917237939 0.090607461027263539 0 -0.013376329107357563 0.085317010739200907 0 -0.014132908761584233 0.086545988708251462 0 -0.013064633315877934 0.087217906227388092 0 -0.0014851114968777702 0.090583693914564639 0 -0.0017107113937429028 0.090547158960036081 0 -0.0019109856289664937 0.090657187673659018 0 -0.013376329107357563 0.085317010739200907 0 -0.014132908761584233 0.086545988708251462 0 -0.015123195946619813 0.085750446273249278 0 -0.0016310119238901902 0.091000540162846699 0 -0.00076728797345757037 0.090434517582788046 0 -0.00076728797345757037 0.090434517582788046 0 -0.00037812605059421171 0.090297948672125067 0 0.01038171524615695 0.090615667782004153 0 0.010773732729186226 0.090785563022264898 0 0.010547544060083834 0.090900266741038183 0 -0.013376329107357563 0.085317010739200907 0 -0.012204535157104469 0.086443852104113761 0 -0.013064633315877934 0.087217906227388092 0 0.0023025066160169655 0.092154573703563253 0 -0.0016310119238901902 0.091000540162846699 0 -0.0006638851856269909 0.093584683915583416 0 -0.0005238888388316835 0.093769142473556583 0 -0.0011447372768188795 0.093661277792142256 0 -0.013376329107357563 0.085317010739200907 0 -0.012204535157104469 0.086443852104113761 0 -0.010870589729074294 0.085877467730727131 0 -0.0041383160238838423 0.092159309378701357 0 -0.0016310119238901902 0.091000540162846699 0 -0.0097603702396648947 0.085881319646496437 0 -0.013376329107357563 0.085317010739200907 0 -0.010870589729074294 0.085877467730727131 0 -0.012204535157104469 0.086443852104113761 0 -0.010870589729074294 0.085877467730727131 0 -0.011467014973196432 0.087401894733824967 0 0.0090597343626523975 0.090894168596684005 0 0.010088807193980606 0.090920356006754771 0 0.010076442225071801 0.091606927753569919 0 0.0093168319456920848 0.090167281188668541 0 0.01038171524615695 0.090615667782004153 0 0.010088807193980606 0.090920356006754771 0 0.0093168319456920848 0.090167281188668541 0 0.0090597343626523975 0.090894168596684005 0 0.010088807193980606 0.090920356006754771 0 0.010088807193980606 0.090920356006754771 0 0.010526967607038225 0.091337970293318374 0 0.010076442225071801 0.091606927753569919 0 0.01038171524615695 0.090615667782004153 0 0.010088807193980606 0.090920356006754771 0 0.010547544060083834 0.090900266741038183 0 0.010088807193980606 0.090920356006754771 0 0.010526967607038225 0.091337970293318374 0 0.010547544060083834 0.090900266741038183 0 0.01065305686792105 0.091021135806334461 0 0.010547544060083834 0.090900266741038183 0 0.010680117706004886 0.091254381131816567 0 0.010526967607038225 0.091337970293318374 0 0.010547544060083834 0.090900266741038183 0 0.010680117706004886 0.091254381131816567 0 0.010526967607038225 0.091337970293318374 0 0.010680117706004886 0.091254381131816567 0 0.010787837191501776 0.091575912900147036 0 0.01065305686792105 0.091021135806334461 0 0.010771544651317619 0.091438221938914641 0 0.010809112271174395 0.091605208030148683 0 -0.00076728797345757037 0.090434517582788046 0 0.0019492458106293478 0.090766059484975486 0 0.010680117706004886 0.091254381131816567 0 0.010771544651317619 0.091438221938914641 0 0.010787837191501776 0.091575912900147036 0 0.010771544651317619 0.091438221938914641 0 0.010787283800500921 0.091649597146064452 0 0.010787837191501776 0.091575912900147036 0 0.010771544651317619 0.091438221938914641 0 0.010787283800500921 0.091649597146064452 0 0.010809112271174395 0.091605208030148683 0 0.01065305686792105 0.091021135806334461 0 0.010680117706004886 0.091254381131816567 0 0.010771544651317619 0.091438221938914641 0 0.0019492458106293478 0.090766059484975486 0 0.0016408422316189393 0.090897393424243966 0 -0.0025772197917617343 0.088693773614251667 0 -0.0025069235037146046 0.088681149980908494 0 -0.002390650671652202 0.088743628326482929 0 0.010547777529556214 0.091721330709957222 0 0.010809112271174395 0.091605208030148683 0 0.010347176064943668 0.091878509716510431 0 0.010547777529556214 0.091721330709957222 0 0.010787283800500921 0.091649597146064452 0 0.010641095921671609 0.091739013197351005 0 0.010547777529556214 0.091721330709957222 0 0.010787283800500921 0.091649597146064452 0 0.010809112271174395 0.091605208030148683 0 -0.0034796589917237939 0.090607461027263539 0 -0.0077446761553552658 0.089379601877411285 0 -0.002629267579050628 0.0886514410073138 0 -0.0025814349970689899 0.088648308034672177 0 -0.0025043474154359566 0.088601134672791279 0 -0.0025331932775544317 0.08864791777632676 0 -0.0025814349970689899 0.088648308034672177 0 -0.0025043474154359566 0.088601134672791279 0 -0.0025069235037146046 0.088681149980908494 0 -0.0025331932775544317 0.08864791777632676 0 -0.0025086597607184924 0.08863606487642639 0 -0.0025069235037146046 0.088681149980908494 0 -0.0025086597607184924 0.08863606487642639 0 -0.0024859119703911164 0.08861939299555463 0 -0.0025772197917617343 0.088693773614251667 0 -0.0025069235037146046 0.088681149980908494 0 -0.0025331932775544317 0.08864791777632676 0 -0.0025772197917617343 0.088693773614251667 0 -0.0025331932775544317 0.08864791777632676 0 -0.0025814349970689899 0.088648308034672177 0 -0.0025331932775544317 0.08864791777632676 0 -0.0025086597607184924 0.08863606487642639 0 -0.0025043474154359566 0.088601134672791279 0 -0.014132908761584233 0.086545988708251462 0 -0.015123195946619813 0.085750446273249278 0 -0.014982598007771332 0.087598739245428853 0 -0.0026484966386108454 0.088667510306773653 0 -0.0025772197917617343 0.088693773614251667 0 -0.0026222001248611469 0.088656115662427482 0 -0.00076728797345757037 0.090434517582788046 0 -0.0034796589917237939 0.090607461027263539 0 -0.0025772197917617343 0.088693773614251667 0 -0.0026222001248611469 0.088656115662427482 0 -0.0025814349970689899 0.088648308034672177 0 -0.0034796589917237939 0.090607461027263539 0 -0.0033226417877212713 0.090512421426447359 0 -0.015123195946619813 0.085750446273249278 0 -0.014982598007771332 0.087598739245428853 0 -0.017696155185395267 0.087309961765230551 0 -0.014982598007771332 0.087598739245428853 0 -0.017696155185395267 0.087309961765230551 0 -0.016424926756187785 0.088666604412303729 0 -0.016424926756187785 0.088666604412303729 0 -0.016597689838149042 0.089984082947107802 0 -0.018080283393529857 0.089156076954252025 0 -0.017696155185395267 0.087309961765230551 0 -0.016424926756187785 0.088666604412303729 0 -0.018080283393529857 0.089156076954252025 0 -0.011285632725161365 0.09451253716297707 0 -0.013460521689123515 0.094654556084552297 0 -0.014982598007771332 0.087598739245428853 0 -0.016424926756187785 0.088666604412303729 0 -0.014620153437055038 0.089339568337621439 0 -0.016424926756187785 0.088666604412303729 0 -0.014620153437055038 0.089339568337621439 0 -0.016597689838149042 0.089984082947107802 0 -0.014620153437055038 0.089339568337621439 0 -0.013835437745906712 0.088058214927385248 0 -0.012553228175032405 0.088567598418893806 0 -0.011285632725161365 0.09451253716297707 0 -0.0087105503007699776 0.095172728451412641 0 -0.0098422169472995487 0.09573393914938412 0 -0.0079171945559617634 0.094899115121688873 0 -0.0085782215478678748 0.096613552776645267 0 -0.014982598007771332 0.087598739245428853 0 -0.014620153437055038 0.089339568337621439 0 -0.013835437745906712 0.088058214927385248 0 -0.013835437745906712 0.088058214927385248 0 -0.013064633315877934 0.087217906227388092 0 -0.012553228175032405 0.088567598418893806 0 -0.014132908761584233 0.086545988708251462 0 -0.013835437745906712 0.088058214927385248 0 -0.013064633315877934 0.087217906227388092 0 -0.014132908761584233 0.086545988708251462 0 -0.014982598007771332 0.087598739245428853 0 -0.013835437745906712 0.088058214927385248 0 -0.0097446306660375088 0.088086963734518658 0 -0.011467014973196432 0.087401894733824967 0 -0.012237727510018488 0.089173773444127594 0 -0.005580870281883199 0.095630861948005727 0 -0.0087105503007699776 0.095172728451412641 0 -0.012204535157104469 0.086443852104113761 0 -0.013064633315877934 0.087217906227388092 0 -0.011467014973196432 0.087401894733824967 0 -0.013064633315877934 0.087217906227388092 0 -0.011467014973196432 0.087401894733824967 0 -0.012237727510018488 0.089173773444127594 0 -0.0097664583342528585 0.092906093433628323 0 -0.0087105503007699776 0.095172728451412641 0 -0.0079171945559617634 0.094899115121688873 0 -0.0070147956869047552 0.096982964889550091 0 -0.0085782215478678748 0.096613552776645267 0 0.00045416937204421052 0.10467207445378165 0 0.00039132266058935198 0.1048004712862213 0 0.00055988031683320606 0.10471624865284918 0 0.00045416937204421052 0.10467207445378165 0 0.00055988031683320606 0.10471624865284918 0 0.0005121298615878326 0.10452621567723838 0 -0.0087105503007699776 0.095172728451412641 0 -0.0050802847248290249 0.099788883872761913 0 -0.0070147956869047552 0.096982964889550091 0 -0.0085782215478678748 0.096613552776645267 0 -0.0086445611002089629 0.098515679132573503 0 -0.0098422169472995487 0.09573393914938412 0 -0.0085782215478678748 0.096613552776645267 0 -0.0097110756173521846 0.097322219456892678 0 -0.0085782215478678748 0.096613552776645267 0 -0.0097110756173521846 0.097322219456892678 0 -0.0086445611002089629 0.098515679132573503 0 -0.0051939351159939404 0.096930117307860914 0 -0.003832508183087831 0.098788871933955663 0 -0.0098089112188976518 0.09883164818684996 0 -0.0097110756173521846 0.097322219456892678 0 -0.0086445611002089629 0.098515679132573503 0 -0.011175269277812388 0.097957964234631378 0 -0.00068811721577247348 0.098681660638397006 0 -0.0051939351159939404 0.096930117307860914 0 -0.003832508183087831 0.098788871933955663 0 -0.0061090788677617153 0.099073624544049999 0 -0.0070147956869047552 0.096982964889550091 0 -0.0086445611002089629 0.098515679132573503 0 -0.003608399896536637 0.10096769957658565 0 -0.0074377045851132676 0.09854560120946311 0 -0.00068811721577247348 0.098681660638397006 0 -0.003832508183087831 0.098788871933955663 0 -0.0027011757122613368 0.10007982275753957 0 -0.0016837128338542731 0.10122662048759674 0 -0.0027011757122613368 0.10007982275753957 0 -0.0027999940725250737 0.10122659744492181 0 -0.0027011757122613368 0.10007982275753957 0 -0.0036696185667770905 0.10055978118324219 0 -0.0027999940725250737 0.10122659744492181 0 -0.003832508183087831 0.098788871933955663 0 -0.0036696185667770905 0.10055978118324219 0 -0.0045444703155916692 0.1005257412771878 0 -0.003832508183087831 0.098788871933955663 0 -0.0027011757122613368 0.10007982275753957 0 -0.0036696185667770905 0.10055978118324219 0 -0.0057013097193949246 0.098072956588409074 0 -0.0081600090552372256 0.098125341011526465 0 -0.003832508183087831 0.098788871933955663 0 -0.0045444703155916692 0.1005257412771878 0 -0.005330920634509813 0.10045003543077025 0 -0.0036696185667770905 0.10055978118324219 0 -0.0045444703155916692 0.1005257412771878 0 -0.0043371012963963418 0.10121518513154071 0 -0.0043371012963963418 0.10121518513154071 0 -0.00441227383751178 0.10175566271131949 0 -0.0037616459005128723 0.10182529797707872 0 -0.0048322899429626949 0.10150704365755125 0 -0.0048495833525504005 0.10128659559046715 0 -0.00441227383751178 0.10175566271131949 0 -0.0043371012963963418 0.10121518513154071 0 -0.0048495833525504005 0.10128659559046715 0 -0.00441227383751178 0.10175566271131949 0 -0.0045444703155916692 0.1005257412771878 0 -0.0043371012963963418 0.10121518513154071 0 -0.0048495833525504005 0.10128659559046715 0 -0.0037354083248454174 0.10234593030848517 0 -0.00441227383751178 0.10175566271131949 0 -0.0037616459005128723 0.10182529797707872 0 -0.0016798563265529446 0.10418009269483221 0 -0.0018086738470332164 0.10263380624838167 0 -0.0037616459005128723 0.10182529797707872 0 -0.0018086738470332164 0.10263380624838167 0 -0.0037616459005128723 0.10182529797707872 0 -0.0027999940725250737 0.10122659744492181 0 -0.0036696185667770905 0.10055978118324219 0 -0.0037616459005128723 0.10182529797707872 0 -0.0027999940725250737 0.10122659744492181 0 -0.0036696185667770905 0.10055978118324219 0 -0.0043371012963963418 0.10121518513154071 0 -0.0037616459005128723 0.10182529797707872 0 -0.0060580556183966435 0.10172607453149687 0 -0.0054701922897257534 0.10103755081431637 0 -0.0060715041425577132 0.10068062169716276 0 -0.0047729071633349739 0.10155618173567565 0 -0.0048495833525504005 0.10128659559046715 0 -0.0054701922897257534 0.10103755081431637 0 -0.0048495833525504005 0.10128659559046715 0 -0.0054701922897257534 0.10103755081431637 0 -0.005330920634509813 0.10045003543077025 0 -0.0045444703155916692 0.1005257412771878 0 -0.0048495833525504005 0.10128659559046715 0 -0.005330920634509813 0.10045003543077025 0 -0.0081600090552372256 0.098125341011526465 0 -0.013976914868924393 0.09761423276758667 0 -0.0098089112188976518 0.09883164818684996 0 -0.014300965271414187 0.096304952631429186 0 -0.016578106074260208 0.099638100207462318 0 -0.0054701922897257534 0.10103755081431637 0 -0.005330920634509813 0.10045003543077025 0 -0.0060715041425577132 0.10068062169716276 0 -0.014300965271414187 0.096304952631429186 0 -0.010849280112537696 0.094400201875677409 0 -0.016962525050298553 0.09228295047477339 0 -0.0098089112188976518 0.09883164818684996 0 -0.014300965271414187 0.096304952631429186 0 -0.010849280112537696 0.094400201875677409 0 -0.0051939351159939404 0.096930117307860914 0 -0.0098089112188976518 0.09883164818684996 0 -0.010849280112537696 0.094400201875677409 0 -0.0074377045851132676 0.09854560120946311 0 -0.011362380395235865 0.096727096646446728 0 -0.0098422169472995487 0.09573393914938412 0 -0.0097110756173521846 0.097322219456892678 0 -0.0117738851941453 0.09656662791425949 0 -0.0097110756173521846 0.097322219456892678 0 -0.011175269277812388 0.097957964234631378 0 -0.0117738851941453 0.09656662791425949 0 -0.011362380395235865 0.096727096646446728 0 -0.015216278435882672 0.09529459135578279 0 -0.011175269277812388 0.097957964234631378 0 -0.0117738851941453 0.09656662791425949 0 -0.013708236162735293 0.097400064853960508 0 -0.013460521689123515 0.094654556084552297 0 -0.015216278435882672 0.09529459135578279 0 -0.016597689838149042 0.089984082947107802 0 -0.018365702197564483 0.090843267748535073 0 -0.018080283393529857 0.089156076954252025 0 -0.018664530850521329 0.089807565644300535 0 -0.018365702197564483 0.090843267748535073 0 -0.018080283393529857 0.089156076954252025 0 -0.018512873087085619 0.092743075939129893 0 -0.016520784221850056 0.091879585891273124 0 -0.019295899412273606 0.091244673400008081 0 -0.018664530850521329 0.089807565644300535 0 -0.018365702197564483 0.090843267748535073 0 -0.019295899412273606 0.091244673400008081 0 -0.015216278435882672 0.09529459135578279 0 -0.015792506188138905 0.095053838969609838 0 -0.015356893245953971 0.095275049433238862 0 -0.015216278435882672 0.09529459135578279 0 -0.019295899412273606 0.091244673400008081 0 -0.021933011586753589 0.095463553702001422 0 -0.019688400764548648 0.088691833843480866 0 -0.019224389793734958 0.079917037536030452 0 -0.017623970202973124 0.083919135339164813 0 -0.019688400764548648 0.088691833843480866 0 -0.018229303776975264 0.086939112188485726 0 -0.018810350717641894 0.087645564128881706 0 -0.017623970202973124 0.083919135339164813 0 -0.016857371800600832 0.086293939479120466 0 -0.019688400764548648 0.088691833843480866 0 -0.018664530850521329 0.089807565644300535 0 -0.019295899412273606 0.091244673400008081 0 -0.019688400764548648 0.088691833843480866 0 -0.018512873087085619 0.092743075939129893 0 -0.018932441996679837 0.095644753382711473 0 -0.021933011586753589 0.095463553702001422 0 -0.018512873087085619 0.092743075939129893 0 -0.019295899412273606 0.091244673400008081 0 -0.021933011586753589 0.095463553702001422 0 -0.018932441996679837 0.095644753382711473 0 -0.021933011586753589 0.095463553702001422 0 -0.018837704670527644 0.097527715155474509 0 -0.014300965271414187 0.096304952631429186 0 -0.016962525050298553 0.09228295047477339 0 -0.016994871905532331 0.094889102362547481 0 -0.018512873087085619 0.092743075939129893 0 -0.016962525050298553 0.09228295047477339 0 -0.016994871905532331 0.094889102362547481 0 -0.018512873087085619 0.092743075939129893 0 -0.018932441996679837 0.095644753382711473 0 -0.016994871905532331 0.094889102362547481 0 -0.018932441996679837 0.095644753382711473 0 -0.016994871905532331 0.094889102362547481 0 -0.01675055615106703 0.097507844160476448 0 -0.014300965271414187 0.096304952631429186 0 -0.016994871905532331 0.094889102362547481 0 -0.01675055615106703 0.097507844160476448 0 -0.014300965271414187 0.096304952631429186 0 -0.01675055615106703 0.097507844160476448 0 -0.016578106074260208 0.099638100207462318 0 -0.014058589780363492 0.097652923832017527 0 -0.013976914868924393 0.09761423276758667 0 -0.016701618631399448 0.099250748401021049 0 -0.018837704670527644 0.097527715155474509 0 -0.019974216966214303 0.09967733528016702 0 -0.013976914868924393 0.09761423276758667 0 -0.017737883855013497 0.098530912672618404 0 -0.018932441996679837 0.095644753382711473 0 -0.01675055615106703 0.097507844160476448 0 -0.018837704670527644 0.097527715155474509 0 -0.01675055615106703 0.097507844160476448 0 -0.016701618631399448 0.099250748401021049 0 -0.018837704670527644 0.097527715155474509 0 -0.021933011586753589 0.095463553702001422 0 -0.019974216966214303 0.09967733528016702 0 -0.022897777193397126 0.10002428823432356 0 -0.021933011586753589 0.095463553702001422 0 -0.018837704670527644 0.097527715155474509 0 -0.019974216966214303 0.09967733528016702 0 -0.021176978309280312 0.099728680444839665 0 -0.022501927656177777 0.10085073937839732 0 -0.022897777193397126 0.10002428823432356 0 -0.017737883855013497 0.098530912672618404 0 -0.019061276133301948 0.098841604814601108 0 -0.021176978309280312 0.099728680444839665 0 -0.021791045181501167 0.10139783707613893 0 -0.022501927656177777 0.10085073937839732 0 -0.021176978309280312 0.099728680444839665 0 -0.021791045181501167 0.10139783707613893 0 -0.020542818194825913 0.10121520066288765 0 -0.019465168728539158 0.099379619939699002 0 -0.021176978309280312 0.099728680444839665 0 -0.020542818194825913 0.10121520066288765 0 -0.012188764256354784 0.090803906480692739 0 -0.013976914868924393 0.09761423276758667 0 -0.019257584514350095 0.10267886401928443 0 -0.019465168728539158 0.099379619939699002 0 -0.020542818194825913 0.10121520066288765 0 -0.0064126991862151804 0.068272042440795169 0 -0.0067990778821472092 0.065191278423252619 0 -0.01037631444146931 0.072285188522142246 0 -0.0067990778821472092 0.065191278423252619 0 -0.0113572239435084 0.069270689620275216 0 -0.010664790284787238 0.075368452216416873 0 -0.0073931549998043546 0.070795018253853759 0 -0.0088454073920518975 0.07500736745415916 0 -0.0113572239435084 0.069270689620275216 0 -0.012443029973030671 0.06699800046641656 0 -0.013469506740260409 0.06958882233659662 0 -0.0067990778821472092 0.065191278423252619 0 -0.0113572239435084 0.069270689620275216 0 -0.010390518531463879 0.065356281452453535 0 -0.0113572239435084 0.069270689620275216 0 -0.010390518531463879 0.065356281452453535 0 -0.012443029973030671 0.06699800046641656 0 -0.011744305957531594 0.06449976011914775 0 -0.010390518531463879 0.065356281452453535 0 -0.012443029973030671 0.06699800046641656 0 -0.011744305957531594 0.06449976011914775 0 -0.012443029973030671 0.06699800046641656 0 -0.015650489151143233 0.068475203674449328 0 -0.022749917399850269 0.10181824171348756 0 -0.022501927656177777 0.10085073937839732 0 -0.023349020719132405 0.10057128249133095 0 -0.022749917399850269 0.10181824171348756 0 -0.021791045181501167 0.10139783707613893 0 -0.022501927656177777 0.10085073937839732 0 -0.022501927656177777 0.10085073937839732 0 -0.022897777193397126 0.10002428823432356 0 -0.023349020719132405 0.10057128249133095 0 -0.015650489151143233 0.068475203674449328 0 -0.013469506740260409 0.06958882233659662 0 -0.014099046309383793 0.073386800707453112 0 -0.012443029973030671 0.06699800046641656 0 -0.015650489151143233 0.068475203674449328 0 -0.013469506740260409 0.06958882233659662 0 -0.019224389793734958 0.079917037536030452 0 -0.015650489151143233 0.068475203674449328 0 -0.014099046309383793 0.073386800707453112 0 -0.0113572239435084 0.069270689620275216 0 -0.013469506740260409 0.06958882233659662 0 -0.014099046309383793 0.073386800707453112 0 -0.021933011586753589 0.095463553702001422 0 -0.022897777193397126 0.10002428823432356 0 -0.023349020719132405 0.10057128249133095 0 -0.018229303776975264 0.086939112188485726 0 -0.015602051258095724 0.084255854687773385 0 -0.019224389793734958 0.079917037536030452 0 -0.014099046309383793 0.073386800707453112 0 -0.014995621824045445 0.077641590459325144 0 -0.014099046309383793 0.073386800707453112 0 -0.010664790284787238 0.075368452216416873 0 -0.014995621824045445 0.077641590459325144 0 -0.0057909110656520334 0.069841818460970082 0 -0.0064126991862151804 0.068272042440795169 0 -0.01037631444146931 0.072285188522142246 0 -0.0057909110656520334 0.069841818460970082 0 -0.01037631444146931 0.072285188522142246 0 -0.0077417827244549223 0.072148353327436965 0 -0.0113572239435084 0.069270689620275216 0 -0.014099046309383793 0.073386800707453112 0 -0.010664790284787238 0.075368452216416873 0 -0.01037631444146931 0.072285188522142246 0 -0.0077417827244549223 0.072148353327436965 0 -0.0078616386484667133 0.074805331889634744 0 -0.01037631444146931 0.072285188522142246 0 -0.0078616386484667133 0.074805331889634744 0 -0.014046248531766406 0.079266962886645156 0 -0.0053059831514589029 0.075025960501712036 0 -0.0089850321779752721 0.080137597964067386 0 -0.010664790284787238 0.075368452216416873 0 -0.015687095734398884 0.08053077766931005 0 -0.01576435998339323 0.085702324749423436 0 -0.0088454073920518975 0.07500736745415916 0 -0.0089850321779752721 0.080137597964067386 0 -0.019224389793734958 0.079917037536030452 0 -0.014995621824045445 0.077641590459325144 0 -0.015687095734398884 0.08053077766931005 0 -0.010664790284787238 0.075368452216416873 0 -0.014995621824045445 0.077641590459325144 0 -0.015687095734398884 0.08053077766931005 0 -0.015687095734398884 0.08053077766931005 0 -0.017623970202973124 0.083919135339164813 0 -0.01576435998339323 0.085702324749423436 0 -0.019224389793734958 0.079917037536030452 0 -0.015687095734398884 0.08053077766931005 0 -0.017623970202973124 0.083919135339164813 0 -0.0090860973369261151 0.075935624024517756 0 -0.0052919995691878717 0.075719411268938649 0 -0.0090413617192685834 0.079144920342252983 0 -0.016286866550416869 0.08605995872683081 0 -0.016857371800600832 0.086293939479120466 0 -0.01953449568420423 0.089005810264544308 0 -0.017623970202973124 0.083919135339164813 0 -0.01576435998339323 0.085702324749423436 0 -0.016857371800600832 0.086293939479120466 0 -0.0089850321779752721 0.080137597964067386 0 -0.0091250252054063102 0.080240892368504887 0 0.0031988392922239661 0.080780559058699866 0 0.00045921098569042977 0.084567964610941376 0 -0.0047400186234000143 0.07271113778517943 0 -0.0090860973369261151 0.075935624024517756 0 -0.0052919995691878717 0.075719411268938649 0 0.01138147290489828 0.085389205747590485 0 0.011055574973368718 0.086426906860489247 0 0.010139509183384719 0.087150141151946914 0 0.01138147290489828 0.085389205747590485 0 0.011055574973368718 0.086426906860489247 0 0.01170201753380074 0.086388817432894477 0 0.01121855632792406 0.087104510001336621 0 0.011137847531009278 0.088127635034962973 0 0.010768920997809172 0.087040544997906172 0 0.01170201753380074 0.086388817432894477 0 0.01121855632792406 0.087104510001336621 0 0.011606152989655774 0.087235890817709077 0 0.011055574973368718 0.086426906860489247 0 0.01170201753380074 0.086388817432894477 0 0.01121855632792406 0.087104510001336621 0 0.011055574973368718 0.086426906860489247 0 0.01121855632792406 0.087104510001336621 0 0.010768920997809172 0.087040544997906172 0 0.01121855632792406 0.087104510001336621 0 0.011606152989655774 0.087235890817709077 0 0.011137847531009278 0.088127635034962973 0 0.012577076999711353 0.08705469220104145 0 0.011606152989655774 0.087235890817709077 0 0.011137847531009278 0.088127635034962973 0 0.0083444459721725671 0.072778323717526766 0 0.010544044171408501 0.081072671727488457 0 0.01193386908193843 0.089795897500602004 0 0.010405140679742688 0.089298302107274533 0 0.010768920997809172 0.087040544997906172 0 0.010405140679742688 0.089298302107274533 0 0.010280741334678278 0.087537373537935642 0 0.0092353396072284034 0.089601703019714554 0 0.010405140679742688 0.089298302107274533 0 0.0098364977489879841 0.090458043229217813 0 0.010517972617566155 0.09084974832668638 0 0.01193386908193843 0.089795897500602004 0 0.010405140679742688 0.089298302107274533 0 0.010517972617566155 0.09084974832668638 0 0.010405140679742688 0.089298302107274533 0 0.010768920997809172 0.087040544997906172 0 0.010280741334678278 0.087537373537935642 0 -0.0090860973369261151 0.075935624024517756 0 -0.0090413617192685834 0.079144920342252983 0 -0.011432473102849476 0.080432753181791355 0 -0.0089850321779752721 0.080137597964067386 0 -0.0050137095808629262 0.086550558467691968 0 0.00045921098569042977 0.084567964610941376 0 -0.0050137095808629262 0.086550558467691968 0 0.0028193335740311935 0.083954051361008059 0 0.00045921098569042977 0.084567964610941376 0 0.011055574973368718 0.086426906860489247 0 0.010768920997809172 0.087040544997906172 0 0.010280741334678278 0.087537373537935642 0 0.00045921098569042977 0.084567964610941376 0 -0.0019934009772812427 0.08674174617574594 0 -0.00087619685909034594 0.085925830173039189 0 -0.0020602956706669861 0.086543154364539771 0 -0.0025120972779176594 0.087377033565384038 0 -0.019688400764548648 0.088691833843480866 0 -0.01953449568420423 0.089005810264544308 0 -0.018080283393529857 0.089156076954252025 0 -0.016857371800600832 0.086293939479120466 0 -0.019688400764548648 0.088691833843480866 0 -0.01953449568420423 0.089005810264544308 0 -0.017696155185395267 0.087309961765230551 0 -0.01953449568420423 0.089005810264544308 0 -0.018080283393529857 0.089156076954252025 0 -0.018664530850521329 0.089807565644300535 0 -0.019688400764548648 0.088691833843480866 0 -0.018080283393529857 0.089156076954252025 0 -0.0025043474154359566 0.088601134672791279 0 -0.0024584508344589746 0.088580421746386653 0 -0.0024656490304199663 0.088594155677234041 0 -0.0077446761553552658 0.089379601877411285 0 -0.0050137095808629262 0.086550558467691968 0 -0.0025043474154359566 0.088601134672791279 0 -0.0024656490304199663 0.088594155677234041 0 -0.0024859119703911164 0.08861939299555463 0 -0.0019934009772812427 0.08674174617574594 0 -0.0025154968758290884 0.087629915820770052 0 0.010405140679742688 0.089298302107274533 0 0.0092353396072284034 0.089601703019714554 0 0.0098364977489879841 0.090458043229217813 0 -0.0050137095808629262 0.086550558467691968 0 -0.0019934009772812427 0.08674174617574594 0 0.0092353396072284034 0.089601703019714554 0 0.0098364977489879841 0.090458043229217813 0 0.0093862908662097708 0.090802014390498939 0 -0.0019934009772812427 0.08674174617574594 0 0.00038457796222238948 0.088614787227190808 0 0.0098364977489879841 0.090458043229217813 0 0.010009700980324509 0.09118527228432205 0 0.0093862908662097708 0.090802014390498939 0 0.010009700980324509 0.09118527228432205 0 0.0093862908662097708 0.090802014390498939 0 0.0097179380146502382 0.091276170812028018 0 -0.0025086597607184924 0.08863606487642639 0 -0.0025043474154359566 0.088601134672791279 0 -0.0024859119703911164 0.08861939299555463 0 -0.0021461192564645559 0.088324236294553049 0 -0.0023529134367586742 0.08851796746370931 0 -0.0022717711761099445 0.088558839403182613 0 -0.0023529134367586742 0.08851796746370931 0 -0.0022717711761099445 0.088558839403182613 0 -0.0023831918359955512 0.088626073713217846 0 0.0093862908662097708 0.090802014390498939 0 0.0095340559698972836 0.091584896783519776 0 0.0097179380146502382 0.091276170812028018 0 0.00038457796222238948 0.088614787227190808 0 0.0016408422316189393 0.090897393424243966 0 -0.0025069235037146046 0.088681149980908494 0 -0.0023529134367586742 0.08851796746370931 0 -0.0023831918359955512 0.088626073713217846 0 -0.0022717711761099445 0.088558839403182613 0 -0.0023831918359955512 0.088626073713217846 0 -0.002390650671652202 0.088743628326482929 0 -0.0026433742366440685 0.087873944371824747 0 -0.0025154968758290884 0.087629915820770052 0 -0.0025069235037146046 0.088681149980908494 0 -0.0023831918359955512 0.088626073713217846 0 -0.002390650671652202 0.088743628326482929 0 0.010347176064943668 0.091878509716510431 0 0.0098510666932460321 0.09165500474202129 0 0.010236514474341705 0.091741036479127777 0 0.0095340559698972836 0.091584896783519776 0 0.0097179380146502382 0.091276170812028018 0 0.0098510666932460321 0.09165500474202129 0 0.0097179380146502382 0.091276170812028018 0 0.0098510666932460321 0.09165500474202129 0 0.0099781127646971415 0.091522094114776228 0 0.0016408422316189393 0.090897393424243966 0 0.002113557915384531 0.090972689733412035 0 0.0098510666932460321 0.09165500474202129 0 0.010054945787851243 0.091682766733190049 0 0.0099781127646971415 0.091522094114776228 0 0.010054945787851243 0.091682766733190049 0 0.010128955107860729 0.091683520909216054 0 0.010253099620417575 0.091704013122628075 0 0.0098510666932460321 0.09165500474202129 0 0.010054945787851243 0.091682766733190049 0 0.010128955107860729 0.091683520909216054 0 0.0098510666932460321 0.09165500474202129 0 0.010128955107860729 0.091683520909216054 0 0.010236514474341705 0.091741036479127777 0 0.010128955107860729 0.091683520909216054 0 0.010236514474341705 0.091741036479127777 0 0.010332099528528533 0.091720658246413567 0 0.010347176064943668 0.091878509716510431 0 0.010236514474341705 0.091741036479127777 0 0.010377201565515786 0.091757511583972079 0 0.010236514474341705 0.091741036479127777 0 0.010332099528528533 0.091720658246413567 0 0.010377201565515786 0.091757511583972079 0 0.010253099620417575 0.091704013122628075 0 0.010332099528528533 0.091720658246413567 0 0.010397112536207774 0.091721091430529034 0 0.010128955107860729 0.091683520909216054 0 0.010253099620417575 0.091704013122628075 0 0.010332099528528533 0.091720658246413567 0 0.010547777529556214 0.091721330709957222 0 0.010397112536207774 0.091721091430529034 0 0.010457511020803839 0.091736435106141073 0 0.010547777529556214 0.091721330709957222 0 0.010332099528528533 0.091720658246413567 0 0.010397112536207774 0.091721091430529034 0 0.010547777529556214 0.091721330709957222 0 0.010347176064943668 0.091878509716510431 0 0.010377201565515786 0.091757511583972079 0 0.010547777529556214 0.091721330709957222 0 0.010332099528528533 0.091720658246413567 0 0.010377201565515786 0.091757511583972079 0 0.010009700980324509 0.09118527228432205 0 0.0099781127646971415 0.091522094114776228 0 0.010188889107640264 0.091558522682264928 0 0.010009700980324509 0.09118527228432205 0 0.0097179380146502382 0.091276170812028018 0 0.0099781127646971415 0.091522094114776228 0 0.010054945787851243 0.091682766733190049 0 0.0099781127646971415 0.091522094114776228 0 0.010138202845050265 0.09168794585979799 0 0.0099781127646971415 0.091522094114776228 0 0.010188889107640264 0.091558522682264928 0 0.010138202845050265 0.09168794585979799 0 0.010009700980324509 0.09118527228432205 0 0.010188889107640264 0.091558522682264928 0 0.010372286819603234 0.091347643379430424 0 0.010188889107640264 0.091558522682264928 0 0.010372286819603234 0.091347643379430424 0 0.01031142909415082 0.091613390984260579 0 0.010372286819603234 0.091347643379430424 0 0.010562044533636614 0.091367835643224371 0 0.010517972617566155 0.09084974832668638 0 0.010372286819603234 0.091347643379430424 0 0.010562044533636614 0.091367835643224371 0 0.01031142909415082 0.091613390984260579 0 0.0083444459721725671 0.072778323717526766 0 0.0027621378564232626 0.068756569707056139 0 0.010671398233136731 0.090690806601701382 0 0.010562044533636614 0.091367835643224371 0 0.010517972617566155 0.09084974832668638 0 0.0083444459721725671 0.072778323717526766 0 0.006950345407608376 0.0758139909945338 0 0.0098364977489879841 0.090458043229217813 0 0.010009700980324509 0.09118527228432205 0 0.010517972617566155 0.09084974832668638 0 0.010009700980324509 0.09118527228432205 0 0.010372286819603234 0.091347643379430424 0 0.010517972617566155 0.09084974832668638 0 0.010142283106686377 0.091793620981521065 0 0.010222004046812965 0.091810173576957116 0 0.010216270285251202 0.091735337897414893 0 0.010142283106686377 0.091793620981521065 0 0.010222004046812965 0.091810173576957116 0 0.010206442860550998 0.091842746589087518 0 0.010142283106686377 0.091793620981521065 0 0.010206442860550998 0.091842746589087518 0 0.010057719758249003 0.091793736183825594 0 0.010121577052954708 0.091700579119408029 0 0.010142283106686377 0.091793620981521065 0 0.0098464673813365607 0.091749251257122966 0 0.010121577052954708 0.091700579119408029 0 0.010562044533636614 0.091367835643224371 0 0.01031142909415082 0.091613390984260579 0 0.010121577052954708 0.091700579119408029 0 0.010142283106686377 0.091793620981521065 0 0.01031142909415082 0.091613390984260579 0 0.010142283106686377 0.091793620981521065 0 0.01031142909415082 0.091613390984260579 0 0.010216270285251202 0.091735337897414893 0 0.010188889107640264 0.091558522682264928 0 0.01031142909415082 0.091613390984260579 0 0.010216270285251202 0.091735337897414893 0 0.010216270285251202 0.091735337897414893 0 0.010138202845050265 0.09168794585979799 0 0.010226686583142703 0.091781079560958573 0 0.010188889107640264 0.091558522682264928 0 0.010216270285251202 0.091735337897414893 0 0.010138202845050265 0.09168794585979799 0 0.010054945787851243 0.091682766733190049 0 0.010138202845050265 0.09168794585979799 0 0.010192008061958278 0.091739783509046477 0 0.010138202845050265 0.09168794585979799 0 0.010192008061958278 0.091739783509046477 0 0.010226686583142703 0.091781079560958573 0 0.010226686583142703 0.091781079560958573 0 0.010312352695294241 0.091794105974221551 0 0.010343144883062498 0.091841056047328035 0 0.010192008061958278 0.091739783509046477 0 0.010226686583142703 0.091781079560958573 0 0.010312352695294241 0.091794105974221551 0 0.010222004046812965 0.091810173576957116 0 0.010216270285251202 0.091735337897414893 0 0.010226686583142703 0.091781079560958573 0 0.010253099620417575 0.091704013122628075 0 0.010397112536207774 0.091721091430529034 0 0.010457511020803839 0.091736435106141073 0 0.010253099620417575 0.091704013122628075 0 0.010457511020803839 0.091736435106141073 0 0.0102705914580588 0.091735781114708356 0 0.010457511020803839 0.091736435106141073 0 0.0102705914580588 0.091735781114708356 0 0.010399416510712023 0.091782778295232653 0 0.010054945787851243 0.091682766733190049 0 0.010253099620417575 0.091704013122628075 0 0.0102705914580588 0.091735781114708356 0 0.010054945787851243 0.091682766733190049 0 0.010192008061958278 0.091739783509046477 0 0.0102705914580588 0.091735781114708356 0 0.010192008061958278 0.091739783509046477 0 0.0102705914580588 0.091735781114708356 0 0.010312352695294241 0.091794105974221551 0 0.010312352695294241 0.091794105974221551 0 0.010469185152182836 0.091860409052367781 0 0.010343144883062498 0.091841056047328035 0 0.010312352695294241 0.091794105974221551 0 0.010399416510712023 0.091782778295232653 0 0.010469185152182836 0.091860409052367781 0 0.0102705914580588 0.091735781114708356 0 0.010312352695294241 0.091794105974221551 0 0.010399416510712023 0.091782778295232653 0 0.010529679264092748 0.091811491238484297 0 0.010609802442753311 0.091882320417996044 0 0.010469185152182836 0.091860409052367781 0 0.010457511020803839 0.091736435106141073 0 0.010399416510712023 0.091782778295232653 0 0.010529679264092748 0.091811491238484297 0 0.010399416510712023 0.091782778295232653 0 0.010529679264092748 0.091811491238484297 0 0.010469185152182836 0.091860409052367781 0 0.010529679264092748 0.091811491238484297 0 0.010609802442753311 0.091882320417996044 0 0.010644839623182167 0.091812382143600546 0 0.010457511020803839 0.091736435106141073 0 0.010529679264092748 0.091811491238484297 0 0.010644839623182167 0.091812382143600546 0 0.010661298327506103 0.091963392150524195 0 0.010609802442753311 0.091882320417996044 0 0.010469185152182836 0.091860409052367781 0 0.010661298327506103 0.091963392150524195 0 0.010469185152182836 0.091860409052367781 0 0.01055938989584379 0.091943307418962783 0 0.010469185152182836 0.091860409052367781 0 0.010427926742235836 0.091895935079783012 0 0.01055938989584379 0.091943307418962783 0 0.010469185152182836 0.091860409052367781 0 0.010427926742235836 0.091895935079783012 0 0.010343144883062498 0.091841056047328035 0 0.01055938989584379 0.091943307418962783 0 0.010685973283646368 0.092027552549821257 0 0.010522770065073246 0.091938950914002657 0 0.010427926742235836 0.091895935079783012 0 0.01055938989584379 0.091943307418962783 0 0.010522770065073246 0.091938950914002657 0 0.010661298327506103 0.091963392150524195 0 0.01055938989584379 0.091943307418962783 0 0.010685973283646368 0.092027552549821257 0 0.010661298327506103 0.091963392150524195 0 0.010685973283646368 0.092027552549821257 0 0.010797291869581128 0.092067747469265535 0 0.010222004046812965 0.091810173576957116 0 0.010206442860550998 0.091842746589087518 0 0.010305130401999575 0.091859728072488572 0 0.010222004046812965 0.091810173576957116 0 0.010226686583142703 0.091781079560958573 0 0.010305130401999575 0.091859728072488572 0 0.010427926742235836 0.091895935079783012 0 0.010305130401999575 0.091859728072488572 0 0.010343144883062498 0.091841056047328035 0 0.010226686583142703 0.091781079560958573 0 0.010305130401999575 0.091859728072488572 0 0.010343144883062498 0.091841056047328035 0 0.010427926742235836 0.091895935079783012 0 0.01038084190662378 0.091884455714708796 0 0.010522770065073246 0.091938950914002657 0 0.010427926742235836 0.091895935079783012 0 0.010305130401999575 0.091859728072488572 0 0.01038084190662378 0.091884455714708796 0 0.010206442860550998 0.091842746589087518 0 0.010305130401999575 0.091859728072488572 0 0.01038084190662378 0.091884455714708796 0 0.010206442860550998 0.091842746589087518 0 0.01038084190662378 0.091884455714708796 0 0.010210929234844242 0.091804250123451711 0 0.01038084190662378 0.091884455714708796 0 0.010388753830983484 0.091801499515739918 0 0.010210929234844242 0.091804250123451711 0 0.01038084190662378 0.091884455714708796 0 0.010388753830983484 0.091801499515739918 0 0.010558366824732863 0.091904237917282389 0 0.010388753830983484 0.091801499515739918 0 0.010558366824732863 0.091904237917282389 0 0.010484844782487457 0.091658579428673406 0 0.010388753830983484 0.091801499515739918 0 0.010272786832426623 0.091679490277335809 0 0.010210929234844242 0.091804250123451711 0 0.01038084190662378 0.091884455714708796 0 0.010522770065073246 0.091938950914002657 0 0.010558366824732863 0.091904237917282389 0 0.010685973283646368 0.092027552549821257 0 0.010522770065073246 0.091938950914002657 0 0.010558366824732863 0.091904237917282389 0 0.010558366824732863 0.091904237917282389 0 0.010600211403841361 0.091809523028433565 0 0.010779008434136718 0.092076843867035116 0 0.010685973283646368 0.092027552549821257 0 0.010558366824732863 0.091904237917282389 0 0.010779008434136718 0.092076843867035116 0 0.010600211403841361 0.091809523028433565 0 0.010604082684042565 0.09183212682090941 0 0.010779008434136718 0.092076843867035116 0 0.010558366824732863 0.091904237917282389 0 0.010600211403841361 0.091809523028433565 0 0.010484844782487457 0.091658579428673406 0 0.010600211403841361 0.091809523028433565 0 0.010604082684042565 0.09183212682090941 0 0.010682872757843815 0.091496323517421735 0 0.0098805960658562043 0.090289696731602642 0 0.0097216371453485509 0.090132521122215911 0 0.010600211403841361 0.091809523028433565 0 0.010484844782487457 0.091658579428673406 0 0.010682872757843815 0.091496323517421735 0 0.010272786832426623 0.091679490277335809 0 0.010484844782487457 0.091658579428673406 0 0.010254469499541931 0.091369733804550143 0 0.010388753830983484 0.091801499515739918 0 0.010272786832426623 0.091679490277335809 0 0.010484844782487457 0.091658579428673406 0 0.010484844782487457 0.091658579428673406 0 0.010426279906631293 0.091371926258194569 0 0.010682872757843815 0.091496323517421735 0 0.010484844782487457 0.091658579428673406 0 0.010426279906631293 0.091371926258194569 0 0.010254469499541931 0.091369733804550143 0 0.010254469499541931 0.091369733804550143 0 0.0099439752945443376 0.091692454525765715 0 0.0099283386421334767 0.091095656808316508 0 0.0099439752945443376 0.091692454525765715 0 0.0093092156428382731 0.091575555485436874 0 0.0099283386421334767 0.091095656808316508 0 0.010272786832426623 0.091679490277335809 0 0.010254469499541931 0.091369733804550143 0 0.0099439752945443376 0.091692454525765715 0 0.0099439752945443376 0.091692454525765715 0 0.010210929234844242 0.091804250123451711 0 0.010057719758249003 0.091793736183825594 0 0.010272786832426623 0.091679490277335809 0 0.0099439752945443376 0.091692454525765715 0 0.010210929234844242 0.091804250123451711 0 0.0099439752945443376 0.091692454525765715 0 0.010057719758249003 0.091793736183825594 0 0.0098464673813365607 0.091749251257122966 0 0.010206442860550998 0.091842746589087518 0 0.010210929234844242 0.091804250123451711 0 0.010057719758249003 0.091793736183825594 0 0.010142283106686377 0.091793620981521065 0 0.010057719758249003 0.091793736183825594 0 0.0098464673813365607 0.091749251257122966 0 0.0098357667976228663 0.091719436827947101 0 0.0098464673813365607 0.091749251257122966 0 0.0093092156428382731 0.091575555485436874 0 0.0099439752945443376 0.091692454525765715 0 0.0098464673813365607 0.091749251257122966 0 0.0093092156428382731 0.091575555485436874 0 0.0076926706111170411 0.090519640685596842 0 0.0093092156428382731 0.091575555485436874 0 0.0090724234744734688 0.089675111338448688 0 0.0093092156428382731 0.091575555485436874 0 0.0099283386421334767 0.091095656808316508 0 0.0090724234744734688 0.089675111338448688 0 0.0077496498451664775 0.089358581925952071 0 0.0076926706111170411 0.090519640685596842 0 0.0090724234744734688 0.089675111338448688 0 0.0099283386421334767 0.091095656808316508 0 0.010179704301038187 0.09029067954261373 0 0.010297938378707237 0.091051164955918404 0 0.010254469499541931 0.091369733804550143 0 0.0099283386421334767 0.091095656808316508 0 0.010297938378707237 0.091051164955918404 0 0.0099283386421334767 0.091095656808316508 0 0.010179704301038187 0.09029067954261373 0 0.0090724234744734688 0.089675111338448688 0 0.0081519795588397767 0.088590540071521298 0 0.0066327096739329525 0.088201836001357642 0 0.0075006262152270617 0.087684009908321398 0 0.0082668314590713301 0.089262289130682279 0 0.006676400381146739 0.087675046781997765 0 0.0092422392817103818 0.089448724783453712 0 0.006823667354799356 0.088088179640742933 0 0.0088526954198582634 0.08956189260300125 0 0.0081519795588397767 0.088590540071521298 0 0.0066327096739329525 0.088201836001357642 0 0.0087085307473323999 0.090348175161542102 0 0.010179704301038187 0.09029067954261373 0 0.0090724234744734688 0.089675111338448688 0 0.0084624651975903457 0.088653167249913456 0 0.0082668314590713301 0.089262289130682279 0 0.006676400381146739 0.087675046781997765 0 0.0056762250142034284 0.087938207240763469 0 0.0087819505136327441 0.08926148360755802 0 0.0067343220492004242 0.087615480852438393 0 0.0077496498451664775 0.089358581925952071 0 0.0090724234744734688 0.089675111338448688 0 0.0079477446033107517 0.087737266190767424 0 0.0071323657063290993 0.088021101265992094 0 0.0067343220492004242 0.087615480852438393 0 0.0061294185431358221 0.086305565621658656 0 0.0074608208133219219 0.0868006421557177 0 0.0071609454689292272 0.085224005412147641 0 0.0061294185431358221 0.086305565621658656 0 0.0069207912182454997 0.087278259833541982 0 0.0074608208133219219 0.0868006421557177 0 0.0066327096739329525 0.088201836001357642 0 0.0069207912182454997 0.087278259833541982 0 0.0075006262152270617 0.087684009908321398 0 0.0066327096739329525 0.088201836001357642 0 0.0061294185431358221 0.086305565621658656 0 0.0069207912182454997 0.087278259833541982 0 0.0075006262152270617 0.087684009908321398 0 0.0083341218204730522 0.087468553949291816 0 0.0074608208133219219 0.0868006421557177 0 0.0069207912182454997 0.087278259833541982 0 0.0075006262152270617 0.087684009908321398 0 0.0074608208133219219 0.0868006421557177 0 0.0081519795588397767 0.088590540071521298 0 0.0083341218204730522 0.087468553949291816 0 0.0092545885654732804 0.088375656816822565 0 0.0081519795588397767 0.088590540071521298 0 0.0075006262152270617 0.087684009908321398 0 0.0083341218204730522 0.087468553949291816 0 0.0083341218204730522 0.087468553949291816 0 0.0084645902957333138 0.086141003784368037 0 0.0092387215096417664 0.087051419118240575 0 0.0083341218204730522 0.087468553949291816 0 0.0074608208133219219 0.0868006421557177 0 0.0084645902957333138 0.086141003784368037 0 0.0084645902957333138 0.086141003784368037 0 0.008459072051785109 0.084477851730499404 0 0.0071609454689292272 0.085224005412147641 0 0.0074608208133219219 0.0868006421557177 0 0.0084645902957333138 0.086141003784368037 0 0.0071609454689292272 0.085224005412147641 0 0.008459072051785109 0.084477851730499404 0 0.0071609454689292272 0.085224005412147641 0 0.0077648402845269006 0.083235995069142504 0 0.00581592595840959 0.08515686803361204 0 0.0071609454689292272 0.085224005412147641 0 0.0062124275182721764 0.083145739440678268 0 0.0061294185431358221 0.086305565621658656 0 0.00581592595840959 0.08515686803361204 0 0.0071609454689292272 0.085224005412147641 0 0.010807028695756522 0.086942437809488113 0 0.0098624846592234097 0.085385024567996584 0 0.011022696304099395 0.085379184947202716 0 0.010807028695756522 0.086942437809488113 0 0.0098624846592234097 0.085385024567996584 0 0.010184955045348535 0.087753672058235546 0 0.0098624846592234097 0.085385024567996584 0 0.0092387215096417664 0.087051419118240575 0 0.010184955045348535 0.087753672058235546 0 0.0084645902957333138 0.086141003784368037 0 0.008459072051785109 0.084477851730499404 0 0.0098624846592234097 0.085385024567996584 0 0.0084645902957333138 0.086141003784368037 0 0.0098624846592234097 0.085385024567996584 0 0.0092387215096417664 0.087051419118240575 0 0.0083341218204730522 0.087468553949291816 0 0.0092387215096417664 0.087051419118240575 0 0.0092545885654732804 0.088375656816822565 0 0.0092387215096417664 0.087051419118240575 0 0.0092545885654732804 0.088375656816822565 0 0.010184955045348535 0.087753672058235546 0 0.010184955045348535 0.087753672058235546 0 0.010636301629725642 0.089200584030689117 0 0.011172526542136732 0.088403167372365296 0 0.0092545885654732804 0.088375656816822565 0 0.010184955045348535 0.087753672058235546 0 0.010079966908264392 0.08905120282082099 0 0.010807028695756522 0.086942437809488113 0 0.010184955045348535 0.087753672058235546 0 0.011172526542136732 0.088403167372365296 0 0.010184955045348535 0.087753672058235546 0 0.010636301629725642 0.089200584030689117 0 0.010079966908264392 0.08905120282082099 0 0.010636301629725642 0.089200584030689117 0 0.010079966908264392 0.08905120282082099 0 0.010321687188081083 0.090206054842015118 0 0.010079966908264392 0.08905120282082099 0 0.010321687188081083 0.090206054842015118 0 0.0095307044056177972 0.089393208772893057 0 0.010321687188081083 0.090206054842015118 0 0.0095307044056177972 0.089393208772893057 0 0.0094545890307698114 0.090091922310611458 0 0.0081519795588397767 0.088590540071521298 0 0.0092545885654732804 0.088375656816822565 0 0.0089664672414547734 0.089337322955595322 0 0.0092545885654732804 0.088375656816822565 0 0.0095307044056177972 0.089393208772893057 0 0.0089664672414547734 0.089337322955595322 0 0.0092545885654732804 0.088375656816822565 0 0.010079966908264392 0.08905120282082099 0 0.0095307044056177972 0.089393208772893057 0 0.0095307044056177972 0.089393208772893057 0 0.0094545890307698114 0.090091922310611458 0 0.0089664672414547734 0.089337322955595322 0 0.0094545890307698114 0.090091922310611458 0 0.0089664672414547734 0.089337322955595322 0 0.0087085307473323999 0.090348175161542102 0 0.0081519795588397767 0.088590540071521298 0 0.0089664672414547734 0.089337322955595322 0 0.0087085307473323999 0.090348175161542102 0 0.0082668314590713301 0.089262289130682279 0 0.0092422392817103818 0.089448724783453712 0 0.010851854644859257 0.090561354193532492 0 0.010426279906631293 0.091371926258194569 0 0.010297938378707237 0.091051164955918404 0 0.010682872757843815 0.091496323517421735 0 0.0087085307473323999 0.090348175161542102 0 0.0099332973560234405 0.090813240244948482 0 0.0098776568065306811 0.091400493095198571 0 0.0094545890307698114 0.090091922310611458 0 0.0087085307473323999 0.090348175161542102 0 0.0099332973560234405 0.090813240244948482 0 0.0087819505136327441 0.08926148360755802 0 0.0097216371453485509 0.090132521122215911 0 0.010179704301038187 0.09029067954261373 0 0.010297938378707237 0.091051164955918404 0 0.010682872757843815 0.091496323517421735 0 0.0088526954198582634 0.08956189260300125 0 0.0097216371453485509 0.090132521122215911 0 0.010426279906631293 0.091371926258194569 0 0.010254469499541931 0.091369733804550143 0 0.010297938378707237 0.091051164955918404 0 0.010321687188081083 0.090206054842015118 0 0.010496646031650672 0.091249041570581141 0 0.010927914656671802 0.091428203291309351 0 0.010321687188081083 0.090206054842015118 0 0.0099332973560234405 0.090813240244948482 0 0.010496646031650672 0.091249041570581141 0 0.010321687188081083 0.090206054842015118 0 0.0094545890307698114 0.090091922310611458 0 0.0099332973560234405 0.090813240244948482 0 0.010604082684042565 0.09183212682090941 0 0.0099332973560234405 0.090813240244948482 0 0.0098776568065306811 0.091400493095198571 0 0.010604082684042565 0.09183212682090941 0 0.010496646031650672 0.091249041570581141 0 0.010927914656671802 0.091428203291309351 0 0.010604082684042565 0.09183212682090941 0 0.0099332973560234405 0.090813240244948482 0 0.010496646031650672 0.091249041570581141 0 0.010927914656671802 0.091428203291309351 0 0.01144047009993443 0.092226860173487121 0 0.011209320771852785 0.090457964404816391 0 0.010927914656671802 0.091428203291309351 0 0.01144047009993443 0.092226860173487121 0 0.011059589183803823 0.09220135698498251 0 0.01144047009993443 0.092226860173487121 0 0.011955739951556882 0.091954087482013822 0 0.011879709637982842 0.093532925810427894 0 0.01144047009993443 0.092226860173487121 0 0.011209320771852785 0.090457964404816391 0 0.011955739951556882 0.091954087482013822 0 0.011209320771852785 0.090457964404816391 0 0.011986707102942433 0.089095119026355279 0 0.011955739951556882 0.091954087482013822 0 0.010321687188081083 0.090206054842015118 0 0.010927914656671802 0.091428203291309351 0 0.011209320771852785 0.090457964404816391 0 0.010636301629725642 0.089200584030689117 0 0.010321687188081083 0.090206054842015118 0 0.011209320771852785 0.090457964404816391 0 0.011209320771852785 0.090457964404816391 0 0.011172526542136732 0.088403167372365296 0 0.011986707102942433 0.089095119026355279 0 0.010636301629725642 0.089200584030689117 0 0.011209320771852785 0.090457964404816391 0 0.011172526542136732 0.088403167372365296 0 0.011172526542136732 0.088403167372365296 0 0.011986707102942433 0.089095119026355279 0 0.011795710657734359 0.0866729512117735 0 0.011986707102942433 0.089095119026355279 0 0.011795710657734359 0.0866729512117735 0 0.013168157606455153 0.087081293811209437 0 0.010807028695756522 0.086942437809488113 0 0.011172526542136732 0.088403167372365296 0 0.011795710657734359 0.0866729512117735 0 0.010807028695756522 0.086942437809488113 0 0.011795710657734359 0.0866729512117735 0 0.011022696304099395 0.085379184947202716 0 0.014866316084150533 0.087456120409033916 0 0.013168157606455153 0.087081293811209437 0 0.013210127682795723 0.089807316924186448 0 0.011986707102942433 0.089095119026355279 0 0.013168157606455153 0.087081293811209437 0 0.013210127682795723 0.089807316924186448 0 0.011986707102942433 0.089095119026355279 0 0.013210127682795723 0.089807316924186448 0 0.011955739951556882 0.091954087482013822 0 0.013210127682795723 0.089807316924186448 0 0.012612819982598793 0.094725189213187039 0 0.016479982559854577 0.089461618165494403 0 0.014866316084150533 0.087456120409033916 0 0.013210127682795723 0.089807316924186448 0 0.016479982559854577 0.089461618165494403 0 0.011532873137720105 0.094603923378271074 0 0.010836888541711684 0.094760568727933273 0 0.013210127682795723 0.089807316924186448 0 0.011955739951556882 0.091954087482013822 0 0.012612819982598793 0.094725189213187039 0 0.011955739951556882 0.091954087482013822 0 0.011879709637982842 0.093532925810427894 0 0.012612819982598793 0.094725189213187039 0 0.011879709637982842 0.093532925810427894 0 0.012612819982598793 0.094725189213187039 0 0.010298644677496445 0.094094294350838353 0 0.011879709637982842 0.093532925810427894 0 0.010298644677496445 0.094094294350838353 0 0.011123603449028574 0.093101043889855462 0 0.010198472633809217 0.09302304787070706 0 0.011123603449028574 0.093101043889855462 0 0.010473236365795845 0.092421325367396792 0 0.010298644677496445 0.094094294350838353 0 0.010198472633809217 0.09302304787070706 0 0.011123603449028574 0.093101043889855462 0 0.011123603449028574 0.093101043889855462 0 0.011406111635250791 0.092790326075800525 0 0.011124703745561576 0.092569429258982511 0 0.011123603449028574 0.093101043889855462 0 0.010473236365795845 0.092421325367396792 0 0.010905252156955368 0.092469484753159331 0 0.011123603449028574 0.093101043889855462 0 0.011124703745561576 0.092569429258982511 0 0.010905252156955368 0.092469484753159331 0 0.011879709637982842 0.093532925810427894 0 0.011123603449028574 0.093101043889855462 0 0.011406111635250791 0.092790326075800525 0 0.01144047009993443 0.092226860173487121 0 0.011406111635250791 0.092790326075800525 0 0.011059589183803823 0.09220135698498251 0 0.01144047009993443 0.092226860173487121 0 0.011879709637982842 0.093532925810427894 0 0.011406111635250791 0.092790326075800525 0 0.011406111635250791 0.092790326075800525 0 0.011059589183803823 0.09220135698498251 0 0.011051884954271462 0.092360171715924047 0 0.011059589183803823 0.09220135698498251 0 0.010779008434136718 0.092076843867035116 0 0.011051884954271462 0.092360171715924047 0 0.010604082684042565 0.09183212682090941 0 0.010927914656671802 0.091428203291309351 0 0.011059589183803823 0.09220135698498251 0 0.010604082684042565 0.09183212682090941 0 0.011059589183803823 0.09220135698498251 0 0.010779008434136718 0.092076843867035116 0 0.010779008434136718 0.092076843867035116 0 0.011051884954271462 0.092360171715924047 0 0.010855939962819921 0.092157657507852625 0 0.011051884954271462 0.092360171715924047 0 0.010917993099622733 0.092180621799527254 0 0.010855939962819921 0.092157657507852625 0 0.011051884954271462 0.092360171715924047 0 0.010917993099622733 0.092180621799527254 0 0.010984581071527142 0.092236805818206619 0 0.010685973283646368 0.092027552549821257 0 0.010779008434136718 0.092076843867035116 0 0.010855939962819921 0.092157657507852625 0 0.010685973283646368 0.092027552549821257 0 0.010855939962819921 0.092157657507852625 0 0.010797291869581128 0.092067747469265535 0 0.010917993099622733 0.092180621799527254 0 0.010855939962819921 0.092157657507852625 0 0.010797291869581128 0.092067747469265535 0 0.011406111635250791 0.092790326075800525 0 0.011051884954271462 0.092360171715924047 0 0.011124703745561576 0.092569429258982511 0 0.011051884954271462 0.092360171715924047 0 0.011124703745561576 0.092569429258982511 0 0.010984581071527142 0.092236805818206619 0 0.011124703745561576 0.092569429258982511 0 0.010901455556637315 0.092120788622374022 0 0.010905252156955368 0.092469484753159331 0 0.011124703745561576 0.092569429258982511 0 0.010984581071527142 0.092236805818206619 0 0.010901455556637315 0.092120788622374022 0 0.010984581071527142 0.092236805818206619 0 0.010888891789092 0.091996885326394953 0 0.010867465032693771 0.092062630266762341 0 0.010984581071527142 0.092236805818206619 0 0.010888891789092 0.091996885326394953 0 0.010901455556637315 0.092120788622374022 0 0.010888891789092 0.091996885326394953 0 0.010901455556637315 0.092120788622374022 0 0.010838373193388821 0.091860723587530599 0 0.010661298327506103 0.091963392150524195 0 0.010797291869581128 0.092067747469265535 0 0.010736232941076292 0.091955935031767799 0 0.010797291869581128 0.092067747469265535 0 0.010867465032693771 0.092062630266762341 0 0.010736232941076292 0.091955935031767799 0 0.010917993099622733 0.092180621799527254 0 0.010984581071527142 0.092236805818206619 0 0.010867465032693771 0.092062630266762341 0 0.010917993099622733 0.092180621799527254 0 0.010797291869581128 0.092067747469265535 0 0.010867465032693771 0.092062630266762341 0 0.010888891789092 0.091996885326394953 0 0.010867465032693771 0.092062630266762341 0 0.010795779403199469 0.091910539816193473 0 0.010867465032693771 0.092062630266762341 0 0.010736232941076292 0.091955935031767799 0 0.010795779403199469 0.091910539816193473 0 0.010661298327506103 0.091963392150524195 0 0.010609802442753311 0.091882320417996044 0 0.010736232941076292 0.091955935031767799 0 0.010609802442753311 0.091882320417996044 0 0.010736232941076292 0.091955935031767799 0 0.010644839623182167 0.091812382143600546 0 0.010736232941076292 0.091955935031767799 0 0.010644839623182167 0.091812382143600546 0 0.010795779403199469 0.091910539816193473 0 0.010644839623182167 0.091812382143600546 0 0.010749696320619704 0.091791409957554804 0 0.010795779403199469 0.091910539816193473 0 0.010749696320619704 0.091791409957554804 0 0.010795779403199469 0.091910539816193473 0 0.010830691722068552 0.091788730316467018 0 0.010787283800500921 0.091649597146064452 0 0.010749696320619704 0.091791409957554804 0 0.010830691722068552 0.091788730316467018 0 0.010787283800500921 0.091649597146064452 0 0.010749696320619704 0.091791409957554804 0 0.010641095921671609 0.091739013197351005 0 0.010644839623182167 0.091812382143600546 0 0.010749696320619704 0.091791409957554804 0 0.010641095921671609 0.091739013197351005 0 0.010547777529556214 0.091721330709957222 0 0.010457511020803839 0.091736435106141073 0 0.010641095921671609 0.091739013197351005 0 0.010457511020803839 0.091736435106141073 0 0.010644839623182167 0.091812382143600546 0 0.010641095921671609 0.091739013197351005 0 0.010901455556637315 0.092120788622374022 0 0.010838373193388821 0.091860723587530599 0 0.010687211909674161 0.091852409094666243 0 0.010838373193388821 0.091860723587530599 0 0.010787837191501776 0.091575912900147036 0 0.010687211909674161 0.091852409094666243 0 0.010888891789092 0.091996885326394953 0 0.010838373193388821 0.091860723587530599 0 0.010830691722068552 0.091788730316467018 0 0.010888891789092 0.091996885326394953 0 0.010795779403199469 0.091910539816193473 0 0.010830691722068552 0.091788730316467018 0 0.010787283800500921 0.091649597146064452 0 0.010830691722068552 0.091788730316467018 0 0.010787837191501776 0.091575912900147036 0 0.010838373193388821 0.091860723587530599 0 0.010830691722068552 0.091788730316467018 0 0.010787837191501776 0.091575912900147036 0 0.010526967607038225 0.091337970293318374 0 0.010687211909674161 0.091852409094666243 0 0.010076442225071801 0.091606927753569919 0 0.010526967607038225 0.091337970293318374 0 0.010787837191501776 0.091575912900147036 0 0.010687211909674161 0.091852409094666243 0 0.010687211909674161 0.091852409094666243 0 0.010076442225071801 0.091606927753569919 0 0.010473236365795845 0.092421325367396792 0 0.010076442225071801 0.091606927753569919 0 0.0097292041893984361 0.092372047330274112 0 0.0087888590857005695 0.091839924597272762 0 0.010076442225071801 0.091606927753569919 0 0.0097292041893984361 0.092372047330274112 0 0.010473236365795845 0.092421325367396792 0 0.010198472633809217 0.09302304787070706 0 0.0097292041893984361 0.092372047330274112 0 0.010473236365795845 0.092421325367396792 0 0.010901455556637315 0.092120788622374022 0 0.010687211909674161 0.091852409094666243 0 0.010905252156955368 0.092469484753159331 0 0.010687211909674161 0.091852409094666243 0 0.010473236365795845 0.092421325367396792 0 0.010905252156955368 0.092469484753159331 0 0.0077754815236856069 0.092967283852965113 0 0.0067199035731650416 0.091994023392563851 0 0.0066031624900292872 0.094067076306512579 0 0.0077754815236856069 0.092967283852965113 0 0.0087888590857005695 0.091839924597272762 0 0.0067199035731650416 0.091994023392563851 0 0.0077754815236856069 0.092967283852965113 0 0.0090075222008363046 0.093075120959780225 0 0.0087888590857005695 0.091839924597272762 0 0.0097292041893984361 0.092372047330274112 0 0.0090075222008363046 0.093075120959780225 0 0.0087888590857005695 0.091839924597272762 0 0.010198472633809217 0.09302304787070706 0 0.0097292041893984361 0.092372047330274112 0 0.0090075222008363046 0.093075120959780225 0 0.0090597343626523975 0.090894168596684005 0 0.010076442225071801 0.091606927753569919 0 0.0087888590857005695 0.091839924597272762 0 0.0090597343626523975 0.090894168596684005 0 0.0087888590857005695 0.091839924597272762 0 0.0077753492093553837 0.090955642258270811 0 0.0087888590857005695 0.091839924597272762 0 0.0077753492093553837 0.090955642258270811 0 0.0067199035731650416 0.091994023392563851 0 0.0055076523260426426 0.089763157196215776 0 0.0077753492093553837 0.090955642258270811 0 0.0067199035731650416 0.091994023392563851 0 0.0055076523260426426 0.089763157196215776 0 0.0067199035731650416 0.091994023392563851 0 0.0038028678899524396 0.092325207812659793 0 0.00147664572306192 0.096546784607517089 0 0.0014782957229477853 0.098518327399057415 0 0.00015460545159254538 0.10438161257531303 0 0.00076565122075252293 0.10428376097018582 0 0.00040418031003442188 0.10479272577242725 0 0.00076565122075252293 0.10428376097018582 0 0.00040418031003442188 0.10479272577242725 0 0.0004741740041225807 0.10487021885250852 0 0.0067199035731650416 0.091994023392563851 0 0.0066031624900292872 0.094067076306512579 0 0.0046755513680631989 0.094051719953232291 0 0.0067199035731650416 0.091994023392563851 0 0.0038028678899524396 0.092325207812659793 0 0.0046755513680631989 0.094051719953232291 0 0.0066031624900292872 0.094067076306512579 0 0.0041068443203082124 0.096605734049832803 0 0.0064504679852430032 0.09583145127531506 0 0.0066031624900292872 0.094067076306512579 0 0.0046755513680631989 0.094051719953232291 0 0.0041068443203082124 0.096605734049832803 0 0.0046755513680631989 0.094051719953232291 0 0.0041068443203082124 0.096605734049832803 0 0.0017328111349078263 0.095947359193880671 0 0.0014782957229477853 0.098518327399057415 0 0.00091607954750541859 0.10045771156083767 0 0.0038028678899524396 0.092325207812659793 0 0.0046755513680631989 0.094051719953232291 0 0.0017328111349078263 0.095947359193880671 0 0.0041068443203082124 0.096605734049832803 0 0.0021295121786739559 0.099102246386022108 0 0.0012222602607968951 0.097396606909442573 0 0.0017912918848598013 0.1001185317787834 0 0.00091607954750541859 0.10045771156083767 0 0.0041068443203082124 0.096605734049832803 0 0.0053018109230461375 0.097871650821580683 0 0.0030582467246599082 0.099345112233381327 0 0.0041068443203082124 0.096605734049832803 0 0.0021295121786739559 0.099102246386022108 0 0.0030582467246599082 0.099345112233381327 0 0.0041068443203082124 0.096605734049832803 0 0.0064504679852430032 0.09583145127531506 0 0.0053018109230461375 0.097871650821580683 0 0.0064504679852430032 0.09583145127531506 0 0.0081238815378585644 0.094424790466855993 0 0.0079064719794698195 0.096227448703691945 0 0.0064504679852430032 0.09583145127531506 0 0.0079064719794698195 0.096227448703691945 0 0.0053018109230461375 0.097871650821580683 0 0.0077754815236856069 0.092967283852965113 0 0.0090075222008363046 0.093075120959780225 0 0.0081238815378585644 0.094424790466855993 0 0.0077754815236856069 0.092967283852965113 0 0.0066031624900292872 0.094067076306512579 0 0.0081238815378585644 0.094424790466855993 0 0.0066031624900292872 0.094067076306512579 0 0.0064504679852430032 0.09583145127531506 0 0.0081238815378585644 0.094424790466855993 0 0.010298644677496445 0.094094294350838353 0 0.010198472633809217 0.09302304787070706 0 0.0090075222008363046 0.093075120959780225 0 0.010298644677496445 0.094094294350838353 0 0.0090075222008363046 0.093075120959780225 0 0.0081238815378585644 0.094424790466855993 0 0.010298644677496445 0.094094294350838353 0 0.0081238815378585644 0.094424790466855993 0 0.0079064719794698195 0.096227448703691945 0 0.012612819982598793 0.094725189213187039 0 0.0079064719794698195 0.096227448703691945 0 0.0080690960291505982 0.09877076928121413 0 0.012612819982598793 0.094725189213187039 0 0.010298644677496445 0.094094294350838353 0 0.0079064719794698195 0.096227448703691945 0 0.0079064719794698195 0.096227448703691945 0 0.0080690960291505982 0.09877076928121413 0 0.0058329062226700305 0.099237075883765791 0 0.0079064719794698195 0.096227448703691945 0 0.0058329062226700305 0.099237075883765791 0 0.0053018109230461375 0.097871650821580683 0 0.0080690960291505982 0.09877076928121413 0 0.0055018604824155935 0.10181768631660289 0 0.0058329062226700305 0.099237075883765791 0 0.012612819982598793 0.094725189213187039 0 0.0080690960291505982 0.09877076928121413 0 0.010022638882511396 0.10213098179738504 0 0.0080690960291505982 0.09877076928121413 0 0.010022638882511396 0.10213098179738504 0 0.0055018604824155935 0.10181768631660289 0 0.0055018604824155935 0.10181768631660289 0 0.0034431542392645183 0.1047686564113888 0 0.0073601874178805485 0.10609533353150678 0 0.010022638882511396 0.10213098179738504 0 0.0055018604824155935 0.10181768631660289 0 0.0073601874178805485 0.10609533353150678 0 0.010836888541711684 0.094760568727933273 0 0.0078344621357354267 0.095232306268881434 0 0.014866316084150533 0.087456120409033916 0 0.016479982559854577 0.089461618165494403 0 0.018033582892480079 0.086013216302143078 0 0.0034431542392645183 0.1047686564113888 0 0.0029928811344818976 0.10301977536179004 0 0.0017933541379576657 0.10425740546653781 0 0.0055018604824155935 0.10181768631660289 0 0.0034431542392645183 0.1047686564113888 0 0.0029928811344818976 0.10301977536179004 0 0.0055018604824155935 0.10181768631660289 0 0.0029928811344818976 0.10301977536179004 0 0.0031104892234678607 0.10094705203318911 0 0.0029928811344818976 0.10301977536179004 0 0.0031104892234678607 0.10094705203318911 0 0.0018492026997325944 0.10284481345743238 0 0.0029928811344818976 0.10301977536179004 0 0.0018492026997325944 0.10284481345743238 0 0.0017933541379576657 0.10425740546653781 0 0.0055018604824155935 0.10181768631660289 0 0.0031104892234678607 0.10094705203318911 0 0.0058329062226700305 0.099237075883765791 0 0.0031104892234678607 0.10094705203318911 0 0.0058329062226700305 0.099237075883765791 0 0.0053018109230461375 0.097871650821580683 0 0.0031104892234678607 0.10094705203318911 0 0.0030582467246599082 0.099345112233381327 0 0.0014405979233615479 0.10092078521874812 0 0.0031104892234678607 0.10094705203318911 0 0.0053018109230461375 0.097871650821580683 0 0.0030582467246599082 0.099345112233381327 0 0.0021295121786739559 0.099102246386022108 0 0.0030582467246599082 0.099345112233381327 0 0.0014405979233615479 0.10092078521874812 0 0.0014405979233615479 0.10092078521874812 0 0.00065664780007224327 0.10190031685721855 0 0.00066398260888835784 0.1006205168542131 0 0.0014405979233615479 0.10092078521874812 0 0.00065664780007224327 0.10190031685721855 0 0.0010967180941444724 0.10227029554215307 0 0.00065664780007224327 0.10190031685721855 0 0.0010967180941444724 0.10227029554215307 0 0.00025554330040417398 0.10332668122804838 0 0.00065664780007224327 0.10190031685721855 0 0.00025554330040417398 0.10332668122804838 0 0.00040473173123147058 0.10271219450507769 0 0.00065664780007224327 0.10190031685721855 0 0.00040473173123147058 0.10271219450507769 0 0.00066398260888835784 0.1006205168542131 0 0.0010967180941444724 0.10227029554215307 0 0.00078272275454855972 0.10367834113614015 0 0.00025554330040417398 0.10332668122804838 0 0.0031104892234678607 0.10094705203318911 0 0.0014405979233615479 0.10092078521874812 0 0.0010967180941444724 0.10227029554215307 0 0.0031104892234678607 0.10094705203318911 0 0.0010967180941444724 0.10227029554215307 0 0.0018492026997325944 0.10284481345743238 0 0.0018492026997325944 0.10284481345743238 0 0.00078272275454855972 0.10367834113614015 0 0.0017933541379576657 0.10425740546653781 0 0.0010967180941444724 0.10227029554215307 0 0.0018492026997325944 0.10284481345743238 0 0.00078272275454855972 0.10367834113614015 0 0.00078272275454855972 0.10367834113614015 0 0.0010118335221760075 0.10443172275221953 0 0.00039357862555276432 0.10465235800883371 0 0.00078272275454855972 0.10367834113614015 0 0.0010118335221760075 0.10443172275221953 0 0.0017933541379576657 0.10425740546653781 0 -3.3789368892173878e-09 0.10499958186425183 0 0.00019540527841783602 0.10429100186222456 0 0.00039357862555276432 0.10465235800883371 0 0.00078272275454855972 0.10367834113614015 0 0.00019540527841783602 0.10429100186222456 0 0.00039357862555276432 0.10465235800883371 0 0.00078272275454855972 0.10367834113614015 0 0.00019540527841783602 0.10429100186222456 0 0.00025554330040417398 0.10332668122804838 0 -3.3789368892173878e-09 0.10499958186425183 0 0.00019540527841783602 0.10429100186222456 0 -8.3261213731180901e-08 0.10499873890681552 0 0.00025554330040417398 0.10332668122804838 0 1.7745785286422371e-07 0.10499784942923256 0 0.00040473173123147058 0.10271219450507769 0 -8.3261213731180901e-08 0.10499873890681552 0 0.00025554330040417398 0.10332668122804838 0 1.7745785286422371e-07 0.10499784942923256 0 0.00019540527841783602 0.10429100186222456 0 -8.3261213731180901e-08 0.10499873890681552 0 0.00025554330040417398 0.10332668122804838 0 1.7745785286422371e-07 0.10499784942923256 0 0.00050076062588303013 0.1031499910748401 0 0.00040473173123147058 0.10271219450507769 0 1.7745785286422371e-07 0.10499784942923256 0 2.1647531572774063e-07 0.1049984493012089 0 0.00050076062588303013 0.1031499910748401 0 1.2865001036779552e-06 0.10499707260685073 0 0.00071360170084832058 0.10316891689966247 0 -1.8611790115208965e-08 0.10500015601523398 0 0.0001041385255585617 0.10505265752103214 0 7.1760358367713858e-05 0.10496715872280266 0 0.00050076062588303013 0.1031499910748401 0 0.00040473173123147058 0.10271219450507769 0 0.00066398260888835784 0.1006205168542131 0 0.00050076062588303013 0.1031499910748401 0 0.00066398260888835784 0.1006205168542131 0 0.00033240218620403904 0.10128459371990602 0 0.0021295121786739559 0.099102246386022108 0 0.0014405979233615479 0.10092078521874812 0 0.00066398260888835784 0.1006205168542131 0 0.00094452077981337719 0.10034939217765233 0 0.00091607954750541859 0.10045771156083767 0 0.0021295121786739559 0.099102246386022108 0 0.00066398260888835784 0.1006205168542131 0 0.0012222602607968951 0.097396606909442573 0 0.00071360170084832058 0.10316891689966247 0 0.00091607954750541859 0.10045771156083767 0 0.0001041385255585617 0.10505265752103214 0 0.00032867978972374025 0.10511484280277894 0 0.00025353836641048511 0.10494750956238809 0 0.0001041385255585617 0.10505265752103214 0 0.0001445347154667602 0.10495885922167089 0 0.00025353836641048511 0.10494750956238809 0 0.0001445347154667602 0.10495885922167089 0 0.00025353836641048511 0.10494750956238809 0 0.00015705066779998409 0.10486352342571421 0 0.00040418031003442188 0.10479272577242725 0 0.0004741740041225807 0.10487021885250852 0 0.00025353836641048511 0.10494750956238809 0 0.0004741740041225807 0.10487021885250852 0 0.00032867978972374025 0.10511484280277894 0 0.00025353836641048511 0.10494750956238809 0 0.00040418031003442188 0.10479272577242725 0 0.00025353836641048511 0.10494750956238809 0 0.00015705066779998409 0.10486352342571421 0 0.00020786409391570297 0.10474451013961288 0 2.7241820191857454e-05 0.10470713517770316 0 0.00015460545159254538 0.10438161257531303 0 0.00040418031003442188 0.10479272577242725 0 -0.00018806199589496017 0.1047003513401018 0 -0.00044135765838672607 0.10447575934048416 0 0.00015460545159254538 0.10438161257531303 0 -0.00018806199589496017 0.1047003513401018 0 2.7241820191857454e-05 0.10470713517770316 0 -0.00015510137864793022 0.10461424717918827 0 -0.00044135765838672607 0.10447575934048416 0 -0.00018806199589496017 0.1047003513401018 0 -0.00076705987010084007 0.1046174095277851 0 0.00015705066779998409 0.10486352342571421 0 2.2987105030593467e-05 0.10493915467007223 0 7.1760358367713858e-05 0.10496715872280266 0 -0.00035255235130450031 0.10313264569073141 0 -0.00015510137864793022 0.10461424717918827 0 -0.00035255235130450031 0.10313264569073141 0 -5.651977917015753e-07 0.10499665330008454 0 -1.255653013254997e-05 0.10498599376937624 0 -4.7625198176327454e-06 0.10499330261770927 0 2.7954361120731358e-10 0.10500000422997606 0 -0.00015510137864793022 0.10461424717918827 0 -2.4872625276398924e-07 0.10499814094769833 0 -3.8925085777401676e-07 0.10499924328226258 0 -1.5553941287056345e-10 0.10499999957814117 0 -4.9185189230558882e-13 0.10499999966397024 0 -4.7625198176327454e-06 0.10499330261770927 0 2.7954361120731358e-10 0.10500000422997606 0 -1.2812647175306383e-09 0.10499999161559555 0 2.2987105030593467e-05 0.10493915467007223 0 3.6125435233646227e-08 0.10499975860960208 0 2.3845099719838733e-05 0.1049797307003363 0 -0.00015510137864793022 0.10461424717918827 0 -7.3082060601989718e-07 0.10499822108894921 0 -1.8611790115208965e-08 0.10500015601523398 0 3.6125435233646227e-08 0.10499975860960208 0 2.3845099719838733e-05 0.1049797307003363 0 -1.8611790115208965e-08 0.10500015601523398 0 2.3845099719838733e-05 0.1049797307003363 0 7.1760358367713858e-05 0.10496715872280266 0 2.2987105030593467e-05 0.10493915467007223 0 2.3845099719838733e-05 0.1049797307003363 0 7.1760358367713858e-05 0.10496715872280266 0 0.0001041385255585617 0.10505265752103214 0 0.0001445347154667602 0.10495885922167089 0 7.1760358367713858e-05 0.10496715872280266 0 0.0001445347154667602 0.10495885922167089 0 0.00015705066779998409 0.10486352342571421 0 7.1760358367713858e-05 0.10496715872280266 0 8.1000641279520836e-05 0.10501073248064507 0 0.00017119727994606489 0.10465129888239662 0 -0.00018392327352232958 0.10452383373421306 0 8.1000641279520836e-05 0.10501073248064507 0 0.00013179793071421328 0.10498405296648115 0 0.00017119727994606489 0.10465129888239662 0 0.00013179793071421328 0.10498405296648115 0 -1.2714670391803652e-07 0.10500016774276 0 0.00017119727994606489 0.10465129888239662 0 0.00013179793071421328 0.10498405296648115 0 -1.2714670391803652e-07 0.10500016774276 0 3.0035219767565318e-07 0.10500013075669469 0 -1.2714670391803652e-07 0.10500016774276 0 0.00017119727994606489 0.10465129888239662 0 0.0002870321168937314 0.10435188823080889 0 0.00017119727994606489 0.10465129888239662 0 -1.4165654419936722e-05 0.10391356214378518 0 0.0002870321168937314 0.10435188823080889 0 0.00017119727994606489 0.10465129888239662 0 -0.00018392327352232958 0.10452383373421306 0 -1.4165654419936722e-05 0.10391356214378518 0 -0.00018392327352232958 0.10452383373421306 0 -0.00090629160010281026 0.10341320561358083 0 -1.4165654419936722e-05 0.10391356214378518 0 -0.00018392327352232958 0.10452383373421306 0 -0.00085946469826489306 0.10485184153592063 0 -0.00090629160010281026 0.10341320561358083 0 -0.00085946469826489306 0.10485184153592063 0 -0.0019715293990257053 0.10417515704314899 0 -0.00090629160010281026 0.10341320561358083 0 -0.00071287472084850269 0.10324187759435584 0 -0.00021567759847519451 0.10202253594801804 0 -0.00085946469826489306 0.10485184153592063 0 -0.00032170553080890381 0.1052640976063166 0 -0.00073768637706869374 0.1053241601823471 0 -0.00018392327352232958 0.10452383373421306 0 -0.00085946469826489306 0.10485184153592063 0 -0.00024122429779839218 0.10500806143123646 0 -0.00085946469826489306 0.10485184153592063 0 -0.00024122429779839218 0.10500806143123646 0 -0.00032170553080890381 0.1052640976063166 0 8.1000641279520836e-05 0.10501073248064507 0 -0.00018392327352232958 0.10452383373421306 0 -0.00024122429779839218 0.10500806143123646 0 8.1000641279520836e-05 0.10501073248064507 0 -0.00024122429779839218 0.10500806143123646 0 3.610625264958653e-05 0.1052911000961913 0 3.610625264958653e-05 0.1052911000961913 0 0.00025644181433906389 0.10564852339326532 0 0.00019073033232909888 0.10532469604625164 0 8.1000641279520836e-05 0.10501073248064507 0 3.610625264958653e-05 0.1052911000961913 0 0.00019073033232909888 0.10532469604625164 0 -0.00032170553080890381 0.1052640976063166 0 0.00025644181433906389 0.10564852339326532 0 -0.00072085663219478336 0.10542025422213727 0 0.00047007958754578843 0.10268570120219173 0 3.0981012498735574e-05 0.10197858379270679 0 -0.00032170553080890381 0.1052640976063166 0 -0.00072085663219478336 0.10542025422213727 0 -0.00073768637706869374 0.1053241601823471 0 -0.00024122429779839218 0.10500806143123646 0 3.610625264958653e-05 0.1052911000961913 0 -0.00032170553080890381 0.1052640976063166 0 3.610625264958653e-05 0.1052911000961913 0 -0.00032170553080890381 0.1052640976063166 0 0.00025644181433906389 0.10564852339326532 0 0.00025644181433906389 0.10564852339326532 0 0.001064756891621433 0.10568285346613844 0 0.00053368340542837584 0.10580589192973183 0 0.00025644181433906389 0.10564852339326532 0 0.00051212516591316439 0.10553972225359788 0 0.001064756891621433 0.10568285346613844 0 0.00025644181433906389 0.10564852339326532 0 0.00019073033232909888 0.10532469604625164 0 0.00051212516591316439 0.10553972225359788 0 0.00019073033232909888 0.10532469604625164 0 0.00034235267375381926 0.10531703589434677 0 0.00014802364338082439 0.10519606203131192 0 8.1000641279520836e-05 0.10501073248064507 0 0.00013179793071421328 0.10498405296648115 0 0.00019073033232909888 0.10532469604625164 0 0.00013179793071421328 0.10498405296648115 0 0.00019073033232909888 0.10532469604625164 0 3.0035219767565318e-07 0.10500013075669469 0 0.00019073033232909888 0.10532469604625164 0 3.0035219767565318e-07 0.10500013075669469 0 0.00014802364338082439 0.10519606203131192 0 3.0035219767565318e-07 0.10500013075669469 0 7.822448082773086e-08 0.1050004018249743 0 0.00014802364338082439 0.10519606203131192 0 7.822448082773086e-08 0.1050004018249743 0 0.00014802364338082439 0.10519606203131192 0 0.00014562168420329661 0.10511373749479774 0 0.00034235267375381926 0.10531703589434677 0 0.00014802364338082439 0.10519606203131192 0 0.00014562168420329661 0.10511373749479774 0 0.00034235267375381926 0.10531703589434677 0 0.00014562168420329661 0.10511373749479774 0 0.00034746788721630635 0.10506827145898802 0 7.822448082773086e-08 0.1050004018249743 0 0.00014562168420329661 0.10511373749479774 0 1.2350244523214332e-07 0.10500005908515704 0 1.2350244523214332e-07 0.10500005908515704 0 0.00034746788721630635 0.10506827145898802 0 0.00014613568349308682 0.10492336383514964 0 0.00014562168420329661 0.10511373749479774 0 1.2350244523214332e-07 0.10500005908515704 0 0.00034746788721630635 0.10506827145898802 0 0.00034746788721630635 0.10506827145898802 0 0.00039357862555276432 0.10465235800883371 0 0.00014613568349308682 0.10492336383514964 0 -3.3789368892173878e-09 0.10499958186425183 0 0.00039357862555276432 0.10465235800883371 0 0.00014613568349308682 0.10492336383514964 0 -3.3789368892173878e-09 0.10499958186425183 0 1.2350244523214332e-07 0.10500005908515704 0 0.00014613568349308682 0.10492336383514964 0 0.0010118335221760075 0.10443172275221953 0 0.0017933541379576657 0.10425740546653781 0 0.0011089347892801991 0.10497703680327412 0 0.0017933541379576657 0.10425740546653781 0 0.0011089347892801991 0.10497703680327412 0 0.0022590383227464256 0.1050210578302581 0 0.0010118335221760075 0.10443172275221953 0 0.00039357862555276432 0.10465235800883371 0 0.0011089347892801991 0.10497703680327412 0 0.00034746788721630635 0.10506827145898802 0 0.00039357862555276432 0.10465235800883371 0 0.0011089347892801991 0.10497703680327412 0 0.00034746788721630635 0.10506827145898802 0 0.0011089347892801991 0.10497703680327412 0 0.0008546461676217428 0.10533090924514614 0 0.0011089347892801991 0.10497703680327412 0 0.0008546461676217428 0.10533090924514614 0 0.0017179161851976024 0.10532728075464563 0 0.0008546461676217428 0.10533090924514614 0 0.001064756891621433 0.10568285346613844 0 0.0017179161851976024 0.10532728075464563 0 0.00034235267375381926 0.10531703589434677 0 0.00034746788721630635 0.10506827145898802 0 0.0008546461676217428 0.10533090924514614 0 0.00019073033232909888 0.10532469604625164 0 0.00034235267375381926 0.10531703589434677 0 0.00051212516591316439 0.10553972225359788 0 0.00034235267375381926 0.10531703589434677 0 0.0008546461676217428 0.10533090924514614 0 0.00051212516591316439 0.10553972225359788 0 0.0008546461676217428 0.10533090924514614 0 0.00051212516591316439 0.10553972225359788 0 0.001064756891621433 0.10568285346613844 0 0.001064756891621433 0.10568285346613844 0 0.0020336133831984843 0.10589501208103229 0 0.0017179161851976024 0.10532728075464563 0 0.0045791333352841763 0.090525864774084364 0 0.0039332597961276843 0.090615291331451825 0 0.0047514426674011628 0.090228227498838021 0 0.004366507060898534 0.090728074794249117 0 0.0045791333352841763 0.090525864774084364 0 0.004879333057612182 0.090679057901035323 0 0.004366507060898534 0.090728074794249117 0 0.0045791333352841763 0.090525864774084364 0 0.0039332597961276843 0.090615291331451825 0 0.0039332597961276843 0.090615291331451825 0 0.0047089047098712814 0.089852708560660438 0 0.0047514426674011628 0.090228227498838021 0 0.0027863762354268648 0.098498553163119326 0 0.0047128506055460432 0.097252490759268187 0 0.0039332597961276843 0.090615291331451825 0 0.0047171860049352882 0.08899002892934281 0 0.0047089047098712814 0.089852708560660438 0 0.0020336133831984843 0.10589501208103229 0 0.0017179161851976024 0.10532728075464563 0 0.0028858840628876907 0.10525616471473727 0 0.0034431542392645183 0.1047686564113888 0 0.0022590383227464256 0.1050210578302581 0 0.0028858840628876907 0.10525616471473727 0 0.0011089347892801991 0.10497703680327412 0 0.0017179161851976024 0.10532728075464563 0 0.0022590383227464256 0.1050210578302581 0 0.0017179161851976024 0.10532728075464563 0 0.0022590383227464256 0.1050210578302581 0 0.0028858840628876907 0.10525616471473727 0 0.0034431542392645183 0.1047686564113888 0 0.0017933541379576657 0.10425740546653781 0 0.0022590383227464256 0.1050210578302581 0 0.0034431542392645183 0.1047686564113888 0 0.0034471197209876769 0.10486819258198532 0 0.0028858840628876907 0.10525616471473727 0 0.0078344621357354267 0.095232306268881434 0 0.0098678223638770483 0.09037311993341364 0 0.0056028731084306737 0.087228792539431249 0 0.0061037592461499019 0.088453941494202978 0 0.0072246946631274369 0.087639462334544324 0 0.014866316084150533 0.087456120409033916 0 0.018033582892480079 0.086013216302143078 0 0.015000208844044365 0.085293119668330641 0 0.0067675451304306548 0.097017330897228027 0 0.0078344621357354267 0.095232306268881434 0 0.0061037592461499019 0.088453941494202978 0 0.0047171860049352882 0.08899002892934281 0 0.0056260599495828265 0.089333894493800609 0 0.0078344621357354267 0.095232306268881434 0 0.0047128506055460432 0.097252490759268187 0 0.0056028731084306737 0.087228792539431249 0 0.0061037592461499019 0.088453941494202978 0 0.0047171860049352882 0.08899002892934281 0 0.0061037592461499019 0.088453941494202978 0 0.0066777377913281415 0.089099066970389093 0 0.006819433280886758 0.088424916843887938 0 0.0061037592461499019 0.088453941494202978 0 0.0066777377913281415 0.089099066970389093 0 0.0056260599495828265 0.089333894493800609 0 0.0064716128714514126 0.089754241423701059 0 0.0056260599495828265 0.089333894493800609 0 0.0051286820293859866 0.090139766779123054 0 0.0066777377913281415 0.089099066970389093 0 0.0064716128714514126 0.089754241423701059 0 0.0056260599495828265 0.089333894493800609 0 0.0047171860049352882 0.08899002892934281 0 0.0056260599495828265 0.089333894493800609 0 0.005041950118517647 0.089679101125037838 0 0.0056260599495828265 0.089333894493800609 0 0.005041950118517647 0.089679101125037838 0 0.0051286820293859866 0.090139766779123054 0 0.0047171860049352882 0.08899002892934281 0 0.005041950118517647 0.089679101125037838 0 0.0047089047098712814 0.089852708560660438 0 0.005041950118517647 0.089679101125037838 0 0.0047089047098712814 0.089852708560660438 0 0.0050204790496634179 0.090128936058774423 0 0.0047089047098712814 0.089852708560660438 0 0.0047514426674011628 0.090228227498838021 0 0.0050204790496634179 0.090128936058774423 0 0.005041950118517647 0.089679101125037838 0 0.0050204790496634179 0.090128936058774423 0 0.0051286820293859866 0.090139766779123054 0 0.0060891927950893028 0.088003828769034828 0 0.006093414901609257 0.088001630544170456 0 0.0060045008845890768 0.088055945886886325 0 0.006093414901609257 0.088001630544170456 0 0.0047514426674011628 0.090228227498838021 0 0.0050733632551796717 0.090116256451054005 0 0.0049915100970173102 0.090337800826858661 0 0.0047514426674011628 0.090228227498838021 0 0.0050204790496634179 0.090128936058774423 0 0.0051278428447529504 0.090140078795330245 0 0.006093414901609257 0.088001630544170456 0 0.0063987295190566567 0.087789315604663534 0 0.0050733632551796717 0.090116256451054005 0 0.0049915100970173102 0.090337800826858661 0 0.0056959372606618149 0.090140679091366221 0 0.0053875960404688667 0.090169656599949452 0 0.0055142376529907847 0.090174535521417035 0 0.0048968060802159642 0.090768732670939115 0 0.0051467794525592511 0.089066193729527454 0 0.0063987295190566567 0.087789315604663534 0 0.0065979499214851673 0.087530511568926495 0 0.0052948068481777034 0.089169119072937883 0 0.0049915100970173102 0.090337800826858661 0 0.004879333057612182 0.090679057901035323 0 0.0056959372606618149 0.090140679091366221 0 0.0046935553011127193 0.09065012877557585 0 0.0053875960404688667 0.090169656599949452 0 0.0048968060802159642 0.090768732670939115 0 0.0045791333352841763 0.090525864774084364 0 0.0047514426674011628 0.090228227498838021 0 0.0049915100970173102 0.090337800826858661 0 0.0045791333352841763 0.090525864774084364 0 0.0049915100970173102 0.090337800826858661 0 0.004879333057612182 0.090679057901035323 0 0.0068429143696530689 0.087798131640536348 0 0.006093414901609257 0.088001630544170456 0 0.0066521664401663879 0.08786146926236979 0 0.0062885795017464611 0.087976009519658435 0 0.0064763198723828859 0.087984431419466963 0 0.0065979499214851673 0.087530511568926495 0 0.0086946658456113872 0.084399199306263079 0 0.0055547099058735738 0.090029639410299525 0 0.0055463061810418057 0.090587276465869393 0 0.006437867245529803 0.090057151479844583 0 0.0080380729920943757 0.0860618757457106 0 0.0074586516595215833 0.086610623542007603 0 0.0086017237322669349 0.086662845336343095 0 0.0068429143696530689 0.087798131640536348 0 0.0065979499214851673 0.087530511568926495 0 0.006769397427653443 0.087884121195557413 0 0.0068517792457216987 0.087824451726953606 0 0.0068310102855278698 0.087823626320151796 0 0.0068429143696530689 0.087798131640536348 0 0.0063987295190566567 0.087789315604663534 0 0.0063987295190566567 0.087789315604663534 0 0.0065979499214851673 0.087530511568926495 0 0.0055547099058735738 0.090029639410299525 0 0.0055463061810418057 0.090587276465869393 0 0.0048651054607260673 0.090719378963282249 0 0.0062842023310268154 0.084917167415192174 0 0.0086946658456113872 0.084399199306263079 0 0.0026436134632334359 0.075809114691314433 0 0.00399833946827601 0.076407139958979145 0 0.0039765049209436144 0.074992793213027917 0 0.0062842023310268154 0.084917167415192174 0 0.003352380546032012 0.086109882607411259 0 0.0026436134632334359 0.075809114691314433 0 0.0035370887620032759 0.078263923463655974 0 0.00399833946827601 0.076407139958979145 0 0.0053342470708661015 0.090694881796687235 0 0.0057005048114082716 0.091844310453213562 0 0.0048414189281467193 0.091750815596590388 0 0.0057005048114082716 0.091844310453213562 0 0.0048414189281467193 0.091750815596590388 0 0.0052273770462195786 0.092306175599134191 0 0.0048414189281467193 0.091750815596590388 0 0.0042558741735242885 0.09182590448583372 0 0.0043955874970844008 0.092372963852342213 0 0.0048414189281467193 0.091750815596590388 0 0.0043153128382798995 0.091304367765084521 0 0.0042558741735242885 0.09182590448583372 0 0.0048414189281467193 0.091750815596590388 0 0.004735931668333521 0.091057553914717523 0 0.0043153128382798995 0.091304367765084521 0 0.0053342470708661015 0.090694881796687235 0 0.0048414189281467193 0.091750815596590388 0 0.004735931668333521 0.091057553914717523 0 0.0062842023310268154 0.084917167415192174 0 0.005263876232662547 0.086077189077021526 0 0.0055463061810418057 0.090587276465869393 0 0.0048651054607260673 0.090719378963282249 0 0.004735931668333521 0.091057553914717523 0 0.0052948068481777034 0.089169119072937883 0 0.0048839384258673414 0.089684438470184355 0 0.0046935553011127193 0.09065012877557585 0 0.0048968060802159642 0.090768732670939115 0 0.0043153128382798995 0.091304367765084521 0 0.0048651054607260673 0.090719378963282249 0 0.004735931668333521 0.091057553914717523 0 0.0043153128382798995 0.091304367765084521 0 0.0046935553011127193 0.09065012877557585 0 0.0040739333533343384 0.091098910310880646 0 0.0043153128382798995 0.091304367765084521 0 0.004366507060898534 0.090728074794249117 0 0.004879333057612182 0.090679057901035323 0 0.0040739333533343384 0.091098910310880646 0 0.0039332597961276843 0.090615291331451825 0 0.0040739333533343384 0.091098910310880646 0 0.0038859611431073179 0.091523283286510201 0 0.0051467794525592511 0.089066193729527454 0 0.0047314262048977988 0.089478764214770953 0 0.004366507060898534 0.090728074794249117 0 0.0039332597961276843 0.090615291331451825 0 0.0040739333533343384 0.091098910310880646 0 0.0040739333533343384 0.091098910310880646 0 0.0043153128382798995 0.091304367765084521 0 0.0038859611431073179 0.091523283286510201 0 0.0020336133831984843 0.10589501208103229 0 0.0012726636343862697 0.10711186640716967 0 0.0013415235290114883 0.10715215928100016 0 0.0027863762354268648 0.098498553163119326 0 -0.0001217846133196386 0.10150961817078534 0 0.001064756891621433 0.10568285346613844 0 0.0020336133831984843 0.10589501208103229 0 0.0012726636343862697 0.10711186640716967 0 0.0039332597961276843 0.090615291331451825 0 0.0033586229155239331 0.091811699419067111 0 0.0038859611431073179 0.091523283286510201 0 0.00054018727489027528 0.10470938464307909 0 3.0981012498735574e-05 0.10197858379270679 0 -0.00083741574868342547 0.10060307101623571 0 -0.00067179601478770492 0.10070196468237047 0 -0.00078947862155864367 0.10093485358985303 0 3.0981012498735574e-05 0.10197858379270679 0 -0.0001217846133196386 0.10150961817078534 0 -0.0024258051689823356 0.10321810061801903 0 -0.0023869337647098657 0.10314093339044403 0 -0.0027654936269965471 0.10266439076293822 0 -0.0001217846133196386 0.10150961817078534 0 -0.00021567759847519451 0.10202253594801804 0 3.0981012498735574e-05 0.10197858379270679 0 -0.00021567759847519451 0.10202253594801804 0 0.0033586229155239331 0.091811699419067111 0 0.0042558741735242885 0.09182590448583372 0 0.0043955874970844008 0.092372963852342213 0 0.0033586229155239331 0.091811699419067111 0 0.0038859611431073179 0.091523283286510201 0 0.0042558741735242885 0.09182590448583372 0 -0.0001217846133196386 0.10150961817078534 0 -1.8144415731785153e-05 0.098177493037623798 0 0.0043153128382798995 0.091304367765084521 0 0.0038859611431073179 0.091523283286510201 0 0.0042558741735242885 0.09182590448583372 0 -0.0024258051689823356 0.10321810061801903 0 -0.0033722018511405153 0.10268953627416265 0 -0.0027654936269965471 0.10266439076293822 0 -0.0033722018511405153 0.10268953627416265 0 -0.0030686504792490433 0.1022276861121194 0 -0.0038468136765265294 0.10213445866189691 0 -0.0033722018511405153 0.10268953627416265 0 -0.0027654936269965471 0.10266439076293822 0 -0.0030686504792490433 0.1022276861121194 0 -0.00085946469826489306 0.10485184153592063 0 -0.0014972706729399427 0.10614052436725906 0 -0.0019715293990257053 0.10417515704314899 0 -0.0023869337647098657 0.10314093339044403 0 -0.0027654936269965471 0.10266439076293822 0 -0.002585528339597997 0.10206743226444286 0 -0.00021567759847519451 0.10202253594801804 0 -0.0012188814981446533 0.10266641732405049 0 -0.0027654936269965471 0.10266439076293822 0 -0.002585528339597997 0.10206743226444286 0 -0.0030686504792490433 0.1022276861121194 0 -0.002585528339597997 0.10206743226444286 0 -0.0030686504792490433 0.1022276861121194 0 -0.0031001141803306746 0.10167079471201476 0 -0.0030686504792490433 0.1022276861121194 0 -0.0038468136765265294 0.10213445866189691 0 -0.0031001141803306746 0.10167079471201476 0 -0.0038468136765265294 0.10213445866189691 0 -0.0042648332521179324 0.10116553525429332 0 -0.0031001141803306746 0.10167079471201476 0 -0.0033722018511405153 0.10268953627416265 0 -0.0038468136765265294 0.10213445866189691 0 -0.0043853631431934499 0.10212319112493028 0 -0.0046721711877722779 0.10211138293617347 0 -0.0052599679028586307 0.1011501778432274 0 -0.0042648332521179324 0.10116553525429332 0 -0.0046721711877722779 0.10211138293617347 0 -0.0059542308740786918 0.10210910975546693 0 -0.0052599679028586307 0.1011501778432274 0 -0.0038468136765265294 0.10213445866189691 0 -0.0046721711877722779 0.10211138293617347 0 -0.0042648332521179324 0.10116553525429332 0 -0.00058878776715055327 0.095126912076096928 0 0.00028671747566788884 0.090371240023970983 0 -0.0013924615492122286 0.095586889021245708 0 -0.00058878776715055327 0.095126912076096928 0 0.0057005048114082716 0.091844310453213562 0 0.0052273770462195786 0.092306175599134191 0 0.0060587185947478207 0.09294032370538366 0 0.0053759796056189234 0.092928837318545815 0 0.0052273770462195786 0.092306175599134191 0 0.0060587185947478207 0.09294032370538366 0 0.0048414189281467193 0.091750815596590388 0 0.0043955874970844008 0.092372963852342213 0 0.0052273770462195786 0.092306175599134191 0 -1.8144415731785153e-05 0.098177493037623798 0 -0.00058878776715055327 0.095126912076096928 0 0.0043955874970844008 0.092372963852342213 0 0.0053759796056189234 0.092928837318545815 0 0.0052273770462195786 0.092306175599134191 0 0.0053511035329392009 0.079076252786546133 0 0.0043937143437357065 0.080590269585857174 0 0.0061731039588470999 0.080582417433004552 0 0.0053511035329392009 0.079076252786546133 0 0.0061731039588470999 0.080582417433004552 0 0.0065593482922469849 0.079165257209637144 0 0.0035370887620032759 0.078263923463655974 0 0.0053511035329392009 0.079076252786546133 0 0.0043937143437357065 0.080590269585857174 0 0.003352380546032012 0.086109882607411259 0 0.00028671747566788884 0.090371240023970983 0 0.00028671747566788884 0.090371240023970983 0 0.0015678506343855785 0.086407144306139536 0 -0.011840809716327581 0.081041604127150751 0 -0.0043408052162653933 0.081203754102479556 0 -0.0093600375951630524 0.088240164548440345 0 0.0015678506343855785 0.086407144306139536 0 0.0044847599841256539 0.084618146784317685 0 0.0061731039588470999 0.080582417433004552 0 0.0076870078365384696 0.080716986728276638 0 0.0065593482922469849 0.079165257209637144 0 -0.0043408052162653933 0.081203754102479556 0 0.0026072813771245251 0.081604399870875213 0 0.0012341778980482583 0.086522579571882696 0 0.0026072813771245251 0.081604399870875213 0 0.0088543289139155629 0.081758053832870881 0 0.0053436320064519007 0.086605087405011633 0 0.0044847599841256539 0.084618146784317685 0 0.0061526284971244131 0.084140836242609512 0 0.0076870078365384696 0.080716986728276638 0 0.0079042098391758596 0.078612035858634646 0 0.0086218349796240521 0.079554226994507218 0 0.0076870078365384696 0.080716986728276638 0 0.0065593482922469849 0.079165257209637144 0 0.0079042098391758596 0.078612035858634646 0 0.0065593482922469849 0.079165257209637144 0 0.0065616989841064972 0.077657311892894362 0 0.0079042098391758596 0.078612035858634646 0 0.0065616989841064972 0.077657311892894362 0 0.0079042098391758596 0.078612035858634646 0 0.008793104387241046 0.076719950432931755 0 0.0079042098391758596 0.078612035858634646 0 0.0092362127515942631 0.077725468316380247 0 0.0086218349796240521 0.079554226994507218 0 0.0079042098391758596 0.078612035858634646 0 0.008793104387241046 0.076719950432931755 0 0.0092362127515942631 0.077725468316380247 0 0.008793104387241046 0.076719950432931755 0 0.0070521693084415037 0.076112194809969988 0 0.0081330163843921638 0.075079611339363181 0 0.0065616989841064972 0.077657311892894362 0 0.008793104387241046 0.076719950432931755 0 0.0070521693084415037 0.076112194809969988 0 0.0065616989841064972 0.077657311892894362 0 0.0070521693084415037 0.076112194809969988 0 0.0058677532580928178 0.076275658605253413 0 0.0065616989841064972 0.077657311892894362 0 0.0058677532580928178 0.076275658605253413 0 0.0049571717241504686 0.077072035475559422 0 0.0058677532580928178 0.076275658605253413 0 0.0049571717241504686 0.077072035475559422 0 0.0048943020935212807 0.075875050419370135 0 0.0053511035329392009 0.079076252786546133 0 0.0065593482922469849 0.079165257209637144 0 0.0065616989841064972 0.077657311892894362 0 0.0053511035329392009 0.079076252786546133 0 0.0065616989841064972 0.077657311892894362 0 0.0049571717241504686 0.077072035475559422 0 0.0035370887620032759 0.078263923463655974 0 0.0053511035329392009 0.079076252786546133 0 0.0049571717241504686 0.077072035475559422 0 0.0035370887620032759 0.078263923463655974 0 0.0049571717241504686 0.077072035475559422 0 0.00399833946827601 0.076407139958979145 0 0.0049571717241504686 0.077072035475559422 0 0.00399833946827601 0.076407139958979145 0 0.0048943020935212807 0.075875050419370135 0 0.0086946658456113872 0.084399199306263079 0 0.010659874211306887 0.080745646110826866 0 0.00399833946827601 0.076407139958979145 0 0.0048943020935212807 0.075875050419370135 0 0.0039765049209436144 0.074992793213027917 0 0.0048943020935212807 0.075875050419370135 0 0.0039765049209436144 0.074992793213027917 0 0.0059373069805066809 0.075005694408279061 0 0.020032329702639743 0.076531961374041668 0 0.017526320735606248 0.076367710667615801 0 0.017898774969236364 0.077813472032069411 0 0.0070521693084415037 0.076112194809969988 0 0.0058677532580928178 0.076275658605253413 0 0.0059373069805066809 0.075005694408279061 0 0.0058677532580928178 0.076275658605253413 0 0.0048943020935212807 0.075875050419370135 0 0.0059373069805066809 0.075005694408279061 0 0.010019993337909396 0.085833080935457315 0 0.0097769282076352829 0.085520327673816177 0 0.01143682687148751 0.085014192742472669 0 0.0089050466051342984 0.086638656688527507 0 0.011231709769296076 0.085125242741173848 0 0.0079879876290332649 0.089137332127750962 0 0.0088590508184400035 0.088509939199526516 0 0.0092895317124608457 0.088746899098232648 0 0.011954188366088414 0.083495051115587499 0 0.011231709769296076 0.085125242741173848 0 0.017526320735606248 0.076367710667615801 0 0.017898774969236364 0.077813472032069411 0 0.016154541455189075 0.077483985592040963 0 0.0079879876290332649 0.089137332127750962 0 0.0075520710643789289 0.088989706310402567 0 0.0083611942818841659 0.088449749304519418 0 0.0066982263993569623 0.089518319169146654 0 0.0079879876290332649 0.089137332127750962 0 0.0075520710643789289 0.088989706310402567 0 0.0068429143696530689 0.087798131640536348 0 0.0089050466051342984 0.086638656688527507 0 0.0086946658456113872 0.084399199306263079 0 0.011954188366088414 0.083495051115587499 0 0.0080380729920943757 0.0860618757457106 0 0.0086017237322669349 0.086662845336343095 0 0.0097769282076352829 0.085520327673816177 0 0.0086017237322669349 0.086662845336343095 0 0.010019993337909396 0.085833080935457315 0 0.0097769282076352829 0.085520327673816177 0 0.0068429143696530689 0.087798131640536348 0 0.0070927407197045487 0.088066183071215054 0 0.0066777377913281415 0.089099066970389093 0 0.0073552358077186445 0.088934211092712337 0 0.0070051446173208659 0.08876624674104569 0 0.0068429143696530689 0.087798131640536348 0 0.0070073151595782994 0.088098935387334848 0 0.0066777377913281415 0.089099066970389093 0 0.0064716128714514126 0.089754241423701059 0 0.0073552358077186445 0.088934211092712337 0 0.0067535021373192764 0.089474795159247139 0 0.0075652192179534684 0.088964154447821117 0 0.0074790250239629647 0.088791813624297861 0 0.0066777377913281415 0.089099066970389093 0 0.0070051446173208659 0.08876624674104569 0 0.006819433280886758 0.088424916843887938 0 0.0071713598783947549 0.088609412454383973 0 0.006819433280886758 0.088424916843887938 0 0.0075421515256432611 0.088244319057832879 0 0.0061037592461499019 0.088453941494202978 0 0.006819433280886758 0.088424916843887938 0 0.0072246946631274369 0.087639462334544324 0 0.0073552358077186445 0.088934211092712337 0 0.0070051446173208659 0.08876624674104569 0 0.0071713598783947549 0.088609412454383973 0 0.0070051446173208659 0.08876624674104569 0 0.0071713598783947549 0.088609412454383973 0 0.006819433280886758 0.088424916843887938 0 0.006819433280886758 0.088424916843887938 0 0.0075421515256432611 0.088244319057832879 0 0.0072246946631274369 0.087639462334544324 0 0.0075421515256432611 0.088244319057832879 0 0.0082250733038566649 0.088071155935503923 0 0.0072246946631274369 0.087639462334544324 0 0.0073552358077186445 0.088934211092712337 0 0.0075421515256432611 0.088244319057832879 0 0.0082250733038566649 0.088071155935503923 0 0.0073552358077186445 0.088934211092712337 0 0.0071713598783947549 0.088609412454383973 0 0.0075421515256432611 0.088244319057832879 0 0.0075652192179534684 0.088964154447821117 0 0.0074790250239629647 0.088791813624297861 0 0.0083611942818841659 0.088449749304519418 0 0.0070073151595782994 0.088098935387334848 0 0.0072237472094244647 0.088031764231934248 0 0.0070927407197045487 0.088066183071215054 0 0.0072987606179142975 0.088053542789066519 0 0.0082250733038566649 0.088071155935503923 0 0.0072246946631274369 0.087639462334544324 0 0.0088189906535885605 0.088024505494477587 0 0.0074790250239629647 0.088791813624297861 0 0.0083611942818841659 0.088449749304519418 0 0.0082250733038566649 0.088071155935503923 0 0.0079879876290332649 0.089137332127750962 0 0.0083611942818841659 0.088449749304519418 0 0.0088590508184400035 0.088509939199526516 0 0.0083611942818841659 0.088449749304519418 0 0.0088189906535885605 0.088024505494477587 0 0.0088590508184400035 0.088509939199526516 0 0.0083611942818841659 0.088449749304519418 0 0.0082250733038566649 0.088071155935503923 0 0.0088189906535885605 0.088024505494477587 0 0.0098678223638770483 0.09037311993341364 0 0.010521880375848783 0.087552357095346298 0 0.013168157606455153 0.087081293811209437 0 0.015000208844044365 0.085293119668330641 0 0.012710381054915126 0.084607876390562123 0 0.014866316084150533 0.087456120409033916 0 0.013168157606455153 0.087081293811209437 0 0.015000208844044365 0.085293119668330641 0 0.011795710657734359 0.0866729512117735 0 0.011587703698342272 0.08491614865033778 0 0.011022696304099395 0.085379184947202716 0 0.011587703698342272 0.08491614865033778 0 0.011022696304099395 0.085379184947202716 0 0.011106964918154117 0.084091137199896845 0 0.011795710657734359 0.0866729512117735 0 0.011587703698342272 0.08491614865033778 0 0.012710381054915126 0.084607876390562123 0 0.011795710657734359 0.0866729512117735 0 0.013168157606455153 0.087081293811209437 0 0.012710381054915126 0.084607876390562123 0 0.011587703698342272 0.08491614865033778 0 0.012710381054915126 0.084607876390562123 0 0.011330488631652742 0.083918464620360345 0 0.010521880375848783 0.087552357095346298 0 0.011173387742362666 0.085478208907822831 0 0.0088189906535885605 0.088024505494477587 0 0.009551180480341346 0.088590463749964501 0 0.010317006448178455 0.088415044409899363 0 0.0088189906535885605 0.088024505494477587 0 0.0088590508184400035 0.088509939199526516 0 0.009551180480341346 0.088590463749964501 0 0.0088590508184400035 0.088509939199526516 0 0.0092895317124608457 0.088746899098232648 0 0.009551180480341346 0.088590463749964501 0 0.011231709769296076 0.085125242741173848 0 0.011135773377447674 0.085205417357788332 0 0.0092947219938774462 0.088743395360519825 0 0.009551180480341346 0.088590463749964501 0 0.010317006448178455 0.088415044409899363 0 0.011231709769296076 0.085125242741173848 0 0.011173387742362666 0.085478208907822831 0 0.011587703698342272 0.08491614865033778 0 0.011330488631652742 0.083918464620360345 0 0.011106964918154117 0.084091137199896845 0 0.013214363658761911 0.079883659545419594 0 0.013499740480208758 0.079982034601125324 0 0.012796839007752671 0.078843678430893446 0 0.011189970614876418 0.085461671252131555 0 0.011173387742362666 0.085478208907822831 0 0.015563427899518213 0.079279202206182092 0 0.013499740480208758 0.079982034601125324 0 0.014157372010410294 0.078201021928673453 0 0.013499740480208758 0.079982034601125324 0 0.012796839007752671 0.078843678430893446 0 0.014157372010410294 0.078201021928673453 0 0.012796839007752671 0.078843678430893446 0 0.014157372010410294 0.078201021928673453 0 0.012775550162279733 0.077431096540059904 0 0.014157372010410294 0.078201021928673453 0 0.012775550162279733 0.077431096540059904 0 0.014830676205935407 0.076056702999465695 0 0.017898774969236364 0.077813472032069411 0 0.015563427899518213 0.079279202206182092 0 0.016154541455189075 0.077483985592040963 0 0.015563427899518213 0.079279202206182092 0 0.014157372010410294 0.078201021928673453 0 0.016154541455189075 0.077483985592040963 0 0.014157372010410294 0.078201021928673453 0 0.016154541455189075 0.077483985592040963 0 0.014830676205935407 0.076056702999465695 0 0.017526320735606248 0.076367710667615801 0 0.016154541455189075 0.077483985592040963 0 0.014830676205935407 0.076056702999465695 0 0.0070521693084415037 0.076112194809969988 0 0.0059373069805066809 0.075005694408279061 0 0.0081330163843921638 0.075079611339363181 0 0.010659874211306887 0.080745646110826866 0 0.010992903886693432 0.078962770722363157 0 0.012775550162279733 0.077431096540059904 0 0.014830676205935407 0.076056702999465695 0 0.011017003171649492 0.075787430042243947 0 0.008793104387241046 0.076719950432931755 0 0.0081330163843921638 0.075079611339363181 0 0.011017003171649492 0.075787430042243947 0 0.010992903886693432 0.078962770722363157 0 0.010935519208955425 0.078439698844279815 0 0.011017003171649492 0.075787430042243947 0 0.010809328438814367 0.076625779161049318 0 0.010853201903947786 0.075576021046732139 0 0.011017003171649492 0.075787430042243947 0 0.010809328438814367 0.076625779161049318 0 0.011566695369307666 0.077819264236143867 0 0.010809328438814367 0.076625779161049318 0 0.010309610748750513 0.076564217850584329 0 0.010853201903947786 0.075576021046732139 0 0.010809328438814367 0.076625779161049318 0 0.010350684324039589 0.079257335772029716 0 0.010309610748750513 0.076564217850584329 0 0.010809328438814367 0.076625779161049318 0 0.010350684324039589 0.079257335772029716 0 0.011566695369307666 0.077819264236143867 0 0.012775550162279733 0.077431096540059904 0 0.011017003171649492 0.075787430042243947 0 0.011566695369307666 0.077819264236143867 0 0.012796839007752671 0.078843678430893446 0 0.012775550162279733 0.077431096540059904 0 0.011566695369307666 0.077819264236143867 0 0.010350684324039589 0.079257335772029716 0 0.011566695369307666 0.077819264236143867 0 0.011725112861413825 0.079503430190314431 0 0.012796839007752671 0.078843678430893446 0 0.011566695369307666 0.077819264236143867 0 0.011725112861413825 0.079503430190314431 0 0.013214363658761911 0.079883659545419594 0 0.012796839007752671 0.078843678430893446 0 0.011725112861413825 0.079503430190314431 0 0.013214363658761911 0.079883659545419594 0 0.011725112861413825 0.079503430190314431 0 0.01041215163068882 0.082275001766815986 0 0.011173387742362666 0.085478208907822831 0 0.011056012377062106 0.084695032772992715 0 0.011330488631652742 0.083918464620360345 0 0.01041215163068882 0.082275001766815986 0 0.011106964918154117 0.084091137199896845 0 0.013214363658761911 0.079883659545419594 0 0.013570747396817942 0.079883232523430853 0 0.01041215163068882 0.082275001766815986 0 0.010350684324039589 0.079257335772029716 0 0.01041215163068882 0.082275001766815986 0 0.0090330596095300024 0.082595809110347196 0 0.010350684324039589 0.079257335772029716 0 0.011725112861413825 0.079503430190314431 0 0.01041215163068882 0.082275001766815986 0 0.0098624846592234097 0.085385024567996584 0 0.01041215163068882 0.082275001766815986 0 0.0090330596095300024 0.082595809110347196 0 0.008459072051785109 0.084477851730499404 0 0.0098624846592234097 0.085385024567996584 0 0.0090330596095300024 0.082595809110347196 0 0.01041215163068882 0.082275001766815986 0 0.011022696304099395 0.085379184947202716 0 0.011106964918154117 0.084091137199896845 0 0.0098624846592234097 0.085385024567996584 0 0.01041215163068882 0.082275001766815986 0 0.011022696304099395 0.085379184947202716 0 0.0062124275182721764 0.083145739440678268 0 0.0077648402845269006 0.083235995069142504 0 0.007921694232333713 0.080699206125513803 0 0.0071609454689292272 0.085224005412147641 0 0.0062124275182721764 0.083145739440678268 0 0.0077648402845269006 0.083235995069142504 0 0.0077648402845269006 0.083235995069142504 0 0.0090330596095300024 0.082595809110347196 0 0.007921694232333713 0.080699206125513803 0 0.008459072051785109 0.084477851730499404 0 0.0077648402845269006 0.083235995069142504 0 0.0090330596095300024 0.082595809110347196 0 0.010350684324039589 0.079257335772029716 0 0.0090330596095300024 0.082595809110347196 0 0.007921694232333713 0.080699206125513803 0 0.0062124275182721764 0.083145739440678268 0 0.007921694232333713 0.080699206125513803 0 0.0056362282823160499 0.079941495768953222 0 0.007921694232333713 0.080699206125513803 0 0.0079953529557659515 0.076508302676186093 0 0.0056362282823160499 0.079941495768953222 0 0.007921694232333713 0.080699206125513803 0 0.010309610748750513 0.076564217850584329 0 0.0079953529557659515 0.076508302676186093 0 0.010350684324039589 0.079257335772029716 0 0.007921694232333713 0.080699206125513803 0 0.010309610748750513 0.076564217850584329 0 0.010309610748750513 0.076564217850584329 0 0.0079953529557659515 0.076508302676186093 0 0.011729954216588012 0.073693019072076343 0 0.0079953529557659515 0.076508302676186093 0 0.011729954216588012 0.073693019072076343 0 0.0068274881325746254 0.0712053559293888 0 0.011803713148960362 0.065461123599465931 0 0.0068274881325746254 0.0712053559293888 0 0.0070859512344269605 0.064541906362953483 0 0.011729954216588012 0.073693019072076343 0 0.011803713148960362 0.065461123599465931 0 0.0068274881325746254 0.0712053559293888 0 0.011729954216588012 0.073693019072076343 0 0.010754931879762612 0.078259965900523351 0 0.014717428074596473 0.078692051245912456 0 0.012496064131952724 0.073149633089838809 0 0.012515132830558585 0.072679686667646959 0 0.010309610748750513 0.076564217850584329 0 0.011729954216588012 0.073693019072076343 0 0.010853201903947786 0.075576021046732139 0 0.008793104387241046 0.076719950432931755 0 0.011017003171649492 0.075787430042243947 0 0.010853201903947786 0.075576021046732139 0 0.008793104387241046 0.076719950432931755 0 0.010853201903947786 0.075576021046732139 0 0.0092362127515942631 0.077725468316380247 0 0.010853201903947786 0.075576021046732139 0 0.0092362127515942631 0.077725468316380247 0 0.010754931879762612 0.078259965900523351 0 0.011729954216588012 0.073693019072076343 0 0.010853201903947786 0.075576021046732139 0 0.010754931879762612 0.078259965900523351 0 0.010754931879762612 0.078259965900523351 0 0.0086218349796240521 0.079554226994507218 0 0.0088543289139155629 0.081758053832870881 0 0.0092362127515942631 0.077725468316380247 0 0.010754931879762612 0.078259965900523351 0 0.0086218349796240521 0.079554226994507218 0 0.0076870078365384696 0.080716986728276638 0 0.0086218349796240521 0.079554226994507218 0 0.0088543289139155629 0.081758053832870881 0 0.0088543289139155629 0.081758053832870881 0 0.012261264606758195 0.083651681805732361 0 0.0090214944136989984 0.08640078102261739 0 0.010754931879762612 0.078259965900523351 0 0.0088543289139155629 0.081758053832870881 0 0.012261264606758195 0.083651681805732361 0 0.012261264606758195 0.083651681805732361 0 0.016510622856751894 0.084233190133849584 0 0.014717428074596473 0.078692051245912456 0 0.012174604770519156 0.072309467867565425 0 0.012515132830558585 0.072679686667646959 0 0.010802711789526057 0.059292257184491333 0 0.011803713148960362 0.065461123599465931 0 0.0070859512344269605 0.064541906362953483 0 0.010754931879762612 0.078259965900523351 0 0.012261264606758195 0.083651681805732361 0 0.014717428074596473 0.078692051245912456 0 0.013594152125399123 0.090777120579339995 0 0.017360914909916505 0.090445939266608641 0 0.013987557767075288 0.087378621523219874 0 0.013594152125399123 0.090777120579339995 0 0.013987557767075288 0.087378621523219874 0 0.011125027986939517 0.088585005525468621 0 0.012174604770519156 0.072309467867565425 0 0.010970344947120472 0.07213540855189228 0 0.016510622856751894 0.084233190133849584 0 0.017360914909916505 0.090445939266608641 0 0.013987557767075288 0.087378621523219874 0 0.010802711789526057 0.059292257184491333 0 0.0096657160133218883 0.053999574133067343 0 0.0061596195632353992 0.055539189131442242 0 0.012261264606758195 0.083651681805732361 0 0.016510622856751894 0.084233190133849584 0 0.013987557767075288 0.087378621523219874 0 0.012261264606758195 0.083651681805732361 0 0.013987557767075288 0.087378621523219874 0 0.011125027986939517 0.088585005525468621 0 0.012261264606758195 0.083651681805732361 0 0.0090214944136989984 0.08640078102261739 0 0.011125027986939517 0.088585005525468621 0 0.0090214944136989984 0.08640078102261739 0 0.0069020200894502701 0.091442310550882436 0 0.0053436320064519007 0.086605087405011633 0 0.0088543289139155629 0.081758053832870881 0 0.0090214944136989984 0.08640078102261739 0 0.0053436320064519007 0.086605087405011633 0 0.0090214944136989984 0.08640078102261739 0 0.0069020200894502701 0.091442310550882436 0 0.011125027986939517 0.088585005525468621 0 0.0069020200894502701 0.091442310550882436 0 0.011125027986939517 0.088585005525468621 0 0.010339356898635046 0.09237836110372763 0 0.013594152125399123 0.090777120579339995 0 0.011125027986939517 0.088585005525468621 0 0.010339356898635046 0.09237836110372763 0 0.010339356898635046 0.09237836110372763 0 0.0084905740576419787 0.095607739806975595 0 0.014287018553589973 0.093999235639768461 0 0.0086299118602847363 0.094875483078863079 0 0.010971251148476573 0.094578982170589992 0 0.0084905740576419787 0.095607739806975595 0 0.0056115977505220788 0.09429712353021677 0 0.0026699053106871147 0.096533879568903247 0 0.0069020200894502701 0.091442310550882436 0 0.0077228249598533779 0.093511418247402098 0 0.0056115977505220788 0.09429712353021677 0 0.010339356898635046 0.09237836110372763 0 0.0077228249598533779 0.093511418247402098 0 0.0084905740576419787 0.095607739806975595 0 0.0069020200894502701 0.091442310550882436 0 0.010339356898635046 0.09237836110372763 0 0.0077228249598533779 0.093511418247402098 0 0.0077228249598533779 0.093511418247402098 0 0.0084905740576419787 0.095607739806975595 0 0.0056115977505220788 0.09429712353021677 0 0.0086299118602847363 0.094875483078863079 0 0.0043706093364469607 0.095310385456454635 0 0.010196588013422193 0.094389869273845461 0 0.009960217549139486 0.095674651290774917 0 0.0082573959505672211 0.095829901195855355 0 0.0044649568156210915 0.08481334861334365 0 0.0052470147060054064 0.0817569633238307 0 0.009960217549139486 0.095674651290774917 0 0.0086850456245000044 0.097351581544420182 0 0.0082573959505672211 0.095829901195855355 0 0.010196588013422193 0.094389869273845461 0 0.012421805677364896 0.095506398013805061 0 0.014287018553589973 0.093999235639768461 0 0.009960217549139486 0.095674651290774917 0 0.012421805677364896 0.095506398013805061 0 0.01321511880101206 0.09872069481532203 0 0.010196588013422193 0.094389869273845461 0 0.009960217549139486 0.095674651290774917 0 0.012421805677364896 0.095506398013805061 0 0.015064753497019316 0.096662976000689099 0 0.014287018553589973 0.093999235639768461 0 0.01748905566983356 0.09544180375830387 0 0.012421805677364896 0.095506398013805061 0 0.015064753497019316 0.096662976000689099 0 0.01321511880101206 0.09872069481532203 0 0.012421805677364896 0.095506398013805061 0 0.015064753497019316 0.096662976000689099 0 0.014287018553589973 0.093999235639768461 0 0.013594152125399123 0.090777120579339995 0 0.010339356898635046 0.09237836110372763 0 0.014287018553589973 0.093999235639768461 0 0.013594152125399123 0.090777120579339995 0 0.017360914909916505 0.090445939266608641 0 0.014287018553589973 0.093999235639768461 0 0.010970344947120472 0.07213540855189228 0 0.0081215667422575282 0.070779483142182034 0 0.017360914909916505 0.090445939266608641 0 0.014287018553589973 0.093999235639768461 0 0.01748905566983356 0.09544180375830387 0 0.0096657160133218883 0.053999574133067343 0 0.0078176202400817036 0.04826470596865079 0 0.0069325945295566488 0.051451941409226619 0 0.0081215667422575282 0.070779483142182034 0 0.0017978233746333877 0.063241106112282189 0 0.0078176202400817036 0.04826470596865079 0 0.0053891141421972414 0.042903474361722579 0 0.0052132934398189694 0.045062861559646866 0 0.015064753497019316 0.096662976000689099 0 0.01748905566983356 0.09544180375830387 0 0.017858952218192458 0.099557902409655424 0 0.0059562060577006389 0.073962385710372447 0 0.0017978233746333877 0.063241106112282189 0 0.015064753497019316 0.096662976000689099 0 0.01321511880101206 0.09872069481532203 0 0.017858952218192458 0.099557902409655424 0 0.00081037431861535599 0.054793815285361057 0 0.00063569916972556161 0.054243422177499001 0 0.00064563393556847995 0.055478048504415282 0 0.00081037431861535599 0.054793815285361057 0 -0.00013402070377102306 0.055529793077435718 0 0.00063569916972556161 0.054243422177499001 0 -0.00013402070377102306 0.055529793077435718 0 0.00063569916972556161 0.054243422177499001 0 -0.00025286465557541681 0.051063148484810278 0 0.0017978233746333877 0.063241106112282189 0 0.0004902307600269572 0.054264265620713265 0 0.00063569916972556161 0.054243422177499001 0 0.00040179714596177637 0.053903591361649759 0 -0.00025286465557541681 0.051063148484810278 0 0.00063569916972556161 0.054243422177499001 0 0.00040179714596177637 0.053903591361649759 0 0.00064563393556847995 0.055478048504415282 0 0.00040179714596177637 0.053903591361649759 0 0.00064563393556847995 0.055478048504415282 0 0.00040046355383253581 0.056593506014629098 0 0.00040046355383253581 0.056593506014629098 0 1.2632214625301291e-07 0.054155374246941106 0 3.9668215441913187e-07 0.060443782521915158 0 0.00040179714596177637 0.053903591361649759 0 1.2632214625301291e-07 0.054155374246941106 0 -0.00025286465557541681 0.051063148484810278 0 0.00040179714596177637 0.053903591361649759 0 0.00040046355383253581 0.056593506014629098 0 1.2632214625301291e-07 0.054155374246941106 0 -0.00034759556585311927 0.06355580739531301 0 3.9668215441913187e-07 0.060443782521915158 0 -1.5021085382622812e-06 0.066739397049777355 0 -0.0018374447520875439 0.059576126390844461 0 -0.00034759556585311927 0.06355580739531301 0 3.3544284353699389e-05 0.05877234768333453 0 -0.0018374447520875439 0.059576126390844461 0 -0.00034759556585311927 0.06355580739531301 0 -0.0044430653752511179 0.060527711163802331 0 0.00040046355383253581 0.056593506014629098 0 3.9668215441913187e-07 0.060443782521915158 0 3.3544284353699389e-05 0.05877234768333453 0 -0.00034759556585311927 0.06355580739531301 0 3.9668215441913187e-07 0.060443782521915158 0 3.3544284353699389e-05 0.05877234768333453 0 0.00064563393556847995 0.055478048504415282 0 0.00040046355383253581 0.056593506014629098 0 3.3544284353699389e-05 0.05877234768333453 0 0.00064563393556847995 0.055478048504415282 0 3.3544284353699389e-05 0.05877234768333453 0 3.317489216152149e-05 0.056024559823080078 0 3.3544284353699389e-05 0.05877234768333453 0 -0.0015565733143882196 0.057124648623073856 0 3.317489216152149e-05 0.056024559823080078 0 -0.0018374447520875439 0.059576126390844461 0 3.3544284353699389e-05 0.05877234768333453 0 -0.0015565733143882196 0.057124648623073856 0 -0.0018374447520875439 0.059576126390844461 0 -0.0015565733143882196 0.057124648623073856 0 -0.0038258856200272442 0.058040542492636127 0 -0.0015565733143882196 0.057124648623073856 0 -0.0011259784534590716 0.055348732455376977 0 -0.0042571918905123752 0.055686979354360955 0 -0.0011259784534590716 0.055348732455376977 0 -0.0021119429784149891 0.053525380425058743 0 -0.0042571918905123752 0.055686979354360955 0 -0.0015565733143882196 0.057124648623073856 0 -0.0011259784534590716 0.055348732455376977 0 3.317489216152149e-05 0.056024559823080078 0 0.00081037431861535599 0.054793815285361057 0 -0.0011259784534590716 0.055348732455376977 0 3.317489216152149e-05 0.056024559823080078 0 0.00081037431861535599 0.054793815285361057 0 0.00064563393556847995 0.055478048504415282 0 3.317489216152149e-05 0.056024559823080078 0 0.0059562060577006389 0.073962385710372447 0 0.0052470147060054064 0.0817569633238307 0 0.009960217549139486 0.095674651290774917 0 0.01321511880101206 0.09872069481532203 0 0.0085176108378571917 0.097769608214092946 0 0.00081037431861535599 0.054793815285361057 0 -0.0011259784534590716 0.055348732455376977 0 -0.0021119429784149891 0.053525380425058743 0 0.0052470147060054064 0.0817569633238307 0 0.0032297392768250556 0.074219035302638431 0 0.0029754987357398293 0.081738961500266216 0 0.0035039686510836116 0.081843717700763305 0 0.0033236617910333711 0.081204991209542665 0 0.0052470147060054064 0.0817569633238307 0 0.0054135467853686529 0.085191625087289058 0 0.0086850456245000044 0.097351581544420182 0 0.0060370151817434438 0.096740545301253117 0 0.0082573959505672211 0.095829901195855355 0 0.0035039686510836116 0.081843717700763305 0 0.0036818785322621094 0.081485976488752859 0 0.0040428390752632482 0.081954780072294384 0 0.0035039686510836116 0.081843717700763305 0 0.0036818785322621094 0.081485976488752859 0 0.0033236617910333711 0.081204991209542665 0 0.0036818785322621094 0.081485976488752859 0 0.0037334241550476019 0.081118280993244293 0 0.004027915336672263 0.081402235128240338 0 0.0036818785322621094 0.081485976488752859 0 0.0037334241550476019 0.081118280993244293 0 0.0033236617910333711 0.081204991209542665 0 -0.0038258856200272442 0.058040542492636127 0 -0.006926105550491099 0.058908119374916169 0 -0.0044430653752511179 0.060527711163802331 0 -0.0042571918905123752 0.055686979354360955 0 -0.0038258856200272442 0.058040542492636127 0 -0.006926105550491099 0.058908119374916169 0 -0.0015565733143882196 0.057124648623073856 0 -0.0042571918905123752 0.055686979354360955 0 -0.0038258856200272442 0.058040542492636127 0 -0.0018374447520875439 0.059576126390844461 0 -0.0038258856200272442 0.058040542492636127 0 -0.0044430653752511179 0.060527711163802331 0 0.0032297392768250556 0.074219035302638431 0 0.00026279766579185361 0.073281247388873108 0 0.0037334241550476019 0.081118280993244293 0 0.0036706985458945965 0.080666569338489674 0 0.0040105559682545771 0.080849686477986751 0 0.0037334241550476019 0.081118280993244293 0 0.0033236617910333711 0.081204991209542665 0 0.0036706985458945965 0.080666569338489674 0 0.00026279766579185361 0.073281247388873108 0 0.0011254068794496715 0.079759476217483 0 0.00026279766579185361 0.073281247388873108 0 -0.0014206287509588172 0.070263797460219435 0 0.00026279766579185361 0.073281247388873108 0 6.6922165440052195e-05 0.073360222331179864 0 -1.5021085382622812e-06 0.066739397049777355 0 0.00017763048782295306 0.06809589778925898 0 -8.3593279905856791e-06 0.072647172790272913 0 -1.5021085382622812e-06 0.066739397049777355 0 -8.3593279905856791e-06 0.072647172790272913 0 2.0996514407083216e-07 0.073021423893467871 0 -0.00014390879053303573 0.069249948691125385 0 0.00017763048782295306 0.06809589778925898 0 -8.3593279905856791e-06 0.072647172790272913 0 -0.0014079085411660699 0.06954230230302437 0 -0.0014206287509588172 0.070263797460219435 0 -0.00034759556585311927 0.06355580739531301 0 -1.5021085382622812e-06 0.066739397049777355 0 0.00017763048782295306 0.06809589778925898 0 2.5257687400137246e-06 0.078068085164125806 0 0.00026585163621027879 0.077245588714978733 0 -4.2352412009854763e-06 0.073036924773655962 0 2.5257687400137246e-06 0.078068085164125806 0 0.00026585163621027879 0.077245588714978733 0 0.00064074728581625076 0.079305226634972234 0 -0.00045205145624184386 0.074379578038547764 0 -0.00089726289859496701 0.075027272848376639 0 -0.00090714537257314968 0.074145131753333232 0 0.00026585163621027879 0.077245588714978733 0 -0.00028639192874711143 0.073619584129932247 0 -0.0012938916181107099 0.078771830647694663 0 0.00026585163621027879 0.077245588714978733 0 -0.00028639192874711143 0.073619584129932247 0 -4.2352412009854763e-06 0.073036924773655962 0 6.6922165440052195e-05 0.073360222331179864 0 0.0011254068794496715 0.079759476217483 0 6.6922165440052195e-05 0.073360222331179864 0 2.0609005366210546e-06 0.073033833259693509 0 0.00026585163621027879 0.077245588714978733 0 -0.0012938916181107099 0.078771830647694663 0 0.0004376362766235087 0.079338413664692908 0 0.0011254068794496715 0.079759476217483 0 0.0010218366212770467 0.085774555697769109 0 0.0004376362766235087 0.079338413664692908 0 0.00051243216741588536 0.079185003274645976 0 0.00064074728581625076 0.079305226634972234 0 0.00026585163621027879 0.077245588714978733 0 0.0004376362766235087 0.079338413664692908 0 0.00064074728581625076 0.079305226634972234 0 0.0010218366212770467 0.085774555697769109 0 -0.00034452356181753787 0.09082608273968755 0 0.0034300856996234133 0.095497645308765172 0 0.0034206758207731411 0.09556145307569304 0 0.0034882940404184805 0.095534922566944444 0 0.0037334241550476019 0.081118280993244293 0 0.0040105559682545771 0.080849686477986751 0 0.004027915336672263 0.081402235128240338 0 0.0011254068794496715 0.079759476217483 0 0.0034137686782186563 0.085662777023590292 0 0.003364444131040398 0.095431946977053705 0 0.0034300856996234133 0.095497645308765172 0 0.0033909233033867282 0.095557007493599411 0 0.0034300856996234133 0.095497645308765172 0 0.0034206758207731411 0.09556145307569304 0 0.0033909233033867282 0.095557007493599411 0 0.0036818785322621094 0.081485976488752859 0 0.004027915336672263 0.081402235128240338 0 0.0040428390752632482 0.081954780072294384 0 0.0033909233033867282 0.095557007493599411 0 0.0034372589677391036 0.095586045146712997 0 0.003495864924647183 0.095568103607929542 0 0.0034137686782186563 0.085662777023590292 0 0.0055464739814122437 0.087222752728338002 0 0.0034206758207731411 0.09556145307569304 0 0.0033909233033867282 0.095557007493599411 0 0.0034372589677391036 0.095586045146712997 0 0.0034372589677391036 0.095586045146712997 0 0.0034025371972898209 0.095621498031656788 0 0.0035000217368307009 0.095564728815303299 0 0.0034372589677391036 0.095586045146712997 0 0.003495864924647183 0.095568103607929542 0 0.0035000217368307009 0.095564728815303299 0 0.0034206758207731411 0.09556145307569304 0 0.0034025371972898209 0.095621498031656788 0 0.0034882940404184805 0.095534922566944444 0 -0.0013706425290254752 0.094452990887502752 0 -0.00034452356181753787 0.09082608273968755 0 0.0034206758207731411 0.09556145307569304 0 0.0034372589677391036 0.095586045146712997 0 0.0034025371972898209 0.095621498031656788 0 -0.0060967227510097194 0.098452363717132688 0 -0.0056028704592065038 0.09856102686470268 0 -0.00539383572566137 0.097950027111180185 0 -0.0061194431207706205 0.097638656127502194 0 -0.0060967227510097194 0.098452363717132688 0 -0.00539383572566137 0.097950027111180185 0 -0.0061194431207706205 0.097638656127502194 0 -0.0060967227510097194 0.098452363717132688 0 -0.0068398156683854711 0.098542654711400071 0 -0.0060967227510097194 0.098452363717132688 0 -0.0061440558434322744 0.098242818181021763 0 -0.0056028704592065038 0.09856102686470268 0 -0.0061440558434322744 0.098242818181021763 0 -0.005578765148812369 0.098810886890279989 0 -0.0056028704592065038 0.09856102686470268 0 -0.0061440558434322744 0.098242818181021763 0 -0.005578765148812369 0.098810886890279989 0 -0.0059346694122367396 0.098429935250387249 0 -0.0063675291558548267 0.096880061534568671 0 -0.0053821539928865072 0.09817573626381336 0 -0.0024569491411522227 0.098060542716753782 0 -0.0061440558434322744 0.098242818181021763 0 -0.0063675291558548267 0.096880061534568671 0 -0.0059346694122367396 0.098429935250387249 0 -0.0061440558434322744 0.098242818181021763 0 -0.0063675291558548267 0.096880061534568671 0 -0.0053821539928865072 0.09817573626381336 0 -0.0061440558434322744 0.098242818181021763 0 -0.0053821539928865072 0.09817573626381336 0 -0.0056155233854451054 0.099229995574614538 0 -0.00090339154686526002 0.095642711235021341 0 -0.00060311007980511934 0.095336473902867785 0 -0.0053821539928865072 0.09817573626381336 0 -0.0056155233854451054 0.099229995574614538 0 -0.0024569491411522227 0.098060542716753782 0 -0.0060967227510097194 0.098452363717132688 0 -0.0061440558434322744 0.098242818181021763 0 -0.0056155233854451054 0.099229995574614538 0 -0.0021411098338448239 0.095954462011125105 0 -0.00090339154686526002 0.095642711235021341 0 0.0034025371972898209 0.095621498031656788 0 0.0034297277916099122 0.095319012206681902 0 0.0035000217368307009 0.095564728815303299 0 -0.0013706425290254752 0.094452990887502752 0 -0.00090339154686526002 0.095642711235021341 0 0.005535584783867788 0.087453931394564116 0 0.0055464739814122437 0.087222752728338002 0 0.0034297277916099122 0.095319012206681902 0 0.0036030911279571723 0.095606668022922753 0 0.0035000217368307009 0.095564728815303299 0 0.0036030911279571723 0.095606668022922753 0 0.0035237405760104867 0.095573433600188107 0 0.0035000217368307009 0.095564728815303299 0 0.0055464739814122437 0.087222752728338002 0 0.0055394300252799861 0.087239370641217173 0 -0.00090339154686526002 0.095642711235021341 0 0.0043706093364469607 0.095310385456454635 0 0.0054135467853686529 0.085191625087289058 0 0.0055464739814122437 0.087222752728338002 0 0.0060370151817434438 0.096740545301253117 0 0.0036030911279571723 0.095606668022922753 0 0.0036085648180329104 0.096148759704528797 0 0.0034297277916099122 0.095319012206681902 0 0.0036030911279571723 0.095606668022922753 0 0.0065521566882555168 0.094834471305418194 0 0.0060370151817434438 0.096740545301253117 0 0.0036030911279571723 0.095606668022922753 0 0.0065521566882555168 0.094834471305418194 0 0.0060370151817434438 0.096740545301253117 0 0.0082573959505672211 0.095829901195855355 0 0.0065521566882555168 0.094834471305418194 0 0.010196588013422193 0.094389869273845461 0 0.0082573959505672211 0.095829901195855355 0 0.0065521566882555168 0.094834471305418194 0 0.0069020200894502701 0.091442310550882436 0 0.0056115977505220788 0.09429712353021677 0 0.0029442565587707342 0.093938621390685359 0 0.0056115977505220788 0.09429712353021677 0 0.0026699053106871147 0.096533879568903247 0 0.0029442565587707342 0.093938621390685359 0 -0.0023052491283767794 0.097077870923522755 0 0.0026699053106871147 0.096533879568903247 0 0.00020495606709008184 0.094357401193625595 0 0.0026699053106871147 0.096533879568903247 0 0.0029442565587707342 0.093938621390685359 0 0.00020495606709008184 0.094357401193625595 0 0.0029442565587707342 0.093938621390685359 0 0.00020495606709008184 0.094357401193625595 0 0.0024954737847540757 0.091876557900262237 0 -0.00060311007980511934 0.095336473902867785 0 0.00012410606851097762 0.094551940545358412 0 -0.0063675291558548267 0.096880061534568671 0 -0.0024569491411522227 0.098060542716753782 0 -0.002995242724796821 0.090092110206092563 0 -0.0024569491411522227 0.098060542716753782 0 -0.002995242724796821 0.090092110206092563 0 0.0024954737847540757 0.091876557900262237 0 0.0069020200894502701 0.091442310550882436 0 0.0029442565587707342 0.093938621390685359 0 0.0024954737847540757 0.091876557900262237 0 0.0069020200894502701 0.091442310550882436 0 0.0024954737847540757 0.091876557900262237 0 0.0053436320064519007 0.086605087405011633 0 0.0026072813771245251 0.081604399870875213 0 0.0053436320064519007 0.086605087405011633 0 0.0012341778980482583 0.086522579571882696 0 0.0024954737847540757 0.091876557900262237 0 0.0053436320064519007 0.086605087405011633 0 0.0012341778980482583 0.086522579571882696 0 -0.002995242724796821 0.090092110206092563 0 0.0024954737847540757 0.091876557900262237 0 0.0012341778980482583 0.086522579571882696 0 -0.0043408052162653933 0.081203754102479556 0 -0.002995242724796821 0.090092110206092563 0 0.0012341778980482583 0.086522579571882696 0 -0.0043408052162653933 0.081203754102479556 0 -0.002995242724796821 0.090092110206092563 0 -0.0093600375951630524 0.088240164548440345 0 0.00028671747566788884 0.090371240023970983 0 -0.002441029437709988 0.092552062900243287 0 -0.0065507650906385063 0.10032026146066784 0 -0.0052808455217246688 0.09987021864039089 0 -0.0052599679028586307 0.1011501778432274 0 -0.0059542308740786918 0.10210910975546693 0 -0.0065507650906385063 0.10032026146066784 0 -0.0052599679028586307 0.1011501778432274 0 -0.005578765148812369 0.098810886890279989 0 -0.0052808455217246688 0.09987021864039089 0 -0.0059346694122367396 0.098429935250387249 0 -0.0065507650906385063 0.10032026146066784 0 -0.0052808455217246688 0.09987021864039089 0 -0.0059346694122367396 0.098429935250387249 0 -0.0063675291558548267 0.096880061534568671 0 -0.002995242724796821 0.090092110206092563 0 -0.0093600375951630524 0.088240164548440345 0 -0.0029416729836342251 0.093911674839979378 0 -0.002441029437709988 0.092552062900243287 0 -0.0063675291558548267 0.096880061534568671 0 -0.0065507650906385063 0.10032026146066784 0 -0.0059346694122367396 0.098429935250387249 0 -0.0035352947735308384 0.10088908316357344 0 -0.0044962887805457541 0.099989289732298384 0 -0.0034933113424335366 0.099985299367188765 0 -0.005578765148812369 0.098810886890279989 0 -0.0052808455217246688 0.09987021864039089 0 -0.0044962887805457541 0.099989289732298384 0 -0.0052808455217246688 0.09987021864039089 0 -0.0044962887805457541 0.099989289732298384 0 -0.0042648332521179324 0.10116553525429332 0 -0.0052808455217246688 0.09987021864039089 0 -0.0052599679028586307 0.1011501778432274 0 -0.0042648332521179324 0.10116553525429332 0 -0.0035352947735308384 0.10088908316357344 0 -0.0044962887805457541 0.099989289732298384 0 -0.0042648332521179324 0.10116553525429332 0 -0.0035352947735308384 0.10088908316357344 0 -0.0042648332521179324 0.10116553525429332 0 -0.0031001141803306746 0.10167079471201476 0 -0.0035352947735308384 0.10088908316357344 0 -0.0031001141803306746 0.10167079471201476 0 -0.0025119441070821911 0.1015314972144596 0 -0.0019715293990257053 0.10417515704314899 0 -0.0025119441070821911 0.1015314972144596 0 -0.00090629160010281026 0.10341320561358083 0 -0.002585528339597997 0.10206743226444286 0 -0.0031001141803306746 0.10167079471201476 0 -0.0025119441070821911 0.1015314972144596 0 -0.0012188814981446533 0.10266641732405049 0 -0.0015960058485648004 0.10213234530798117 0 -0.0025119441070821911 0.1015314972144596 0 -0.0023075030525262596 0.10044574449522517 0 -0.0013574018774285546 0.1015221644175667 0 -0.0025119441070821911 0.1015314972144596 0 -0.0013574018774285546 0.1015221644175667 0 -0.00090629160010281026 0.10341320561358083 0 -0.0025119441070821911 0.1015314972144596 0 -0.0034933113424335366 0.099985299367188765 0 -0.0023075030525262596 0.10044574449522517 0 -0.0035352947735308384 0.10088908316357344 0 -0.0025119441070821911 0.1015314972144596 0 -0.0034933113424335366 0.099985299367188765 0 -0.0034933113424335366 0.099985299367188765 0 -0.0023075030525262596 0.10044574449522517 0 -0.0024901396368090228 0.099228316490477989 0 -0.0023075030525262596 0.10044574449522517 0 -0.0014495049390167972 0.099890566315790033 0 -0.0024901396368090228 0.099228316490477989 0 -0.0023075030525262596 0.10044574449522517 0 -0.0014495049390167972 0.099890566315790033 0 -0.0013574018774285546 0.1015221644175667 0 -0.0012715122488578155 0.098770092679491259 0 -0.0024901396368090228 0.099228316490477989 0 -0.0019635442536012951 0.097723763030837435 0 -0.0014495049390167972 0.099890566315790033 0 -0.0012715122488578155 0.098770092679491259 0 -0.0024901396368090228 0.099228316490477989 0 -0.0014495049390167972 0.099890566315790033 0 -0.0012715122488578155 0.098770092679491259 0 -0.00081481874815447482 0.099342437575385911 0 -0.0034933113424335366 0.099985299367188765 0 -0.0024901396368090228 0.099228316490477989 0 -0.003849317613970611 0.098333918579109919 0 -0.0024901396368090228 0.099228316490477989 0 -0.003849317613970611 0.098333918579109919 0 -0.0019635442536012951 0.097723763030837435 0 -0.003849317613970611 0.098333918579109919 0 -0.0048627412415634405 0.098885028964986438 0 -0.00539383572566137 0.097950027111180185 0 -0.0034933113424335366 0.099985299367188765 0 -0.003849317613970611 0.098333918579109919 0 -0.0048627412415634405 0.098885028964986438 0 -0.0044962887805457541 0.099989289732298384 0 -0.0034933113424335366 0.099985299367188765 0 -0.0048627412415634405 0.098885028964986438 0 -0.005578765148812369 0.098810886890279989 0 -0.0044962887805457541 0.099989289732298384 0 -0.0048627412415634405 0.098885028964986438 0 -0.005578765148812369 0.098810886890279989 0 -0.0048627412415634405 0.098885028964986438 0 -0.0056028704592065038 0.09856102686470268 0 -0.0048627412415634405 0.098885028964986438 0 -0.0056028704592065038 0.09856102686470268 0 -0.00539383572566137 0.097950027111180185 0 -0.0061194431207706205 0.097638656127502194 0 -0.00539383572566137 0.097950027111180185 0 -0.0054796770002237321 0.096733648734867089 0 -0.00539383572566137 0.097950027111180185 0 -0.0046886448074835258 0.09701166494792092 0 -0.0054796770002237321 0.096733648734867089 0 -0.003849317613970611 0.098333918579109919 0 -0.00539383572566137 0.097950027111180185 0 -0.0046886448074835258 0.09701166494792092 0 -0.003849317613970611 0.098333918579109919 0 -0.0046886448074835258 0.09701166494792092 0 -0.0024744825075661012 0.095801394350275904 0 -0.0046886448074835258 0.09701166494792092 0 -0.0048709598491433401 0.092461441766242561 0 -0.0024744825075661012 0.095801394350275904 0 -0.0046886448074835258 0.09701166494792092 0 -0.0074163953674607911 0.095619415604669189 0 -0.0048709598491433401 0.092461441766242561 0 -0.00034452356181753787 0.09082608273968755 0 -0.00035083167377478669 0.088202160056688877 0 -0.0014559931392915538 0.091436735848911405 0 -0.00034452356181753787 0.09082608273968755 0 0.00051243216741588536 0.079185003274645976 0 0.00064074728581625076 0.079305226634972234 0 -0.00027284785200817137 0.08040242304969715 0 -0.00027284785200817137 0.08040242304969715 0 1.1490615556955427e-06 0.082891135390473394 0 -3.1046941825236929e-06 0.087704596984548716 0 0.00064074728581625076 0.079305226634972234 0 -0.00027284785200817137 0.08040242304969715 0 1.1490615556955427e-06 0.082891135390473394 0 2.5257687400137246e-06 0.078068085164125806 0 0.00064074728581625076 0.079305226634972234 0 1.1490615556955427e-06 0.082891135390473394 0 0.00036321848126265706 0.091280003348533187 0 -6.4200836757912354e-06 0.08772521908540945 0 -0.00016467928210182344 0.092378225576058404 0 0.00036321848126265706 0.091280003348533187 0 -6.4200836757912354e-06 0.08772521908540945 0 4.6061451736225676e-06 0.09283381402878027 0 -6.4200836757912354e-06 0.08772521908540945 0 -0.0016214156386947785 0.09283551350513039 0 -0.00016467928210182344 0.092378225576058404 0 -0.0048709598491433401 0.092461441766242561 0 -6.4200836757912354e-06 0.08772521908540945 0 -0.0016214156386947785 0.09283551350513039 0 -0.00035083167377478669 0.088202160056688877 0 1.0279338139815556e-07 0.08771116452220995 0 -0.0048709598491433401 0.092461441766242561 0 -0.0016214156386947785 0.09283551350513039 0 -0.0024744825075661012 0.095801394350275904 0 -0.0016214156386947785 0.09283551350513039 0 -0.00062952725799301763 0.093887132132453394 0 -0.00016467928210182344 0.092378225576058404 0 0.00036321848126265706 0.091280003348533187 0 -0.00016467928210182344 0.092378225576058404 0 0.0008515917431528168 0.092066691885446472 0 -0.00062952725799301763 0.093887132132453394 0 -0.00016467928210182344 0.092378225576058404 0 0.0008515917431528168 0.092066691885446472 0 -0.00062952725799301763 0.093887132132453394 0 -0.00018137492551441415 0.096070475087534302 0 -0.0024744825075661012 0.095801394350275904 0 -0.00062952725799301763 0.093887132132453394 0 -0.00018137492551441415 0.096070475087534302 0 0.0008515917431528168 0.092066691885446472 0 -0.0016214156386947785 0.09283551350513039 0 -0.00062952725799301763 0.093887132132453394 0 -0.0024744825075661012 0.095801394350275904 0 -0.003849317613970611 0.098333918579109919 0 -0.0024744825075661012 0.095801394350275904 0 -0.0019635442536012951 0.097723763030837435 0 -0.00018137492551441415 0.096070475087534302 0 -0.0024744825075661012 0.095801394350275904 0 -0.0019635442536012951 0.097723763030837435 0 -0.00018137492551441415 0.096070475087534302 0 -0.0019635442536012951 0.097723763030837435 0 -0.00070914463910059697 0.09770311720904068 0 -0.0012715122488578155 0.098770092679491259 0 -0.0019635442536012951 0.097723763030837435 0 -0.00070914463910059697 0.09770311720904068 0 -0.00070914463910059697 0.09770311720904068 0 -0.00027959537752341243 0.098627880813666302 0 0.00059824278314458111 0.09770717106049423 0 -0.0012715122488578155 0.098770092679491259 0 -0.00070914463910059697 0.09770311720904068 0 -0.00027959537752341243 0.098627880813666302 0 -0.00075253375900276363 0.099331302857997933 0 -0.00046685757675915253 0.099617927287058552 0 -0.00056036208224621528 0.099243716158786938 0 -0.00027959537752341243 0.098627880813666302 0 -0.0006440417577267309 0.099142587902215903 0 -0.00056036208224621528 0.099243716158786938 0 -0.0006440417577267309 0.099142587902215903 0 -0.00075253375900276363 0.099331302857997933 0 -0.00056036208224621528 0.099243716158786938 0 0.0002107641269660354 0.098825658349708564 0 0.00024504914929135939 0.098807483825069015 0 -0.0006440417577267309 0.099142587902215903 0 -0.00082552701263941528 0.099345243374820896 0 -0.00075253375900276363 0.099331302857997933 0 -0.00027959537752341243 0.098627880813666302 0 -0.0006440417577267309 0.099142587902215903 0 -0.00082552701263941528 0.099345243374820896 0 -0.00018137492551441415 0.096070475087534302 0 -0.00070914463910059697 0.09770311720904068 0 0.00059824278314458111 0.09770717106049423 0 -0.00075253375900276363 0.099331302857997933 0 -0.00016387891689321747 0.10016281271355346 0 -0.00022912846121519 0.099134395332596728 0 0.00024504914929135939 0.098807483825069015 0 0.00037881829250652362 0.10014119802842084 0 -0.00075253375900276363 0.099331302857997933 0 -0.00016387891689321747 0.10016281271355346 0 -0.00053487395790181185 0.1022176272731348 0 -0.00082552701263941528 0.099345243374820896 0 -0.00075253375900276363 0.099331302857997933 0 -0.00022912846121519 0.099134395332596728 0 -0.00025216919369454072 0.099042165302342597 0 0.00016229228769083277 0.098716471645694207 0 -0.00041119235721303764 0.098672980641502164 0 0.00024504914929135939 0.098807483825069015 0 0.00011566303667722768 0.096780583280681051 0 2.9033301344347266e-06 0.094313650856306663 0 5.1777251260020442e-05 0.093617012930604912 0 -0.00018137492551441415 0.096070475087534302 0 0.00059824278314458111 0.09770717106049423 0 0.00060970756382030286 0.09475243236930006 0 0.00060970756382030286 0.09475243236930006 0 0.00019759358291751512 0.09451226253799748 0 3.3311615922412693e-06 0.094815070003755622 0 -0.00018137492551441415 0.096070475087534302 0 0.00060970756382030286 0.09475243236930006 0 0.00019759358291751512 0.09451226253799748 0 -0.00041119235721303764 0.098672980641502164 0 0.00058012317876972069 0.09849115524488182 0 -2.1656403159491007e-06 0.09483826637600791 0 0.00016229228769083277 0.098716471645694207 0 -0.00041119235721303764 0.098672980641502164 0 0.00058012317876972069 0.09849115524488182 0 0.00058012317876972069 0.09849115524488182 0 2.164292996510321e-06 0.098371360189229151 0 -2.1656403159491007e-06 0.09483826637600791 0 5.1777251260020442e-05 0.093617012930604912 0 2.800635756323601e-07 0.092846437545757457 0 0.00019759358291751512 0.09451226253799748 0 3.3311615922412693e-06 0.094815070003755622 0 -3.0922872352221886e-06 0.092860389941368679 0 0.00011566303667722768 0.096780583280681051 0 2.9503015259167209e-07 0.09483167694156612 0 0.00036321848126265706 0.091280003348533187 0 0.0008515917431528168 0.092066691885446472 0 4.6061451736225676e-06 0.09283381402878027 0 -2.6785941888080682e-05 0.10425838032640945 0 -2.7532435317252967e-06 0.1019232358157805 0 -0.0014542774092285321 0.10666455678743063 0 -2.6785941888080682e-05 0.10425838032640945 0 6.0551312758527673e-07 0.10499588695945375 0 1.5512858837326903e-06 0.10499995567372271 0 2.3212506854080693e-07 0.10191559811915145 0 0.0002536458485631923 0.10235185605031422 0 -2.6785941888080682e-05 0.10425838032640945 0 6.0551312758527673e-07 0.10499588695945375 0 -2.7532435317252967e-06 0.1019232358157805 0 -2.1521653579357439e-06 0.10190848285641065 0 0.00039753075884629109 0.099467796050406551 0 -0.00014113145073236873 0.098013282732589524 0 0.00058012317876972069 0.09849115524488182 0 2.164292996510321e-06 0.098371360189229151 0 0.00039753075884629109 0.099467796050406551 0 2.164292996510321e-06 0.098371360189229151 0 -2.1521653579357439e-06 0.10190848285641065 0 0.00039753075884629109 0.099467796050406551 0 0.00016229228769083277 0.098716471645694207 0 0.00058012317876972069 0.09849115524488182 0 -0.00014113145073236873 0.098013282732589524 0 0.00058012317876972069 0.09849115524488182 0 0.00039753075884629109 0.099467796050406551 0 -0.00014113145073236873 0.098013282732589524 0 1.8895402433183746e-05 0.10500659084283483 0 -5.4670731403459869e-08 0.10499994726976272 0 1.2767442960747345e-07 0.10500014035627971 0 -2.6785941888080682e-05 0.10425838032640945 0 -0.0014542774092285321 0.10666455678743063 0 1.5512858837326903e-06 0.10499995567372271 0 0.0002536458485631923 0.10235185605031422 0 -1.6791604958938611e-06 0.10499543992113364 0 1.8895402433183746e-05 0.10500659084283483 0 1.2767442960747345e-07 0.10500014035627971 0 0.0001323200521026078 0.10507716807910746 0 0.00037881829250652362 0.10014119802842084 0 0.0002536458485631923 0.10235185605031422 0 0.0002536458485631923 0.10235185605031422 0 0.0004192715552389538 0.10270680775451656 0 -0.00022912846121519 0.099134395332596728 0 0.001314402546697326 0.09799581136737899 0 0.0012721229715057657 0.10034459534296378 0 -0.00016387891689321747 0.10016281271355346 0 0.0012721229715057657 0.10034459534296378 0 -0.00053487395790181185 0.1022176272731348 0 -0.00016387891689321747 0.10016281271355346 0 -0.00022912846121519 0.099134395332596728 0 0.0012721229715057657 0.10034459534296378 0 1.2767442960747345e-07 0.10500014035627971 0 0.0001323200521026078 0.10507716807910746 0 -1.1665345701484086e-07 0.10499992006811823 0 0.0001323200521026078 0.10507716807910746 0 0.00011711228398396421 0.10479858119797412 0 0.00034922725809247981 0.10429081829293069 0 -1.1665345701484086e-07 0.10499992006811823 0 0.00011711228398396421 0.10479858119797412 0 0.00015777793428576779 0.10475823321380508 0 0.0001323200521026078 0.10507716807910746 0 -1.1665345701484086e-07 0.10499992006811823 0 0.00011711228398396421 0.10479858119797412 0 -1.1665345701484086e-07 0.10499992006811823 0 4.7916618791717464e-07 0.1049994758613437 0 0.00015777793428576779 0.10475823321380508 0 4.7916618791717464e-07 0.1049994758613437 0 0.00015777793428576779 0.10475823321380508 0 0.00039212744020122094 0.10491781285252189 0 0.00011711228398396421 0.10479858119797412 0 0.00015777793428576779 0.10475823321380508 0 0.00034922725809247981 0.10429081829293069 0 0.00015777793428576779 0.10475823321380508 0 0.00039212744020122094 0.10491781285252189 0 0.00034922725809247981 0.10429081829293069 0 0.00012517726533025231 0.10190673909944739 0 0.00086150251489049753 0.10229600966495253 0 0.00014863262729733948 0.099994599581345781 0 -0.0001136327751630397 0.1034973295283126 0 -0.00043361216999056041 0.10209753147506256 0 0.00039212744020122094 0.10491781285252189 0 0.00034922725809247981 0.10429081829293069 0 -0.00053487395790181185 0.1022176272731348 0 0.00012517726533025231 0.10190673909944739 0 0.00086150251489049753 0.10229600966495253 0 0.00038768655257950617 0.10274219691902531 0 0.0004192715552389538 0.10270680775451656 0 0.00041832682927238037 0.10328937021472213 0 0.0012721229715057657 0.10034459534296378 0 0.00034922725809247981 0.10429081829293069 0 -0.00053487395790181185 0.1022176272731348 0 -0.00069455847600616478 0.10138458224749727 0 -0.00043361216999056041 0.10209753147506256 0 -0.00075253375900276363 0.099331302857997933 0 -0.00046685757675915253 0.099617927287058552 0 0.00014863262729733948 0.099994599581345781 0 -0.00046685757675915253 0.099617927287058552 0 0.00014863262729733948 0.099994599581345781 0 -0.00029238728368848261 0.10083756098043875 0 -0.00027959537752341243 0.098627880813666302 0 -0.00081481874815447482 0.099342437575385911 0 -0.00056036208224621528 0.099243716158786938 0 -0.0012715122488578155 0.098770092679491259 0 -0.00027959537752341243 0.098627880813666302 0 -0.00081481874815447482 0.099342437575385911 0 -0.00046685757675915253 0.099617927287058552 0 -0.00081481874815447482 0.099342437575385911 0 -0.00056036208224621528 0.099243716158786938 0 -0.00046685757675915253 0.099617927287058552 0 -0.00081481874815447482 0.099342437575385911 0 -0.00079193184539373197 0.10058166684143689 0 -0.0014495049390167972 0.099890566315790033 0 -0.00081481874815447482 0.099342437575385911 0 -0.00079193184539373197 0.10058166684143689 0 -0.00079193184539373197 0.10058166684143689 0 -0.00042719723084843258 0.10195698725522999 0 -0.0013574018774285546 0.1015221644175667 0 -0.0014495049390167972 0.099890566315790033 0 -0.00079193184539373197 0.10058166684143689 0 -0.0013574018774285546 0.1015221644175667 0 0.00012517726533025231 0.10190673909944739 0 0.00014863262729733948 0.099994599581345781 0 -0.00029238728368848261 0.10083756098043875 0 -0.00046685757675915253 0.099617927287058552 0 -0.00079193184539373197 0.10058166684143689 0 -0.00029238728368848261 0.10083756098043875 0 -0.00079193184539373197 0.10058166684143689 0 -0.00029238728368848261 0.10083756098043875 0 -0.00042719723084843258 0.10195698725522999 0 0.00012517726533025231 0.10190673909944739 0 -0.00029238728368848261 0.10083756098043875 0 -0.00042719723084843258 0.10195698725522999 0 0.00012517726533025231 0.10190673909944739 0 -0.00042719723084843258 0.10195698725522999 0 0.00015622312883355164 0.10319902080436048 0 -0.00042719723084843258 0.10195698725522999 0 -0.00048409822774855962 0.10290660479052659 0 0.00015622312883355164 0.10319902080436048 0 -0.00042719723084843258 0.10195698725522999 0 -0.0013574018774285546 0.1015221644175667 0 -0.00048409822774855962 0.10290660479052659 0 -0.0013574018774285546 0.1015221644175667 0 -0.00090629160010281026 0.10341320561358083 0 -0.00048409822774855962 0.10290660479052659 0 -0.00090629160010281026 0.10341320561358083 0 -0.00048409822774855962 0.10290660479052659 0 -1.4165654419936722e-05 0.10391356214378518 0 -0.00048409822774855962 0.10290660479052659 0 -1.4165654419936722e-05 0.10391356214378518 0 0.00015622312883355164 0.10319902080436048 0 -1.4165654419936722e-05 0.10391356214378518 0 0.0002870321168937314 0.10435188823080889 0 0.00015622312883355164 0.10319902080436048 0 0.0002870321168937314 0.10435188823080889 0 0.00015622312883355164 0.10319902080436048 0 0.00038084364263506784 0.10361736173192772 0 -1.2714670391803652e-07 0.10500016774276 0 0.0002870321168937314 0.10435188823080889 0 2.1911852058469219e-06 0.1049962999801658 0 0.0002870321168937314 0.10435188823080889 0 2.1911852058469219e-06 0.1049962999801658 0 0.00038084364263506784 0.10361736173192772 0 -0.0001136327751630397 0.1034973295283126 0 4.1490914104525634e-07 0.10499754796025311 0 0.00086150251489049753 0.10229600966495253 0 2.1911852058469219e-06 0.1049962999801658 0 0.00038084364263506784 0.10361736173192772 0 4.7916618791717464e-07 0.1049994758613437 0 0.00039212744020122094 0.10491781285252189 0 -1.5439809132472153e-07 0.10499993061839098 0 0.00086150251489049753 0.10229600966495253 0 0.00038768655257950617 0.10274219691902531 0 0.00038084364263506784 0.10361736173192772 0 0.00012517726533025231 0.10190673909944739 0 0.00038768655257950617 0.10274219691902531 0 0.00015622312883355164 0.10319902080436048 0 0.00038768655257950617 0.10274219691902531 0 0.00015622312883355164 0.10319902080436048 0 0.00038084364263506784 0.10361736173192772 0 -0.014938267230924602 0.044665065292476692 0 -0.013757424110479258 0.042621555236641136 0 -0.021489230873798254 0.063336757677484479 0 -0.021430828299014638 0.063761708793001651 0 -0.02234293916664953 0.066518229378801502 0 -0.021430828299014638 0.063761708793001651 0 -0.02234293916664953 0.066518229378801502 0 -0.021056280998111489 0.064900804135350709 0 -0.012077273589091683 0.023192004786304093 0 -0.0059094621512548393 0.02124466029088452 0 -0.0092519741827233448 0.016537080115830077 0 -0.0059094621512548393 0.02124466029088452 0 -0.005987012088529922 0.027528864268089349 0 -0.00019580499674853362 0.022157693119107102 0 -0.0092519741827233448 0.016537080115830077 0 -0.0029426514281038776 0.016199774930727391 0 -0.0049935664083636394 0.01272603503294433 0 -0.0059094621512548393 0.02124466029088452 0 -0.0024920440765361135 0.019332588921638364 0 -0.0029426514281038776 0.016199774930727391 0 -0.0059094621512548393 0.02124466029088452 0 -0.0092519741827233448 0.016537080115830077 0 -0.0029426514281038776 0.016199774930727391 0 -0.02234293916664953 0.066518229378801502 0 -0.020606062708196232 0.065608074857991985 0 -0.021056280998111489 0.064900804135350709 0 -0.02234293916664953 0.066518229378801502 0 -0.020606062708196232 0.065608074857991985 0 -0.021076567652691745 0.067337089872309325 0 -0.020606062708196232 0.065608074857991985 0 -0.018285673913117466 0.064891502944020643 0 -0.021076567652691745 0.067337089872309325 0 -0.019028350157166203 0.063873359837765084 0 -0.020843834762316694 0.063166830012710742 0 -0.017949550324652477 0.066598492111308888 0 -0.017179120494436134 0.070951713826027288 0 -0.021282479068800118 0.071024048246014951 0 -0.017949550324652477 0.066598492111308888 0 -0.017179120494436134 0.070951713826027288 0 -0.014120877601592131 0.06845530662460414 0 -0.017949550324652477 0.066598492111308888 0 -0.014120877601592131 0.06845530662460414 0 -0.014192079680049159 0.061497241745578586 0 -0.019028350157166203 0.063873359837765084 0 -0.017175809944007216 0.062505899332524179 0 -0.018285673913117466 0.064891502944020643 0 -0.019800002100771132 0.063015631121819696 0 -0.018076745186035432 0.061475054952644034 0 -0.021430828299014638 0.063761708793001651 0 -0.021056280998111489 0.064900804135350709 0 -0.020616799860373514 0.064052260953197798 0 -0.020606062708196232 0.065608074857991985 0 -0.020092044045353707 0.064524283389811268 0 -0.021056280998111489 0.064900804135350709 0 -0.020092044045353707 0.064524283389811268 0 -0.021056280998111489 0.064900804135350709 0 -0.020616799860373514 0.064052260953197798 0 -0.020606062708196232 0.065608074857991985 0 -0.018285673913117466 0.064891502944020643 0 -0.020092044045353707 0.064524283389811268 0 -0.018285673913117466 0.064891502944020643 0 -0.020092044045353707 0.064524283389811268 0 -0.019800002100771132 0.063015631121819696 0 -0.020092044045353707 0.064524283389811268 0 -0.019800002100771132 0.063015631121819696 0 -0.020616799860373514 0.064052260953197798 0 -0.021430828299014638 0.063761708793001651 0 -0.019800002100771132 0.063015631121819696 0 -0.020616799860373514 0.064052260953197798 0 -0.019800002100771132 0.063015631121819696 0 -0.018076745186035432 0.061475054952644034 0 -0.020470487902554815 0.058862019210305837 0 -0.021430828299014638 0.063761708793001651 0 -0.019800002100771132 0.063015631121819696 0 -0.020470487902554815 0.058862019210305837 0 -0.021489230873798254 0.063336757677484479 0 -0.021430828299014638 0.063761708793001651 0 -0.020232551110866224 0.059717063275817883 0 -0.019080599777805393 0.0578347716504495 0 -0.015797864239097095 0.049036008147068683 0 -0.014938267230924602 0.044665065292476692 0 -0.015797864239097095 0.049036008147068683 0 -0.018285673913117466 0.064891502944020643 0 -0.018076745186035432 0.061475054952644034 0 -0.014192079680049159 0.061497241745578586 0 -0.018076745186035432 0.061475054952644034 0 -0.016970024853308081 0.058295369384933855 0 -0.014192079680049159 0.061497241745578586 0 -0.018076745186035432 0.061475054952644034 0 -0.016970024853308081 0.058295369384933855 0 -0.020470487902554815 0.058862019210305837 0 -0.016970024853308081 0.058295369384933855 0 -0.01340170637388515 0.057614016288064021 0 -0.015603990053843463 0.054543755541407425 0 -0.016970024853308081 0.058295369384933855 0 -0.020470487902554815 0.058862019210305837 0 -0.019659681777261902 0.055089063798229053 0 -0.015797864239097095 0.049036008147068683 0 -0.012144491933794934 0.043215848339625815 0 -0.014893276258489135 0.029963075731941406 0 -0.011896597841737345 0.032902777699578084 0 -0.016509612579787725 0.034489597525489066 0 -0.011896597841737345 0.032902777699578084 0 -0.010887790280692007 0.027954249877082657 0 -0.005987012088529922 0.027528864268089349 0 -0.014893276258489135 0.029963075731941406 0 -0.011896597841737345 0.032902777699578084 0 -0.010887790280692007 0.027954249877082657 0 -0.0078876899951804327 0.034936268503367486 0 -0.0061119960450551469 0.030004892322740482 0 -0.012077273589091683 0.023192004786304093 0 -0.010887790280692007 0.027954249877082657 0 -0.005987012088529922 0.027528864268089349 0 -0.012077273589091683 0.023192004786304093 0 -0.014893276258489135 0.029963075731941406 0 -0.010887790280692007 0.027954249877082657 0 -0.012077273589091683 0.023192004786304093 0 -0.0059094621512548393 0.02124466029088452 0 -0.005987012088529922 0.027528864268089349 0 -0.0035506634760124806 0.038040738450245151 0 -0.004742621128226549 0.038804187500392787 0 -0.0047347409782356751 0.037877679235043524 0 -0.004742621128226549 0.038804187500392787 0 -0.0055275191467646801 0.038266871067257416 0 -0.0047347409782356751 0.037877679235043524 0 -0.0056855814343340794 0.037262813103143506 0 -0.0059022337364099814 0.037585318202576955 0 -0.0057902964074367895 0.034480519798227201 0 0.00059604900044299598 0.00051497989254561667 0 0.00078053509599486186 0.00096785492901282021 0 0.00050575923120935694 0.0011601211860139818 0 0.00078053509599486186 0.00096785492901282021 0 0.00067673876594465175 0.00052840193595222746 0 0.0011334527761482 0.0013684187547392153 0 0.00067673876594465175 0.00052840193595222746 0 -0.0015465863522792396 -0.00097305656808310381 0 -0.0010509934959453378 -0.004720177128484257 0 0.00067673876594465175 0.00052840193595222746 0 -0.00074788671611930417 -0.005075057901089885 0 -0.0010509934959453378 -0.004720177128484257 0 0.00051819351147659558 -0.0010406747881536609 0 0.00028272479734859859 -0.0017417968858348505 0 0.00078053509599486186 0.00096785492901282021 0 0.00067924325282076731 0.0012540970190212124 0 0.00050575923120935694 0.0011601211860139818 0 0.00078053509599486186 0.00096785492901282021 0 0.00085852111736411387 0.0012496945494637952 0 0.00067924325282076731 0.0012540970190212124 0 0.00059604900044299598 0.00051497989254561667 0 0.00078053509599486186 0.00096785492901282021 0 0.00067673876594465175 0.00052840193595222746 0 0.00067673876594465175 0.00052840193595222746 0 -0.0015465863522792396 -0.00097305656808310381 0 -0.00089260467197224702 0.0023110399600134472 0 0.00067673876594465175 0.00052840193595222746 0 0.00083450014082827543 0.0016174635385639506 0 -0.00089260467197224702 0.0023110399600134472 0 -0.004742621128226549 0.038804187500392787 0 -0.0056560475646250706 0.039465294936818877 0 -0.0059225174404657771 0.03986556719173133 0 -0.0059022337364099814 0.037585318202576955 0 -0.0056560475646250706 0.039465294936818877 0 -0.0059225174404657771 0.03986556719173133 0 -0.0042380753031443785 0.033453990637405 0 -0.0046020812859517545 0.036489706307905857 0 -0.0061119960450551469 0.030004892322740482 0 -0.0011247212012540277 0.019728681992795486 0 -0.004742621128226549 0.038804187500392787 0 -0.0055275191467646801 0.038266871067257416 0 -0.0056560475646250706 0.039465294936818877 0 -0.0021112353696057366 0.019581221675648162 0 -0.0011247212012540277 0.019728681992795486 0 0.00059604900044299598 0.00051497989254561667 0 0.00083450014082827543 0.0016174635385639506 0 0.0014862798748979554 0.0023033147585597756 0 0.00059604900044299598 0.00051497989254561667 0 0.00067673876594465175 0.00052840193595222746 0 0.00083450014082827543 0.0016174635385639506 0 -0.0056855814343340794 0.037262813103143506 0 -0.0059022337364099814 0.037585318202576955 0 -0.0056560475646250706 0.039465294936818877 0 -0.001507535348380578 -0.004943135087558905 0 -0.001348104042792913 -0.0051333002548438903 0 -0.0018333960690978151 -0.005263500466188481 0 -0.0031911110069040389 -0.0028599795787199143 0 -0.0022616143445709919 -0.0038233830464377561 0 -0.0015465863522792396 -0.00097305656808310381 0 -0.0043233580558294316 -5.5441695134541149e-05 0 -0.0010509934959453378 -0.004720177128484257 0 -0.001507535348380578 -0.004943135087558905 0 -0.001348104042792913 -0.0051333002548438903 0 -0.0010509934959453378 -0.004720177128484257 0 -0.0015465863522792396 -0.00097305656808310381 0 -0.0043233580558294316 -5.5441695134541149e-05 0 -0.0033483736329420104 0.0022893006590695079 0 -0.0015465863522792396 -0.00097305656808310381 0 -0.0033483736329420104 0.0022893006590695079 0 -0.00089260467197224702 0.0023110399600134472 0 -0.0043233580558294316 -5.5441695134541149e-05 0 -0.0033483736329420104 0.0022893006590695079 0 -0.0062925648104028122 0.0032415744001342856 0 -0.0031911110069040389 -0.0028599795787199143 0 -0.0047883578497974243 -0.0015681462859004254 0 -0.0033483736329420104 0.0022893006590695079 0 -0.0025519326065031292 0.0046519068521140806 0 -0.0062925648104028122 0.0032415744001342856 0 -0.0033483736329420104 0.0022893006590695079 0 -0.0025519326065031292 0.0046519068521140806 0 -0.00089260467197224702 0.0023110399600134472 0 -0.0025519326065031292 0.0046519068521140806 0 -0.00089260467197224702 0.0023110399600134472 0 -0.00045093760643918966 0.0040961086472924898 0 -0.0025519326065031292 0.0046519068521140806 0 -0.00059305702315817777 0.0060597763549719835 0 -0.0019213600723908468 0.0073154018976310962 0 -0.0025519326065031292 0.0046519068521140806 0 -0.0044242554437500022 0.006610732361242439 0 -0.0019213600723908468 0.0073154018976310962 0 -0.0025519326065031292 0.0046519068521140806 0 -0.00045093760643918966 0.0040961086472924898 0 -0.00059305702315817777 0.0060597763549719835 0 -0.0025519326065031292 0.0046519068521140806 0 -0.0044242554437500022 0.006610732361242439 0 -0.0062925648104028122 0.0032415744001342856 0 -0.0059094621512548393 0.02124466029088452 0 -0.0024920440765361135 0.019332588921638364 0 -0.00019580499674853362 0.022157693119107102 0 0.0016405409631561549 0.0023810968715864212 0 0.0012993611958198284 0.0026878910185494918 0 0.0012137705170374199 0.0061318011719923579 0 0.00083450014082827543 0.0016174635385639506 0 0.0014862798748979554 0.0023033147585597756 0 0.0012993611958198284 0.0026878910185494918 0 -0.0011247212012540277 0.019728681992795486 0 -0.0010181202113421898 0.01958204977690061 0 0.00083450014082827543 0.0016174635385639506 0 0.00029578408954533366 0.0028742526437031488 0 -0.00089260467197224702 0.0023110399600134472 0 0.00083450014082827543 0.0016174635385639506 0 0.0012993611958198284 0.0026878910185494918 0 0.00029578408954533366 0.0028742526437031488 0 0.00029578408954533366 0.0028742526437031488 0 -0.00089260467197224702 0.0023110399600134472 0 -0.00045093760643918966 0.0040961086472924898 0 0.0012993611958198284 0.0026878910185494918 0 0.00029578408954533366 0.0028742526437031488 0 0.00043466235076772253 0.0036632633977217791 0 0.0012993611958198284 0.0026878910185494918 0 0.00043466235076772253 0.0036632633977217791 0 0.00049016969684983038 0.0047720010501066104 0 0.00029578408954533366 0.0028742526437031488 0 0.00043466235076772253 0.0036632633977217791 0 -0.00045093760643918966 0.0040961086472924898 0 0.0012993611958198284 0.0026878910185494918 0 0.00049016969684983038 0.0047720010501066104 0 0.0012137705170374199 0.0061318011719923579 0 0.00043466235076772253 0.0036632633977217791 0 0.00049016969684983038 0.0047720010501066104 0 -0.00045093760643918966 0.0040961086472924898 0 0.00049016969684983038 0.0047720010501066104 0 -0.00045093760643918966 0.0040961086472924898 0 -0.00059305702315817777 0.0060597763549719835 0 0.00049016969684983038 0.0047720010501066104 0 -0.00059305702315817777 0.0060597763549719835 0 0.0012137705170374199 0.0061318011719923579 0 -0.0011247212012540277 0.019728681992795486 0 -3.3628719637762613e-05 0.012907043158203348 0 -0.0024920440765361135 0.019332588921638364 0 -0.00019580499674853362 0.022157693119107102 0 0.00034756957426387451 0.015364339106288906 0 -0.0024920440765361135 0.019332588921638364 0 0.00034756957426387451 0.015364339106288906 0 -0.0029426514281038776 0.016199774930727391 0 0.00034756957426387451 0.015364339106288906 0 -0.0029426514281038776 0.016199774930727391 0 -0.0018696211700408001 0.012851466955363933 0 -0.0029426514281038776 0.016199774930727391 0 -0.0018696211700408001 0.012851466955363933 0 -0.0040410870916575397 0.013134654062885637 0 0.00034756957426387451 0.015364339106288906 0 -0.0018696211700408001 0.012851466955363933 0 7.4163449272027175e-05 0.0098225479403554264 0 -0.0018696211700408001 0.012851466955363933 0 -0.0019514188723419948 0.010796056532170795 0 -0.0032038049881500503 0.011538687127134283 0 0.0012137705170374199 0.0061318011719923579 0 -0.00054298527159556164 0.0079378257801615212 0 7.4163449272027175e-05 0.0098225479403554264 0 -3.3628719637762613e-05 0.012907043158203348 0 0.00016160491589781373 0.01137853558984653 0 -0.00054298527159556164 0.0079378257801615212 0 -0.0010041344815197803 0.0096007539409830259 0 -0.0019213600723908468 0.0073154018976310962 0 -0.00059305702315817777 0.0060597763549719835 0 0.0012137705170374199 0.0061318011719923579 0 -0.00054298527159556164 0.0079378257801615212 0 -0.00059305702315817777 0.0060597763549719835 0 -0.00054298527159556164 0.0079378257801615212 0 -0.0019213600723908468 0.0073154018976310962 0 -0.0010041344815197803 0.0096007539409830259 0 -0.0023574495207416154 0.010074862149680197 0 -0.00020646089165750971 0.009661544222181101 0 -0.00054298527159556164 0.0079378257801615212 0 7.4163449272027175e-05 0.0098225479403554264 0 -0.0010041344815197803 0.0096007539409830259 0 -0.0010041344815197803 0.0096007539409830259 0 -0.00025678541742689648 0.0097246687043157816 0 -0.00020646089165750971 0.009661544222181101 0 7.4163449272027175e-05 0.0098225479403554264 0 -0.0010041344815197803 0.0096007539409830259 0 -0.00025678541742689648 0.0097246687043157816 0 -0.00025678541742689648 0.0097246687043157816 0 -0.0013241888675131958 0.0094179756313714381 0 -0.00020646089165750971 0.009661544222181101 0 7.4163449272027175e-05 0.0098225479403554264 0 -0.00025678541742689648 0.0097246687043157816 0 -0.0013241888675131958 0.0094179756313714381 0 7.4163449272027175e-05 0.0098225479403554264 0 -0.0013241888675131958 0.0094179756313714381 0 -0.0019514188723419948 0.010796056532170795 0 -0.0013241888675131958 0.0094179756313714381 0 -0.0026237895866758703 0.010021788596319907 0 -0.0019514188723419948 0.010796056532170795 0 -0.0013241888675131958 0.0094179756313714381 0 -0.0026237895866758703 0.010021788596319907 0 -0.0022375592225837033 0.0090854132835959719 0 -0.0026237895866758703 0.010021788596319907 0 -0.0019514188723419948 0.010796056532170795 0 -0.0032038049881500503 0.011538687127134283 0 -0.0018696211700408001 0.012851466955363933 0 7.4163449272027175e-05 0.0098225479403554264 0 -0.0019514188723419948 0.010796056532170795 0 -0.0044242554437500022 0.006610732361242439 0 -0.0031331333570740953 0.0084144356123353123 0 -0.0051805549444525149 0.0091598250937514024 0 -0.0044242554437500022 0.006610732361242439 0 -0.0019213600723908468 0.0073154018976310962 0 -0.0031331333570740953 0.0084144356123353123 0 -0.0010041344815197803 0.0096007539409830259 0 -0.0031331333570740953 0.0084144356123353123 0 -0.0023574495207416154 0.010074862149680197 0 -0.0010041344815197803 0.0096007539409830259 0 -0.0019213600723908468 0.0073154018976310962 0 -0.0031331333570740953 0.0084144356123353123 0 -0.0031331333570740953 0.0084144356123353123 0 -0.0023574495207416154 0.010074862149680197 0 -0.0051805549444525149 0.0091598250937514024 0 -0.0035341425610890959 0.0098130223391256228 0 -0.0051805549444525149 0.0091598250937514024 0 -0.0045804891752101668 0.010423943975010072 0 -0.0052155392839457644 0.017662251602125867 0 -0.005606687660184493 0.016248286204419201 0 -0.0051805549444525149 0.0091598250937514024 0 -0.0045804891752101668 0.010423943975010072 0 -0.0057876802101115288 0.011159685122414819 0 -0.0045804891752101668 0.010423943975010072 0 -0.0046226106841786019 0.011509614630577271 0 -0.0057876802101115288 0.011159685122414819 0 -0.0045804891752101668 0.010423943975010072 0 -0.0036284100207335003 0.011064777497217659 0 -0.0046226106841786019 0.011509614630577271 0 -0.0052155392839457644 0.017662251602125867 0 -0.0051074798760602658 0.02205733917969999 0 -0.0035341425610890959 0.0098130223391256228 0 -0.0045804891752101668 0.010423943975010072 0 -0.0036284100207335003 0.011064777497217659 0 -0.0035341425610890959 0.0098130223391256228 0 -0.0036284100207335003 0.011064777497217659 0 -0.0024387209566928019 0.010771302391409767 0 -0.0036284100207335003 0.011064777497217659 0 -0.002852759581836162 0.011331476874865822 0 -0.0024387209566928019 0.010771302391409767 0 -0.0036284100207335003 0.011064777497217659 0 -0.002852759581836162 0.011331476874865822 0 -0.0029647147983172741 0.011937096294694376 0 -0.002852759581836162 0.011331476874865822 0 -0.0029647147983172741 0.011937096294694376 0 -0.0023819612744558839 0.011559079971192883 0 -0.0030856290502461756 0.012971200102398234 0 -0.0029647147983172741 0.011937096294694376 0 -0.0039816194455420829 0.012399697376171226 0 -0.0030856290502461756 0.012971200102398234 0 -0.0029647147983172741 0.011937096294694376 0 -0.0022526602783532745 0.012191609933505002 0 -0.0036284100207335003 0.011064777497217659 0 -0.0029647147983172741 0.011937096294694376 0 -0.0039816194455420829 0.012399697376171226 0 -0.0036284100207335003 0.011064777497217659 0 -0.0039816194455420829 0.012399697376171226 0 -0.0046226106841786019 0.011509614630577271 0 -0.0039816194455420829 0.012399697376171226 0 -0.0046226106841786019 0.011509614630577271 0 -0.0051701707386932654 0.012496190877601673 0 -0.0046226106841786019 0.011509614630577271 0 -0.0051701707386932654 0.012496190877601673 0 -0.0057876802101115288 0.011159685122414819 0 -0.0013241888675131958 0.0094179756313714381 0 -0.0020964319732137103 0.0081864347246502801 0 -0.00020646089165750971 0.009661544222181101 0 -0.00039960191256197393 0.01134842346500158 0 -0.00014239574439446138 0.011052485412486421 0 -0.0018314829909496038 0.010435149944663659 0 -0.0059147556414533885 0.030947705865978545 0 -0.0051074798760602658 0.02205733917969999 0 -0.010098690796442975 0.032209673274953179 0 -0.0047155641165334723 0.033405915303333991 0 -0.0059500691683015078 0.027331865781578299 0 -0.0049542771403936429 0.029265402730417681 0 -0.006055480027252755 0.031218975056595929 0 -0.006055480027252755 0.031218975056595929 0 -0.0065391350324333292 0.032397676424548494 0 -0.0047155641165334723 0.033405915303333991 0 -0.0059500691683015078 0.027331865781578299 0 -0.0026316874926462187 0.028341076863506957 0 -0.0059147556414533885 0.030947705865978545 0 -0.0065391350324333292 0.032397676424548494 0 -0.0049542771403936429 0.029265402730417681 0 -0.0059147556414533885 0.030947705865978545 0 -0.0020964319732137103 0.0081864347246502801 0 -0.0022375592225837033 0.0090854132835959719 0 -0.0029345069610585426 0.0088037570234762441 0 -0.0013241888675131958 0.0094179756313714381 0 -0.0020964319732137103 0.0081864347246502801 0 -0.0022375592225837033 0.0090854132835959719 0 -0.0035341425610890959 0.0098130223391256228 0 -0.0018314829909496038 0.010435149944663659 0 -0.0024387209566928019 0.010771302391409767 0 -0.00039960191256197393 0.01134842346500158 0 -0.0018314829909496038 0.010435149944663659 0 -0.0024387209566928019 0.010771302391409767 0 -0.00037209429908615217 0.011275201021476999 0 -0.0024387209566928019 0.010771302391409767 0 -0.0015421040280662018 0.01165475927646935 0 -0.0049542771403936429 0.029265402730417681 0 -0.0045967628749799061 0.025437924361692756 0 -0.002852759581836162 0.011331476874865822 0 -0.0024387209566928019 0.010771302391409767 0 -0.0023819612744558839 0.011559079971192883 0 -0.0024387209566928019 0.010771302391409767 0 -0.0015421040280662018 0.01165475927646935 0 -0.0023819612744558839 0.011559079971192883 0 -0.0029647147983172741 0.011937096294694376 0 -0.0023819612744558839 0.011559079971192883 0 -0.0022526602783532745 0.012191609933505002 0 -0.0015421040280662018 0.01165475927646935 0 -0.0023819612744558839 0.011559079971192883 0 -0.0022526602783532745 0.012191609933505002 0 -0.0017426033669202053 0.012879415965276151 0 -0.0030856290502461756 0.012971200102398234 0 -0.0022526602783532745 0.012191609933505002 0 -0.0017426033669202053 0.012879415965276151 0 -0.0015421040280662018 0.01165475927646935 0 -0.0022526602783532745 0.012191609933505002 0 -0.0017426033669202053 0.012879415965276151 0 -0.00037209429908615217 0.011275201021476999 0 -0.0015421040280662018 0.01165475927646935 0 -0.0017099753502186042 0.019470013691734379 0 -0.0049542771403936429 0.029265402730417681 0 -0.0041353670066200986 0.016382296201481097 0 -0.0039529422777693224 0.016407829470597188 0 -0.0042459567120141468 0.016855533758890179 0 -0.0052262044482852647 0.03585059109063924 0 -0.0021924732844000178 0.035443983291188093 0 -0.0035805416075686898 0.038795151463706191 0 -0.003722687009837519 0.026799084679398164 0 -0.006055480027252755 0.031218975056595929 0 -0.0041353670066200986 0.016382296201481097 0 -0.0042459567120141468 0.016855533758890179 0 -0.0043298102654168915 0.01684151873704513 0 -0.0052262044482852647 0.03585059109063924 0 -0.0035805416075686898 0.038795151463706191 0 -0.0072638273691399769 0.037995990184120053 0 -0.006055480027252755 0.031218975056595929 0 -0.0086806277595380468 0.045651977591374474 0 -0.0088863824189272904 0.038470215408299945 0 -0.0068303624690373597 0.038740184095665549 0 -0.0067364738036769459 0.038978870775569385 0 -0.008202362013898807 0.03564625142397454 0 -0.0052262044482852647 0.03585059109063924 0 -0.0072638273691399769 0.037995990184120053 0 -0.0073621798298055237 0.047057416610621856 0 -0.0086806277595380468 0.045651977591374474 0 -0.0064498530694457063 0.051762144083574366 0 -0.0057427888754243411 0.048450154195674958 0 -0.0049326427126616191 0.049891682264757403 0 -0.0064498530694457063 0.051762144083574366 0 -0.007970894993327966 0.047952739463189752 0 -0.0057427888754243411 0.048450154195674958 0 -0.0073621798298055237 0.047057416610621856 0 -0.0094044083714910076 0.052487481759836141 0 -0.008948112287701775 0.045442534349859752 0 -0.0086806277595380468 0.045651977591374474 0 -0.0086806277595380468 0.045651977591374474 0 -0.0095803616437094806 0.051588103551328486 0 -0.008948112287701775 0.045442534349859752 0 -0.0095981937452038046 0.05146506400547253 0 -0.0092893309496586314 0.048976126391698731 0 -0.0093359565810238396 0.048979156968037355 0 -0.0093422276813873613 0.048968557709509662 0 -0.0092832090382956121 0.048990959410919188 0 -0.0092893309496586314 0.048976126391698731 0 -0.0093359565810238396 0.048979156968037355 0 -0.0095981937452038046 0.05146506400547253 0 -0.0095803616437094806 0.051588103551328486 0 -0.008948112287701775 0.045442534349859752 0 -0.010691893644395932 0.042814088789559258 0 -0.011227328995448888 0.049683567540235667 0 -0.011082660482505153 0.047278901423633959 0 -0.013178201408851186 0.044822364136194399 0 -0.021518789607722185 0.080300561562473519 0 -0.023034933740269527 0.077684509423949971 0 -0.021205218686880929 0.077712269897541514 0 -0.0095981937452038046 0.05146506400547253 0 -0.010579413584585232 0.052021278130413517 0 -0.011227328995448888 0.049683567540235667 0 -0.0094155772358409679 0.050234524836282275 0 -0.011082660482505153 0.047278901423633959 0 -0.023034933740269527 0.077684509423949971 0 -0.021279854427806416 0.075968950466014151 0 -0.021205218686880929 0.077712269897541514 0 -0.008948112287701775 0.045442534349859752 0 -0.0065391350324333292 0.032397676424548494 0 -0.0088863824189272904 0.038470215408299945 0 -0.0068303624690373597 0.038740184095665549 0 -0.0087459278298804705 0.038129184494565448 0 -0.0092844833780223925 0.040317739230829965 0 -0.012412527618089114 0.039353869624083708 0 -0.0119851476114347 0.038310210360729839 0 -0.0092844833780223925 0.040317739230829965 0 -0.0119851476114347 0.038310210360729839 0 -0.010693922772415869 0.03679231600354875 0 -0.0082452939955788666 0.031830126587035115 0 -0.007918610056279857 0.031929997647900728 0 -0.0075356360339263852 0.030996251799932952 0 -0.0065391350324333292 0.032397676424548494 0 -0.007291602974051346 0.034025906332159982 0 -0.0059147556414533885 0.030947705865978545 0 -0.007291602974051346 0.034025906332159982 0 -0.007291602974051346 0.034025906332159982 0 -0.010691893644395932 0.042814088789559258 0 -0.007291602974051346 0.034025906332159982 0 -0.01106340153832306 0.039500272696826121 0 -0.0026237895866758703 0.010021788596319907 0 -0.0022375592225837033 0.0090854132835959719 0 -0.0029345069610585426 0.0088037570234762441 0 -0.0026237895866758703 0.010021788596319907 0 -0.0029345069610585426 0.0088037570234762441 0 -0.0043361087485915203 0.010913108389483233 0 -0.0026237895866758703 0.010021788596319907 0 -0.0043361087485915203 0.010913108389483233 0 -0.0032038049881500503 0.011538687127134283 0 -0.011804354386132613 0.041964102933318585 0 -0.01106340153832306 0.039500272696826121 0 -0.012337734156290824 0.039134659736237629 0 -0.013700312470552138 0.042453847317383858 0 -0.0082494600562100281 0.046405344568237014 0 -0.01106340153832306 0.039500272696826121 0 -0.010691893644395932 0.042814088789559258 0 -0.013700312470552138 0.042453847317383858 0 -0.0082494600562100281 0.046405344568237014 0 -0.010884297447578045 0.049506113098234654 0 -0.011804354386132613 0.041964102933318585 0 -0.012340168021222604 0.046473565251284821 0 -0.0086591171315463476 0.036973635035058135 0 -0.010933008949608733 0.042454669722478612 0 -0.011694585217321642 0.040529537719582731 0 -0.012340168021222604 0.046473565251284821 0 -0.010691893644395932 0.042814088789559258 0 -0.010579413584585232 0.052021278130413517 0 -0.012340168021222604 0.046473565251284821 0 -0.011082660482505153 0.047278901423633959 0 -0.012753062370176139 0.044321286113655822 0 -0.013178201408851186 0.044822364136194399 0 -0.023034933740269527 0.077684509423949971 0 -0.02453789003298534 0.075033020223115546 0 -0.022669022171953532 0.075299851768947448 0 -0.023034933740269527 0.077684509423949971 0 -0.022669022171953532 0.075299851768947448 0 -0.021279854427806416 0.075968950466014151 0 -0.022669022171953532 0.075299851768947448 0 -0.021279854427806416 0.075968950466014151 0 -0.020881923127512282 0.074613720902292235 0 -0.022669022171953532 0.075299851768947448 0 -0.022012526643348525 0.073730433365816778 0 -0.020881923127512282 0.074613720902292235 0 -0.02453789003298534 0.075033020223115546 0 -0.022669022171953532 0.075299851768947448 0 -0.022012526643348525 0.073730433365816778 0 -0.023135639294061379 0.068726865718640173 0 -0.022831460244396119 0.069245386247660926 0 -0.021076567652691745 0.067337089872309325 0 -0.012340168021222604 0.046473565251284821 0 -0.020843834762316694 0.063166830012710742 0 -0.02453789003298534 0.075033020223115546 0 -0.022012526643348525 0.073730433365816778 0 -0.021282479068800118 0.071024048246014951 0 -0.02234293916664953 0.066518229378801502 0 -0.023135639294061379 0.068726865718640173 0 -0.021076567652691745 0.067337089872309325 0 -0.013757424110479258 0.042621555236641136 0 -0.011804354386132613 0.041964102933318585 0 -0.0092519741827233448 0.016537080115830077 0 -0.0064956336335787136 0.010081333482822238 0 -0.0049935664083636394 0.01272603503294433 0 -0.01309237198543067 0.031595381905030105 0 -0.01261465660367889 0.035262298309814061 0 -0.0043361087485915203 0.010913108389483233 0 -0.0040410870916575397 0.013134654062885637 0 -0.0032038049881500503 0.011538687127134283 0 -0.0018696211700408001 0.012851466955363933 0 -0.0040410870916575397 0.013134654062885637 0 -0.0032038049881500503 0.011538687127134283 0 -0.01106340153832306 0.039500272696826121 0 -0.01261465660367889 0.035262298309814061 0 -0.011804354386132613 0.041964102933318585 0 -0.01261465660367889 0.035262298309814061 0 -0.009750336072856608 0.041360938103370389 0 -0.010330399801433776 0.042778356807906016 0 -0.012716785187709714 0.036102378911603623 0 -0.017179120494436134 0.070951713826027288 0 -0.018718930612457978 0.072716553858744482 0 -0.016709561382507399 0.074951554055744427 0 -0.017179120494436134 0.070951713826027288 0 -0.014144458683098686 0.074111376340174631 0 -0.014120877601592131 0.06845530662460414 0 -0.017179120494436134 0.070951713826027288 0 -0.016709561382507399 0.074951554055744427 0 -0.014144458683098686 0.074111376340174631 0 -0.017179120494436134 0.070951713826027288 0 -0.021282479068800118 0.071024048246014951 0 -0.018718930612457978 0.072716553858744482 0 -0.021282479068800118 0.071024048246014951 0 -0.020467113590345479 0.072928045290151927 0 -0.018718930612457978 0.072716553858744482 0 -0.022012526643348525 0.073730433365816778 0 -0.020467113590345479 0.072928045290151927 0 -0.020881923127512282 0.074613720902292235 0 -0.022012526643348525 0.073730433365816778 0 -0.021282479068800118 0.071024048246014951 0 -0.020467113590345479 0.072928045290151927 0 -0.020467113590345479 0.072928045290151927 0 -0.018718930612457978 0.072716553858744482 0 -0.019038339791932615 0.074626165232413638 0 -0.019038339791932615 0.074626165232413638 0 -0.020881923127512282 0.074613720902292235 0 -0.020035854803364034 0.075662002985452281 0 -0.020467113590345479 0.072928045290151927 0 -0.019038339791932615 0.074626165232413638 0 -0.020881923127512282 0.074613720902292235 0 -0.021279854427806416 0.075968950466014151 0 -0.020881923127512282 0.074613720902292235 0 -0.020035854803364034 0.075662002985452281 0 -0.021279854427806416 0.075968950466014151 0 -0.020035854803364034 0.075662002985452281 0 -0.020067281052161441 0.076778318128755782 0 -0.019038339791932615 0.074626165232413638 0 -0.01889719435999862 0.076341465885866655 0 -0.017876543702332888 0.075789290188869027 0 -0.019038339791932615 0.074626165232413638 0 -0.020035854803364034 0.075662002985452281 0 -0.01889719435999862 0.076341465885866655 0 -0.020035854803364034 0.075662002985452281 0 -0.01889719435999862 0.076341465885866655 0 -0.020067281052161441 0.076778318128755782 0 -0.01889719435999862 0.076341465885866655 0 -0.018158940789048998 0.076746925334181385 0 -0.017876543702332888 0.075789290188869027 0 -0.016498409819548858 0.070040563728475891 0 -0.015192595760580355 0.071575265927780185 0 -0.017876543702332888 0.075789290188869027 0 -0.016709561382507399 0.074951554055744427 0 -0.017203685134437052 0.077427933254931677 0 -0.014806796408296288 0.077372560104442878 0 -0.012708363512937552 0.07711558629880505 0 -0.012896123437216167 0.074299842652741602 0 -0.016709561382507399 0.074951554055744427 0 -0.017203685134437052 0.077427933254931677 0 -0.014144458683098686 0.074111376340174631 0 -0.018158940789048998 0.076746925334181385 0 -0.017876543702332888 0.075789290188869027 0 -0.017203685134437052 0.077427933254931677 0 -0.018718930612457978 0.072716553858744482 0 -0.019038339791932615 0.074626165232413638 0 -0.016709561382507399 0.074951554055744427 0 -0.019038339791932615 0.074626165232413638 0 -0.017876543702332888 0.075789290188869027 0 -0.016709561382507399 0.074951554055744427 0 -0.014637942112977448 0.077727934964468282 0 -0.015013078067069936 0.078111199582559798 0 -0.015088751215301054 0.078621622407436809 0 -0.014806796408296288 0.077372560104442878 0 -0.014637942112977448 0.077727934964468282 0 -0.012708363512937552 0.07711558629880505 0 -0.014637942112977448 0.077727934964468282 0 -0.012919618042934075 0.078123163046604049 0 -0.012708363512937552 0.07711558629880505 0 -0.018158940789048998 0.076746925334181385 0 -0.017203685134437052 0.077427933254931677 0 -0.018730159812176943 0.077558319148243432 0 -0.014806796408296288 0.077372560104442878 0 -0.014637942112977448 0.077727934964468282 0 -0.015013078067069936 0.078111199582559798 0 -0.014637942112977448 0.077727934964468282 0 -0.014090637705799451 0.07858374019796055 0 -0.014818400209923517 0.079170161486995461 0 -0.014637942112977448 0.077727934964468282 0 -0.014090637705799451 0.07858374019796055 0 -0.012919618042934075 0.078123163046604049 0 -0.014090637705799451 0.07858374019796055 0 -0.014221352572531503 0.079142520937479505 0 -0.014818400209923517 0.079170161486995461 0 -0.014090637705799451 0.07858374019796055 0 -0.013269460971542073 0.079126781293800866 0 -0.012919618042934075 0.078123163046604049 0 -0.014090637705799451 0.07858374019796055 0 -0.014221352572531503 0.079142520937479505 0 -0.013269460971542073 0.079126781293800866 0 -0.014806796408296288 0.077372560104442878 0 -0.015013078067069936 0.078111199582559798 0 -0.015598356646988115 0.078551422691366238 0 -0.016498409819548858 0.070040563728475891 0 -0.010776263796608038 0.055565927635393531 0 -0.017203685134437052 0.077427933254931677 0 -0.019258801322566715 0.078566699360416964 0 -0.020124504320885028 0.080895143176380885 0 -0.021279854427806416 0.075968950466014151 0 -0.021205218686880929 0.077712269897541514 0 -0.020067281052161441 0.076778318128755782 0 -0.021205218686880929 0.077712269897541514 0 -0.020067281052161441 0.076778318128755782 0 -0.019982197696317806 0.077982379707440513 0 -0.017203685134437052 0.077427933254931677 0 -0.018730159812176943 0.077558319148243432 0 -0.019258801322566715 0.078566699360416964 0 -0.019982197696317806 0.077982379707440513 0 -0.018730159812176943 0.077558319148243432 0 -0.019258801322566715 0.078566699360416964 0 -0.01889719435999862 0.076341465885866655 0 -0.020067281052161441 0.076778318128755782 0 -0.018730159812176943 0.077558319148243432 0 -0.020067281052161441 0.076778318128755782 0 -0.019982197696317806 0.077982379707440513 0 -0.018730159812176943 0.077558319148243432 0 -0.01889719435999862 0.076341465885866655 0 -0.018158940789048998 0.076746925334181385 0 -0.018730159812176943 0.077558319148243432 0 -0.021518789607722185 0.080300561562473519 0 -0.021205218686880929 0.077712269897541514 0 -0.020377717977458878 0.079106688365428182 0 -0.019258801322566715 0.078566699360416964 0 -0.020377717977458878 0.079106688365428182 0 -0.020124504320885028 0.080895143176380885 0 -0.019982197696317806 0.077982379707440513 0 -0.019258801322566715 0.078566699360416964 0 -0.020377717977458878 0.079106688365428182 0 -0.021205218686880929 0.077712269897541514 0 -0.019982197696317806 0.077982379707440513 0 -0.020377717977458878 0.079106688365428182 0 -0.021518789607722185 0.080300561562473519 0 -0.020377717977458878 0.079106688365428182 0 -0.020124504320885028 0.080895143176380885 0 -0.010610992778637036 0.054132568681575746 0 -0.010569171374923188 0.054208395673653667 0 -0.010304563171115945 0.054271104622066205 0 -0.0095981937452038046 0.05146506400547253 0 -0.010776263796608038 0.055565927635393531 0 -0.0095803616437094806 0.051588103551328486 0 -0.010776263796608038 0.055565927635393531 0 -0.0096196067826625868 0.052503377021102124 0 -0.0045229059552990992 0.053637469909517621 0 -0.0071588695084585383 0.056886323230658981 0 -0.015013078067069936 0.078111199582559798 0 -0.015598356646988115 0.078551422691366238 0 -0.015203088797477074 0.078423903117291957 0 -0.015013078067069936 0.078111199582559798 0 -0.015203088797477074 0.078423903117291957 0 -0.015088751215301054 0.078621622407436809 0 -0.015598356646988115 0.078551422691366238 0 -0.015301747705343927 0.078549508506051927 0 -0.015203088797477074 0.078423903117291957 0 -0.010776263796608038 0.055565927635393531 0 -0.0108954042261245 0.055836139330599097 0 -0.015301747705343927 0.078549508506051927 0 -0.015203088797477074 0.078423903117291957 0 -0.015088751215301054 0.078621622407436809 0 -0.010776263796608038 0.055565927635393531 0 -0.01177510533924098 0.06177371008227734 0 -0.0087125166798392578 0.054744105396520408 0 -0.0066789793954486259 0.055200332458905127 0 -0.0094063401782590889 0.055599346639722838 0 -0.0079027656511952531 0.058266777580979749 0 -0.0066789793954486259 0.055200332458905127 0 -0.0094063401782590889 0.055599346639722838 0 -0.015570763532704085 0.078510669397034563 0 -0.015301747705343927 0.078549508506051927 0 -0.015088751215301054 0.078621622407436809 0 -0.010776263796608038 0.055565927635393531 0 -0.0094044083714910076 0.052487481759836141 0 -0.0095803616437094806 0.051588103551328486 0 -0.0094044083714910076 0.052487481759836141 0 -0.014637942112977448 0.077727934964468282 0 -0.015642759256530171 0.080445066218302899 0 -0.014818400209923517 0.079170161486995461 0 -0.013925986708137219 0.068306954263342573 0 -0.01177510533924098 0.06177371008227734 0 -0.014064514095983138 0.079712260817063813 0 -0.014389385560002084 0.080181055919805302 0 -0.01320507983438058 0.080189765476837954 0 -0.014064514095983138 0.079712260817063813 0 -0.014389385560002084 0.080181055919805302 0 -0.014556666820517426 0.079820749705536681 0 -0.014064514095983138 0.079712260817063813 0 -0.01452346536798314 0.079459176260296249 0 -0.014556666820517426 0.079820749705536681 0 -0.014064514095983138 0.079712260817063813 0 -0.01320507983438058 0.080189765476837954 0 -0.013269460971542073 0.079126781293800866 0 -0.014064514095983138 0.079712260817063813 0 -0.014221352572531503 0.079142520937479505 0 -0.013269460971542073 0.079126781293800866 0 -0.014064514095983138 0.079712260817063813 0 -0.014221352572531503 0.079142520937479505 0 -0.01452346536798314 0.079459176260296249 0 -0.014818400209923517 0.079170161486995461 0 -0.014812301941104986 0.079638646470473792 0 -0.015200229668853793 0.08007503417639121 0 -0.015642759256530171 0.080445066218302899 0 -0.014818400209923517 0.079170161486995461 0 -0.015200229668853793 0.08007503417639121 0 -0.014221352572531503 0.079142520937479505 0 -0.014818400209923517 0.079170161486995461 0 -0.01452346536798314 0.079459176260296249 0 -0.014818400209923517 0.079170161486995461 0 -0.014812301941104986 0.079638646470473792 0 -0.01452346536798314 0.079459176260296249 0 -0.014812301941104986 0.079638646470473792 0 -0.01452346536798314 0.079459176260296249 0 -0.014556666820517426 0.079820749705536681 0 -0.014812301941104986 0.079638646470473792 0 -0.014556666820517426 0.079820749705536681 0 -0.014836169685106758 0.07989426357392608 0 -0.014812301941104986 0.079638646470473792 0 -0.015200229668853793 0.08007503417639121 0 -0.014836169685106758 0.07989426357392608 0 -0.015200229668853793 0.08007503417639121 0 -0.014836169685106758 0.07989426357392608 0 -0.014809240997767105 0.080252637509462349 0 -0.014389385560002084 0.080181055919805302 0 -0.014836169685106758 0.07989426357392608 0 -0.014809240997767105 0.080252637509462349 0 -0.014389385560002084 0.080181055919805302 0 -0.014556666820517426 0.079820749705536681 0 -0.014836169685106758 0.07989426357392608 0 -0.0089805784896325527 0.060169086981655538 0 -0.0089739054590910056 0.060259045257486578 0 -0.0090291479883052358 0.060248411881860947 0 -0.014389385560002084 0.080181055919805302 0 -0.014809240997767105 0.080252637509462349 0 -0.014703663039593001 0.080640824755827331 0 -0.015200229668853793 0.08007503417639121 0 -0.014809240997767105 0.080252637509462349 0 -0.014703663039593001 0.080640824755827331 0 -0.01177510533924098 0.06177371008227734 0 -0.012514685015516168 0.064321277061815049 0 -0.015642759256530171 0.080445066218302899 0 -0.015200229668853793 0.08007503417639121 0 -0.014703663039593001 0.080640824755827331 0 -0.012514685015516168 0.064321277061815049 0 -0.012131194944101574 0.065475652627736219 0 -0.012701370251003118 0.081926472456114896 0 -0.014108116373746173 0.080691887374746807 0 -0.012786554864810453 0.080962367046584729 0 -0.014703663039593001 0.080640824755827331 0 -0.012786554864810453 0.080962367046584729 0 -0.01320507983438058 0.080189765476837954 0 -0.014389385560002084 0.080181055919805302 0 -0.014703663039593001 0.080640824755827331 0 -0.01320507983438058 0.080189765476837954 0 -0.012786554864810453 0.080962367046584729 0 -0.01320507983438058 0.080189765476837954 0 -0.010907984235543481 0.078986706795579467 0 -0.012292549254991221 0.079416895783082975 0 -0.012076272244388748 0.079562255886136787 0 -0.01069578362112728 0.083039581771835111 0 -0.012158079747766838 0.082879369806688294 0 -0.010907984235543481 0.078986706795579467 0 -0.012701370251003118 0.081926472456114896 0 -0.012786554864810453 0.080962367046584729 0 -0.010907984235543481 0.078986706795579467 0 -0.01320507983438058 0.080189765476837954 0 -0.013269460971542073 0.079126781293800866 0 -0.010907984235543481 0.078986706795579467 0 -0.012919618042934075 0.078123163046604049 0 -0.010907984235543481 0.078986706795579467 0 -0.012708363512937552 0.07711558629880505 0 -0.013269460971542073 0.079126781293800866 0 -0.012919618042934075 0.078123163046604049 0 -0.010907984235543481 0.078986706795579467 0 -0.010907984235543481 0.078986706795579467 0 -0.012708363512937552 0.07711558629880505 0 -0.0096842996204697853 0.076366542544941962 0 -0.010907984235543481 0.078986706795579467 0 -0.006898149130365289 0.079544791261376799 0 -0.0096842996204697853 0.076366542544941962 0 -0.010907984235543481 0.078986706795579467 0 -0.00875049701041891 0.081248763809730784 0 -0.006898149130365289 0.079544791261376799 0 -0.01069578362112728 0.083039581771835111 0 -0.010907984235543481 0.078986706795579467 0 -0.00875049701041891 0.081248763809730784 0 -0.0065287644430063949 0.083313393929542776 0 -0.00875049701041891 0.081248763809730784 0 -0.006898149130365289 0.079544791261376799 0 -0.0065287644430063949 0.083313393929542776 0 -0.0035800947970414318 0.080514297897720799 0 -0.006898149130365289 0.079544791261376799 0 -0.0035800947970414318 0.080514297897720799 0 -0.0040216111770855975 0.077864454106615216 0 -0.006898149130365289 0.079544791261376799 0 -0.0040216111770855975 0.077864454106615216 0 -0.006898149130365289 0.079544791261376799 0 -0.0062194778604267005 0.075555573671439016 0 -0.006898149130365289 0.079544791261376799 0 -0.0062194778604267005 0.075555573671439016 0 -0.0096842996204697853 0.076366542544941962 0 -0.0040216111770855975 0.077864454106615216 0 -0.0062194778604267005 0.075555573671439016 0 -0.0030327241065060558 0.07488450350055903 0 -0.0062194778604267005 0.075555573671439016 0 -0.0030327241065060558 0.07488450350055903 0 -0.0063044677198785641 0.071170327869225003 0 -0.0030327241065060558 0.07488450350055903 0 -0.0017239483210230574 0.070587527494461733 0 -0.0063044677198785641 0.071170327869225003 0 -0.0062194778604267005 0.075555573671439016 0 -0.0092281769640757405 0.073647882370975429 0 -0.0063044677198785641 0.071170327869225003 0 -0.0092281769640757405 0.073647882370975429 0 -0.010744946887784631 0.070575397709103621 0 -0.0063044677198785641 0.071170327869225003 0 -0.0092281769640757405 0.073647882370975429 0 -0.012896123437216167 0.074299842652741602 0 -0.010744946887784631 0.070575397709103621 0 -0.015192595760580355 0.071575265927780185 0 -0.013932403370046345 0.070907266797183441 0 -0.014144458683098686 0.074111376340174631 0 -0.014120877601592131 0.06845530662460414 0 -0.010744946887784631 0.070575397709103621 0 -0.012708363512937552 0.07711558629880505 0 -0.012896123437216167 0.074299842652741602 0 -0.0096842996204697853 0.076366542544941962 0 -0.0092281769640757405 0.073647882370975429 0 -0.012896123437216167 0.074299842652741602 0 -0.0096842996204697853 0.076366542544941962 0 -0.0062194778604267005 0.075555573671439016 0 -0.0092281769640757405 0.073647882370975429 0 -0.0096842996204697853 0.076366542544941962 0 0.0056362282823160499 0.079941495768953222 0 0.0044587999665390001 0.082837146622327509 0 0.0028453675079409993 0.081089675346704193 0 0.0062124275182721764 0.083145739440678268 0 0.0056362282823160499 0.079941495768953222 0 0.0044587999665390001 0.082837146622327509 0 0.0049049468919350817 0.084298328558462102 0 0.0062124275182721764 0.083145739440678268 0 0.0044587999665390001 0.082837146622327509 0 0.0034338374884690173 0.08365623806751965 0 0.0041461905856828019 0.083947586216536765 0 0.0044587999665390001 0.082837146622327509 0 0.0034338374884690173 0.08365623806751965 0 0.0044587999665390001 0.082837146622327509 0 0.0028453675079409993 0.081089675346704193 0 0.0034338374884690173 0.08365623806751965 0 0.0028453675079409993 0.081089675346704193 0 0.0014610538478727489 0.082806587280396637 0 0.0056362282823160499 0.079941495768953222 0 0.0028453675079409993 0.081089675346704193 0 0.0025443853413761818 0.078095607598131681 0 0.0028453675079409993 0.081089675346704193 0 0.0025443853413761818 0.078095607598131681 0 -0.0010354369862496829 0.078871277411536739 0 0.0028453675079409993 0.081089675346704193 0 0.0014610538478727489 0.082806587280396637 0 -0.0010354369862496829 0.078871277411536739 0 0.0015807292133640527 0.081393788990075128 0 -0.00070623234818284789 0.081345452813403954 0 -0.0010354369862496829 0.078871277411536739 0 0.0020342081074090751 0.08247781082364844 0 0.0007564410688864257 0.081012368436278195 0 -0.0021702792945288911 0.083398199391731626 0 -0.0035800947970414318 0.080514297897720799 0 -0.00070623234818284789 0.081345452813403954 0 -0.0035800947970414318 0.080514297897720799 0 -0.00070623234818284789 0.081345452813403954 0 -0.0010354369862496829 0.078871277411536739 0 -0.0035800947970414318 0.080514297897720799 0 -0.0040216111770855975 0.077864454106615216 0 -0.0010354369862496829 0.078871277411536739 0 -0.0030327241065060558 0.07488450350055903 0 -0.0010354369862496829 0.078871277411536739 0 0.0005567322020152666 0.074765228009113602 0 -0.0040216111770855975 0.077864454106615216 0 -0.0030327241065060558 0.07488450350055903 0 -0.0010354369862496829 0.078871277411536739 0 -0.0030327241065060558 0.07488450350055903 0 0.0005567322020152666 0.074765228009113602 0 -0.0017239483210230574 0.070587527494461733 0 0.0005567322020152666 0.074765228009113602 0 0.0022927824555834622 0.070886107097888798 0 -0.0017239483210230574 0.070587527494461733 0 0.0025443853413761818 0.078095607598131681 0 -0.0010354369862496829 0.078871277411536739 0 0.0005567322020152666 0.074765228009113602 0 0.0025443853413761818 0.078095607598131681 0 0.0005567322020152666 0.074765228009113602 0 0.0044819170532581325 0.07574203372432893 0 0.0056362282823160499 0.079941495768953222 0 0.0025443853413761818 0.078095607598131681 0 0.0044819170532581325 0.07574203372432893 0 0.0005567322020152666 0.074765228009113602 0 0.0044819170532581325 0.07574203372432893 0 0.0022927824555834622 0.070886107097888798 0 0.0079953529557659515 0.076508302676186093 0 0.0044819170532581325 0.07574203372432893 0 0.0068274881325746254 0.0712053559293888 0 0.0079953529557659515 0.076508302676186093 0 0.0056362282823160499 0.079941495768953222 0 0.0044819170532581325 0.07574203372432893 0 0.0068274881325746254 0.0712053559293888 0 0.0041404482276986452 0.067259058858421386 0 0.0070859512344269605 0.064541906362953483 0 0.0068274881325746254 0.0712053559293888 0 0.0041404482276986452 0.067259058858421386 0 0.0022927824555834622 0.070886107097888798 0 0.0044819170532581325 0.07574203372432893 0 0.0068274881325746254 0.0712053559293888 0 0.0022927824555834622 0.070886107097888798 0 0.0041404482276986452 0.067259058858421386 0 0.0022927824555834622 0.070886107097888798 0 0.00022914775415152329 0.065690713331947925 0 0.0022927824555834622 0.070886107097888798 0 -0.0017239483210230574 0.070587527494461733 0 0.00022914775415152329 0.065690713331947925 0 -0.0017239483210230574 0.070587527494461733 0 0.00022914775415152329 0.065690713331947925 0 -0.0043102219364190416 0.066796409586603614 0 0.00022914775415152329 0.065690713331947925 0 -0.0043102219364190416 0.066796409586603614 0 -0.0025947190490090244 0.062112405493421272 0 0.00022914775415152329 0.065690713331947925 0 0.00092640201184220549 0.058673268894663032 0 -0.0025947190490090244 0.062112405493421272 0 0.00092640201184220549 0.058673268894663032 0 0.0030356813485776105 0.062888924399401011 0 0.0047754095525739003 0.060020392774779011 0 0.00022914775415152329 0.065690713331947925 0 0.00092640201184220549 0.058673268894663032 0 0.0030356813485776105 0.062888924399401011 0 0.0041404482276986452 0.067259058858421386 0 0.00022914775415152329 0.065690713331947925 0 0.0030356813485776105 0.062888924399401011 0 0.0041404482276986452 0.067259058858421386 0 0.0030356813485776105 0.062888924399401011 0 0.0070859512344269605 0.064541906362953483 0 0.0030356813485776105 0.062888924399401011 0 0.0047754095525739003 0.060020392774779011 0 0.0070859512344269605 0.064541906362953483 0 0.010802711789526057 0.059292257184491333 0 0.0047754095525739003 0.060020392774779011 0 0.0070859512344269605 0.064541906362953483 0 -0.0092560210427748615 0.066095690590146555 0 -0.014120877601592131 0.06845530662460414 0 -0.014192079680049159 0.061497241745578586 0 -0.0092560210427748615 0.066095690590146555 0 -0.010744946887784631 0.070575397709103621 0 -0.0063044677198785641 0.071170327869225003 0 -0.0092560210427748615 0.066095690590146555 0 -0.014120877601592131 0.06845530662460414 0 -0.010744946887784631 0.070575397709103621 0 -0.0092560210427748615 0.066095690590146555 0 -0.0063044677198785641 0.071170327869225003 0 -0.0043102219364190416 0.066796409586603614 0 -0.0017239483210230574 0.070587527494461733 0 -0.0063044677198785641 0.071170327869225003 0 -0.0043102219364190416 0.066796409586603614 0 -0.0092560210427748615 0.066095690590146555 0 -0.0043102219364190416 0.066796409586603614 0 -0.0063935437099873604 0.062913692523808323 0 -0.0063935437099873604 0.062913692523808323 0 -0.0025947190490090244 0.062112405493421272 0 -0.0040234389018423654 0.056897549018021368 0 -0.0043102219364190416 0.066796409586603614 0 -0.0063935437099873604 0.062913692523808323 0 -0.0025947190490090244 0.062112405493421272 0 0.00092640201184220549 0.058673268894663032 0 -0.0025947190490090244 0.062112405493421272 0 -0.0040234389018423654 0.056897549018021368 0 -0.0040234389018423654 0.056897549018021368 0 -0.009338319506772344 0.059319441518381269 0 -0.0067584335416599637 0.053625225400230389 0 -0.0063935437099873604 0.062913692523808323 0 -0.0040234389018423654 0.056897549018021368 0 -0.009338319506772344 0.059319441518381269 0 -0.009338319506772344 0.059319441518381269 0 -0.01340170637388515 0.057614016288064021 0 -0.010971846349084154 0.054258175065834746 0 -0.0092560210427748615 0.066095690590146555 0 -0.009338319506772344 0.059319441518381269 0 -0.014192079680049159 0.061497241745578586 0 -0.0092560210427748615 0.066095690590146555 0 -0.0063935437099873604 0.062913692523808323 0 -0.009338319506772344 0.059319441518381269 0 -0.016970024853308081 0.058295369384933855 0 -0.014192079680049159 0.061497241745578586 0 -0.01340170637388515 0.057614016288064021 0 -0.009338319506772344 0.059319441518381269 0 -0.014192079680049159 0.061497241745578586 0 -0.01340170637388515 0.057614016288064021 0 -0.013192888431672201 0.050959937975103307 0 -0.010971846349084154 0.054258175065834746 0 -0.015603990053843463 0.054543755541407425 0 -0.01340170637388515 0.057614016288064021 0 -0.010971846349084154 0.054258175065834746 0 -0.015603990053843463 0.054543755541407425 0 -0.013192888431672201 0.050959937975103307 0 -0.012830729916272645 0.045474131147193148 0 -0.018271829895593898 0.051075068336440779 0 -0.013192888431672201 0.050959937975103307 0 -0.0076071695507357743 0.048967055303317304 0 -0.012830729916272645 0.045474131147193148 0 -0.013192888431672201 0.050959937975103307 0 -0.0076071695507357743 0.048967055303317304 0 -0.010971846349084154 0.054258175065834746 0 -0.009338319506772344 0.059319441518381269 0 -0.010971846349084154 0.054258175065834746 0 -0.0067584335416599637 0.053625225400230389 0 -0.0076071695507357743 0.048967055303317304 0 -0.010971846349084154 0.054258175065834746 0 -0.0067584335416599637 0.053625225400230389 0 -0.0040234389018423654 0.056897549018021368 0 -0.0067584335416599637 0.053625225400230389 0 -0.0020496330284907991 0.049220245853713165 0 -0.0040234389018423654 0.056897549018021368 0 -0.0020496330284907991 0.049220245853713165 0 0.0006189431282575135 0.051821307456659901 0 -0.0076071695507357743 0.048967055303317304 0 -0.0020496330284907991 0.049220245853713165 0 -0.00307256623188773 0.044870902980924894 0 -0.0076071695507357743 0.048967055303317304 0 -0.0067584335416599637 0.053625225400230389 0 -0.0020496330284907991 0.049220245853713165 0 -0.0076071695507357743 0.048967055303317304 0 -0.00307256623188773 0.044870902980924894 0 -0.0035188278380342141 0.039054521094365705 0 -0.0020496330284907991 0.049220245853713165 0 -0.00307256623188773 0.044870902980924894 0 -0.00011183334524391092 0.042936087162371767 0 -0.00011183334524391092 0.042936087162371767 0 -0.0035188278380342141 0.039054521094365705 0 -7.8474576155724239e-05 0.038535166813711837 0 -0.00307256623188773 0.044870902980924894 0 -0.00011183334524391092 0.042936087162371767 0 -0.0035188278380342141 0.039054521094365705 0 -0.0035188278380342141 0.039054521094365705 0 -0.001479947438600057 0.035618554368851217 0 -0.0017524167254222265 0.035785855876716122 0 -0.0035188278380342141 0.039054521094365705 0 -0.001479947438600057 0.035618554368851217 0 -0.0019513454476014021 0.035471573369895322 0 -0.001479947438600057 0.035618554368851217 0 -0.0019513454476014021 0.035471573369895322 0 -0.0017411704081282495 0.035462487739085891 0 -0.0076071695507357743 0.048967055303317304 0 -0.0035188278380342141 0.039054521094365705 0 -0.012830729916272645 0.045474131147193148 0 -0.0063659342474997873 0.03903218534735009 0 -0.0078460945048237449 0.039766980453527313 0 0.0096657160133218883 0.053999574133067343 0 0.0061596195632353992 0.055539189131442242 0 0.0069325945295566488 0.051451941409226619 0 0.010802711789526057 0.059292257184491333 0 0.0047754095525739003 0.060020392774779011 0 0.0061596195632353992 0.055539189131442242 0 0.0047754095525739003 0.060020392774779011 0 0.0061596195632353992 0.055539189131442242 0 0.002156570199598628 0.055726086804813703 0 0.0028432329270882796 0.052885108611130646 0 0.004531173553307637 0.049098860764328893 0 0.0061596195632353992 0.055539189131442242 0 0.002156570199598628 0.055726086804813703 0 0.0039564504332649866 0.050724503744850137 0 0.0048156836842325901 0.050298085916988373 0 0.0006189431282575135 0.051821307456659901 0 0.0025294694693564039 0.045901583095797054 0 0.0015702117276531174 0.05542669282560149 0 0.0028432329270882796 0.052885108611130646 0 0.00092640201184220549 0.058673268894663032 0 0.0048156836842325901 0.050298085916988373 0 0.0006189431282575135 0.051821307456659901 0 0.00092640201184220549 0.058673268894663032 0 0.0047754095525739003 0.060020392774779011 0 0.002156570199598628 0.055726086804813703 0 0.00092640201184220549 0.058673268894663032 0 -0.0040234389018423654 0.056897549018021368 0 0.0006189431282575135 0.051821307456659901 0 -0.0020496330284907991 0.049220245853713165 0 0.0006189431282575135 0.051821307456659901 0 0.0025294694693564039 0.045901583095797054 0 -0.0020496330284907991 0.049220245853713165 0 -0.00011183334524391092 0.042936087162371767 0 0.0025294694693564039 0.045901583095797054 0 -0.00011183334524391092 0.042936087162371767 0 0.0018964433871002028 0.042846874589390328 0 0.00066103596610812387 0.041226718341623635 0 -0.00011183334524391092 0.042936087162371767 0 0.0025294694693564039 0.045901583095797054 0 0.0018964433871002028 0.042846874589390328 0 0.0025294694693564039 0.045901583095797054 0 0.0033899265954957301 0.044242559498146664 0 0.0018964433871002028 0.042846874589390328 0 0.0048156836842325901 0.050298085916988373 0 0.0025294694693564039 0.045901583095797054 0 0.0046915987706333496 0.045998897705776386 0 0.0025294694693564039 0.045901583095797054 0 0.0046915987706333496 0.045998897705776386 0 0.0033899265954957301 0.044242559498146664 0 0.0078176202400817036 0.04826470596865079 0 0.0039564504332649866 0.050724503744850137 0 0.0052132934398189694 0.045062861559646866 0 0.004531173553307637 0.049098860764328893 0 0.0054409738509457826 0.047089073050217964 0 0.0046915987706333496 0.045998897705776386 0 0.0052132934398189694 0.045062861559646866 0 0.0033899265954957301 0.044242559498146664 0 0.0061596195632353992 0.055539189131442242 0 0.0039564504332649866 0.050724503744850137 0 0.0069325945295566488 0.051451941409226619 0 0.0078176202400817036 0.04826470596865079 0 0.0039564504332649866 0.050724503744850137 0 0.0069325945295566488 0.051451941409226619 0 -0.0015268522370159802 0.042814684108113427 0 0.0025174819225393932 0.043540543458699565 0 -0.00025286465557541681 0.051063148484810278 0 0.0017978233746333877 0.063241106112282189 0 0.0013755763174237087 0.06157824664272539 0 0.0052132934398189694 0.045062861559646866 0 0.0034039670675766942 0.044117050066387505 0 0.0033899265954957301 0.044242559498146664 0 0.0053891141421972414 0.042903474361722579 0 0.0052132934398189694 0.045062861559646866 0 0.0034039670675766942 0.044117050066387505 0 0.0053891141421972414 0.042903474361722579 0 0.0025174819225393932 0.043540543458699565 0 0.0034039670675766942 0.044117050066387505 0 0.0025174819225393932 0.043540543458699565 0 0.0034039670675766942 0.044117050066387505 0 0.0023921092030745311 0.0433399001269269 0 0.0034039670675766942 0.044117050066387505 0 0.0033899265954957301 0.044242559498146664 0 0.0023921092030745311 0.0433399001269269 0 0.0025174819225393932 0.043540543458699565 0 0.0023921092030745311 0.0433399001269269 0 0.0016196893813572319 0.046189485374536023 0 0.0023921092030745311 0.0433399001269269 0 0.00082268546859717438 0.041473975198561205 0 0.0012921409383358467 0.043548965641599768 0 0.0023921092030745311 0.0433399001269269 0 0.0018964433871002028 0.042846874589390328 0 0.00082268546859717438 0.041473975198561205 0 0.0033899265954957301 0.044242559498146664 0 0.0023921092030745311 0.0433399001269269 0 0.0018964433871002028 0.042846874589390328 0 0.0018964433871002028 0.042846874589390328 0 0.00082268546859717438 0.041473975198561205 0 0.00066103596610812387 0.041226718341623635 0 0.00082268546859717438 0.041473975198561205 0 0.00074372490572794823 0.041114491531008684 0 0.0012921409383358467 0.043548965641599768 0 0.00074372490572794823 0.041114491531008684 0 3.3773816455633865e-06 0.041573649934762785 0 0.0012921409383358467 0.043548965641599768 0 3.3773816455633865e-06 0.041573649934762785 0 0.0012921409383358467 0.043548965641599768 0 1.6551627765075139e-06 0.047866236947697857 0 0.0012921409383358467 0.043548965641599768 0 0.0016196893813572319 0.046189485374536023 0 1.6551627765075139e-06 0.047866236947697857 0 0.0023921092030745311 0.0433399001269269 0 0.0012921409383358467 0.043548965641599768 0 0.0016196893813572319 0.046189485374536023 0 1.2632214625301291e-07 0.054155374246941106 0 1.6551627765075139e-06 0.047866236947697857 0 -0.00025286465557541681 0.051063148484810278 0 0.0016196893813572319 0.046189485374536023 0 1.6551627765075139e-06 0.047866236947697857 0 -0.00025286465557541681 0.051063148484810278 0 0.0025174819225393932 0.043540543458699565 0 0.0016196893813572319 0.046189485374536023 0 -0.00025286465557541681 0.051063148484810278 0 -0.00063412448450171578 0.034460841647531833 0 -0.0017524167254222265 0.035785855876716122 0 -7.8474576155724239e-05 0.038535166813711837 0 -0.00063412448450171578 0.034460841647531833 0 -0.00077003910895397782 0.032957229385854971 0 3.9013749195904832e-05 0.031668741404791728 0 -0.00063412448450171578 0.034460841647531833 0 -0.00077003910895397782 0.032957229385854971 0 -0.0017524167254222265 0.035785855876716122 0 -0.00077003910895397782 0.032957229385854971 0 -0.0001336591949526242 0.029415760759355817 0 -0.0009848095945742129 0.032867381872479354 0 -0.00077003910895397782 0.032957229385854971 0 -0.0017524167254222265 0.035785855876716122 0 -0.0009848095945742129 0.032867381872479354 0 -0.001479947438600057 0.035618554368851217 0 -0.0017524167254222265 0.035785855876716122 0 -0.0009848095945742129 0.032867381872479354 0 -0.0035188278380342141 0.039054521094365705 0 -0.0017524167254222265 0.035785855876716122 0 -7.8474576155724239e-05 0.038535166813711837 0 -0.00011183334524391092 0.042936087162371767 0 -7.8474576155724239e-05 0.038535166813711837 0 0.00066103596610812387 0.041226718341623635 0 0.00082268546859717438 0.041473975198561205 0 -7.8474576155724239e-05 0.038535166813711837 0 0.00066103596610812387 0.041226718341623635 0 0.00082268546859717438 0.041473975198561205 0 -7.8474576155724239e-05 0.038535166813711837 0 -0.00030862135947584804 0.040624797094726627 0 -0.00063412448450171578 0.034460841647531833 0 -7.8474576155724239e-05 0.038535166813711837 0 0.00035750445313969208 0.032739198034566437 0 3.997275672378609e-06 0.037236449840607658 0 6.2108004781477727e-06 0.036555146127569466 0 -0.00063412448450171578 0.034460841647531833 0 0.00035750445313969208 0.032739198034566437 0 3.9013749195904832e-05 0.031668741404791728 0 0.00082268546859717438 0.041473975198561205 0 0.00074372490572794823 0.041114491531008684 0 -0.00030862135947584804 0.040624797094726627 0 0.00074372490572794823 0.041114491531008684 0 -0.00030862135947584804 0.040624797094726627 0 -3.4037255889896972e-06 0.03529565359660948 0 0.00074372490572794823 0.041114491531008684 0 3.3773816455633865e-06 0.041573649934762785 0 -3.4037255889896972e-06 0.03529565359660948 0 6.2108004781477727e-06 0.036555146127569466 0 -7.2968905776278422e-09 0.03528651465059629 0 0.00035750445313969208 0.032739198034566437 0 1.226764898414238e-07 0.035274919351742311 0 3.9013749195904832e-05 0.031668741404791728 0 1.226764898414238e-07 0.035274919351742311 0 9.7442004748283284e-07 0.030253747203839016 0 3.9013749195904832e-05 0.031668741404791728 0 -0.00077003910895397782 0.032957229385854971 0 3.9013749195904832e-05 0.031668741404791728 0 -0.0001336591949526242 0.029415760759355817 0 9.7442004748283284e-07 0.030253747203839016 0 -0.0001336591949526242 0.029415760759355817 0 -7.8126574349736004e-07 0.025219447076608871 0 9.7442004748283284e-07 0.030253747203839016 0 3.9013749195904832e-05 0.031668741404791728 0 -0.0001336591949526242 0.029415760759355817 0 -0.0001336591949526242 0.029415760759355817 0 -7.8126574349736004e-07 0.025219447076608871 0 -0.00020065237503086474 0.025929170315454501 0 -0.00020065237503086474 0.025929170315454501 0 2.8154917735573101e-06 0.020183480585374124 0 -0.0012271620373262319 0.025198382925577766 0 -7.8126574349736004e-07 0.025219447076608871 0 -0.00020065237503086474 0.025929170315454501 0 2.8154917735573101e-06 0.020183480585374124 0 -0.00020065237503086474 0.025929170315454501 0 -0.0012271620373262319 0.025198382925577766 0 -0.00090035161860198905 0.029758075077383445 0 -0.0001336591949526242 0.029415760759355817 0 -0.00020065237503086474 0.025929170315454501 0 -0.00090035161860198905 0.029758075077383445 0 -3.4626580156123368e-06 0.015151077040741982 0 -0.0018189637372108337 0.01696712533220367 0 2.8154917735573101e-06 0.020183480585374124 0 -1.405524692594842e-05 0.01516184556794249 0 -0.0012271620373262319 0.025198382925577766 0 -1.405524692594842e-05 0.01516184556794249 0 -0.0012271620373262319 0.025198382925577766 0 -0.0058233938937952388 0.026449548014455409 0 -0.0018189637372108337 0.01696712533220367 0 -0.0026750192026395204 0.018213075220694801 0 -0.0058233938937952388 0.026449548014455409 0 -0.0028646100658878794 0.03174985223392298 0 -0.0063723593845446125 0.03217411528060992 0 -0.0012271620373262319 0.025198382925577766 0 -0.0058233938937952388 0.026449548014455409 0 -0.0028646100658878794 0.03174985223392298 0 -0.0028646100658878794 0.03174985223392298 0 -0.0063723593845446125 0.03217411528060992 0 -0.0041941139901547839 0.034462725984007056 0 -0.0009848095945742129 0.032867381872479354 0 -0.00090035161860198905 0.029758075077383445 0 -0.0015666248752832332 0.032996853252598199 0 -0.0001336591949526242 0.029415760759355817 0 -0.0009848095945742129 0.032867381872479354 0 -0.00090035161860198905 0.029758075077383445 0 -0.0028646100658878794 0.03174985223392298 0 -0.00090035161860198905 0.029758075077383445 0 -0.0015666248752832332 0.032996853252598199 0 -0.0012271620373262319 0.025198382925577766 0 -0.0028646100658878794 0.03174985223392298 0 -0.00090035161860198905 0.029758075077383445 0 -0.0028646100658878794 0.03174985223392298 0 -0.0015666248752832332 0.032996853252598199 0 -0.002283970069376784 0.034470078480619545 0 -0.001479947438600057 0.035618554368851217 0 -0.0009848095945742129 0.032867381872479354 0 -0.0015666248752832332 0.032996853252598199 0 -0.001479947438600057 0.035618554368851217 0 -0.0015666248752832332 0.032996853252598199 0 -0.002283970069376784 0.034470078480619545 0 -0.001479947438600057 0.035618554368851217 0 -0.0020924318165570816 0.035432822099782837 0 -0.002283970069376784 0.034470078480619545 0 -0.001479947438600057 0.035618554368851217 0 -0.0017290614905096792 0.035703405617696395 0 -0.0020924318165570816 0.035432822099782837 0 -0.0052532315484610974 0.035454634541479478 0 -0.0061453065552968334 0.036107173486765294 0 -0.0017290614905096792 0.035703405617696395 0 -0.0020924318165570816 0.035432822099782837 0 -0.0021230488964041247 0.036045843365499569 0 -0.0019513454476014021 0.035471573369895322 0 -0.0017598444096325765 0.035463858599268226 0 -0.0017411704081282495 0.035462487739085891 0 -0.0020924318165570816 0.035432822099782837 0 -0.002283970069376784 0.034470078480619545 0 -0.0032726785055289375 0.03579543099027474 0 -0.0020924318165570816 0.035432822099782837 0 -0.0032726785055289375 0.03579543099027474 0 -0.0025532357362183745 0.036183786795594308 0 -0.0020924318165570816 0.035432822099782837 0 -0.0021230488964041247 0.036045843365499569 0 -0.0025532357362183745 0.036183786795594308 0 -0.0028646100658878794 0.03174985223392298 0 -0.002283970069376784 0.034470078480619545 0 -0.0041941139901547839 0.034462725984007056 0 -0.002283970069376784 0.034470078480619545 0 -0.0041941139901547839 0.034462725984007056 0 -0.0032726785055289375 0.03579543099027474 0 -0.0063723593845446125 0.03217411528060992 0 -0.0041941139901547839 0.034462725984007056 0 -0.0059091427558874959 0.035228314337306658 0 -0.0026750192026395204 0.018213075220694801 0 -0.0028724341886827826 0.019207726341370242 0 -0.0041941139901547839 0.034462725984007056 0 -0.0047155403336041034 0.035967688864295855 0 -0.0059091427558874959 0.035228314337306658 0 -0.0041941139901547839 0.034462725984007056 0 -0.0047155403336041034 0.035967688864295855 0 -0.0032726785055289375 0.03579543099027474 0 -0.0032726785055289375 0.03579543099027474 0 -0.0043047579821031282 0.036921491457661285 0 -0.003227157621485489 0.036969380121935819 0 -0.0047155403336041034 0.035967688864295855 0 -0.0032726785055289375 0.03579543099027474 0 -0.0043047579821031282 0.036921491457661285 0 -0.0047155403336041034 0.035967688864295855 0 -0.0056409612231248475 0.037059943832890199 0 -0.0059091427558874959 0.035228314337306658 0 -0.0047155403336041034 0.035967688864295855 0 -0.0043047579821031282 0.036921491457661285 0 -0.0056409612231248475 0.037059943832890199 0 -0.0043047579821031282 0.036921491457661285 0 -0.0047347409782356751 0.037877679235043524 0 -0.0056409612231248475 0.037059943832890199 0 -0.0035506634760124806 0.038040738450245151 0 -0.0043047579821031282 0.036921491457661285 0 -0.003227157621485489 0.036969380121935819 0 -0.0035506634760124806 0.038040738450245151 0 -0.0043047579821031282 0.036921491457661285 0 -0.0047347409782356751 0.037877679235043524 0 -0.0035506634760124806 0.038040738450245151 0 -0.0020718416741203594 0.036935922512403456 0 -0.003227157621485489 0.036969380121935819 0 -0.0078876899951804327 0.034936268503367486 0 -0.0094186609752931558 0.03921872251672251 0 -0.011896597841737345 0.032902777699578084 0 -0.016509612579787725 0.034489597525489066 0 -0.017845717614660035 0.038239931336168709 0 -0.012144491933794934 0.043215848339625815 0 -0.0094186609752931558 0.03921872251672251 0 -0.019659681777261902 0.055089063798229053 0 -0.015603990053843463 0.054543755541407425 0 -0.018271829895593898 0.051075068336440779 0 -0.016970024853308081 0.058295369384933855 0 -0.019659681777261902 0.055089063798229053 0 -0.015603990053843463 0.054543755541407425 0 -0.013192888431672201 0.050959937975103307 0 -0.015603990053843463 0.054543755541407425 0 -0.018271829895593898 0.051075068336440779 0 -0.012144491933794934 0.043215848339625815 0 -0.0096985431495355164 0.039884559593420868 0 -0.011401151201684508 0.042885135756665256 0 -0.010273807793370348 0.039701973263598818 0 -0.0096821688711615141 0.039168833060559093 0 -0.0017290614905096792 0.035703405617696395 0 -0.0020718416741203594 0.036935922512403456 0 -0.0021230488964041247 0.036045843365499569 0 -0.0017411704081282495 0.035462487739085891 0 -0.0018914559006977291 0.035562593465701141 0 -0.0018616659183035935 0.035551384277792225 0 -0.0061453065552968334 0.036107173486765294 0 -0.0094186609752931558 0.03921872251672251 0 -0.0019513454476014021 0.035471573369895322 0 -0.0017598444096325765 0.035463858599268226 0 -0.0016917338900984053 0.035324587722544584 0 -0.0078460945048237449 0.039766980453527313 0 -0.0096985431495355164 0.039884559593420868 0 -0.0017598444096325765 0.035463858599268226 0 -0.0017411704081282495 0.035462487739085891 0 -0.0018616659183035935 0.035551384277792225 0 -0.0094186609752931558 0.03921872251672251 0 -0.0096985431495355164 0.039884559593420868 0 -0.0084014809444514036 0.038065945271343167 0 -0.0096985431495355164 0.039884559593420868 0 -0.0020718416741203594 0.036935922512403456 0 -0.0025532357362183745 0.036183786795594308 0 -0.003227157621485489 0.036969380121935819 0 -0.0020718416741203594 0.036935922512403456 0 -0.0021230488964041247 0.036045843365499569 0 -0.0025532357362183745 0.036183786795594308 0 -0.0032726785055289375 0.03579543099027474 0 -0.0025532357362183745 0.036183786795594308 0 -0.003227157621485489 0.036969380121935819 0 0.001436555328674197 0.0028227220186916118 0 0.00097791189541620617 0.0022269307501055569 0 0.0011334527761482 0.0013684187547392153 0 0.001436555328674197 0.0028227220186916118 0 0.00097791189541620617 0.0022269307501055569 0 0.00078991196926923922 0.0028924625253754178 0 0.00019607806840940469 -0.0023150405432201303 0 0.00028272479734859859 -0.0017417968858348505 0 -0.00070589053826341001 -0.0067103707320585234 0 -0.0014843038206539113 -0.0061501927282938034 0 -0.001093198058116341 -0.0056975781816488262 0 -0.00070589053826341001 -0.0067103707320585234 0 -0.0014843038206539113 -0.0061501927282938034 0 -0.0018843842944363193 -0.0067901394033975425 0 -0.0014843038206539113 -0.0061501927282938034 0 -0.0016929222922735675 -0.0056170199692344496 0 -0.001093198058116341 -0.0056975781816488262 0 -0.0016929222922735675 -0.0056170199692344496 0 -0.001348104042792913 -0.0051333002548438903 0 -0.0018333960690978151 -0.005263500466188481 0 -0.0016929222922735675 -0.0056170199692344496 0 -0.001348104042792913 -0.0051333002548438903 0 -0.001093198058116341 -0.0056975781816488262 0 -0.0011128712449373309 -0.0051279957502608975 0 -0.001093198058116341 -0.0056975781816488262 0 -0.00074788671611930417 -0.005075057901089885 0 -0.00070589053826341001 -0.0067103707320585234 0 -0.001093198058116341 -0.0056975781816488262 0 -0.00074788671611930417 -0.005075057901089885 0 -0.001348104042792913 -0.0051333002548438903 0 -0.0011128712449373309 -0.0051279957502608975 0 -0.0010509934959453378 -0.004720177128484257 0 -0.001348104042792913 -0.0051333002548438903 0 -0.0011128712449373309 -0.0051279957502608975 0 -0.001093198058116341 -0.0056975781816488262 0 0.00097791189541620617 0.0022269307501055569 0 0.0011334527761482 0.0013684187547392153 0 0.000916753007519503 0.0016580743665846915 0 -0.0011128712449373309 -0.0051279957502608975 0 -0.00074788671611930417 -0.005075057901089885 0 -0.0010509934959453378 -0.004720177128484257 0 0.00078053509599486186 0.00096785492901282021 0 0.0011334527761482 0.0013684187547392153 0 0.00085852111736411387 0.0012496945494637952 0 0.0011334527761482 0.0013684187547392153 0 0.00092702059823068859 0.0014046154306337161 0 0.00085852111736411387 0.0012496945494637952 0 0.0011334527761482 0.0013684187547392153 0 0.00092702059823068859 0.0014046154306337161 0 0.000916753007519503 0.0016580743665846915 0 0.00092702059823068859 0.0014046154306337161 0 0.00078377873948528068 0.0014569253104119427 0 0.000916753007519503 0.0016580743665846915 0 0.00092702059823068859 0.0014046154306337161 0 0.00078377873948528068 0.0014569253104119427 0 0.00085852111736411387 0.0012496945494637952 0 0.00078377873948528068 0.0014569253104119427 0 0.00085852111736411387 0.0012496945494637952 0 0.00067924325282076731 0.0012540970190212124 0 0.00067924325282076731 0.0012540970190212124 0 0.00052297152577025926 0.0015518826241527339 0 0.00050575923120935694 0.0011601211860139818 0 0.00078377873948528068 0.0014569253104119427 0 0.00067924325282076731 0.0012540970190212124 0 0.00052297152577025926 0.0015518826241527339 0 0.00078377873948528068 0.0014569253104119427 0 0.00052297152577025926 0.0015518826241527339 0 0.00073678887438189962 0.0018809853393252831 0 0.00052297152577025926 0.0015518826241527339 0 0.00073678887438189962 0.0018809853393252831 0 0.00045460555517926304 0.0020041956794849126 0 0.00097791189541620617 0.0022269307501055569 0 0.00073678887438189962 0.0018809853393252831 0 0.000916753007519503 0.0016580743665846915 0 0.00078377873948528068 0.0014569253104119427 0 0.00073678887438189962 0.0018809853393252831 0 0.000916753007519503 0.0016580743665846915 0 -0.0042380753031443785 0.033453990637405 0 -0.0028006740824742028 0.019867995667332175 0 0.00059604900044299598 0.00051497989254561667 0 0.00050575923120935694 0.0011601211860139818 0 -0.00028790474523850433 0.0019731501923066367 0 -0.0055275191467646801 0.038266871067257416 0 -0.0047347409782356751 0.037877679235043524 0 -0.0056409612231248475 0.037059943832890199 0 -0.0021112353696057366 0.019581221675648162 0 -0.0028006740824742028 0.019867995667332175 0 0.00052297152577025926 0.0015518826241527339 0 0.00050575923120935694 0.0011601211860139818 0 -0.00028790474523850433 0.0019731501923066367 0 0.00052297152577025926 0.0015518826241527339 0 -0.00028790474523850433 0.0019731501923066367 0 0.00045460555517926304 0.0020041956794849126 0 -0.00028790474523850433 0.0019731501923066367 0 0.00012588944435846952 0.0024373681718378687 0 -0.00042155605483570858 0.0029070282385728371 0 -0.0028006740824742028 0.019867995667332175 0 -0.0018662197448109676 0.0096781633110025241 0 -0.0002225245980790172 0.0032669993514097863 0 -0.0004577741184365939 0.0035707116138316663 0 -0.00035486726181364317 0.0034555766020205212 0 -0.0028006740824742028 0.019867995667332175 0 -0.0028724341886827826 0.019207726341370242 0 -0.00028790474523850433 0.0019731501923066367 0 0.00012588944435846952 0.0024373681718378687 0 0.00045460555517926304 0.0020041956794849126 0 0.00012588944435846952 0.0024373681718378687 0 0.00026719435113408579 0.0028980218951663254 0 -0.00042155605483570858 0.0029070282385728371 0 0.00097791189541620617 0.0022269307501055569 0 0.00073678887438189962 0.0018809853393252831 0 0.00058450859638622965 0.0023792666130712493 0 0.00012588944435846952 0.0024373681718378687 0 0.00058450859638622965 0.0023792666130712493 0 0.00045460555517926304 0.0020041956794849126 0 0.00073678887438189962 0.0018809853393252831 0 0.00058450859638622965 0.0023792666130712493 0 0.00045460555517926304 0.0020041956794849126 0 0.00012588944435846952 0.0024373681718378687 0 0.00058450859638622965 0.0023792666130712493 0 0.00026719435113408579 0.0028980218951663254 0 0.00097791189541620617 0.0022269307501055569 0 0.00058450859638622965 0.0023792666130712493 0 0.00078991196926923922 0.0028924625253754178 0 0.00058450859638622965 0.0023792666130712493 0 0.00078991196926923922 0.0028924625253754178 0 0.00026719435113408579 0.0028980218951663254 0 0.00078991196926923922 0.0028924625253754178 0 0.00026719435113408579 0.0028980218951663254 0 0.00040450766685885272 0.0034445479939468741 0 0.00026719435113408579 0.0028980218951663254 0 0.00040450766685885272 0.0034445479939468741 0 -5.762512831858497e-05 0.0033360266642929299 0 0.00078991196926923922 0.0028924625253754178 0 0.00040450766685885272 0.0034445479939468741 0 0.00092476655223737176 0.0034674871156830009 0 -0.00042155605483570858 0.0029070282385728371 0 -5.762512831858497e-05 0.0033360266642929299 0 -0.00049424747228457881 0.0037538281533719998 0 -0.0018662197448109676 0.0096781633110025241 0 -0.0016240433700715515 0.0073591965444252212 0 -0.0004577741184365939 0.0035707116138316663 0 -0.00035486726181364317 0.0034555766020205212 0 -0.00049424747228457881 0.0037538281533719998 0 0.00026719435113408579 0.0028980218951663254 0 -0.00042155605483570858 0.0029070282385728371 0 -5.762512831858497e-05 0.0033360266642929299 0 0.00040450766685885272 0.0034445479939468741 0 -5.762512831858497e-05 0.0033360266642929299 0 -7.9359347048584149e-05 0.0037221514759698915 0 -0.00096865045054913288 0.0043694258788048524 0 -0.00049424747228457881 0.0037538281533719998 0 -0.00023177609067261094 0.0040578774808890565 0 -0.00096865045054913288 0.0043694258788048524 0 -0.0004577741184365939 0.0035707116138316663 0 -0.00049424747228457881 0.0037538281533719998 0 -0.00049424747228457881 0.0037538281533719998 0 -7.9359347048584149e-05 0.0037221514759698915 0 -0.00023177609067261094 0.0040578774808890565 0 -5.762512831858497e-05 0.0033360266642929299 0 -0.00049424747228457881 0.0037538281533719998 0 -7.9359347048584149e-05 0.0037221514759698915 0 -7.9359347048584149e-05 0.0037221514759698915 0 -0.00023177609067261094 0.0040578774808890565 0 0.00023962948654915128 0.0040000798892358795 0 0.00040450766685885272 0.0034445479939468741 0 0.0006562918204530109 0.0038527913502301825 0 0.00092476655223737176 0.0034674871156830009 0 0.00040450766685885272 0.0034445479939468741 0 0.00023962948654915128 0.0040000798892358795 0 0.0006562918204530109 0.0038527913502301825 0 0.00040450766685885272 0.0034445479939468741 0 -7.9359347048584149e-05 0.0037221514759698915 0 0.00023962948654915128 0.0040000798892358795 0 0.00023962948654915128 0.0040000798892358795 0 0.0006562918204530109 0.0038527913502301825 0 0.00073186230049639698 0.004364752494523198 0 0.0006562918204530109 0.0038527913502301825 0 0.0010054975092110713 0.0039452879919592643 0 0.00073186230049639698 0.004364752494523198 0 0.0010054975092110713 0.0039452879919592643 0 0.0011544037981586971 0.0036692860095757602 0 0.0011344401529552197 0.0039675876264091588 0 0.0010054975092110713 0.0039452879919592643 0 0.0011544037981586971 0.0036692860095757602 0 0.00092476655223737176 0.0034674871156830009 0 0.0006562918204530109 0.0038527913502301825 0 0.0010054975092110713 0.0039452879919592643 0 0.00092476655223737176 0.0034674871156830009 0 0.001436555328674197 0.0028227220186916118 0 0.0011544037981586971 0.0036692860095757602 0 0.00092476655223737176 0.0034674871156830009 0 0.001436555328674197 0.0028227220186916118 0 0.00078991196926923922 0.0028924625253754178 0 0.00092476655223737176 0.0034674871156830009 0 -0.00070589053826341001 -0.0067103707320585234 0 -0.0015825160226976345 -0.0075161305021012054 0 -0.0018843842944363193 -0.0067901394033975425 0 0.00019607806840940469 -0.0023150405432201303 0 0.00015727803711769502 -0.0028460802284120176 0 -0.00070589053826341001 -0.0067103707320585234 0 -0.00085939680073919046 -0.0083032309642778468 0 -0.0015825160226976345 -0.0075161305021012054 0 0.001436555328674197 0.0028227220186916118 0 0.0011544037981586971 0.0036692860095757602 0 0.0012322471729383825 0.0040077970475631674 0 -0.00070589053826341001 -0.0067103707320585234 0 -0.00085939680073919046 -0.0083032309642778468 0 -0.00073478967798932984 -0.0089048796286998605 0 0.0012322471729383825 0.0040077970475631674 0 0.0011344401529552197 0.0039675876264091588 0 0.0010869808581478871 0.0041251551317192242 0 0.0011544037981586971 0.0036692860095757602 0 0.0012322471729383825 0.0040077970475631674 0 0.0011344401529552197 0.0039675876264091588 0 0.0010054975092110713 0.0039452879919592643 0 0.0011344401529552197 0.0039675876264091588 0 0.0010869808581478871 0.0041251551317192242 0 0.0012322471729383825 0.0040077970475631674 0 0.0010869808581478871 0.0041251551317192242 0 0.00028098386858721312 0.0038451923036313218 0 0.0010054975092110713 0.0039452879919592643 0 0.0010869808581478871 0.0041251551317192242 0 0.00073186230049639698 0.004364752494523198 0 0.0010869808581478871 0.0041251551317192242 0 0.00073186230049639698 0.004364752494523198 0 0.00094762266583119689 0.0048197562049135589 0 0.0010869808581478871 0.0041251551317192242 0 0.00079993480291028532 0.002737120939134724 0 0.00094762266583119689 0.0048197562049135589 0 0.0010869808581478871 0.0041251551317192242 0 0.00079993480291028532 0.002737120939134724 0 0.00028098386858721312 0.0038451923036313218 0 -0.00096865045054913288 0.0043694258788048524 0 0.00010681844379750583 0.0044902285595096354 0 0.00023326052169375531 0.0054270859900895883 0 -0.00096865045054913288 0.0043694258788048524 0 -0.00023177609067261094 0.0040578774808890565 0 0.00010681844379750583 0.0044902285595096354 0 -0.00023177609067261094 0.0040578774808890565 0 0.00023962948654915128 0.0040000798892358795 0 0.00010681844379750583 0.0044902285595096354 0 0.00010681844379750583 0.0044902285595096354 0 0.00073186230049639698 0.004364752494523198 0 0.00023326052169375531 0.0054270859900895883 0 0.00023962948654915128 0.0040000798892358795 0 0.00010681844379750583 0.0044902285595096354 0 0.00073186230049639698 0.004364752494523198 0 0.00073186230049639698 0.004364752494523198 0 0.00023326052169375531 0.0054270859900895883 0 0.00094762266583119689 0.0048197562049135589 0 -0.0016362781519269956 0.0071435678348056274 0 -0.00096865045054913288 0.0043694258788048524 0 0.00023326052169375531 0.0054270859900895883 0 -0.0016362781519269956 0.0071435678348056274 0 0.00023326052169375531 0.0054270859900895883 0 0.00070244758752070345 0.007113790877151061 0 0.00023326052169375531 0.0054270859900895883 0 0.00070244758752070345 0.007113790877151061 0 0.00094762266583119689 0.0048197562049135589 0 0.00070244758752070345 0.007113790877151061 0 2.756172441524719e-06 0.0095453735238794461 0 1.5421951204398186e-06 0.0039400285214114842 0 -6.8246258809064944e-06 0.01513796688002386 0 -0.0016362781519269956 0.0071435678348056274 0 0.00070244758752070345 0.007113790877151061 0 -6.8246258809064944e-06 0.01513796688002386 0 0.00070244758752070345 0.007113790877151061 0 2.756172441524719e-06 0.0095453735238794461 0 0.00070244758752070345 0.007113790877151061 0 0.00094762266583119689 0.0048197562049135589 0 1.5421951204398186e-06 0.0039400285214114842 0 0.00079993480291028532 0.002737120939134724 0 0.00094762266583119689 0.0048197562049135589 0 1.5421951204398186e-06 0.0039400285214114842 0 0.00079993480291028532 0.002737120939134724 0 1.5421951204398186e-06 0.0039400285214114842 0 2.4457001506890533e-06 -0.0016643692144804718 0 0.00079993480291028532 0.002737120939134724 0 2.4457001506890533e-06 -0.0016643692144804718 0 -0.00092037501829679276 0.00081414269192119678 0 0.00018137813014594656 -0.0047419447725157056 0 -2.4546968327020304e-07 -0.0072649980483736791 0 2.4457001506890533e-06 -0.0016643692144804718 0 -0.00092037501829679276 0.00081414269192119678 0 -6.0695523493298492e-06 -0.0072590044967604933 0 -0.00064624478188906069 -0.0099417463100314185 0 -2.4602366080846546e-06 -0.0072765722307675347 0 0.00030006687278450969 -0.009854684170600975 0 -2.4602366080846546e-06 -0.0072765722307675347 0 2.9069979812863811e-06 -0.010980945472479632 0 0.00030006687278450969 -0.009854684170600975 0 2.9069979812863811e-06 -0.010980945472479632 0 0.00018966115399794985 -0.011150239543121788 0 -3.9708698676679545e-06 -0.014686119760744016 0 2.9069979812863811e-06 -0.010980945472479632 0 0.00018966115399794985 -0.011150239543121788 0 0.00030006687278450969 -0.009854684170600975 0 0.00018966115399794985 -0.011150239543121788 0 7.9553296838627004e-05 -0.010128305830177872 0 0.00030006687278450969 -0.009854684170600975 0 0.00018966115399794985 -0.011150239543121788 0 7.9553296838627004e-05 -0.010128305830177872 0 -0.00056883605602577145 -0.0098881442070599158 0 -0.00064624478188906069 -0.0099417463100314185 0 0.00030006687278450969 -0.009854684170600975 0 -0.00034095045068207978 -0.009948967403915274 0 7.9553296838627004e-05 -0.010128305830177872 0 0.00030006687278450969 -0.009854684170600975 0 -0.00034095045068207978 -0.009948967403915274 0 -0.00034095045068207978 -0.009948967403915274 0 -0.00028636389147729014 -0.0098438014186557725 0 -0.0004024965747369964 -0.0096662930362243424 0 7.9553296838627004e-05 -0.010128305830177872 0 -0.00034095045068207978 -0.009948967403915274 0 -0.00028636389147729014 -0.0098438014186557725 0 -0.00028636389147729014 -0.0098438014186557725 0 -0.00057118753774874052 -0.0096706004983664173 0 -0.00056883605602577145 -0.0098881442070599158 0 7.9553296838627004e-05 -0.010128305830177872 0 -0.00028636389147729014 -0.0098438014186557725 0 -0.00056883605602577145 -0.0098881442070599158 0 -0.00028636389147729014 -0.0098438014186557725 0 -0.00057118753774874052 -0.0096706004983664173 0 -0.0004024965747369964 -0.0096662930362243424 0 -0.00057118753774874052 -0.0096706004983664173 0 -0.0004024965747369964 -0.0096662930362243424 0 -0.0005024281167032847 -0.0095217565214305838 0 -0.00034095045068207978 -0.009948967403915274 0 -0.0004024965747369964 -0.0096662930362243424 0 -0.00046906727752907463 -0.0095529859572365608 0 -0.0004024965747369964 -0.0096662930362243424 0 -0.00046906727752907463 -0.0095529859572365608 0 -0.00045949403330701932 -0.0095231137536285395 0 -0.00034095045068207978 -0.009948967403915274 0 -0.00046906727752907463 -0.0095529859572365608 0 -0.00043817005739964731 -0.0096461302453345089 0 0.00015727803711769502 -0.0028460802284120176 0 0.00014827010556505465 -0.0035177189099757874 0 -0.00046906727752907463 -0.0095529859572365608 0 -0.00043817005739964731 -0.0096461302453345089 0 -0.00059247134309110762 -0.0093152052245063979 0 -0.00073478967798932984 -0.0089048796286998605 0 -0.00043817005739964731 -0.0096461302453345089 0 -0.00059247134309110762 -0.0093152052245063979 0 0.00079993480291028532 0.002737120939134724 0 -0.00092037501829679276 0.00081414269192119678 0 0.00028098386858721312 0.0038451923036313218 0 0.00018137813014594656 -0.0047419447725157056 0 0.00014827010556505465 -0.0035177189099757874 0 -0.00064624478188906069 -0.0099417463100314185 0 -0.00034095045068207978 -0.009948967403915274 0 -0.00043817005739964731 -0.0096461302453345089 0 0.00045045451591907312 -0.022323514427559723 0 -0.00038114972622512757 -0.021654554613869385 0 -0.00087728419254840689 -0.022384155647821351 0 1.224436242459572e-06 -0.023996179462850518 0 0.00045045451591907312 -0.022323514427559723 0 -0.00087728419254840689 -0.022384155647821351 0 -5.4911956733440478e-06 -0.024017189018424576 0 -0.0029845003613698179 -0.028091750294601241 0 -4.7859340146508679e-07 -0.021019529434950855 0 -0.00025966998739276832 -0.020542626019617462 0 1.2966578221103341e-07 -0.021007219449976754 0 -3.1389926810027684e-05 -0.017956832047808707 0 0.00046043607719621453 -0.018105842382479722 0 1.224436242459572e-06 -0.023996179462850518 0 -1.2629995599851573e-06 -0.021036364594367776 0 0.00045045451591907312 -0.022323514427559723 0 -3.1389926810027684e-05 -0.017956832047808707 0 0.00046043607719621453 -0.018105842382479722 0 1.6529042426918682e-05 -0.018439197048047532 0 -3.1389926810027684e-05 -0.017956832047808707 0 1.6529042426918682e-05 -0.018439197048047532 0 -4.6501188966512747e-05 -0.018206758286691122 0 1.2966578221103341e-07 -0.021007219449976754 0 0.00046043607719621453 -0.018105842382479722 0 -1.3710671510257213e-07 -0.014706843065324512 0 -1.2980747233760377e-06 -0.014694216373384247 0 -0.0006990721763100305 -0.014915834097543216 0 0.00046043607719621453 -0.018105842382479722 0 -1.3710671510257213e-07 -0.014706843065324512 0 1.6529042426918682e-05 -0.018439197048047532 0 0.00018966115399794985 -0.011150239543121788 0 -3.9708698676679545e-06 -0.014686119760744016 0 -0.0012910824890201998 -0.010418497890588154 0 0.00018966115399794985 -0.011150239543121788 0 -0.0012910824890201998 -0.010418497890588154 0 -0.00056883605602577145 -0.0098881442070599158 0 -0.0012910824890201998 -0.010418497890588154 0 -0.00056883605602577145 -0.0098881442070599158 0 -0.00095365661488789873 -0.0096451357539138142 0 -0.00057118753774874052 -0.0096706004983664173 0 -0.00056883605602577145 -0.0098881442070599158 0 -0.00095365661488789873 -0.0096451357539138142 0 -0.00057118753774874052 -0.0096706004983664173 0 -0.00095365661488789873 -0.0096451357539138142 0 -0.00084010721253708828 -0.0096215765467096651 0 -3.3221718771797872e-05 -0.018198876636180111 0 1.4435934037146936e-05 -0.018243361853939162 0 2.1395992884813752e-05 -0.01834314850783449 0 -0.0013336589614713194 -0.016046260513623897 0 -0.0012608728871238394 -0.022476760660254138 0 -0.0006990721763100305 -0.014915834097543216 0 -0.0013336589614713194 -0.016046260513623897 0 1.6529042426918682e-05 -0.018439197048047532 0 -3.3221718771797872e-05 -0.018198876636180111 0 -4.6501188966512747e-05 -0.018206758286691122 0 -3.3221718771797872e-05 -0.018198876636180111 0 -4.6501188966512747e-05 -0.018206758286691122 0 1.4435934037146936e-05 -0.018243361853939162 0 0.00045045451591907312 -0.022323514427559723 0 0.00039113856751730834 -0.021411680501905988 0 -0.00038114972622512757 -0.021654554613869385 0 -0.00025966998739276832 -0.020542626019617462 0 -0.0007569236863072382 -0.021053734946495633 0 -3.1389926810027684e-05 -0.017956832047808707 0 -4.6501188966512747e-05 -0.018206758286691122 0 1.4435934037146936e-05 -0.018243361853939162 0 -0.0007569236863072382 -0.021053734946495633 0 -0.0018070427698958691 -0.024801205466249254 0 0.00039113856751730834 -0.021411680501905988 0 -0.00048115114787456565 -0.020870481220280752 0 0.0004075616520055584 -0.020460881722442655 0 0.00039113856751730834 -0.021411680501905988 0 -0.00048115114787456565 -0.020870481220280752 0 -0.00038114972622512757 -0.021654554613869385 0 -0.001193863929499647 -0.040305077119085625 0 -0.0011865368606222559 -0.040445750863722783 0 -0.0010263128099479413 -0.040400190028116546 0 -0.001193863929499647 -0.040305077119085625 0 -0.0013714783892593931 -0.040414172878819578 0 -0.0011865368606222559 -0.040445750863722783 0 -0.0011770534598536879 -0.040136996477868635 0 -0.001193863929499647 -0.040305077119085625 0 -0.0010365739869052338 -0.040228459403840483 0 -0.0011770534598536879 -0.040136996477868635 0 -0.001193863929499647 -0.040305077119085625 0 -0.0013689049952874102 -0.040207025505374326 0 -0.0020207813355819014 -0.031134152775556753 0 -0.0018070427698958691 -0.024801205466249254 0 -0.0018070427698958691 -0.024801205466249254 0 -0.0012608728871238394 -0.022476760660254138 0 -0.00077346140261977587 -0.022718084495393632 0 -0.00082644815792221504 -0.024561348556993642 0 -0.001294556427291984 -0.022966080744460098 0 -0.001193863929499647 -0.040305077119085625 0 -0.0013689049952874102 -0.040207025505374326 0 -0.0013714783892593931 -0.040414172878819578 0 -0.0018070427698958691 -0.024801205466249254 0 -0.0015192172291713455 -0.024673477459227124 0 -0.0015192172291713455 -0.024673477459227124 0 -0.0012608728871238394 -0.022476760660254138 0 -0.00021610724569960679 -0.01052896352886579 0 -0.00063937350134205906 -0.010041150111051443 0 -0.00052694324119868493 -0.0097431031618550653 0 -0.00021610724569960679 -0.01052896352886579 0 -0.00076743704628817635 -0.010369038837198126 0 -0.00063937350134205906 -0.010041150111051443 0 -0.00076743704628817635 -0.010369038837198126 0 -0.00088981352418774902 -0.0099775383715244963 0 -0.0010949314532446167 -0.010347836813049644 0 -0.00076743704628817635 -0.010369038837198126 0 -0.0010949314532446167 -0.010347836813049644 0 -0.00093671812416626268 -0.010559133347211558 0 -0.00076743704628817635 -0.010369038837198126 0 -0.00088981352418774902 -0.0099775383715244963 0 -0.00063937350134205906 -0.010041150111051443 0 -0.00088981352418774902 -0.0099775383715244963 0 -0.00063937350134205906 -0.010041150111051443 0 -0.00074461989027041476 -0.0098716127745485643 0 -0.00063937350134205906 -0.010041150111051443 0 -0.00063566592665274097 -0.009776853059229625 0 -0.00074461989027041476 -0.0098716127745485643 0 -0.00061997516701222451 -0.0097379484441674161 0 -0.00063566592665274097 -0.009776853059229625 0 -0.00084010721253708828 -0.0096215765467096651 0 -0.00095365661488789873 -0.0096451357539138142 0 -0.00061997516701222451 -0.0097379484441674161 0 -0.00084010721253708828 -0.0096215765467096651 0 -3.3221718771797872e-05 -0.018198876636180111 0 2.1395992884813752e-05 -0.01834314850783449 0 -1.3262273218087388e-05 -0.018361432522006092 0 -0.0012608728871238394 -0.022476760660254138 0 -0.0012209093102286662 -0.02242771621377479 0 -0.00063937350134205906 -0.010041150111051443 0 -0.00052694324119868493 -0.0097431031618550653 0 -0.00063566592665274097 -0.009776853059229625 0 -0.00088981352418774902 -0.0099775383715244963 0 -0.00084010721253708828 -0.0096215765467096651 0 -0.00074461989027041476 -0.0098716127745485643 0 -0.00063566592665274097 -0.009776853059229625 0 -0.00084010721253708828 -0.0096215765467096651 0 -0.00074461989027041476 -0.0098716127745485643 0 -0.00084010721253708828 -0.0096215765467096651 0 -0.0014298964371964728 -0.0099727447514653522 0 -0.0011218869484925626 -0.010032333177369982 0 -0.00084010721253708828 -0.0096215765467096651 0 -0.0014298964371964728 -0.0099727447514653522 0 -0.0019382212396181733 -0.0096910637962713212 0 -0.00057118753774874052 -0.0096706004983664173 0 -0.00084010721253708828 -0.0096215765467096651 0 -0.0005024281167032847 -0.0095217565214305838 0 -0.001112090844998616 -0.0095573740193456869 0 -0.0013568205277142693 -0.0095623966627226119 0 -0.00088981352418774902 -0.0099775383715244963 0 -0.00084010721253708828 -0.0096215765467096651 0 -0.0011218869484925626 -0.010032333177369982 0 -0.0014298964371964728 -0.0099727447514653522 0 -0.0011218869484925626 -0.010032333177369982 0 -0.0013015672788269888 -0.010293942516287636 0 -0.0011218869484925626 -0.010032333177369982 0 -0.0010949314532446167 -0.010347836813049644 0 -0.0013015672788269888 -0.010293942516287636 0 -0.00088981352418774902 -0.0099775383715244963 0 -0.0011218869484925626 -0.010032333177369982 0 -0.0010949314532446167 -0.010347836813049644 0 -0.0010949314532446167 -0.010347836813049644 0 -0.0013015672788269888 -0.010293942516287636 0 -0.0012847185570577394 -0.010578536627817662 0 -0.0014298964371964728 -0.0099727447514653522 0 -0.0013015672788269888 -0.010293942516287636 0 -0.0015746671548598629 -0.010538508473581884 0 -0.0013015672788269888 -0.010293942516287636 0 -0.0012847185570577394 -0.010578536627817662 0 -0.0015746671548598629 -0.010538508473581884 0 -0.0012847185570577394 -0.010578536627817662 0 -0.0012298595571094261 -0.011143170381383035 0 -0.0015746671548598629 -0.010538508473581884 0 -0.0010949314532446167 -0.010347836813049644 0 -0.0011035687399189537 -0.010746224094110402 0 -0.00093671812416626268 -0.010559133347211558 0 -0.0012847185570577394 -0.010578536627817662 0 -0.0011035687399189537 -0.010746224094110402 0 -0.0012298595571094261 -0.011143170381383035 0 -0.0010949314532446167 -0.010347836813049644 0 -0.0012847185570577394 -0.010578536627817662 0 -0.0011035687399189537 -0.010746224094110402 0 -0.0011035687399189537 -0.010746224094110402 0 -0.0012298595571094261 -0.011143170381383035 0 -0.00099349039059037306 -0.010938446984844865 0 -0.0012298595571094261 -0.011143170381383035 0 -0.00099349039059037306 -0.010938446984844865 0 -0.00086533017514191452 -0.011084366295892474 0 -0.0040401478638240696 -0.0063220701414157957 0 -0.0040746106128407185 -0.0060598765813713994 0 -0.0037822322322581927 -0.0060473084688795926 0 -0.0040746106128407185 -0.0060598765813713994 0 -0.0040594075294278107 -0.0058595957166606731 0 -0.0037822322322581927 -0.0060473084688795926 0 -0.0040594075294278107 -0.0058595957166606731 0 -0.0044108149066341609 -0.0060071847876727339 0 -0.0042552606130599711 -0.0057178553555120182 0 -0.0040746106128407185 -0.0060598765813713994 0 -0.0040594075294278107 -0.0058595957166606731 0 -0.0044108149066341609 -0.0060071847876727339 0 -0.0062525176517329124 -0.012655594447564205 0 -0.0059486209772091998 -0.013701465948793382 0 -0.0040401478638240696 -0.0063220701414157957 0 -0.0040746106128407185 -0.0060598765813713994 0 -0.0044108149066341609 -0.0060071847876727339 0 -0.0041541441864622235 -0.0063001954612492391 0 -0.0040401478638240696 -0.0063220701414157957 0 -0.0043396777035599231 -0.0062254557862194623 0 -0.00068681576819299545 -0.011360554839507687 0 -0.00052902039166989113 -0.011080637396747335 0 -0.00086533017514191452 -0.011084366295892474 0 -0.0012298595571094261 -0.011143170381383035 0 -0.00068681576819299545 -0.011360554839507687 0 -0.00086533017514191452 -0.011084366295892474 0 -0.0042185145564919884 -0.011924978318122755 0 -0.0042274261609747711 -0.017549756461616207 0 -0.0012298595571094261 -0.011143170381383035 0 -0.00068681576819299545 -0.011360554839507687 0 -0.00034078381241363831 -0.011859147010168913 0 -0.0041541441864622235 -0.0063001954612492391 0 -0.0043396777035599231 -0.0062254557862194623 0 -0.0046146581205573182 -0.0061607873650347351 0 -0.0059486209772091998 -0.013701465948793382 0 -0.0042274261609747711 -0.017549756461616207 0 -0.00068681576819299545 -0.011360554839507687 0 -0.00040881276873353146 -0.011514014553480971 0 -0.00034078381241363831 -0.011859147010168913 0 -0.00040881276873353146 -0.011514014553480971 0 -0.00052902039166989113 -0.011080637396747335 0 -0.00022195759371211672 -0.011221422991946936 0 -0.00068681576819299545 -0.011360554839507687 0 -0.00040881276873353146 -0.011514014553480971 0 -0.00052902039166989113 -0.011080637396747335 0 -0.00052902039166989113 -0.011080637396747335 0 -0.00086533017514191452 -0.011084366295892474 0 -0.00077665902052707078 -0.010780969198913058 0 -0.00099349039059037306 -0.010938446984844865 0 -0.00086533017514191452 -0.011084366295892474 0 -0.00077665902052707078 -0.010780969198913058 0 -0.0011035687399189537 -0.010746224094110402 0 -0.00093671812416626268 -0.010559133347211558 0 -0.00077665902052707078 -0.010780969198913058 0 -0.0011035687399189537 -0.010746224094110402 0 -0.00099349039059037306 -0.010938446984844865 0 -0.00077665902052707078 -0.010780969198913058 0 -0.00076743704628817635 -0.010369038837198126 0 -0.00093671812416626268 -0.010559133347211558 0 -0.00077665902052707078 -0.010780969198913058 0 -0.00021610724569960679 -0.01052896352886579 0 -0.00052902039166989113 -0.011080637396747335 0 -0.00077665902052707078 -0.010780969198913058 0 -0.00021610724569960679 -0.01052896352886579 0 -0.00076743704628817635 -0.010369038837198126 0 -0.00077665902052707078 -0.010780969198913058 0 -0.002007882511231076 -0.02457684422803124 0 -0.0019815248087946893 -0.024567595941803883 0 -0.001986361386027982 -0.024567555645548727 0 -0.0015192172291713455 -0.024673477459227124 0 -0.0001334721807823067 -0.029825620238141417 0 -0.00021610724569960679 -0.01052896352886579 0 -0.00052902039166989113 -0.011080637396747335 0 -0.00022195759371211672 -0.011221422991946936 0 -0.0015192172291713455 -0.024673477459227124 0 -0.0023120030645341393 -0.020627650172434907 0 -0.0013714783892593931 -0.040414172878819578 0 -0.0013038126209226437 -0.040626602878088891 0 -0.0012106828019819078 -0.04055729568515748 0 -0.0023120030645341393 -0.020627650172434907 0 -0.0034868765372486747 -0.019613996396327729 0 -0.0019815248087946893 -0.024567595941803883 0 -0.001986361386027982 -0.024567555645548727 0 -0.0019738929305066271 -0.024562353026590916 0 -0.00040881276873353146 -0.011514014553480971 0 -0.00022195759371211672 -0.011221422991946936 0 -0.00024776658738501737 -0.011930210687647347 0 -0.00040881276873353146 -0.011514014553480971 0 -0.00034078381241363831 -0.011859147010168913 0 -0.00024776658738501737 -0.011930210687647347 0 -0.0011485083424450312 -0.040702419145986171 0 -0.0012106828019819078 -0.04055729568515748 0 -0.0010475331931531495 -0.040594354061333007 0 -0.0013038126209226437 -0.040626602878088891 0 -0.0011485083424450312 -0.040702419145986171 0 -0.0012360802885018158 -0.040827653008399294 0 -0.0013038126209226437 -0.040626602878088891 0 -0.0011485083424450312 -0.040702419145986171 0 -0.0012106828019819078 -0.04055729568515748 0 -0.0013714783892593931 -0.040414172878819578 0 -0.0012106828019819078 -0.04055729568515748 0 -0.0011865368606222559 -0.040445750863722783 0 -0.0012106828019819078 -0.04055729568515748 0 -0.0011865368606222559 -0.040445750863722783 0 -0.0010475331931531495 -0.040594354061333007 0 -0.0025059357291472924 -0.0075340713316863223 0 -0.0021208166736582179 -0.0079606904371673799 0 -0.0028200007699405796 -0.0078040602910589658 0 -0.0025059357291472924 -0.0075340713316863223 0 -0.0029188062458146333 -0.0072096127995237552 0 -0.0028200007699405796 -0.0078040602910589658 0 -0.0029188062458146333 -0.0072096127995237552 0 -0.002520607987932166 -0.0070693217191926862 0 -0.0030199231321995576 -0.0066329677779767542 0 -0.0025059357291472924 -0.0075340713316863223 0 -0.0029188062458146333 -0.0072096127995237552 0 -0.002520607987932166 -0.0070693217191926862 0 -0.0025059357291472924 -0.0075340713316863223 0 -0.002520607987932166 -0.0070693217191926862 0 -0.0021730192601510023 -0.0074359650972992183 0 -0.002520607987932166 -0.0070693217191926862 0 -0.0021730192601510023 -0.0074359650972992183 0 -0.0018843842944363193 -0.0067901394033975425 0 -0.00085939680073919046 -0.0083032309642778468 0 -0.0015825160226976345 -0.0075161305021012054 0 -0.0021208166736582179 -0.0079606904371673799 0 -0.0015825160226976345 -0.0075161305021012054 0 -0.0021730192601510023 -0.0074359650972992183 0 -0.0018843842944363193 -0.0067901394033975425 0 -0.0015825160226976345 -0.0075161305021012054 0 -0.0021730192601510023 -0.0074359650972992183 0 -0.0021208166736582179 -0.0079606904371673799 0 -0.0025059357291472924 -0.0075340713316863223 0 -0.0021730192601510023 -0.0074359650972992183 0 -0.0021208166736582179 -0.0079606904371673799 0 -0.00070527323415402708 -0.0091672345140120723 0 -0.00059247134309110762 -0.0093152052245063979 0 -0.0005445850458903153 -0.0093862002884735618 0 -0.0010554820113618684 -0.0091515236282043774 0 -0.0013410316521643929 -0.0092641260967891541 0 -0.00085939680073919046 -0.0083032309642778468 0 -0.00073478967798932984 -0.0089048796286998605 0 -0.00070527323415402708 -0.0091672345140120723 0 -0.00073478967798932984 -0.0089048796286998605 0 -0.00070527323415402708 -0.0091672345140120723 0 -0.00059247134309110762 -0.0093152052245063979 0 -0.0013410316521643929 -0.0092641260967891541 0 -0.0020150577811768205 -0.0095757189958448879 0 -0.00070527323415402708 -0.0091672345140120723 0 -0.0005445850458903153 -0.0093862002884735618 0 -0.00050434344555539703 -0.0094511633010421515 0 -0.00046906727752907463 -0.0095529859572365608 0 -0.00059247134309110762 -0.0093152052245063979 0 -0.0005445850458903153 -0.0093862002884735618 0 -0.0005445850458903153 -0.0093862002884735618 0 -0.0004833619611347521 -0.0094559170002699675 0 -0.00045949403330701932 -0.0095231137536285395 0 -0.0019747153573870797 -0.009593063550002421 0 -0.0020150577811768205 -0.0095757189958448879 0 -0.00046906727752907463 -0.0095529859572365608 0 -0.0005445850458903153 -0.0093862002884735618 0 -0.00045949403330701932 -0.0095231137536285395 0 -0.0004833619611347521 -0.0094559170002699675 0 -0.00045949403330701932 -0.0095231137536285395 0 -0.0005024281167032847 -0.0095217565214305838 0 -0.0020150577811768205 -0.0095757189958448879 0 -0.0013568205277142693 -0.0095623966627226119 0 -0.0004024965747369964 -0.0096662930362243424 0 -0.00045949403330701932 -0.0095231137536285395 0 -0.0005024281167032847 -0.0095217565214305838 0 -0.0014298964371964728 -0.0099727447514653522 0 -0.0019382212396181733 -0.0096910637962713212 0 -0.0020851548737721437 -0.010479265110070895 0 -0.0014298964371964728 -0.0099727447514653522 0 -0.0020851548737721437 -0.010479265110070895 0 -0.0015746671548598629 -0.010538508473581884 0 -0.0029710109211776256 -0.0098118290498370418 0 -0.0019382212396181733 -0.0096910637962713212 0 -0.0020851548737721437 -0.010479265110070895 0 -0.0020150577811768205 -0.0095757189958448879 0 -0.0033511966794693522 -0.0099861837295682036 0 -0.0029188062458146333 -0.0072096127995237552 0 -0.0028200007699405796 -0.0078040602910589658 0 -0.0035940274329764408 -0.0068942607211431488 0 -0.0029188062458146333 -0.0072096127995237552 0 -0.0035940274329764408 -0.0068942607211431488 0 -0.0030199231321995576 -0.0066329677779767542 0 -0.0035940274329764408 -0.0068942607211431488 0 -0.0030199231321995576 -0.0066329677779767542 0 -0.0034817006738691357 -0.0062909154309159689 0 -0.0030199231321995576 -0.0066329677779767542 0 -0.0034817006738691357 -0.0062909154309159689 0 -0.0029481026161235486 -0.0060289005290553796 0 -0.0012298595571094261 -0.011143170381383035 0 -0.0020851548737721437 -0.010479265110070895 0 -0.0015746671548598629 -0.010538508473581884 0 -0.0041541441864622235 -0.0063001954612492391 0 -0.0040401478638240696 -0.0063220701414157957 0 -0.0035940274329764408 -0.0068942607211431488 0 -0.0040401478638240696 -0.0063220701414157957 0 -0.0035940274329764408 -0.0068942607211431488 0 -0.0034817006738691357 -0.0062909154309159689 0 -0.0042185145564919884 -0.011924978318122755 0 -0.0033511966794693522 -0.0099861837295682036 0 -0.0034817006738691357 -0.0062909154309159689 0 -0.0037822322322581927 -0.0060473084688795926 0 -0.0033734114663719161 -0.0057132613172841337 0 -0.0040401478638240696 -0.0063220701414157957 0 -0.0034817006738691357 -0.0062909154309159689 0 -0.0037822322322581927 -0.0060473084688795926 0 -0.0037822322322581927 -0.0060473084688795926 0 -0.0033734114663719161 -0.0057132613172841337 0 -0.0037747609908301192 -0.0056415285874460933 0 -0.0040594075294278107 -0.0058595957166606731 0 -0.0037822322322581927 -0.0060473084688795926 0 -0.0037747609908301192 -0.0056415285874460933 0 -0.0034817006738691357 -0.0062909154309159689 0 -0.0029481026161235486 -0.0060289005290553796 0 -0.0033734114663719161 -0.0057132613172841337 0 -0.0029481026161235486 -0.0060289005290553796 0 -0.0033734114663719161 -0.0057132613172841337 0 -0.0028254328482710468 -0.0054311645104779911 0 -0.0029481026161235486 -0.0060289005290553796 0 -0.0023250434858603096 -0.0056843841264874427 0 -0.0028254328482710468 -0.0054311645104779911 0 -0.0029481026161235486 -0.0060289005290553796 0 -0.0023250434858603096 -0.0056843841264874427 0 -0.0025065269652483676 -0.0063890956535491341 0 -0.0030199231321995576 -0.0066329677779767542 0 -0.0029481026161235486 -0.0060289005290553796 0 -0.0025065269652483676 -0.0063890956535491341 0 -0.002520607987932166 -0.0070693217191926862 0 -0.0030199231321995576 -0.0066329677779767542 0 -0.0025065269652483676 -0.0063890956535491341 0 -0.002520607987932166 -0.0070693217191926862 0 -0.0025065269652483676 -0.0063890956535491341 0 -0.0018843842944363193 -0.0067901394033975425 0 -0.0025065269652483676 -0.0063890956535491341 0 -0.0018843842944363193 -0.0067901394033975425 0 -0.0019907962899153525 -0.0061436178218258301 0 -0.0014843038206539113 -0.0061501927282938034 0 -0.0018843842944363193 -0.0067901394033975425 0 -0.0019907962899153525 -0.0061436178218258301 0 -0.0016929222922735675 -0.0056170199692344496 0 -0.0023250434858603096 -0.0056843841264874427 0 -0.0019907962899153525 -0.0061436178218258301 0 -0.0016929222922735675 -0.0056170199692344496 0 -0.0023250434858603096 -0.0056843841264874427 0 -0.0018333960690978151 -0.005263500466188481 0 -0.0023250434858603096 -0.0056843841264874427 0 -0.0025065269652483676 -0.0063890956535491341 0 -0.0019907962899153525 -0.0061436178218258301 0 -0.0014843038206539113 -0.0061501927282938034 0 -0.0016929222922735675 -0.0056170199692344496 0 -0.0019907962899153525 -0.0061436178218258301 0 -0.001507535348380578 -0.004943135087558905 0 -0.0018333960690978151 -0.005263500466188481 0 -0.0022400381029112652 -0.0049996268948137544 0 -0.0023250434858603096 -0.0056843841264874427 0 -0.0018333960690978151 -0.005263500466188481 0 -0.0022400381029112652 -0.0049996268948137544 0 -0.0028254328482710468 -0.0054311645104779911 0 -0.0022400381029112652 -0.0049996268948137544 0 -0.0028725634679053016 -0.0049395608096456621 0 -0.0023250434858603096 -0.0056843841264874427 0 -0.0028254328482710468 -0.0054311645104779911 0 -0.0022400381029112652 -0.0049996268948137544 0 -0.0022400381029112652 -0.0049996268948137544 0 -0.0025860221269017021 -0.004536956577879483 0 -0.0028725634679053016 -0.0049395608096456621 0 -0.0022400381029112652 -0.0049996268948137544 0 -0.0021161777159009127 -0.0044253429707336806 0 -0.0025860221269017021 -0.004536956577879483 0 -0.001507535348380578 -0.004943135087558905 0 -0.0022400381029112652 -0.0049996268948137544 0 -0.0021161777159009127 -0.0044253429707336806 0 -0.0021161777159009127 -0.0044253429707336806 0 -0.0025860221269017021 -0.004536956577879483 0 -0.0026857827066922762 -0.003915888583781414 0 -0.0025860221269017021 -0.004536956577879483 0 -0.0026857827066922762 -0.003915888583781414 0 -0.0030240958938058298 -0.0044305145659946374 0 -0.0025860221269017021 -0.004536956577879483 0 -0.0030240958938058298 -0.0044305145659946374 0 -0.0028725634679053016 -0.0049395608096456621 0 -0.0044242554437500022 0.006610732361242439 0 -0.0062925648104028122 0.0032415744001342856 0 -0.0063499712627609365 0.0059691296637378877 0 -0.0062925648104028122 0.0032415744001342856 0 -0.0080322417500698143 0.0061109920722810336 0 -0.0063499712627609365 0.0059691296637378877 0 -0.0047883578497974243 -0.0015681462859004254 0 -0.0064326794389062327 -0.0013106066578018397 0 -0.0035308802797609181 -0.0041412292402508346 0 -0.0041045350650462855 -0.0041744341037778477 0 -0.0036004323358861264 -0.0037485191499174674 0 -0.0035308802797609181 -0.0041412292402508346 0 -0.0031870217663554868 -0.0038744935883214576 0 -0.0036004323358861264 -0.0037485191499174674 0 -0.0026857827066922762 -0.003915888583781414 0 -0.0030240958938058298 -0.0044305145659946374 0 -0.0031870217663554868 -0.0038744935883214576 0 -0.0035308802797609181 -0.0041412292402508346 0 -0.0030240958938058298 -0.0044305145659946374 0 -0.0031870217663554868 -0.0038744935883214576 0 -0.0030240958938058298 -0.0044305145659946374 0 -0.003471765976898104 -0.0045520545476232027 0 -0.0034139308743341141 -0.0049661052738327492 0 -0.0035308802797609181 -0.0041412292402508346 0 -0.0030240958938058298 -0.0044305145659946374 0 -0.003471765976898104 -0.0045520545476232027 0 -0.0035308802797609181 -0.0041412292402508346 0 -0.003471765976898104 -0.0045520545476232027 0 -0.0038811016667050177 -0.0045167540662171901 0 -0.003471765976898104 -0.0045520545476232027 0 -0.0038741494542603944 -0.0049150048009813617 0 -0.0038811016667050177 -0.0045167540662171901 0 -0.003471765976898104 -0.0045520545476232027 0 -0.0034139308743341141 -0.0049661052738327492 0 -0.0038741494542603944 -0.0049150048009813617 0 -0.0034139308743341141 -0.0049661052738327492 0 -0.0037865104340142064 -0.0052419932427311359 0 -0.0035256200865639831 -0.0053652987092141285 0 -0.0034139308743341141 -0.0049661052738327492 0 -0.0032076176739446109 -0.0052820085317598648 0 -0.0035256200865639831 -0.0053652987092141285 0 -0.0034139308743341141 -0.0049661052738327492 0 -0.0037865104340142064 -0.0052419932427311359 0 -0.0038741494542603944 -0.0049150048009813617 0 -0.0034139308743341141 -0.0049661052738327492 0 -0.0028725634679053016 -0.0049395608096456621 0 -0.0032076176739446109 -0.0052820085317598648 0 -0.0030240958938058298 -0.0044305145659946374 0 -0.0034139308743341141 -0.0049661052738327492 0 -0.0028725634679053016 -0.0049395608096456621 0 -0.0033734114663719161 -0.0057132613172841337 0 -0.0028254328482710468 -0.0054311645104779911 0 -0.0032076176739446109 -0.0052820085317598648 0 -0.0028254328482710468 -0.0054311645104779911 0 -0.0028725634679053016 -0.0049395608096456621 0 -0.0032076176739446109 -0.0052820085317598648 0 -0.0033734114663719161 -0.0057132613172841337 0 -0.0032076176739446109 -0.0052820085317598648 0 -0.0035256200865639831 -0.0053652987092141285 0 -0.0037865104340142064 -0.0052419932427311359 0 -0.0035256200865639831 -0.0053652987092141285 0 -0.0037747609908301192 -0.0056415285874460933 0 -0.0033734114663719161 -0.0057132613172841337 0 -0.0035256200865639831 -0.0053652987092141285 0 -0.0037747609908301192 -0.0056415285874460933 0 -0.0040594075294278107 -0.0058595957166606731 0 -0.0037747609908301192 -0.0056415285874460933 0 -0.0040826087332392902 -0.0055396794618104784 0 -0.0037865104340142064 -0.0052419932427311359 0 -0.0037747609908301192 -0.0056415285874460933 0 -0.0040826087332392902 -0.0055396794618104784 0 -0.0037865104340142064 -0.0052419932427311359 0 -0.0040826087332392902 -0.0055396794618104784 0 -0.0041280253976069617 -0.0052451014878867989 0 -0.0040826087332392902 -0.0055396794618104784 0 -0.0044627727715004766 -0.0054631743082469691 0 -0.0041280253976069617 -0.0052451014878867989 0 -0.0040826087332392902 -0.0055396794618104784 0 -0.0042552606130599711 -0.0057178553555120182 0 -0.0044627727715004766 -0.0054631743082469691 0 -0.0040594075294278107 -0.0058595957166606731 0 -0.0040826087332392902 -0.0055396794618104784 0 -0.0042552606130599711 -0.0057178553555120182 0 -0.0044108149066341609 -0.0060071847876727339 0 -0.0042552606130599711 -0.0057178553555120182 0 -0.0044627727715004766 -0.0054631743082469691 0 -0.0044627727715004766 -0.0054631743082469691 0 -0.0048513138376478108 -0.0056993567449707084 0 -0.004768680338098354 -0.0048107919830038736 0 -0.0044108149066341609 -0.0060071847876727339 0 -0.0044627727715004766 -0.0054631743082469691 0 -0.0047858570959218565 -0.0057484463955053055 0 -0.0044627727715004766 -0.0054631743082469691 0 -0.0047858570959218565 -0.0057484463955053055 0 -0.0048513138376478108 -0.0056993567449707084 0 -0.0044627727715004766 -0.0054631743082469691 0 -0.0042478243487996652 -0.0048540440999573532 0 -0.004768680338098354 -0.0048107919830038736 0 -0.0044627727715004766 -0.0054631743082469691 0 -0.0042478243487996652 -0.0048540440999573532 0 -0.0041280253976069617 -0.0052451014878867989 0 -0.0042478243487996652 -0.0048540440999573532 0 -0.0038741494542603944 -0.0049150048009813617 0 -0.0041280253976069617 -0.0052451014878867989 0 -0.0037865104340142064 -0.0052419932427311359 0 -0.0038741494542603944 -0.0049150048009813617 0 -0.0041280253976069617 -0.0052451014878867989 0 -0.0012360802885018158 -0.040827653008399294 0 -0.0010247126617943876 -0.04090238480616331 0 -0.0010671645359291398 -0.040804553529887877 0 -0.0011485083424450312 -0.040702419145986171 0 -0.0012360802885018158 -0.040827653008399294 0 -0.0010671645359291398 -0.040804553529887877 0 -0.002574301200611172 -0.039584023756204519 0 -0.0037448452502982046 -0.038806753249651875 0 -0.0038126467792402243 -0.041385311462092976 0 -0.0019815248087946893 -0.024567595941803883 0 -0.0019598130785358184 -0.024568144197547246 0 -0.0019738929305066271 -0.024562353026590916 0 -0.0001334721807823067 -0.029825620238141417 0 0.00079837474948663348 -0.03002064718511243 0 0.00079837474948663348 -0.03002064718511243 0 -0.0034868765372486747 -0.019613996396327729 0 -0.0042274261609747711 -0.017549756461616207 0 -0.0034868765372486747 -0.019613996396327729 0 -0.002574301200611172 -0.039584023756204519 0 -0.0031710387293405217 -0.041313106711346796 0 -0.0038126467792402243 -0.041385311462092976 0 -0.002574301200611172 -0.039584023756204519 0 -0.0023683422552917607 -0.040746027888043913 0 -0.0031710387293405217 -0.041313106711346796 0 -0.0034868765372486747 -0.019613996396327729 0 -0.0030137148353131219 -0.022993759270481372 0 -0.0023683422552917607 -0.040746027888043913 0 -0.0019737896568265442 -0.041453098846201464 0 -0.0031710387293405217 -0.041313106711346796 0 -0.0023839275707803489 -0.039734683316654584 0 -0.0017316785393225479 -0.040506059656306853 0 -0.00098644129902428733 -0.040989161185093624 0 -0.0012360802885018158 -0.040827653008399294 0 -0.0010247126617943876 -0.04090238480616331 0 -0.00098644129902428733 -0.040989161185093624 0 0.00079837474948663348 -0.03002064718511243 0 0.0017056812290676634 -0.033949826280473161 0 -0.002574301200611172 -0.039584023756204519 0 -0.0023683422552917607 -0.040746027888043913 0 -0.0017316785393225479 -0.040506059656306853 0 0.00079837474948663348 -0.03002064718511243 0 0.001297549587996072 -0.031581439791292173 0 -0.0023683422552917607 -0.040746027888043913 0 -0.0017316785393225479 -0.040506059656306853 0 -0.0019737896568265442 -0.041453098846201464 0 -0.0017316785393225479 -0.040506059656306853 0 -0.0019737896568265442 -0.041453098846201464 0 -0.001297195518995967 -0.041198798481343668 0 -0.0013017229812909425 -0.042737839172481376 0 -0.001228110849875588 -0.044183688691765505 0 0.00053397284618422443 -0.04202992541122811 0 -0.0012924318145493853 -0.041658814517797307 0 -0.0023608413288228598 -0.042397154835385836 0 -0.0031710387293405217 -0.041313106711346796 0 -0.0013017229812909425 -0.042737839172481376 0 -0.0012924318145493853 -0.041658814517797307 0 0.00053397284618422443 -0.04202992541122811 0 -0.0020897268879163191 -0.049886707563856894 0 -0.0026383398256431892 -0.048973933827144454 0 -0.0013017229812909425 -0.042737839172481376 0 -0.0023608413288228598 -0.042397154835385836 0 -0.0021477203937010627 -0.043412718246888797 0 -0.0013017229812909425 -0.042737839172481376 0 -0.0012924318145493853 -0.041658814517797307 0 -0.0023608413288228598 -0.042397154835385836 0 -0.0023608413288228598 -0.042397154835385836 0 -0.003231924780816367 -0.04311384558342668 0 -0.0021477203937010627 -0.043412718246888797 0 -0.0023608413288228598 -0.042397154835385836 0 -0.0031527188084583243 -0.042046621249580599 0 -0.003231924780816367 -0.04311384558342668 0 -0.0023608413288228598 -0.042397154835385836 0 -0.0031710387293405217 -0.041313106711346796 0 -0.0031527188084583243 -0.042046621249580599 0 -0.0031710387293405217 -0.041313106711346796 0 -0.0031527188084583243 -0.042046621249580599 0 -0.0038126467792402243 -0.041385311462092976 0 -0.0031527188084583243 -0.042046621249580599 0 -0.0038126467792402243 -0.041385311462092976 0 -0.003231924780816367 -0.04311384558342668 0 -0.0030137148353131219 -0.022993759270481372 0 -0.0014604278543325772 -0.025121981050714264 0 -0.0038126467792402243 -0.041385311462092976 0 -0.003231924780816367 -0.04311384558342668 0 -0.0039512311708050042 -0.044780720425028557 0 -0.003231924780816367 -0.04311384558342668 0 -0.0026521980071909494 -0.044282080889256059 0 -0.0039512311708050042 -0.044780720425028557 0 -0.003231924780816367 -0.04311384558342668 0 -0.0026521980071909494 -0.044282080889256059 0 -0.0021477203937010627 -0.043412718246888797 0 -0.0013017229812909425 -0.042737839172481376 0 -0.0021477203937010627 -0.043412718246888797 0 -0.001228110849875588 -0.044183688691765505 0 -0.0026521980071909494 -0.044282080889256059 0 -0.0021477203937010627 -0.043412718246888797 0 -0.001228110849875588 -0.044183688691765505 0 -0.0026521980071909494 -0.044282080889256059 0 -0.001228110849875588 -0.044183688691765505 0 -0.0024157739040416766 -0.045624551209248736 0 -0.0042478243487996652 -0.0048540440999573532 0 -0.0038811016667050177 -0.0045167540662171901 0 -0.0041045350650462855 -0.0041744341037778477 0 -0.0042478243487996652 -0.0048540440999573532 0 -0.0038741494542603944 -0.0049150048009813617 0 -0.0038811016667050177 -0.0045167540662171901 0 -0.0042478243487996652 -0.0048540440999573532 0 -0.004768680338098354 -0.0048107919830038736 0 -0.0041045350650462855 -0.0041744341037778477 0 -0.004768680338098354 -0.0048107919830038736 0 -0.0041045350650462855 -0.0041744341037778477 0 -0.0046721142799065725 -0.0039893644752222804 0 -0.0035308802797609181 -0.0041412292402508346 0 -0.0038811016667050177 -0.0045167540662171901 0 -0.0041045350650462855 -0.0041744341037778477 0 -0.0041045350650462855 -0.0041744341037778477 0 -0.0039224918536397164 -0.0033138544750863429 0 -0.0046721142799065725 -0.0039893644752222804 0 -0.0041045350650462855 -0.0041744341037778477 0 -0.0039224918536397164 -0.0033138544750863429 0 -0.0036004323358861264 -0.0037485191499174674 0 -0.0046105140092833246 -0.0032364621971334353 0 -0.0039224918536397164 -0.0033138544750863429 0 -0.0046721142799065725 -0.0039893644752222804 0 0.002329472226768309 -0.030736526951983412 0 -0.0031315300195524473 -0.015292214494787954 0 0.0062757519350513441 -0.013977808675211371 0 -0.00077172821675819121 -0.012433045280078743 0 0.0015094912694114536 -0.014940188293908816 0 -0.0024157739040416766 -0.045624551209248736 0 -0.00083033765410966541 -0.047214966205616514 0 0.0010346499831406972 -0.045902343457893846 0 -0.001228110849875588 -0.044183688691765505 0 -0.0024157739040416766 -0.045624551209248736 0 0.00061335771100149859 -0.045851396111849393 0 -0.00062451451432249177 -0.055393806820552921 0 0.0024297671626343229 -0.059147012632479276 0 -0.0024157739040416766 -0.045624551209248736 0 -0.0039512311708050042 -0.044780720425028557 0 -0.0025202414184949348 -0.047274298684214532 0 0.002329472226768309 -0.030736526951983412 0 -0.0014604278543325772 -0.025121981050714264 0 -0.0026521980071909494 -0.044282080889256059 0 -0.0024157739040416766 -0.045624551209248736 0 -0.0039512311708050042 -0.044780720425028557 0 -0.0040424836775488438 -0.048301530358218686 0 -0.0039512311708050042 -0.044780720425028557 0 -0.0025202414184949348 -0.047274298684214532 0 -0.0040424836775488438 -0.048301530358218686 0 -0.0025202414184949348 -0.047274298684214532 0 -0.0015298725821351069 -0.048899891660698337 0 -0.0024157739040416766 -0.045624551209248736 0 -0.0025202414184949348 -0.047274298684214532 0 -0.00083033765410966541 -0.047214966205616514 0 -0.0025202414184949348 -0.047274298684214532 0 -0.00083033765410966541 -0.047214966205616514 0 -0.0015298725821351069 -0.048899891660698337 0 0.010063909024750959 -0.047670300440754515 0 0.010309509626189187 -0.04892789377348479 0 0.011468742730449852 -0.048011415590622976 0 -0.00083033765410966541 -0.047214966205616514 0 -0.0015298725821351069 -0.048899891660698337 0 0.0010259348002928253 -0.0494880713518982 0 0.0086472582890724497 -0.047328630372430514 0 0.010063909024750959 -0.047670300440754515 0 0.0086144632723606004 -0.049059097804691261 0 0.002329472226768309 -0.030736526951983412 0 0.0050822229612021612 -0.047217259051751233 0 0.010309509626189187 -0.04892789377348479 0 0.0086144632723606004 -0.049059097804691261 0 0.010127492534428456 -0.050298769981359674 0 0.010063909024750959 -0.047670300440754515 0 0.010309509626189187 -0.04892789377348479 0 0.0086144632723606004 -0.049059097804691261 0 -0.00077172821675819121 -0.012433045280078743 0 0.00019556100853980159 -0.015886769938621651 0 -0.0042860199685857926 -0.015154180523907526 0 0.00013860861622039844 -0.017491704185279133 0 0.00019556100853980159 -0.015886769938621651 0 -0.0042860199685857926 -0.015154180523907526 0 0.00013860861622039844 -0.017491704185279133 0 -0.00085043030128195934 -0.019370270442699615 0 -0.0042860199685857926 -0.015154180523907526 0 0.0018260136973703377 -0.017147018578441954 0 0.00011759898575792165 -0.01760160852906895 0 0.0024269691788797372 -0.019640304229713513 0 0.0018260136973703377 -0.017147018578441954 0 0.00011759898575792165 -0.01760160852906895 0 0.0015094912694114536 -0.014940188293908816 0 -0.0016848923958409263 -0.010763760509966049 0 -0.0016654618881782322 -0.011090918528096986 0 -0.00077172821675819121 -0.012433045280078743 0 0.0015094912694114536 -0.014940188293908816 0 0.00019556100853980159 -0.015886769938621651 0 -0.0016848923958409263 -0.010763760509966049 0 -0.001740247440968192 -0.011358507961240582 0 0.00012627544326791653 -0.017483096299694093 0 0.0015094912694114536 -0.014940188293908816 0 0.00019556100853980159 -0.015886769938621651 0 0.002329472226768309 -0.030736526951983412 0 0.0056915049417790471 -0.033736285238523595 0 0.0062757519350513441 -0.013977808675211371 0 0.0035422227506328183 -0.017196398646673342 0 0.0061004790490557246 -0.020943263924169748 0 0.0062757519350513441 -0.013977808675211371 0 0.0015094912694114536 -0.014940188293908816 0 0.0035422227506328183 -0.017196398646673342 0 0.0018260136973703377 -0.017147018578441954 0 0.0035422227506328183 -0.017196398646673342 0 0.0024269691788797372 -0.019640304229713513 0 0.0018260136973703377 -0.017147018578441954 0 0.0015094912694114536 -0.014940188293908816 0 0.0035422227506328183 -0.017196398646673342 0 0.0024269691788797372 -0.019640304229713513 0 0.0061004790490557246 -0.020943263924169748 0 0.002960416491977052 -0.024300597681721894 0 0.0035422227506328183 -0.017196398646673342 0 0.0024269691788797372 -0.019640304229713513 0 0.0061004790490557246 -0.020943263924169748 0 -0.00047908421026628427 -0.0086094192047248743 0 -0.00080575132708774464 -0.0082030309307242026 0 0.00059153265672576673 -0.0065868674310914799 0 0.0024269691788797372 -0.019640304229713513 0 1.6018170652651537e-05 -0.020661726038574746 0 0.002960416491977052 -0.024300597681721894 0 -0.00032046441067160562 -0.011708368012053582 0 0.0037737569734424873 -0.022061904120541983 0 0.00011759898575792165 -0.01760160852906895 0 0.0024269691788797372 -0.019640304229713513 0 1.6018170652651537e-05 -0.020661726038574746 0 -0.0015631223655102103 -0.010457843281408776 0 -7.1152295448150807e-05 -0.0076229573492930637 0 -0.0013961900942599074 -0.005982857198832763 0 -0.0016848923958409263 -0.010763760509966049 0 -0.00032046441067160562 -0.011708368012053582 0 -0.0016848923958409263 -0.010763760509966049 0 -0.0020368734518276684 -0.0076481595503204193 0 -0.0020368734518276684 -0.0076481595503204193 0 -0.00032046441067160562 -0.011708368012053582 0 -0.011696800590178958 0.011556471712949762 0 -0.010047776085119911 0.011725383769547954 0 -0.010667998857048213 0.013493908157723082 0 -0.0020368734518276684 -0.0076481595503204193 0 -0.0015686325806774351 -0.00016207675183224754 0 -0.011696800590178958 0.011556471712949762 0 -0.010047776085119911 0.011725383769547954 0 -0.010538529550507091 0.010077730664623122 0 -0.0020368734518276684 -0.0076481595503204193 0 -0.0058145013452774764 -0.0046023393767037511 0 -0.010047776085119911 0.011725383769547954 0 -0.010538529550507091 0.010077730664623122 0 -0.0086784303875860318 0.010821730175423568 0 -0.010538529550507091 0.010077730664623122 0 -0.0086784303875860318 0.010821730175423568 0 -0.0087412328060421929 0.0094701169270524615 0 -0.010047776085119911 0.011725383769547954 0 -0.0086784303875860318 0.010821730175423568 0 -0.0086549425888861383 0.012688401314981409 0 -0.010047776085119911 0.011725383769547954 0 -0.0086549425888861383 0.012688401314981409 0 -0.010667998857048213 0.013493908157723082 0 -0.0086549425888861383 0.012688401314981409 0 -0.007334832159271807 0.011552297952090741 0 -0.0065865302961911881 0.013096336497483544 0 -0.0086784303875860318 0.010821730175423568 0 -0.0086549425888861383 0.012688401314981409 0 -0.007334832159271807 0.011552297952090741 0 -0.0051701707386932654 0.012496190877601673 0 -0.0057876802101115288 0.011159685122414819 0 -0.0065865302961911881 0.013096336497483544 0 -0.007334832159271807 0.011552297952090741 0 -0.0057876802101115288 0.011159685122414819 0 -0.0065865302961911881 0.013096336497483544 0 -0.007334832159271807 0.011552297952090741 0 -0.0057876802101115288 0.011159685122414819 0 -0.0072470111619503336 0.0097398075244082716 0 -0.0051805549444525149 0.0091598250937514024 0 -0.0057876802101115288 0.011159685122414819 0 -0.0072470111619503336 0.0097398075244082716 0 -0.0086784303875860318 0.010821730175423568 0 -0.007334832159271807 0.011552297952090741 0 -0.0072470111619503336 0.0097398075244082716 0 -0.0086784303875860318 0.010821730175423568 0 -0.0072470111619503336 0.0097398075244082716 0 -0.0087412328060421929 0.0094701169270524615 0 -0.0072470111619503336 0.0097398075244082716 0 -0.0085968925452309265 0.0082942876488581244 0 -0.0087412328060421929 0.0094701169270524615 0 -0.0072470111619503336 0.0097398075244082716 0 -0.0085968925452309265 0.0082942876488581244 0 -0.0066921403194790787 0.0077140366472047079 0 -0.0051805549444525149 0.0091598250937514024 0 -0.0072470111619503336 0.0097398075244082716 0 -0.0066921403194790787 0.0077140366472047079 0 -0.0044242554437500022 0.006610732361242439 0 -0.0051805549444525149 0.0091598250937514024 0 -0.0066921403194790787 0.0077140366472047079 0 -0.0044242554437500022 0.006610732361242439 0 -0.0063499712627609365 0.0059691296637378877 0 -0.0066921403194790787 0.0077140366472047079 0 -0.0080322417500698143 0.0061109920722810336 0 -0.0063499712627609365 0.0059691296637378877 0 -0.0066921403194790787 0.0077140366472047079 0 -0.0080322417500698143 0.0061109920722810336 0 -0.0085968925452309265 0.0082942876488581244 0 -0.0066921403194790787 0.0077140366472047079 0 -0.0026857827066922762 -0.003915888583781414 0 -0.0031870217663554868 -0.0038744935883214576 0 -0.0031973453243815692 -0.0034040832272236813 0 -0.0080322417500698143 0.0061109920722810336 0 -0.0085968925452309265 0.0082942876488581244 0 -0.009626519046886297 0.0085424000635107734 0 -0.0064326794389062327 -0.0013106066578018397 0 -0.0067310949913921263 -0.0051211165386825198 0 -0.0031870217663554868 -0.0038744935883214576 0 -0.0036004323358861264 -0.0037485191499174674 0 -0.0031973453243815692 -0.0034040832272236813 0 -0.00077172821675819121 -0.012433045280078743 0 -0.0042860199685857926 -0.015154180523907526 0 -0.0077153148818374191 -0.010915813654301592 0 -0.0031315300195524473 -0.015292214494787954 0 -0.0067310949913921263 -0.0051211165386825198 0 -0.0058145013452774764 -0.0046023393767037511 0 -0.0067310949913921263 -0.0051211165386825198 0 -0.0039224918536397164 -0.0033138544750863429 0 -0.0036004323358861264 -0.0037485191499174674 0 -0.0031973453243815692 -0.0034040832272236813 0 -0.010538529550507091 0.010077730664623122 0 -0.0087412328060421929 0.0094701169270524615 0 -0.0094252089649498084 0.0085543401722570182 0 -0.0085968925452309265 0.0082942876488581244 0 -0.0087412328060421929 0.0094701169270524615 0 -0.0094252089649498084 0.0085543401722570182 0 -0.0073342568055911389 -0.0044742599911244754 0 -0.0067310949913921263 -0.0051211165386825198 0 0.0082615219562152606 -0.07331374702494263 0 0.0077896474064152524 -0.073016103241360167 0 0.0077373724505462099 -0.073739228897670692 0 0.0082615219562152606 -0.07331374702494263 0 0.0087548200775899882 -0.073579069989315404 0 0.0077373724505462099 -0.073739228897670692 0 0.0082615219562152606 -0.07331374702494263 0 0.0077896474064152524 -0.073016103241360167 0 0.0087950734800850763 -0.072864874768468452 0 0.0074192941357464105 -0.073313695984226102 0 0.0077896474064152524 -0.073016103241360167 0 0.0071791343459833776 -0.073094688741337968 0 0.0074192941357464105 -0.073313695984226102 0 0.0077373724505462099 -0.073739228897670692 0 0.0070672958836379514 -0.073391876957293822 0 0.0074192941357464105 -0.073313695984226102 0 0.0077896474064152524 -0.073016103241360167 0 0.0077373724505462099 -0.073739228897670692 0 0.0046256730766753183 -0.071263068814523503 0 0.006132530810414997 -0.072751205163057608 0 0.0029392104066167284 -0.072450941215170428 0 0.0068445627045727458 -0.070522499329767049 0 0.0053665121783117416 -0.068944533556294152 0 0.0046256730766753183 -0.071263068814523503 0 0.0065661392538330513 -0.071406681572576569 0 0.006132530810414997 -0.072751205163057608 0 0.0068445627045727458 -0.070522499329767049 0 0.0076456433751925755 -0.070996857724244258 0 0.0077861422568180948 -0.072092412576226408 0 0.0087863187185402269 -0.071444789426259425 0 0.0070860527344780754 -0.070791351053313287 0 0.006132530810414997 -0.072751205163057608 0 0.0077861422568180948 -0.072092412576226408 0 0.0087950734800850763 -0.072864874768468452 0 0.0065661392538330513 -0.071406681572576569 0 0.006132530810414997 -0.072751205163057608 0 0.0077861422568180948 -0.072092412576226408 0 0.0065661392538330513 -0.071406681572576569 0 0.0077861422568180948 -0.072092412576226408 0 0.0068352440571704661 -0.069921822688243207 0 0.0026167610700099839 -0.074944657718792315 0 0.0021881706573122725 -0.07568692996959403 0 0.0087863187185402269 -0.071444789426259425 0 0.010210630040300159 -0.072160556011003005 0 0.0087950734800850763 -0.072864874768468452 0 0.0077861422568180948 -0.072092412576226408 0 0.0087863187185402269 -0.071444789426259425 0 0.0087950734800850763 -0.072864874768468452 0 0.00078748951810576027 -0.080546944545651047 0 -0.00081586609612726766 -0.085807365915802056 0 0.010210630040300159 -0.072160556011003005 0 0.0098798097663195736 -0.073400512083740835 0 0.0087950734800850763 -0.072864874768468452 0 0.0098798097663195736 -0.073400512083740835 0 0.0087950734800850763 -0.072864874768468452 0 0.0087548200775899882 -0.073579069989315404 0 0.0098798097663195736 -0.073400512083740835 0 0.0087548200775899882 -0.073579069989315404 0 0.0091323216038825036 -0.07427823848397036 0 0.0082615219562152606 -0.07331374702494263 0 0.0087950734800850763 -0.072864874768468452 0 0.0087548200775899882 -0.073579069989315404 0 0.0087548200775899882 -0.073579069989315404 0 0.0091323216038825036 -0.07427823848397036 0 0.0077373724505462099 -0.073739228897670692 0 0.016812599085394259 -0.10569495295690279 0 0.015397320370359657 -0.10395389950094092 0 0.013502111823768776 -0.10515064681099602 0 0.0098798097663195736 -0.073400512083740835 0 0.0091323216038825036 -0.07427823848397036 0 0.01102532359731281 -0.074730669836641422 0 0.01229844541090613 -0.091377089786918095 0 0.0082591356312638458 -0.094582166548558388 0 0.016812599085394259 -0.10569495295690279 0 0.015397320370359657 -0.10395389950094092 0 0.017063788918318074 -0.10286874880361643 0 0.016812599085394259 -0.10569495295690279 0 0.019243196531535164 -0.10386320113667515 0 0.017063788918318074 -0.10286874880361643 0 0.01229844541090613 -0.091377089786918095 0 0.013951435058801785 -0.088882005576626844 0 0.016812599085394259 -0.10569495295690279 0 0.019243196531535164 -0.10386320113667515 0 0.020157799612089317 -0.10608233529766374 0 0.020157799612089317 -0.10608233529766374 0 0.021366634461771523 -0.10414807433347366 0 0.022497892466597714 -0.10535966781154539 0 0.019243196531535164 -0.10386320113667515 0 0.020157799612089317 -0.10608233529766374 0 0.021366634461771523 -0.10414807433347366 0 0.013951435058801785 -0.088882005576626844 0 0.014710644902957844 -0.085466410100816168 0 0.019243196531535164 -0.10386320113667515 0 0.021366634461771523 -0.10414807433347366 0 0.020907659876051334 -0.10248459438275211 0 0.021366634461771523 -0.10414807433347366 0 0.02247166003023781 -0.10288004514132058 0 0.020907659876051334 -0.10248459438275211 0 0.022517035642565263 -0.10391206111561822 0 0.023421911084840857 -0.10338438833655769 0 0.022497892466597714 -0.10535966781154539 0 0.021366634461771523 -0.10414807433347366 0 0.02247166003023781 -0.10288004514132058 0 0.022517035642565263 -0.10391206111561822 0 0.02247166003023781 -0.10288004514132058 0 0.022517035642565263 -0.10391206111561822 0 0.023421911084840857 -0.10338438833655769 0 0.023421911084840857 -0.10338438833655769 0 0.0250818386164628 -0.10315871226345427 0 0.022497892466597714 -0.10535966781154539 0 0.021366634461771523 -0.10414807433347366 0 0.022517035642565263 -0.10391206111561822 0 0.022497892466597714 -0.10535966781154539 0 0.024822780654502552 -0.10272164529620663 0 0.024033319072836647 -0.10510142126699364 0 0.024954049203684141 -0.10464824992581608 0 0.024822780654502552 -0.10272164529620663 0 0.024954049203684141 -0.10464824992581608 0 0.025674491656288483 -0.10392030138674785 0 0.019281902559846222 -0.095194930868933533 0 0.019374854303864954 -0.098858072713883818 0 0.024033319072836647 -0.10510142126699364 0 0.025598061273171688 -0.10579747177838074 0 0.023239070142530526 -0.10638325405866914 0 0.024822780654502552 -0.10272164529620663 0 0.024033319072836647 -0.10510142126699364 0 0.022497892466597714 -0.10535966781154539 0 0.024033319072836647 -0.10510142126699364 0 0.024954049203684141 -0.10464824992581608 0 0.025598061273171688 -0.10579747177838074 0 0.024033319072836647 -0.10510142126699364 0 0.022497892466597714 -0.10535966781154539 0 0.023239070142530526 -0.10638325405866914 0 0.020157799612089317 -0.10608233529766374 0 0.022497892466597714 -0.10535966781154539 0 0.023239070142530526 -0.10638325405866914 0 0.010309509626189187 -0.04892789377348479 0 0.011465444974966982 -0.049470376711021065 0 0.011468742730449852 -0.048011415590622976 0 0.013344702965124874 -0.065362190607599555 0 0.0090438374628799331 -0.063462346236194928 0 0.01429606891654308 -0.073889467823453403 0 0.015251858304892795 -0.073779973647431163 0 0.014287891575284066 -0.070589279162573529 0 0.026407429645056803 -0.10421636390932945 0 0.027157369630297915 -0.10255015241689118 0 0.026736331947043914 -0.10491709165694069 0 0.015743780987995983 -0.081626287856560481 0 0.012582316658025512 -0.072252101337774377 0 0.024822780654502552 -0.10272164529620663 0 0.027157369630297915 -0.10255015241689118 0 0.025674491656288483 -0.10392030138674785 0 0.026407429645056803 -0.10421636390932945 0 0.027157369630297915 -0.10255015241689118 0 0.025674491656288483 -0.10392030138674785 0 0.025598061273171688 -0.10579747177838074 0 0.026736331947043914 -0.10491709165694069 0 0.026383717098099765 -0.10683706120621077 0 0.015251858304892795 -0.073779973647431163 0 0.015645545348181668 -0.07088716247307153 0 0.014287891575284066 -0.070589279162573529 0 0.012582316658025512 -0.072252101337774377 0 0.010232866749213558 -0.077898042654398758 0 0.0069407828304817653 -0.072806072303892758 0 0.0070323101923435716 -0.072826396917596375 0 0.0069438619260249771 -0.07299114804723357 0 0.024954049203684141 -0.10464824992581608 0 0.025801690230108778 -0.10477278243948797 0 0.025598061273171688 -0.10579747177838074 0 0.026407429645056803 -0.10421636390932945 0 0.025801690230108778 -0.10477278243948797 0 0.026736331947043914 -0.10491709165694069 0 0.024954049203684141 -0.10464824992581608 0 0.025674491656288483 -0.10392030138674785 0 0.025801690230108778 -0.10477278243948797 0 0.026407429645056803 -0.10421636390932945 0 0.025674491656288483 -0.10392030138674785 0 0.025801690230108778 -0.10477278243948797 0 0.025801690230108778 -0.10477278243948797 0 0.025598061273171688 -0.10579747177838074 0 0.026736331947043914 -0.10491709165694069 0 0.0050822229612021612 -0.047217259051751233 0 0.0090438374628799331 -0.063462346236194928 0 0.012582316658025512 -0.072252101337774377 0 0.0090438374628799331 -0.063462346236194928 0 0.0090438374628799331 -0.063462346236194928 0 0.0024297671626343229 -0.059147012632479276 0 -0.00083033765410966541 -0.047214966205616514 0 0.0010259348002928253 -0.0494880713518982 0 0.0010346499831406972 -0.045902343457893846 0 0.0070323101923435716 -0.072826396917596375 0 0.0069438619260249771 -0.07299114804723357 0 0.0069528320644600449 -0.073107083480508483 0 0.0069407828304817653 -0.072806072303892758 0 0.0069438619260249771 -0.07299114804723357 0 0.0068985015362368557 -0.072982653255584701 0 0.010232866749213558 -0.077898042654398758 0 0.010140880777532404 -0.077069465244326396 0 0.0069438619260249771 -0.07299114804723357 0 0.0068965399350178064 -0.072987132191182441 0 0.0068977013402015345 -0.073115031791781998 0 0.010060335188642314 -0.077817828572677217 0 0.010232866749213558 -0.077898042654398758 0 0.0068282308389366678 -0.073213791267424791 0 0.0068977013402015345 -0.073115031791781998 0 0.0069194777471124121 -0.073195596988126471 0 0.0024297671626343229 -0.059147012632479276 0 0.0038734773949154807 -0.065630746749760716 0 0.0068977013402015345 -0.073115031791781998 0 0.0069528320644600449 -0.073107083480508483 0 0.0068803602716873309 -0.073131086861874264 0 -0.003177467150789275 -0.071845988229464516 0 -0.00014462754148677131 -0.072122459655902305 0 -0.0016054607387230389 -0.070617122811114569 0 0.0068977013402015345 -0.073115031791781998 0 0.0069194777471124121 -0.073195596988126471 0 0.0068803602716873309 -0.073131086861874264 0 -0.00014462754148677131 -0.072122459655902305 0 -0.00010206393521610778 -0.070229163970825945 0 -0.0016054607387230389 -0.070617122811114569 0 0.0069438619260249771 -0.07299114804723357 0 0.0068977013402015345 -0.073115031791781998 0 0.0069528320644600449 -0.073107083480508483 0 -0.003177467150789275 -0.071845988229464516 0 -0.0031736212157195847 -0.069613583944830693 0 -0.0016054607387230389 -0.070617122811114569 0 0.0024297671626343229 -0.059147012632479276 0 0.00055864476617405363 -0.056582739879297683 0 0.0074192941357464105 -0.073313695984226102 0 0.0070672958836379514 -0.073391876957293822 0 0.0071791343459833776 -0.073094688741337968 0 0.0070672958836379514 -0.073391876957293822 0 0.0070158562368474271 -0.07319467048862309 0 0.0071791343459833776 -0.073094688741337968 0 0.025598061273171688 -0.10579747177838074 0 0.026383717098099765 -0.10683706120621077 0 0.023239070142530526 -0.10638325405866914 0 0.010232866749213558 -0.077898042654398758 0 0.014710644902957844 -0.085466410100816168 0 0.0068282308389366678 -0.073213791267424791 0 0.0070672958836379514 -0.073391876957293822 0 0.0069194777471124121 -0.073195596988126471 0 0.0069194777471124121 -0.073195596988126471 0 0.0070158562368474271 -0.07319467048862309 0 0.0068803602716873309 -0.073131086861874264 0 0.0070672958836379514 -0.073391876957293822 0 0.0069194777471124121 -0.073195596988126471 0 0.0070158562368474271 -0.07319467048862309 0 0.0038734773949154807 -0.065630746749760716 0 0.0053665121783117416 -0.068944533556294152 0 -0.00014462754148677131 -0.072122459655902305 0 0.0010966205204723757 -0.071255758214647621 0 0.0029392104066167284 -0.072450941215170428 0 0.0070158562368474271 -0.07319467048862309 0 0.0068803602716873309 -0.073131086861874264 0 0.0071791343459833776 -0.073094688741337968 0 -0.00014462754148677131 -0.072122459655902305 0 0.0010966205204723757 -0.071255758214647621 0 -0.00010206393521610778 -0.070229163970825945 0 0.0029392104066167284 -0.072450941215170428 0 0.0033787718159596219 -0.070361137933649551 0 0.0017120795925389127 -0.070235863491430961 0 0.0010966205204723757 -0.071255758214647621 0 0.0029392104066167284 -0.072450941215170428 0 0.0017120795925389127 -0.070235863491430961 0 0.0046256730766753183 -0.071263068814523503 0 0.0029392104066167284 -0.072450941215170428 0 0.0033787718159596219 -0.070361137933649551 0 0.0032840898908602649 -0.068653242793194874 0 0.0017120795925389127 -0.070235863491430961 0 5.5711139098869551e-05 -0.068015734446844542 0 0.0033787718159596219 -0.070361137933649551 0 0.0032840898908602649 -0.068653242793194874 0 0.0017120795925389127 -0.070235863491430961 0 0.0017120795925389127 -0.070235863491430961 0 -0.00010206393521610778 -0.070229163970825945 0 5.5711139098869551e-05 -0.068015734446844542 0 0.0010966205204723757 -0.071255758214647621 0 0.0017120795925389127 -0.070235863491430961 0 -0.00010206393521610778 -0.070229163970825945 0 0.0032840898908602649 -0.068653242793194874 0 0.0021583610288349619 -0.065972693100057711 0 0.005207651577555269 -0.066607701067846956 0 0.0032840898908602649 -0.068653242793194874 0 -0.00020386776754779064 -0.067915674399284948 0 0.0021583610288349619 -0.065972693100057711 0 0.0022656567295203465 -0.061999306417199564 0 0.00098136153860777821 -0.060052270615237845 0 -0.001228110849875588 -0.044183688691765505 0 0.00061335771100149859 -0.045851396111849393 0 0.00059181362619669449 -0.044080027348216796 0 -0.0031736212157195847 -0.069613583944830693 0 -0.0015986020700888889 -0.069167405410431496 0 -0.0031640778299310644 -0.067359492352116426 0 -0.001228110849875588 -0.044183688691765505 0 0.00059181362619669449 -0.044080027348216796 0 0.00033720918207779554 -0.042346574133108002 0 0.00094251964656122942 -0.04882109088151864 0 -0.0007607726678841068 -0.052741402963868617 0 -0.00010206393521610778 -0.070229163970825945 0 5.5711139098869551e-05 -0.068015734446844542 0 -0.0015986020700888889 -0.069167405410431496 0 -0.0031736212157195847 -0.069613583944830693 0 -0.0015986020700888889 -0.069167405410431496 0 -0.0016054607387230389 -0.070617122811114569 0 -0.00010206393521610778 -0.070229163970825945 0 -0.0015986020700888889 -0.069167405410431496 0 -0.0016054607387230389 -0.070617122811114569 0 -0.00020386776754779064 -0.067915674399284948 0 -0.0036309963882704762 -0.066700460142397458 0 -0.0036329993980107078 -0.067205992073536475 0 5.5711139098869551e-05 -0.068015734446844542 0 -0.0015986020700888889 -0.069167405410431496 0 -0.0031640778299310644 -0.067359492352116426 0 0.00098136153860777821 -0.060052270615237845 0 -0.00087923371332357348 -0.053717827548207413 0 0.00055864476617405363 -0.056582739879297683 0 -0.00087923371332357348 -0.053717827548207413 0 0.00059181362619669449 -0.044080027348216796 0 0.00058662331347370238 -0.042397666556751618 0 0.00033720918207779554 -0.042346574133108002 0 -0.0019737896568265442 -0.041453098846201464 0 -0.00099836875096352327 -0.041591094411569218 0 -0.001297195518995967 -0.041198798481343668 0 -0.0020897268879163191 -0.049886707563856894 0 -0.0007607726678841068 -0.052741402963868617 0 -0.0029021784910567144 -0.053210062169420362 0 -0.0028950334468679042 -0.05197043486268129 0 -0.0020307242705503077 -0.052138684141137356 0 -0.00099696643764753752 -0.053025456644449923 0 -0.0007607726678841068 -0.052741402963868617 0 -0.00099696643764753752 -0.053025456644449923 0 -0.00087923371332357348 -0.053717827548207413 0 -0.00087923371332357348 -0.053717827548207413 0 -0.0007607726678841068 -0.052741402963868617 0 -0.00086188611948584209 -0.041397028444539095 0 -0.00099836875096352327 -0.041591094411569218 0 -0.001297195518995967 -0.041198798481343668 0 -0.00020386776754779064 -0.067915674399284948 0 -0.0036309963882704762 -0.066700460142397458 0 -0.00094545164610504884 -0.06339446378857376 0 -0.0017316785393225479 -0.040506059656306853 0 -0.001297195518995967 -0.041198798481343668 0 -0.00098644129902428733 -0.040989161185093624 0 -0.00099696643764753752 -0.053025456644449923 0 -0.00098991408656545787 -0.051725134400671176 0 -0.0010247126617943876 -0.04090238480616331 0 -0.00098644129902428733 -0.040989161185093624 0 -0.00094710670748439558 -0.040966538642406611 0 -0.00086188611948584209 -0.041397028444539095 0 -0.00098644129902428733 -0.040989161185093624 0 -0.00094710670748439558 -0.040966538642406611 0 -0.00086188611948584209 -0.041397028444539095 0 -0.001297195518995967 -0.041198798481343668 0 -0.00098644129902428733 -0.040989161185093624 0 -0.0010247126617943876 -0.04090238480616331 0 -0.00094710670748439558 -0.040966538642406611 0 -0.00096485340241074936 -0.040849946160023694 0 -0.00094710670748439558 -0.040966538642406611 0 -0.00084340077782900683 -0.040869751788673032 0 -0.00096485340241074936 -0.040849946160023694 0 -0.00099696643764753752 -0.053025456644449923 0 -0.0010640775743053998 -0.053533056678620239 0 -0.00094357210518897813 -0.041032979461938304 0 -0.00094710670748439558 -0.040966538642406611 0 -0.00084340077782900683 -0.040869751788673032 0 -0.00084340077782900683 -0.040869751788673032 0 -0.00096485340241074936 -0.040849946160023694 0 -0.00097538845746447786 -0.040743575338310162 0 -0.0011485083424450312 -0.040702419145986171 0 -0.0010671645359291398 -0.040804553529887877 0 -0.00097538845746447786 -0.040743575338310162 0 -0.00096485340241074936 -0.040849946160023694 0 -0.0010671645359291398 -0.040804553529887877 0 -0.00097538845746447786 -0.040743575338310162 0 -0.0010247126617943876 -0.04090238480616331 0 -0.00096485340241074936 -0.040849946160023694 0 -0.0010671645359291398 -0.040804553529887877 0 -0.00020386776754779064 -0.067915674399284948 0 -0.00094545164610504884 -0.06339446378857376 0 0.0021583610288349619 -0.065972693100057711 0 0.0021583610288349619 -0.065972693100057711 0 0.0034717573061022128 -0.063322694645457145 0 0.005207651577555269 -0.066607701067846956 0 -0.00094545164610504884 -0.06339446378857376 0 0.0021583610288349619 -0.065972693100057711 0 0.0034717573061022128 -0.063322694645457145 0 -0.00094545164610504884 -0.06339446378857376 0 0.0034717573061022128 -0.063322694645457145 0 0.0017426224327225855 -0.060067893124653701 0 -0.011697168316599388 -0.080394388770597694 0 -0.010395125031943798 -0.079371415099094636 0 -0.011577295804154038 -0.078476740081834501 0 -0.011697168316599388 -0.080394388770597694 0 -0.010395125031943798 -0.079371415099094636 0 -0.0098246051015125936 -0.081376316876169807 0 -0.010395125031943798 -0.079371415099094636 0 -0.0077269853879446638 -0.081544520828000885 0 -0.0098246051015125936 -0.081376316876169807 0 -0.0088120935386236856 -0.080763778456863652 0 -0.0075708345282073704 -0.081804063888123363 0 -0.0087643005919754262 -0.079338406216134943 0 -0.0079540257035526085 -0.081557278601975772 0 -0.0070901576462909883 -0.079299791947726794 0 -0.010395125031943798 -0.079371415099094636 0 -0.0087643005919754262 -0.079338406216134943 0 -0.0079540257035526085 -0.081557278601975772 0 -0.0089104850891912873 -0.082394292115254703 0 -0.010110250768784723 -0.08337864057466185 0 -0.0080301944428202363 -0.083406048268110336 0 -0.0077269853879446638 -0.081544520828000885 0 -0.0089104850891912873 -0.082394292115254703 0 -0.0098246051015125936 -0.081376316876169807 0 -0.0077269853879446638 -0.081544520828000885 0 -0.0089104850891912873 -0.082394292115254703 0 -0.0080301944428202363 -0.083406048268110336 0 -0.011697168316599388 -0.080394388770597694 0 -0.0098246051015125936 -0.081376316876169807 0 -0.010110250768784723 -0.08337864057466185 0 -0.0021943815776853501 -0.069112485199772991 0 -0.00034389168536957254 -0.073374386119588825 0 -0.0089104850891912873 -0.082394292115254703 0 -0.0098246051015125936 -0.081376316876169807 0 -0.010110250768784723 -0.08337864057466185 0 0.0032840898908602649 -0.068653242793194874 0 0.005207651577555269 -0.066607701067846956 0 0.0053180294623479552 -0.069302402079806813 0 -0.00034389168536957254 -0.073374386119588825 0 0.0021881706573122725 -0.07568692996959403 0 -0.010110250768784723 -0.08337864057466185 0 -0.0080301944428202363 -0.083406048268110336 0 -0.0085299402028668134 -0.086294055162036851 0 -0.0080301944428202363 -0.083406048268110336 0 -0.0085299402028668134 -0.086294055162036851 0 -0.0058622838122491718 -0.085717651068772993 0 0.0021881706573122725 -0.07568692996959403 0 0.0025518793257887939 -0.075415047742776298 0 0.0065661392538330513 -0.071406681572576569 0 0.0068352440571704661 -0.069921822688243207 0 0.0053180294623479552 -0.069302402079806813 0 0.0046256730766753183 -0.071263068814523503 0 0.0065661392538330513 -0.071406681572576569 0 0.0053180294623479552 -0.069302402079806813 0 0.005207651577555269 -0.066607701067846956 0 0.0069083092069867963 -0.0698983025722551 0 0.0053180294623479552 -0.069302402079806813 0 0.0046256730766753183 -0.071263068814523503 0 0.0033787718159596219 -0.070361137933649551 0 0.0053180294623479552 -0.069302402079806813 0 0.0033787718159596219 -0.070361137933649551 0 0.0032840898908602649 -0.068653242793194874 0 0.0053180294623479552 -0.069302402079806813 0 -0.00081586609612726766 -0.085807365915802056 0 -0.0039569237678945112 -0.084701534179468185 0 -0.0037700657624050436 -0.088171295466868943 0 -0.0058838299638270313 -0.085838711236031887 0 -0.0025952168643145856 -0.085995984547325446 0 -0.0061186040212511204 -0.087172866237901991 0 -0.003698581540502279 -0.088049582007453456 0 -0.0058622838122491718 -0.085717651068772993 0 0.00078748951810576027 -0.080546944545651047 0 0.0021881706573122725 -0.07568692996959403 0 -0.0061186040212511204 -0.087172866237901991 0 -0.0085299402028668134 -0.086294055162036851 0 -0.0058622838122491718 -0.085717651068772993 0 -0.0053226203369294038 -0.083868210600276855 0 -0.0039569237678945112 -0.084701534179468185 0 -0.0080301944428202363 -0.083406048268110336 0 -0.0058838299638270313 -0.085838711236031887 0 -0.0051274078586860663 -0.083772178481500661 0 -0.0054728013006533054 -0.083564071523529918 0 -0.0042233471354453942 -0.084605769206493348 0 -0.0058838299638270313 -0.085838711236031887 0 -0.0051274078586860663 -0.083772178481500661 0 -0.0025952168643145856 -0.085995984547325446 0 -0.0053239514853486341 -0.083864440928765854 0 -0.0038004383664209632 -0.082424720607404162 0 -0.0028232931855136294 -0.084165904774012645 0 -0.0053239514853486341 -0.083864440928765854 0 -0.0025952168643145856 -0.085995984547325446 0 -0.0028232931855136294 -0.084165904774012645 0 -0.0053239514853486341 -0.083864440928765854 0 -0.0038004383664209632 -0.082424720607404162 0 -0.0058995078117748956 -0.081725206077595758 0 -0.0038004383664209632 -0.082424720607404162 0 -0.0058995078117748956 -0.081725206077595758 0 -0.0044093835458882029 -0.080718404024260226 0 -0.0038004383664209632 -0.082424720607404162 0 -0.0044093835458882029 -0.080718404024260226 0 -0.002344339217566637 -0.080919818625254797 0 -0.0075708345282073704 -0.081804063888123363 0 -0.0054728013006533054 -0.083564071523529918 0 -0.0079540257035526085 -0.081557278601975772 0 -0.0053239514853486341 -0.083864440928765854 0 -0.0058995078117748956 -0.081725206077595758 0 -0.0077269853879446638 -0.081544520828000885 0 -0.0080301944428202363 -0.083406048268110336 0 -0.0051274078586860663 -0.083772178481500661 0 -0.0058995078117748956 -0.081725206077595758 0 -0.0070901576462909883 -0.079299791947726794 0 -0.0044093835458882029 -0.080718404024260226 0 -0.0079540257035526085 -0.081557278601975772 0 -0.0058995078117748956 -0.081725206077595758 0 -0.0070901576462909883 -0.079299791947726794 0 -0.0061608773249464772 -0.074429550685333024 0 -0.0049855377053369182 -0.076092197062639186 0 -0.0083999750696705094 -0.078543665026492043 0 -0.0044093835458882029 -0.080718404024260226 0 -0.0057325706343572197 -0.076971821303477739 0 -0.0044093835458882029 -0.080718404024260226 0 -0.0057325706343572197 -0.076971821303477739 0 -0.0030529044988634427 -0.078493507156503231 0 -0.0057325706343572197 -0.076971821303477739 0 -0.0032586668156315266 -0.075029665377513113 0 -0.0030529044988634427 -0.078493507156503231 0 -0.0032586668156315266 -0.075029665377513113 0 -0.0076171583379236098 -0.072752780102690845 0 -0.0038489604020389917 -0.069187494019328194 0 -0.0032586668156315266 -0.075029665377513113 0 -0.0038489604020389917 -0.069187494019328194 0 -0.0013405660192206243 -0.071392863747908583 0 -0.0057325706343572197 -0.076971821303477739 0 -0.0032586668156315266 -0.075029665377513113 0 -0.0076171583379236098 -0.072752780102690845 0 -0.0076171583379236098 -0.072752780102690845 0 -0.0097677858847959789 -0.07321955272345855 0 -0.010027675763172025 -0.070260373836947651 0 -0.0076171583379236098 -0.072752780102690845 0 -0.0083388856461714539 -0.075750076603169167 0 -0.0097677858847959789 -0.07321955272345855 0 -0.0057325706343572197 -0.076971821303477739 0 -0.0076171583379236098 -0.072752780102690845 0 -0.0083388856461714539 -0.075750076603169167 0 -0.0083999750696705094 -0.078543665026492043 0 -0.0057325706343572197 -0.076971821303477739 0 -0.0083388856461714539 -0.075750076603169167 0 -0.0061608773249464772 -0.074429550685333024 0 -0.0077943507471663186 -0.069934877681147492 0 -0.0087643005919754262 -0.079338406216134943 0 -0.0070901576462909883 -0.079299791947726794 0 -0.0097027087811617455 -0.07786640826631766 0 -0.0083999750696705094 -0.078543665026492043 0 -0.01101891831182588 -0.075650399207421129 0 -0.012648064188434538 -0.076157546983247573 0 -0.0083999750696705094 -0.078543665026492043 0 -0.0083388856461714539 -0.075750076603169167 0 -0.01101891831182588 -0.075650399207421129 0 -0.01101891831182588 -0.075650399207421129 0 -0.012648064188434538 -0.076157546983247573 0 -0.012355649259527842 -0.07412043847435304 0 -0.0097027087811617455 -0.07786640826631766 0 -0.011366475157069256 -0.077885163463553772 0 -0.012366905689618299 -0.076404968456424124 0 -0.0077943507471663186 -0.069934877681147492 0 -0.0081379084742408958 -0.061787155184197952 0 -0.010541256228694425 -0.078377909909989177 0 -0.011366475157069256 -0.077885163463553772 0 -0.011577295804154038 -0.078476740081834501 0 -0.010541256228694425 -0.078377909909989177 0 -0.0097027087811617455 -0.07786640826631766 0 -0.011366475157069256 -0.077885163463553772 0 -0.010395125031943798 -0.079371415099094636 0 -0.010541256228694425 -0.078377909909989177 0 -0.011577295804154038 -0.078476740081834501 0 -0.010395125031943798 -0.079371415099094636 0 -0.0087643005919754262 -0.079338406216134943 0 -0.0097027087811617455 -0.07786640826631766 0 -0.010395125031943798 -0.079371415099094636 0 -0.010541256228694425 -0.078377909909989177 0 -0.0097027087811617455 -0.07786640826631766 0 -0.012648064188434538 -0.076157546983247573 0 -0.01565169872193212 -0.07305104164241373 0 -0.017591504221703604 -0.073457062731212303 0 -0.01565169872193212 -0.07305104164241373 0 -0.013693583732011955 -0.073098742829116548 0 -0.014836311533169801 -0.072086105856009788 0 -0.012648064188434538 -0.076157546983247573 0 -0.01565169872193212 -0.07305104164241373 0 -0.013693583732011955 -0.073098742829116548 0 -0.012648064188434538 -0.076157546983247573 0 -0.013693583732011955 -0.073098742829116548 0 -0.012355649259527842 -0.07412043847435304 0 -0.013693583732011955 -0.073098742829116548 0 -0.012897880338294105 -0.072215952045732432 0 -0.012355649259527842 -0.07412043847435304 0 -0.013693583732011955 -0.073098742829116548 0 -0.014013678044712562 -0.070890002947194136 0 -0.012897880338294105 -0.072215952045732432 0 -0.014013678044712562 -0.070890002947194136 0 -0.012897880338294105 -0.072215952045732432 0 -0.01153073617743315 -0.070740986388079824 0 -0.013693583732011955 -0.073098742829116548 0 -0.014013678044712562 -0.070890002947194136 0 -0.014836311533169801 -0.072086105856009788 0 -0.014013678044712562 -0.070890002947194136 0 -0.014836311533169801 -0.072086105856009788 0 -0.015983059172311666 -0.071297908178929212 0 -0.01565169872193212 -0.07305104164241373 0 -0.014836311533169801 -0.072086105856009788 0 -0.015983059172311666 -0.071297908178929212 0 -0.0082506605225374681 -0.070501266610317637 0 -0.0080765139877900724 -0.067941782371003276 0 -0.01101891831182588 -0.075650399207421129 0 -0.0097677858847959789 -0.07321955272345855 0 -0.011758034584910537 -0.071723987137560993 0 -0.01101891831182588 -0.075650399207421129 0 -0.012355649259527842 -0.07412043847435304 0 -0.01153073617743315 -0.070740986388079824 0 -0.0083388856461714539 -0.075750076603169167 0 -0.01101891831182588 -0.075650399207421129 0 -0.0097677858847959789 -0.07321955272345855 0 -0.012897880338294105 -0.072215952045732432 0 -0.012355649259527842 -0.07412043847435304 0 -0.01153073617743315 -0.070740986388079824 0 -0.010027675763172025 -0.070260373836947651 0 -0.011758034584910537 -0.071723987137560993 0 -0.012451599493086227 -0.067725745460292378 0 -0.0080765139877900724 -0.067941782371003276 0 -0.0072459899401105402 -0.060943853418998092 0 -0.0097677858847959789 -0.07321955272345855 0 -0.010027675763172025 -0.070260373836947651 0 -0.011758034584910537 -0.071723987137560993 0 -0.0068431172486176778 -0.064643607660541905 0 -0.0072459899401105402 -0.060943853418998092 0 -0.01153073617743315 -0.070740986388079824 0 -0.013943683593673779 -0.068351384577272259 0 -0.012335049806081556 -0.065885151322160079 0 -0.014013678044712562 -0.070890002947194136 0 -0.013943683593673779 -0.068351384577272259 0 -0.016234275588069402 -0.068789263161574771 0 -0.014013678044712562 -0.070890002947194136 0 -0.015983059172311666 -0.071297908178929212 0 -0.016234275588069402 -0.068789263161574771 0 -0.014013678044712562 -0.070890002947194136 0 -0.01153073617743315 -0.070740986388079824 0 -0.013943683593673779 -0.068351384577272259 0 -0.013943683593673779 -0.068351384577272259 0 -0.015729958662443824 -0.066059029562657134 0 -0.016234275588069402 -0.068789263161574771 0 -0.0072459899401105402 -0.060943853418998092 0 -0.0084522870450324632 -0.052484078613856337 0 -0.015729958662443824 -0.066059029562657134 0 -0.012335049806081556 -0.065885151322160079 0 -0.016432123515078098 -0.061597064034268942 0 -0.013943683593673779 -0.068351384577272259 0 -0.015729958662443824 -0.066059029562657134 0 -0.012335049806081556 -0.065885151322160079 0 -0.013960048869705075 -0.066057293564352929 0 -0.0094717237328587993 -0.06453986579113552 0 -0.015013562714410336 -0.059926364274516135 0 -0.010789274512360411 -0.069385341097086606 0 -0.013960048869705075 -0.066057293564352929 0 -0.0094717237328587993 -0.06453986579113552 0 -0.0046133658855676239 -0.063333446418079892 0 -0.0029615492945261187 -0.064605218888510521 0 -0.0038489604020389917 -0.069187494019328194 0 -0.0038919866522650437 -0.059972976009039454 0 -0.0023967959991042769 -0.063314431013606579 0 -0.0029615492945261187 -0.064605218888510521 0 -0.0038489604020389917 -0.069187494019328194 0 -0.0004520024962538038 -0.066690764231555816 0 -0.0029615492945261187 -0.064605218888510521 0 -0.0013162535923773179 -0.062524763089761889 0 -0.0004520024962538038 -0.066690764231555816 0 -0.0094717237328587993 -0.06453986579113552 0 -0.0038489604020389917 -0.069187494019328194 0 -0.0079340475532347233 -0.068961970218063162 0 -0.010789274512360411 -0.069385341097086606 0 -0.0094717237328587993 -0.06453986579113552 0 -0.0079340475532347233 -0.068961970218063162 0 -0.0076171583379236098 -0.072752780102690845 0 -0.0038489604020389917 -0.069187494019328194 0 -0.0079340475532347233 -0.068961970218063162 0 -0.0063277133223744496 -0.066186073627750863 0 -0.0068431172486176778 -0.064643607660541905 0 -0.0076171583379236098 -0.072752780102690845 0 -0.010789274512360411 -0.069385341097086606 0 -0.0079340475532347233 -0.068961970218063162 0 -0.0010475331931531495 -0.040594354061333007 0 -0.00094292389658061717 -0.040545105774787857 0 -0.0010263128099479413 -0.040400190028116546 0 -0.0011865368606222559 -0.040445750863722783 0 -0.0010475331931531495 -0.040594354061333007 0 -0.0010263128099479413 -0.040400190028116546 0 -0.0010475331931531495 -0.040594354061333007 0 -0.00097538845746447786 -0.040743575338310162 0 -0.00088701368707174962 -0.040677902265784029 0 -0.0011485083424450312 -0.040702419145986171 0 -0.0010475331931531495 -0.040594354061333007 0 -0.00097538845746447786 -0.040743575338310162 0 -0.00084340077782900683 -0.040869751788673032 0 -0.00097538845746447786 -0.040743575338310162 0 -0.00088701368707174962 -0.040677902265784029 0 -0.0010475331931531495 -0.040594354061333007 0 -0.00088701368707174962 -0.040677902265784029 0 -0.00094292389658061717 -0.040545105774787857 0 -0.00088701368707174962 -0.040677902265784029 0 -0.00094292389658061717 -0.040545105774787857 0 -0.0008350062902926892 -0.040592478918098966 0 -0.00094292389658061717 -0.040545105774787857 0 -0.0008350062902926892 -0.040592478918098966 0 -0.00083798501697065716 -0.040497751356817213 0 -0.00076369811665895262 -0.040555570818124526 0 -0.0008350062902926892 -0.040592478918098966 0 -0.00069822684132303785 -0.04070540466978801 0 -0.0068120676683798625 -0.056124332147473477 0 -0.0048654421336413647 -0.05961231474402226 0 -0.00076369811665895262 -0.040555570818124526 0 -0.0008350062902926892 -0.040592478918098966 0 -0.00083798501697065716 -0.040497751356817213 0 -0.0068120676683798625 -0.056124332147473477 0 -0.0067471627231402344 -0.055381532896770003 0 -0.00088701368707174962 -0.040677902265784029 0 -0.0008350062902926892 -0.040592478918098966 0 -0.00069822684132303785 -0.04070540466978801 0 -0.0010640775743053998 -0.053533056678620239 0 -0.0048654421336413647 -0.05961231474402226 0 -0.00084340077782900683 -0.040869751788673032 0 -0.00088701368707174962 -0.040677902265784029 0 -0.00069822684132303785 -0.04070540466978801 0 -0.011697168316599388 -0.080394388770597694 0 -0.013220866628271911 -0.077450251728300362 0 -0.011577295804154038 -0.078476740081834501 0 -0.0021943815776853501 -0.069112485199772991 0 -0.0048654421336413647 -0.05961231474402226 0 -0.013220866628271911 -0.077450251728300362 0 -0.012251145438728572 -0.07738226863004323 0 -0.012366905689618299 -0.076404968456424124 0 -0.011366475157069256 -0.077885163463553772 0 -0.012251145438728572 -0.07738226863004323 0 -0.012366905689618299 -0.076404968456424124 0 -0.013220866628271911 -0.077450251728300362 0 -0.011577295804154038 -0.078476740081834501 0 -0.012251145438728572 -0.07738226863004323 0 -0.011366475157069256 -0.077885163463553772 0 -0.011577295804154038 -0.078476740081834501 0 -0.012251145438728572 -0.07738226863004323 0 -0.0061390158212333325 -0.057918008533627933 0 -0.0045521882917596013 -0.060926939048752439 0 -0.0033070430795307834 -0.059393012819950061 0 -0.01565169872193212 -0.07305104164241373 0 -0.016673620013483333 -0.073100852875646341 0 -0.017591504221703604 -0.073457062731212303 0 -0.01565169872193212 -0.07305104164241373 0 -0.016673620013483333 -0.073100852875646341 0 -0.016836346683803186 -0.072243486168585738 0 -0.016673620013483333 -0.073100852875646341 0 -0.017591504221703604 -0.073457062731212303 0 -0.016836346683803186 -0.072243486168585738 0 -0.0048654421336413647 -0.05961231474402226 0 -0.0081379084742408958 -0.061787155184197952 0 -0.021169183366496827 -0.071538532537157487 0 -0.017591504221703604 -0.073457062731212303 0 -0.018344286104729709 -0.070951479794534839 0 -0.0068120676683798625 -0.056124332147473477 0 -0.0081379084742408958 -0.061787155184197952 0 -0.018344286104729709 -0.070951479794534839 0 -0.015983059172311666 -0.071297908178929212 0 -0.016836346683803186 -0.072243486168585738 0 -0.017591504221703604 -0.073457062731212303 0 -0.018344286104729709 -0.070951479794534839 0 -0.016836346683803186 -0.072243486168585738 0 -0.01565169872193212 -0.07305104164241373 0 -0.015983059172311666 -0.071297908178929212 0 -0.016836346683803186 -0.072243486168585738 0 -0.015729958662443824 -0.066059029562657134 0 -0.016234275588069402 -0.068789263161574771 0 -0.019971969613102391 -0.066867789968691985 0 -0.018344286104729709 -0.070951479794534839 0 -0.016234275588069402 -0.068789263161574771 0 -0.019971969613102391 -0.066867789968691985 0 -0.018344286104729709 -0.070951479794534839 0 -0.015983059172311666 -0.071297908178929212 0 -0.016234275588069402 -0.068789263161574771 0 -0.019971969613102391 -0.066867789968691985 0 -0.021271262794575561 -0.062302373534338831 0 -0.016432123515078098 -0.061597064034268942 0 -0.015729958662443824 -0.066059029562657134 0 -0.019971969613102391 -0.066867789968691985 0 -0.016432123515078098 -0.061597064034268942 0 -0.019971969613102391 -0.066867789968691985 0 -0.024044272414772538 -0.065937298601962485 0 -0.021271262794575561 -0.062302373534338831 0 -0.00074842292341853077 -0.04056544925814979 0 -0.00083798501697065716 -0.040497751356817213 0 -0.00086750632633544032 -0.040294251819745969 0 -0.0068120676683798625 -0.056124332147473477 0 -0.0072103374459971791 -0.049555321145630521 0 -0.021169183366496827 -0.071538532537157487 0 -0.019971969613102391 -0.066867789968691985 0 -0.024044272414772538 -0.065937298601962485 0 -0.021169183366496827 -0.071538532537157487 0 -0.018344286104729709 -0.070951479794534839 0 -0.019971969613102391 -0.066867789968691985 0 -0.00091952349245786561 -0.040437044846110395 0 -0.00086750632633544032 -0.040294251819745969 0 -0.0010263128099479413 -0.040400190028116546 0 -0.00083798501697065716 -0.040497751356817213 0 -0.00091952349245786561 -0.040437044846110395 0 -0.00086750632633544032 -0.040294251819745969 0 -0.00094292389658061717 -0.040545105774787857 0 -0.00083798501697065716 -0.040497751356817213 0 -0.00091952349245786561 -0.040437044846110395 0 -0.00094292389658061717 -0.040545105774787857 0 -0.00091952349245786561 -0.040437044846110395 0 -0.0010263128099479413 -0.040400190028116546 0 -0.00086750632633544032 -0.040294251819745969 0 -0.0010365739869052338 -0.040228459403840483 0 -0.0009903531522134502 -0.040053841915466418 0 -0.00086750632633544032 -0.040294251819745969 0 -0.0010365739869052338 -0.040228459403840483 0 -0.0010263128099479413 -0.040400190028116546 0 -0.001193863929499647 -0.040305077119085625 0 -0.0010365739869052338 -0.040228459403840483 0 -0.0010263128099479413 -0.040400190028116546 0 -0.00038114972622512757 -0.021654554613869385 0 -0.0014209063807035138 -0.021311928332816324 0 -0.00087728419254840689 -0.022384155647821351 0 -0.0054079591462310147 -0.039009680850101154 0 -0.0029845003613698179 -0.028091750294601241 0 4.844743244115914e-06 -0.028422950589835128 0 2.7773697165194464e-05 -0.028192628790640752 0 -0.00023302439944191528 -0.028196843597695739 0 -0.0011770534598536879 -0.040136996477868635 0 -0.0010365739869052338 -0.040228459403840483 0 -0.0009903531522134502 -0.040053841915466418 0 -0.00048115114787456565 -0.020870481220280752 0 -0.00038114972622512757 -0.021654554613869385 0 -0.0014209063807035138 -0.021311928332816324 0 -0.0020207813355819014 -0.031134152775556753 0 -0.0054079591462310147 -0.039009680850101154 0 -0.024044272414772538 -0.065937298601962485 0 -0.02690586669887066 -0.060363493274124359 0 -0.021271262794575561 -0.062302373534338831 0 -0.0072103374459971791 -0.049555321145630521 0 -0.0054079591462310147 -0.039009680850101154 0 -0.0054079591462310147 -0.039009680850101154 0 -0.0085098251226462633 -0.041224562603106973 0 4.844743244115914e-06 -0.028422950589835128 0 0.00016805213981543977 -0.028274255521118407 0 2.7773697165194464e-05 -0.028192628790640752 0 -0.02690586669887066 -0.060363493274124359 0 -0.020506043744721272 -0.057326030835779848 0 -0.021271262794575561 -0.062302373534338831 0 -0.020506043744721272 -0.057326030835779848 0 -0.021271262794575561 -0.062302373534338831 0 -0.016432123515078098 -0.061597064034268942 0 -0.0085098251226462633 -0.041224562603106973 0 -0.0084522870450324632 -0.052484078613856337 0 0.00036480125355314684 -0.037782157110949198 0 -0.001069422545301197 -0.038463769029303763 0 -0.0037293484882514362 -0.0343479641051724 0 -0.0073677464640547656 -0.05122863837408427 0 -0.0085098330797706914 -0.047686356629734375 0 -0.0053131665128896338 -0.050343435348177763 0 -0.010060223538480045 -0.048421315715230222 0 -0.0073677464640547656 -0.05122863837408427 0 -0.0085098330797706914 -0.047686356629734375 0 -0.0085098251226462633 -0.041224562603106973 0 -0.005441563793641694 -0.039377536260045816 0 -0.005441563793641694 -0.039377536260045816 0 -0.0050645726341078468 -0.039228356539007754 0 -0.00027330553907097514 -0.038570669711531252 0 -0.00018868107021876597 -0.038410317281598633 0 -0.00068842710471039761 -0.039669562019445513 0 -0.00027330553907097514 -0.038570669711531252 0 -0.001069422545301197 -0.038463769029303763 0 -0.00068842710471039761 -0.039669562019445513 0 -0.00018868107021876597 -0.038410317281598633 0 -0.00068842710471039761 -0.039669562019445513 0 -0.0004519382726885893 -0.039556261258892222 0 -0.0004519382726885893 -0.039556261258892222 0 1.6688307062247352e-06 -0.03463547514977746 0 -5.0469957730407947e-06 -0.040376473777062459 0 -0.00018868107021876597 -0.038410317281598633 0 -0.0004519382726885893 -0.039556261258892222 0 1.6688307062247352e-06 -0.03463547514977746 0 -0.00068842710471039761 -0.039669562019445513 0 -0.0004519382726885893 -0.039556261258892222 0 -0.0025817852815514515 -0.042528124422973525 0 -0.00018868107021876597 -0.038410317281598633 0 1.6688307062247352e-06 -0.03463547514977746 0 -0.00046384724988777468 -0.036710319130512835 0 -0.00027330553907097514 -0.038570669711531252 0 -0.00018868107021876597 -0.038410317281598633 0 -0.00046384724988777468 -0.036710319130512835 0 -0.00017235440334692725 -0.027983361954918518 0 -0.00026339022096968207 -0.028032018014083036 0 -6.8466662331279738e-05 -0.028144104818293488 0 -0.00017235440334692725 -0.027983361954918518 0 -6.8466662331279738e-05 -0.028144104818293488 0 3.5095389181266954e-05 -0.028101170204746961 0 -0.005441563793641694 -0.039377536260045816 0 -0.0014973118377189717 -0.034174636724329445 0 -0.0085098251226462633 -0.041224562603106973 0 -0.0079356267896923179 -0.038352170436763346 0 0.00016805213981543977 -0.028274255521118407 0 2.7773697165194464e-05 -0.028192628790640752 0 3.5095389181266954e-05 -0.028101170204746961 0 -6.8466662331279738e-05 -0.028144104818293488 0 3.5095389181266954e-05 -0.028101170204746961 0 0.00023717315735265987 -0.02805126195995639 0 2.7773697165194464e-05 -0.028192628790640752 0 3.5095389181266954e-05 -0.028101170204746961 0 0.00023717315735265987 -0.02805126195995639 0 -6.8466662331279738e-05 -0.028144104818293488 0 2.2906274475297911e-07 -0.028880368870483352 0 0.00023717315735265987 -0.02805126195995639 0 1.6688307062247352e-06 -0.03463547514977746 0 -0.00046384724988777468 -0.036710319130512835 0 -3.8126255257001632e-06 -0.028899967071014169 0 -0.0014973118377189717 -0.034174636724329445 0 -2.9608306316556627e-06 -0.028903843797776795 0 -3.0266754547056623e-07 -0.024026193640458864 0 2.2906274475297911e-07 -0.028880368870483352 0 0.00023717315735265987 -0.02805126195995639 0 -3.0266754547056623e-07 -0.024026193640458864 0 0.00023717315735265987 -0.02805126195995639 0 -0.00023302439944191528 -0.028196843597695739 0 2.7773697165194464e-05 -0.028192628790640752 0 0.00023717315735265987 -0.02805126195995639 0 -0.00023302439944191528 -0.028196843597695739 0 -0.0017032038154026496 -0.054816107474288146 0 -0.0027772087541288624 -0.059486729022770635 0 -0.0035517725909058381 -0.053956969333873533 0 -0.0017032038154026496 -0.054816107474288146 0 -0.00067067680951251826 -0.058278415312034329 0 -0.0027772087541288624 -0.059486729022770635 0 -0.00067067680951251826 -0.058278415312034329 0 -0.0013162535923773179 -0.062524763089761889 0 -0.0027772087541288624 -0.059486729022770635 0 -0.0029615492945261187 -0.064605218888510521 0 -0.0013162535923773179 -0.062524763089761889 0 -0.0027772087541288624 -0.059486729022770635 0 -0.00067067680951251826 -0.058278415312034329 0 -0.0013162535923773179 -0.062524763089761889 0 0.0003482790005294684 -0.062040226160865443 0 -0.0046133658855676239 -0.063333446418079892 0 -0.0029615492945261187 -0.064605218888510521 0 -0.0027772087541288624 -0.059486729022770635 0 -0.0046133658855676239 -0.063333446418079892 0 -0.0027772087541288624 -0.059486729022770635 0 -0.0068106840251989783 -0.058147066446470511 0 -0.0038919866522650437 -0.059972976009039454 0 -0.0056406998035710611 -0.05185242749802603 0 -0.0046662177009063775 -0.054050437744487818 0 -0.0073677464640547656 -0.05122863837408427 0 -0.0053131665128896338 -0.050343435348177763 0 -0.0072459899401105402 -0.060943853418998092 0 -0.0056406998035710611 -0.05185242749802603 0 -0.005441563793641694 -0.039377536260045816 0 -0.0056406998035710611 -0.05185242749802603 0 -0.0056406998035710611 -0.05185242749802603 0 -0.0054737342097843106 -0.048349829103147494 0 -0.001069422545301197 -0.038463769029303763 0 -0.0037293484882514362 -0.0343479641051724 0 -0.003086150369160043 -0.037869262485176976 0 -0.0068106840251989783 -0.058147066446470511 0 -0.0065596429526399366 -0.052512916542318988 0 -0.0035517725909058381 -0.053956969333873533 0 -0.0027772087541288624 -0.059486729022770635 0 -0.0068106840251989783 -0.058147066446470511 0 -0.0035517725909058381 -0.053956969333873533 0 -0.0017032038154026496 -0.054816107474288146 0 -0.0035517725909058381 -0.053956969333873533 0 -0.0014113951747639179 -0.049610443931733757 0 -0.0035517725909058381 -0.053956969333873533 0 -0.0027723717675723568 -0.048322665905881849 0 -0.0014113951747639179 -0.049610443931733757 0 -0.0027723717675723568 -0.048322665905881849 0 -0.0014113951747639179 -0.049610443931733757 0 -0.0013811043257307069 -0.045093073557290059 0 -0.0065596429526399366 -0.052512916542318988 0 -0.0027723717675723568 -0.048322665905881849 0 -0.0025817852815514515 -0.042528124422973525 0 -0.00068842710471039761 -0.039669562019445513 0 -0.003086150369160043 -0.037869262485176976 0 -0.0025817852815514515 -0.042528124422973525 0 -0.0054737342097843106 -0.048349829103147494 0 -0.005285669804858591 -0.047365809390505963 0 -0.001069422545301197 -0.038463769029303763 0 -0.00068842710471039761 -0.039669562019445513 0 -0.003086150369160043 -0.037869262485176976 0 -0.0065596429526399366 -0.052512916542318988 0 -0.0035517725909058381 -0.053956969333873533 0 -0.0027723717675723568 -0.048322665905881849 0 -0.0027723717675723568 -0.048322665905881849 0 -0.0025817852815514515 -0.042528124422973525 0 -0.0013811043257307069 -0.045093073557290059 0 -0.0004519382726885893 -0.039556261258892222 0 -0.0025817852815514515 -0.042528124422973525 0 -5.0469957730407947e-06 -0.040376473777062459 0 -0.0025817852815514515 -0.042528124422973525 0 -5.0469957730407947e-06 -0.040376473777062459 0 -0.0013811043257307069 -0.045093073557290059 0 -5.0469957730407947e-06 -0.040376473777062459 0 -0.0013811043257307069 -0.045093073557290059 0 -1.2821523698960312e-06 -0.0461148346288167 0 -0.0014113951747639179 -0.049610443931733757 0 -0.0013811043257307069 -0.045093073557290059 0 -1.2821523698960312e-06 -0.0461148346288167 0 -1.2821523698960312e-06 -0.0461148346288167 0 -0.00040798245646142637 -0.052945076333263855 0 -5.7243114677701522e-07 -0.051857523049070042 0 -0.0014113951747639179 -0.049610443931733757 0 -1.2821523698960312e-06 -0.0461148346288167 0 -0.00040798245646142637 -0.052945076333263855 0 -0.0017032038154026496 -0.054816107474288146 0 -0.00067067680951251826 -0.058278415312034329 0 -0.00040798245646142637 -0.052945076333263855 0 -0.0017032038154026496 -0.054816107474288146 0 -0.0014113951747639179 -0.049610443931733757 0 -0.00040798245646142637 -0.052945076333263855 0 -0.00067067680951251826 -0.058278415312034329 0 -0.00040798245646142637 -0.052945076333263855 0 0.00060249933852717281 -0.05759311640887646 0 -0.00040798245646142637 -0.052945076333263855 0 -5.7243114677701522e-07 -0.051857523049070042 0 0.00060249933852717281 -0.05759311640887646 0 -5.7243114677701522e-07 -0.051857523049070042 0 5.5258116103264025e-06 -0.057584189872778642 0 0.00060249933852717281 -0.05759311640887646 0 5.5258116103264025e-06 -0.057584189872778642 0 0.0015281827025475779 -0.060034292849886615 0 0.00060249933852717281 -0.05759311640887646 0 0.0015281827025475779 -0.060034292849886615 0 0.00060249933852717281 -0.05759311640887646 0 0.0017723213978537899 -0.062446962081277549 0 -0.00067067680951251826 -0.058278415312034329 0 0.00060249933852717281 -0.05759311640887646 0 0.0003482790005294684 -0.062040226160865443 0 0.00060249933852717281 -0.05759311640887646 0 0.0017723213978537899 -0.062446962081277549 0 0.0003482790005294684 -0.062040226160865443 0 0.0017723213978537899 -0.062446962081277549 0 0.001622143712870369 -0.065006899528011183 0 0.0003482790005294684 -0.062040226160865443 0 -0.0013162535923773179 -0.062524763089761889 0 0.0003482790005294684 -0.062040226160865443 0 -0.0004520024962538038 -0.066690764231555816 0 0.001622143712870369 -0.065006899528011183 0 0.0003482790005294684 -0.062040226160865443 0 -0.0004520024962538038 -0.066690764231555816 0 0.0031561197570692738 -0.065802280607247174 0 0.0050103138470365778 -0.068146246572589136 0 0.004204018741525063 -0.068232269684823654 0 0.0050103138470365778 -0.068146246572589136 0 0.0052018615289824094 -0.069291853362779154 0 0.004204018741525063 -0.068232269684823654 0 0.0017723213978537899 -0.062446962081277549 0 0.001622143712870369 -0.065006899528011183 0 0.0031561197570692738 -0.065802280607247174 0 0.001622143712870369 -0.065006899528011183 0 0.0031561197570692738 -0.065802280607247174 0 0.0025225543593393397 -0.068858338550637554 0 0.0015281827025475779 -0.060034292849886615 0 0.0017723213978537899 -0.062446962081277549 0 0.0033990881086234568 -0.06369882838620583 0 0.0017723213978537899 -0.062446962081277549 0 0.0031561197570692738 -0.065802280607247174 0 0.0033990881086234568 -0.06369882838620583 0 0.0031561197570692738 -0.065802280607247174 0 0.0033990881086234568 -0.06369882838620583 0 0.0050103138470365778 -0.068146246572589136 0 0.0033990881086234568 -0.06369882838620583 0 0.0056067618820847369 -0.06494259779598234 0 0.0050103138470365778 -0.068146246572589136 0 0.0020867663225327296 -0.061969310204916944 0 0.0029529056921198628 -0.065010604596684951 0 -3.6344517185710134e-06 -0.057597542152595875 0 -0.00062175793970955053 -0.065008316798305835 0 1.1658877047277866e-06 -0.064504437388327673 0 0.0033990881086234568 -0.06369882838620583 0 0.0032216265429186272 -0.059724844188708291 0 0.0056067618820847369 -0.06494259779598234 0 0.0015281827025475779 -0.060034292849886615 0 0.0033990881086234568 -0.06369882838620583 0 0.0032216265429186272 -0.059724844188708291 0 5.5258116103264025e-06 -0.057584189872778642 0 0.0015281827025475779 -0.060034292849886615 0 0.0032216265429186272 -0.059724844188708291 0 1.8732317727601288e-06 -0.057599901234540674 0 0.0020867663225327296 -0.061969310204916944 0 -0.00062175793970955053 -0.065008316798305835 0 1.1658877047277866e-06 -0.064504437388327673 0 0.00064770670912080608 -0.070285659105148529 0 1.1658877047277866e-06 -0.064504437388327673 0 0.0019612025336277154 -0.072003336362163481 0 4.4850914981163907e-06 -0.073999332397748571 0 1.1658877047277866e-06 -0.064504437388327673 0 0.0019612025336277154 -0.072003336362163481 0 0.00064770670912080608 -0.070285659105148529 0 0.0019612025336277154 -0.072003336362163481 0 4.4850914981163907e-06 -0.073999332397748571 0 0.0006637384509955897 -0.075787558220727927 0 4.4850914981163907e-06 -0.073999332397748571 0 0.0006637384509955897 -0.075787558220727927 0 -0.00012536613469802324 -0.080941091099519857 0 0.002096418041466042 -0.078359717080728752 0 0.00061013753983135449 -0.075169652381936347 0 -0.0012147866106012083 -0.078983102406363997 0 0.002096418041466042 -0.078359717080728752 0 0.0031663819186426479 -0.07390153906728078 0 0.0034049665121037923 -0.072034862622633797 0 0.0019612025336277154 -0.072003336362163481 0 0.0006637384509955897 -0.075787558220727927 0 0.0034049665121037923 -0.072034862622633797 0 0.00085564363885060394 -0.078760894280655386 0 0.0019950848682733966 -0.077458009727163643 0 0.0031663819186426479 -0.07390153906728078 0 0.00061013753983135449 -0.075169652381936347 0 0.0032042925285004696 -0.072096982983045746 0 0.0037666948881381734 -0.072364976239449028 0 0.0031663819186426479 -0.07390153906728078 0 0.0036578747908579804 -0.072226993125687713 0 0.0031663819186426479 -0.07390153906728078 0 0.0034049665121037923 -0.072034862622633797 0 0.0036578747908579804 -0.072226993125687713 0 0.0037666948881381734 -0.072364976239449028 0 0.0031663819186426479 -0.07390153906728078 0 0.0032042925285004696 -0.072096982983045746 0 0.0037666948881381734 -0.072364976239449028 0 0.0045089743300917246 -0.071135288823778314 0 0.0032042925285004696 -0.072096982983045746 0 0.002096418041466042 -0.078359717080728752 0 0.0031663819186426479 -0.07390153906728078 0 0.00061013753983135449 -0.075169652381936347 0 0.0056067618820847369 -0.06494259779598234 0 0.0049171464847012182 -0.068731014973770432 0 0.0050103138470365778 -0.068146246572589136 0 0.0056067618820847369 -0.06494259779598234 0 0.0049171464847012182 -0.068731014973770432 0 0.0035319192956150252 -0.071790735074657677 0 0.0029529056921198628 -0.065010604596684951 0 0.003231236777940706 -0.066298237400265178 0 0.0049171464847012182 -0.068731014973770432 0 0.0043862716239942735 -0.070406645632156636 0 0.0050430078476024313 -0.069527082022888639 0 0.0019612025336277154 -0.072003336362163481 0 0.0034049665121037923 -0.072034862622633797 0 0.0035319192956150252 -0.071790735074657677 0 0.0019612025336277154 -0.072003336362163481 0 0.00064770670912080608 -0.070285659105148529 0 0.0035319192956150252 -0.071790735074657677 0 0.0034049665121037923 -0.072034862622633797 0 0.0038121519739183398 -0.071448614637503655 0 0.0036578747908579804 -0.072226993125687713 0 0.0034049665121037923 -0.072034862622633797 0 0.0035319192956150252 -0.071790735074657677 0 0.0038121519739183398 -0.071448614637503655 0 0.0049171464847012182 -0.068731014973770432 0 0.0035319192956150252 -0.071790735074657677 0 0.0043862716239942735 -0.070406645632156636 0 0.0038121519739183398 -0.071448614637503655 0 0.0043862716239942735 -0.070406645632156636 0 0.0040985675948609071 -0.07117120593871204 0 0.0035319192956150252 -0.071790735074657677 0 0.0038121519739183398 -0.071448614637503655 0 0.0043862716239942735 -0.070406645632156636 0 0.0043862716239942735 -0.070406645632156636 0 0.0045619280318610371 -0.070670803439850952 0 0.0050430078476024313 -0.069527082022888639 0 0.0043862716239942735 -0.070406645632156636 0 0.0045619280318610371 -0.070670803439850952 0 0.0040985675948609071 -0.07117120593871204 0 0.0038121519739183398 -0.071448614637503655 0 0.0036578747908579804 -0.072226993125687713 0 0.0040985675948609071 -0.07117120593871204 0 0.0036578747908579804 -0.072226993125687713 0 0.0040985675948609071 -0.07117120593871204 0 0.0041467118640237666 -0.071458053833967944 0 0.0045619280318610371 -0.070670803439850952 0 0.0040985675948609071 -0.07117120593871204 0 0.0041467118640237666 -0.071458053833967944 0 0.0037666948881381734 -0.072364976239449028 0 0.0036578747908579804 -0.072226993125687713 0 0.0041467118640237666 -0.071458053833967944 0 0.0037666948881381734 -0.072364976239449028 0 0.0041467118640237666 -0.071458053833967944 0 0.0045089743300917246 -0.071135288823778314 0 0.0045619280318610371 -0.070670803439850952 0 0.0041467118640237666 -0.071458053833967944 0 0.0045089743300917246 -0.071135288823778314 0 0.0045619280318610371 -0.070670803439850952 0 0.0045089743300917246 -0.071135288823778314 0 0.0051618335008019618 -0.070132212372908301 0 0.0045619280318610371 -0.070670803439850952 0 0.0051618335008019618 -0.070132212372908301 0 0.0050430078476024313 -0.069527082022888639 0 0.0051618335008019618 -0.070132212372908301 0 0.0050430078476024313 -0.069527082022888639 0 0.0052018615289824094 -0.069291853362779154 0 0.0049171464847012182 -0.068731014973770432 0 0.0050430078476024313 -0.069527082022888639 0 0.0050103138470365778 -0.068146246572589136 0 0.0050430078476024313 -0.069527082022888639 0 0.0050103138470365778 -0.068146246572589136 0 0.0052018615289824094 -0.069291853362779154 0 0.0051618335008019618 -0.070132212372908301 0 0.005010161636158748 -0.070443860971378225 0 0.006024555158818494 -0.070622329034324957 0 0.0051618335008019618 -0.070132212372908301 0 0.0052018615289824094 -0.069291853362779154 0 0.006024555158818494 -0.070622329034324957 0 0.0045089743300917246 -0.071135288823778314 0 0.0051618335008019618 -0.070132212372908301 0 0.005010161636158748 -0.070443860971378225 0 0.0045089743300917246 -0.071135288823778314 0 0.005010161636158748 -0.070443860971378225 0 0.0032042925285004696 -0.072096982983045746 0 0.010167726924254893 -0.071731248095315628 0 0.006024555158818494 -0.070622329034324957 0 0.0093437229155104284 -0.074457482108679127 0 0.0031436154599280017 -0.08191906625912658 0 0.0037942618936113114 -0.079947378799036128 0 0.005010161636158748 -0.070443860971378225 0 0.0046657439199325138 -0.069426735288963648 0 0.006024555158818494 -0.070622329034324957 0 0.005010161636158748 -0.070443860971378225 0 0.0046657439199325138 -0.069426735288963648 0 0.003178392789327199 -0.070182606358517058 0 0.0032042925285004696 -0.072096982983045746 0 0.003178392789327199 -0.070182606358517058 0 -0.00030606546385876651 -0.071132491107636642 0 0.00061013753983135449 -0.075169652381936347 0 0.0032042925285004696 -0.072096982983045746 0 -0.00030606546385876651 -0.071132491107636642 0 0.005010161636158748 -0.070443860971378225 0 0.0032042925285004696 -0.072096982983045746 0 0.003178392789327199 -0.070182606358517058 0 0.0046657439199325138 -0.069426735288963648 0 0.003178392789327199 -0.070182606358517058 0 0.0020261191111402978 -0.06844846623680273 0 0.0031436154599280017 -0.08191906625912658 0 -0.0011982850837765949 -0.0882533221743389 0 -0.013979989218107437 -0.10303746448553282 0 -0.011389033113683882 -0.099586696586399098 0 -0.0097827678536491092 -0.10405639993889355 0 -0.0011982850837765949 -0.0882533221743389 0 -0.0033237780390160134 -0.087084356834945642 0 0.003178392789327199 -0.070182606358517058 0 0.0020261191111402978 -0.06844846623680273 0 -0.00030606546385876651 -0.071132491107636642 0 -0.0092338058659662131 -0.10384208210604401 0 -0.0090042980523376785 -0.10487055810465457 0 -0.0075291009232380263 -0.10426609690269451 0 -0.0011982850837765949 -0.0882533221743389 0 -0.0050035321891032207 -0.094058205355571967 0 -0.0090042980523376785 -0.10487055810465457 0 -0.008777215565173609 -0.10595531092423005 0 -0.0075291009232380263 -0.10426609690269451 0 0.014157066662131368 -0.072768463138643477 0 0.011238753682407022 -0.07651125051227145 0 0.0093437229155104284 -0.074457482108679127 0 -0.0092338058659662131 -0.10384208210604401 0 -0.0090042980523376785 -0.10487055810465457 0 -0.010448806833357161 -0.10540794439249025 0 -0.0011982850837765949 -0.0882533221743389 0 0.0033515143976176969 -0.088360612097924049 0 0.010167726924254893 -0.071731248095315628 0 0.014157066662131368 -0.072768463138643477 0 0.0093437229155104284 -0.074457482108679127 0 0.0033515143976176969 -0.088360612097924049 0 -0.00071957796600582503 -0.091977654935813738 0 0.0029898529468093665 -0.084381680902160361 0 0.0033569792222276464 -0.083349615530878468 0 0.0030157958300588853 -0.084244743032485234 0 -0.0090042980523376785 -0.10487055810465457 0 -0.010448806833357161 -0.10540794439249025 0 -0.008777215565173609 -0.10595531092423005 0 0.0032378591051420908 -0.083558362462570535 0 0.0029898529468093665 -0.084381680902160361 0 0.0027227012696798454 -0.085295458546536057 0 0.0033515143976176969 -0.088360612097924049 0 0.0033766982969849675 -0.088310803054528195 0 0.0032378591051420908 -0.083558362462570535 0 0.0029898529468093665 -0.084381680902160361 0 0.0033569792222276464 -0.083349615530878468 0 0.006024555158818494 -0.070622329034324957 0 0.0066553934286141007 -0.075212534081131974 0 0.0093437229155104284 -0.074457482108679127 0 0.011238753682407022 -0.07651125051227145 0 0.0066553934286141007 -0.075212534081131974 0 0.0093437229155104284 -0.074457482108679127 0 0.0033515143976176969 -0.088360612097924049 0 0.0027485405515694887 -0.082901829707103067 0 0.0033569792222276464 -0.083349615530878468 0 0.0034173511100572098 -0.08222977654375857 0 0.0030157958300588853 -0.084244743032485234 0 0.0033835053765722358 -0.083365186729297339 0 0.0037458169982039708 -0.079948006632695537 0 0.0033569792222276464 -0.083349615530878468 0 0.0037458169982039708 -0.079948006632695537 0 0.0033569792222276464 -0.083349615530878468 0 0.0034173511100572098 -0.08222977654375857 0 0.0037458169982039708 -0.079948006632695537 0 0.0034173511100572098 -0.08222977654375857 0 0.0029892103333141319 -0.080491356665272698 0 0.006024555158818494 -0.070622329034324957 0 0.0066553934286141007 -0.075212534081131974 0 0.002953746376789692 -0.074731958727218523 0 0.0037458169982039708 -0.079948006632695537 0 0.0029892103333141319 -0.080491356665272698 0 0.002953746376789692 -0.074731958727218523 0 0.0027485405515694887 -0.082901829707103067 0 0.0017902871112495593 -0.080928160729770271 0 0.002953746376789692 -0.074731958727218523 0 0.0015239200178997307 -0.077872462118883629 0 0.00014765462804866469 -0.074743505248850636 0 0.0015239200178997307 -0.077872462118883629 0 -0.000637039199050486 -0.078479609550823823 0 0.0013186610473831812 -0.080695571419598711 0 0.0029892103333141319 -0.080491356665272698 0 0.002953746376789692 -0.074731958727218523 0 0.0015239200178997307 -0.077872462118883629 0 0.0029892103333141319 -0.080491356665272698 0 0.0015239200178997307 -0.077872462118883629 0 0.0013186610473831812 -0.080695571419598711 0 0.0015239200178997307 -0.077872462118883629 0 -0.000637039199050486 -0.078479609550823823 0 0.00014765462804866469 -0.074743505248850636 0 -0.0032586668156315266 -0.075029665377513113 0 -0.000637039199050486 -0.078479609550823823 0 0.00014765462804866469 -0.074743505248850636 0 -0.0032586668156315266 -0.075029665377513113 0 -0.000637039199050486 -0.078479609550823823 0 -0.0030529044988634427 -0.078493507156503231 0 -0.0032586668156315266 -0.075029665377513113 0 0.00014765462804866469 -0.074743505248850636 0 -0.0013405660192206243 -0.071392863747908583 0 0.002953746376789692 -0.074731958727218523 0 0.00014765462804866469 -0.074743505248850636 0 0.00074825727629475953 -0.070956723229195995 0 0.00014765462804866469 -0.074743505248850636 0 0.00074825727629475953 -0.070956723229195995 0 -0.0013405660192206243 -0.071392863747908583 0 -0.0038489604020389917 -0.069187494019328194 0 -0.0013405660192206243 -0.071392863747908583 0 -0.0004520024962538038 -0.066690764231555816 0 0.00074825727629475953 -0.070956723229195995 0 -0.0013405660192206243 -0.071392863747908583 0 -0.0004520024962538038 -0.066690764231555816 0 0.00074825727629475953 -0.070956723229195995 0 -0.0004520024962538038 -0.066690764231555816 0 0.0025225543593393397 -0.068858338550637554 0 0.001622143712870369 -0.065006899528011183 0 -0.0004520024962538038 -0.066690764231555816 0 0.0025225543593393397 -0.068858338550637554 0 0.0031561197570692738 -0.065802280607247174 0 0.0025225543593393397 -0.068858338550637554 0 0.004204018741525063 -0.068232269684823654 0 0.0052018615289824094 -0.069291853362779154 0 0.006024555158818494 -0.070622329034324957 0 0.0042612280737525619 -0.070147188082665846 0 0.0025225543593393397 -0.068858338550637554 0 0.004204018741525063 -0.068232269684823654 0 0.0042612280737525619 -0.070147188082665846 0 0.0052018615289824094 -0.069291853362779154 0 0.004204018741525063 -0.068232269684823654 0 0.0042612280737525619 -0.070147188082665846 0 0.006024555158818494 -0.070622329034324957 0 0.002953746376789692 -0.074731958727218523 0 0.0042612280737525619 -0.070147188082665846 0 0.002953746376789692 -0.074731958727218523 0 0.00074825727629475953 -0.070956723229195995 0 0.0025225543593393397 -0.068858338550637554 0 0.002953746376789692 -0.074731958727218523 0 0.0025225543593393397 -0.068858338550637554 0 0.0042612280737525619 -0.070147188082665846 0 6.555755456876973e-07 -0.10498967042429989 0 0.00040140144019746725 -0.095826864851509402 0 -2.5681809938191472e-06 -0.087055233727243941 0 6.555755456876973e-07 -0.10498967042429989 0 -7.7696425639188533e-06 -0.10416604544473795 0 9.6724225872060736e-07 -0.1049977330682221 0 0.00023402077936077526 -0.10313598777390527 0 -7.7696425639188533e-06 -0.10416604544473795 0 9.6724225872060736e-07 -0.1049977330682221 0 0.00023402077936077526 -0.10313598777390527 0 0.00024631549935045355 -0.10343404413550433 0 -7.7696425639188533e-06 -0.10416604544473795 0 6.555755456876973e-07 -0.10498967042429989 0 -7.7696425639188533e-06 -0.10416604544473795 0 0.00040140144019746725 -0.095826864851509402 0 0.00012453113554475737 -0.0963816233891856 0 -7.7696425639188533e-06 -0.10416604544473795 0 0.00040140144019746725 -0.095826864851509402 0 0.00073906179341205129 -0.099502947890000679 0 0.00066666662916589463 -0.10021612396893408 0 0.00040140144019746725 -0.095826864851509402 0 0.0016576835064033518 -0.093035817567644508 0 0.00026763489059811814 -0.090401070489091906 0 0.00073906179341205129 -0.099502947890000679 0 0.00024703974209525201 -0.098806405310857479 0 0.00012453113554475737 -0.0963816233891856 0 0.00040140144019746725 -0.095826864851509402 0 0.0016576835064033518 -0.093035817567644508 0 0.00023402077936077526 -0.10313598777390527 0 0.00024631549935045355 -0.10343404413550433 0 0.0005893058390528562 -0.10163644594828586 0 0.00023402077936077526 -0.10313598777390527 0 0.0005893058390528562 -0.10163644594828586 0 0.00058864447184163123 -0.10136962049113786 0 0.0005893058390528562 -0.10163644594828586 0 0.00013872616929136211 -0.099716433963506684 0 0.00058864447184163123 -0.10136962049113786 0 0.00024703974209525201 -0.098806405310857479 0 -0.00053566554634149565 -0.09879223838318521 0 0.0005893058390528562 -0.10163644594828586 0 -0.00050686218394852467 -0.096973092268477071 0 0.00013872616929136211 -0.099716433963506684 0 0.0016576835064033518 -0.093035817567644508 0 -0.00050686218394852467 -0.096973092268477071 0 -0.00048132405611659259 -0.091320388074294156 0 -0.00050686218394852467 -0.096973092268477071 0 -0.0032911830342804691 -0.092622100302629101 0 -0.00048132405611659259 -0.091320388074294156 0 -0.00050686218394852467 -0.096973092268477071 0 -0.0032911830342804691 -0.092622100302629101 0 -0.0047400529682754483 -0.096339828986456516 0 -0.00050686218394852467 -0.096973092268477071 0 -0.0047400529682754483 -0.096339828986456516 0 -0.0017990898000293817 -0.099261412657128248 0 -0.0032911830342804691 -0.092622100302629101 0 -0.00048132405611659259 -0.091320388074294156 0 -0.0042841794993049923 -0.087136766675031022 0 -0.00048132405611659259 -0.091320388074294156 0 -0.001354212754900793 -0.087179515087338483 0 -0.0042841794993049923 -0.087136766675031022 0 -0.00048132405611659259 -0.091320388074294156 0 0.00026763489059811814 -0.090401070489091906 0 -0.001354212754900793 -0.087179515087338483 0 0.0016576835064033518 -0.093035817567644508 0 -0.00048132405611659259 -0.091320388074294156 0 0.00026763489059811814 -0.090401070489091906 0 -2.5681809938191472e-06 -0.087055233727243941 0 -0.001354212754900793 -0.087179515087338483 0 -0.00012536613469802324 -0.080941091099519857 0 0.00040140144019746725 -0.095826864851509402 0 0.00026763489059811814 -0.090401070489091906 0 -2.5681809938191472e-06 -0.087055233727243941 0 0.00026763489059811814 -0.090401070489091906 0 -2.5681809938191472e-06 -0.087055233727243941 0 -0.001354212754900793 -0.087179515087338483 0 4.4850914981163907e-06 -0.073999332397748571 0 -2.5681809938191472e-06 -0.087055233727243941 0 -0.00012536613469802324 -0.080941091099519857 0 -0.0012277426710922551 -0.082177986075195358 0 -0.00086986354790337069 -0.081063987776849006 0 0.002096418041466042 -0.078359717080728752 0 -0.0012147866106012083 -0.078983102406363997 0 -0.0039466417358910086 -0.084983015806419232 0 -0.0012147866106012083 -0.078983102406363997 0 -0.0039466417358910086 -0.084983015806419232 0 -0.0038875871509461051 -0.076825015920452933 0 0.00085564363885060394 -0.078760894280655386 0 -0.00086986354790337069 -0.081063987776849006 0 -0.001354212754900793 -0.087179515087338483 0 -0.0039466417358910086 -0.084983015806419232 0 -0.0042841794993049923 -0.087136766675031022 0 -0.0039466417358910086 -0.084983015806419232 0 -0.0042841794993049923 -0.087136766675031022 0 -0.0038875871509461051 -0.076825015920452933 0 -0.0037005608335371927 -0.085856764879363723 0 -0.0039035719858141926 -0.086294295258772871 0 -0.0032911830342804691 -0.092622100302629101 0 -0.0047400529682754483 -0.096339828986456516 0 -0.0091884049239218096 -0.095541432203836429 0 -0.0032911830342804691 -0.092622100302629101 0 -0.0042841794993049923 -0.087136766675031022 0 -0.0091884049239218096 -0.095541432203836429 0 0.00061013753983135449 -0.075169652381936347 0 -0.0038875871509461051 -0.076825015920452933 0 -0.00030606546385876651 -0.071132491107636642 0 0.00061013753983135449 -0.075169652381936347 0 -0.0012147866106012083 -0.078983102406363997 0 -0.0038875871509461051 -0.076825015920452933 0 -0.0091884049239218096 -0.095541432203836429 0 -0.011389033113683882 -0.099586696586399098 0 -0.0075945002559474131 -0.099573655604822744 0 -0.0039035719858141926 -0.086294295258772871 0 -0.0033237780390160134 -0.087084356834945642 0 -0.0047400529682754483 -0.096339828986456516 0 -0.0091884049239218096 -0.095541432203836429 0 -0.0075945002559474131 -0.099573655604822744 0 -0.0047400529682754483 -0.096339828986456516 0 -0.0075945002559474131 -0.099573655604822744 0 -0.0049638087642344337 -0.10206375937621322 0 -0.0078102290523532313 -0.10206776035205582 0 -0.005650338050317596 -0.10461558336856012 0 -0.0049638087642344337 -0.10206375937621322 0 -0.0075945002559474131 -0.099573655604822744 0 -0.0078102290523532313 -0.10206776035205582 0 -0.0049638087642344337 -0.10206375937621322 0 -0.011389033113683882 -0.099586696586399098 0 -0.0078102290523532313 -0.10206776035205582 0 -0.0097827678536491092 -0.10405639993889355 0 -0.011389033113683882 -0.099586696586399098 0 -0.0075945002559474131 -0.099573655604822744 0 -0.0078102290523532313 -0.10206776035205582 0 0.0027227012696798454 -0.085295458546536057 0 0.0028185752915799007 -0.086410039508882444 0 0.0028033964513990836 -0.086364255137653653 0 -0.008777215565173609 -0.10595531092423005 0 -0.0068352009252459186 -0.10536528136645798 0 -0.007025171505856063 -0.10658725516819333 0 -0.00071957796600582503 -0.091977654935813738 0 -0.00086350447312568432 -0.094810274412891984 0 -0.008777215565173609 -0.10595531092423005 0 -0.0075291009232380263 -0.10426609690269451 0 -0.0068352009252459186 -0.10536528136645798 0 -0.00068432443659355725 -0.098919885244743502 0 -0.00086350447312568432 -0.094810274412891984 0 -0.0068352009252459186 -0.10536528136645798 0 -0.005650338050317596 -0.10461558336856012 0 -0.004836696319279429 -0.10593168877626614 0 0.00081548014356295877 -0.095028143431140924 0 0.00092262483245679862 -0.095928006303778901 0 -0.00031108023765418982 -0.095578809120077227 0 -0.0068352009252459186 -0.10536528136645798 0 -0.004836696319279429 -0.10593168877626614 0 -0.007025171505856063 -0.10658725516819333 0 -0.0075291009232380263 -0.10426609690269451 0 -0.0068352009252459186 -0.10536528136645798 0 -0.005650338050317596 -0.10461558336856012 0 -0.0078102290523532313 -0.10206776035205582 0 -0.0097827678536491092 -0.10405639993889355 0 -0.005650338050317596 -0.10461558336856012 0 -0.0050035321891032207 -0.094058205355571967 0 -0.0050586209804017197 -0.095984397345303674 0 -0.00068432443659355725 -0.098919885244743502 0 -0.0023617748669298323 -0.1005283991345861 0 -0.005650338050317596 -0.10461558336856012 0 -0.004836696319279429 -0.10593168877626614 0 -0.0049638087642344337 -0.10206375937621322 0 -0.0017499241145520852 -0.10352476568577824 0 -0.0026256963087289459 -0.10521477000928893 0 -0.0033114663943710401 -0.10230767948999538 0 -0.00068432443659355725 -0.098919885244743502 0 0.0013514035495046418 -0.095440178750095958 0 0.0085322381445263711 -0.099719550836677398 0 0.0053015620883727311 -0.098405263391239922 0 0.0082380378439820684 -0.096420051510793664 0 0.0085322381445263711 -0.099719550836677398 0 0.0053015620883727311 -0.098405263391239922 0 0.0043734798969586345 -0.101548564705708 0 0.0053015620883727311 -0.098405263391239922 0 0.0043734798969586345 -0.101548564705708 0 0.0032211516502758941 -0.099607196677567442 0 -0.00068432443659355725 -0.098919885244743502 0 0.00069861534245313581 -0.10037872742194447 0 -0.0017499241145520852 -0.10352476568577824 0 -0.0026256963087289459 -0.10521477000928893 0 -0.00017685651512693251 -0.10375092146815529 0 -0.0017499241145520852 -0.10352476568577824 0 -0.00017685651512693251 -0.10375092146815529 0 -0.00073123200875440774 -0.10257299828656757 0 -0.00017685651512693251 -0.10375092146815529 0 -0.00073123200875440774 -0.10257299828656757 0 0.0003070122364325432 -0.10223372878539858 0 -0.00073123200875440774 -0.10257299828656757 0 -0.00053340827969748791 -0.10098087322421025 0 0.0003070122364325432 -0.10223372878539858 0 -0.0017499241145520852 -0.10352476568577824 0 -0.00073123200875440774 -0.10257299828656757 0 -0.0033114663943710401 -0.10230767948999538 0 -0.00073123200875440774 -0.10257299828656757 0 -0.0033114663943710401 -0.10230767948999538 0 -0.00053340827969748791 -0.10098087322421025 0 -0.0047400529682754483 -0.096339828986456516 0 -0.0033114663943710401 -0.10230767948999538 0 -0.0017990898000293817 -0.099261412657128248 0 -0.0030763679409359351 -0.098660867913188635 0 -0.0023617748669298323 -0.1005283991345861 0 -0.0033114663943710401 -0.10230767948999538 0 -0.0017990898000293817 -0.099261412657128248 0 -0.00053340827969748791 -0.10098087322421025 0 0.00013872616929136211 -0.099716433963506684 0 -0.00053340827969748791 -0.10098087322421025 0 0.00058864447184163123 -0.10136962049113786 0 -0.00050686218394852467 -0.096973092268477071 0 -0.0017990898000293817 -0.099261412657128248 0 0.00013872616929136211 -0.099716433963506684 0 -0.0017990898000293817 -0.099261412657128248 0 0.00013872616929136211 -0.099716433963506684 0 -0.00053340827969748791 -0.10098087322421025 0 -0.00053340827969748791 -0.10098087322421025 0 0.00058864447184163123 -0.10136962049113786 0 0.0003070122364325432 -0.10223372878539858 0 0.00023402077936077526 -0.10313598777390527 0 0.00048423436728438764 -0.10259010569616765 0 0.00020591869482652512 -0.10328803255959665 0 0.00023402077936077526 -0.10313598777390527 0 0.00058864447184163123 -0.10136962049113786 0 0.00048423436728438764 -0.10259010569616765 0 0.00058864447184163123 -0.10136962049113786 0 0.00048423436728438764 -0.10259010569616765 0 0.00072462856763073197 -0.10242629703357968 0 0.00072462856763073197 -0.10242629703357968 0 0.00020591869482652512 -0.10328803255959665 0 0.0010709082539505285 -0.10245912888850765 0 0.00048423436728438764 -0.10259010569616765 0 0.00072462856763073197 -0.10242629703357968 0 0.00020591869482652512 -0.10328803255959665 0 0.00020591869482652512 -0.10328803255959665 0 0.0010709082539505285 -0.10245912888850765 0 0.00051757044829423265 -0.10066826616233984 0 0.00058864447184163123 -0.10136962049113786 0 0.00072462856763073197 -0.10242629703357968 0 0.0003070122364325432 -0.10223372878539858 0 0.00072462856763073197 -0.10242629703357968 0 0.0010709082539505285 -0.10245912888850765 0 0.0003070122364325432 -0.10223372878539858 0 -0.00017685651512693251 -0.10375092146815529 0 0.0010709082539505285 -0.10245912888850765 0 0.0003070122364325432 -0.10223372878539858 0 0.0043734798969586345 -0.101548564705708 0 0.0019668144724201081 -0.10079397303342012 0 0.0032211516502758941 -0.099607196677567442 0 0.0043734798969586345 -0.101548564705708 0 0.0010709082539505285 -0.10245912888850765 0 0.0019668144724201081 -0.10079397303342012 0 0.00069861534245313581 -0.10037872742194447 0 0.00075173754560528094 -0.10089457450875293 0 0.0019668144724201081 -0.10079397303342012 0 0.0032211516502758941 -0.099607196677567442 0 0.0013748057245954958 -0.099527961904301868 0 0.0032211516502758941 -0.099607196677567442 0 0.0013748057245954958 -0.099527961904301868 0 0.0033085206989913653 -0.097263762004045712 0 0.0053015620883727311 -0.098405263391239922 0 0.0032211516502758941 -0.099607196677567442 0 0.0033085206989913653 -0.097263762004045712 0 0.0013748057245954958 -0.099527961904301868 0 0.00051757044829423265 -0.10066826616233984 0 0.0018900501501904897 -0.10028959992727053 0 0.0019668144724201081 -0.10079397303342012 0 0.0013748057245954958 -0.099527961904301868 0 0.00051757044829423265 -0.10066826616233984 0 0.00061932546164201411 -0.10304994416930986 0 0.00080816235826599409 -0.10310840402876204 0 0.0010709082539505285 -0.10245912888850765 0 0.0019668144724201081 -0.10079397303342012 0 0.00051757044829423265 -0.10066826616233984 0 0.00054613854102306743 -0.10314712572004779 0 0.00061932546164201411 -0.10304994416930986 0 0.00020591869482652512 -0.10328803255959665 0 -4.6402839464513562e-05 -0.10460552926957344 0 9.6724225872060736e-07 -0.1049977330682221 0 -4.6402839464513562e-05 -0.10460552926957344 0 9.6724225872060736e-07 -0.1049977330682221 0 0.00015185874983250649 -0.1049376588684512 0 0.00023402077936077526 -0.10313598777390527 0 0.00020591869482652512 -0.10328803255959665 0 9.6724225872060736e-07 -0.1049977330682221 0 9.6724225872060736e-07 -0.1049977330682221 0 -6.7767260193819407e-08 -0.10499938954074317 0 0.00026125182298373373 -0.10499921865049341 0 -6.7767260193819407e-08 -0.10499938954074317 0 0.00026125182298373373 -0.10499921865049341 0 0.00052273690836151057 -0.10411935572528269 0 0.00026125182298373373 -0.10499921865049341 0 0.0010423391470208835 -0.10433562460616151 0 0.00052273690836151057 -0.10411935572528269 0 0.00026125182298373373 -0.10499921865049341 0 0.00046120869521464557 -0.10497200907805426 0 0.0010423391470208835 -0.10433562460616151 0 9.6724225872060736e-07 -0.1049977330682221 0 0.00026125182298373373 -0.10499921865049341 0 0.00015185874983250649 -0.1049376588684512 0 0.00026125182298373373 -0.10499921865049341 0 0.00046120869521464557 -0.10497200907805426 0 0.00015185874983250649 -0.1049376588684512 0 0.002042561075780925 -0.1029308361907635 0 0.0018900501501904897 -0.10028959992727053 0 0.00053189032483529465 -0.10243655429396217 0 0.002042561075780925 -0.1029308361907635 0 0.00053189032483529465 -0.10243655429396217 0 0.0013461754865176257 -0.10370005456507828 0 0.0013748057245954958 -0.099527961904301868 0 0.0018900501501904897 -0.10028959992727053 0 0.00053189032483529465 -0.10243655429396217 0 0.00094435594790877905 -0.10346683135571019 0 0.00080816235826599409 -0.10310840402876204 0 0.0039010066425809783 -0.094950125087409493 0 0.0033085206989913653 -0.097263762004045712 0 0.0028989468479306557 -0.093816724257871686 0 0.0020399370858289537 -0.099275690248055784 0 0.0022903179541682861 -0.098924881111046595 0 0.0053015620883727311 -0.098405263391239922 0 0.0039010066425809783 -0.094950125087409493 0 0.0033085206989913653 -0.097263762004045712 0 0.0013748057245954958 -0.099527961904301868 0 0.0033085206989913653 -0.097263762004045712 0 0.0028989468479306557 -0.093816724257871686 0 0.0039010066425809783 -0.094950125087409493 0 0.0028989468479306557 -0.093816724257871686 0 0.0041390431036465204 -0.093341107929901149 0 0.0052371394337018288 -0.093825803022580617 0 0.0041756351760587557 -0.093712780520371922 0 0.0041390431036465204 -0.093341107929901149 0 0.00053189032483529465 -0.10243655429396217 0 0.0013461754865176257 -0.10370005456507828 0 0.0016879654129523538 -0.10445482203011321 0 0.0028989468479306557 -0.093816724257871686 0 0.0052371394337018288 -0.093825803022580617 0 0.0041390431036465204 -0.093341107929901149 0 0.0022903179541682861 -0.098924881111046595 0 0.0027738682345918803 -0.099053054847420136 0 0.00094435594790877905 -0.10346683135571019 0 0.00097527804503905896 -0.10363007183459878 0 0.002042561075780925 -0.1029308361907635 0 0.0013461754865176257 -0.10370005456507828 0 0.0010423391470208835 -0.10433562460616151 0 0.0013461754865176257 -0.10370005456507828 0 0.0010423391470208835 -0.10433562460616151 0 0.0016879654129523538 -0.10445482203011321 0 0.0010423391470208835 -0.10433562460616151 0 0.0013737854678831142 -0.10323056643628491 0 0.00052273690836151057 -0.10411935572528269 0 0.0010423391470208835 -0.10433562460616151 0 0.0016879654129523538 -0.10445482203011321 0 0.0013737854678831142 -0.10323056643628491 0 0.0052371394337018288 -0.093825803022580617 0 0.0039826885336389419 -0.095213394632633355 0 0.003514548027046717 -0.097447138506520883 0 0.0052371394337018288 -0.093825803022580617 0 0.0041756351760587557 -0.093712780520371922 0 0.0039826885336389419 -0.095213394632633355 0 0.0041756351760587557 -0.093712780520371922 0 0.0036609465726498559 -0.093783061365046133 0 0.0034762003723949274 -0.095883532388957846 0 0.0041756351760587557 -0.093712780520371922 0 0.0039826885336389419 -0.095213394632633355 0 0.0034762003723949274 -0.095883532388957846 0 0.0039826885336389419 -0.095213394632633355 0 0.0034762003723949274 -0.095883532388957846 0 0.003514548027046717 -0.097447138506520883 0 0.0036609465726498559 -0.093783061365046133 0 0.0030552406698643379 -0.095399137290637176 0 0.0034762003723949274 -0.095883532388957846 0 0.0036609465726498559 -0.093783061365046133 0 0.0027353292987412239 -0.093535645602854198 0 0.0030552406698643379 -0.095399137290637176 0 0.0027353292987412239 -0.093535645602854198 0 0.0023834205982739033 -0.095115067836459372 0 0.0030552406698643379 -0.095399137290637176 0 0.0036609465726498559 -0.093783061365046133 0 0.0035416210395584902 -0.092152139245286133 0 0.0027353292987412239 -0.093535645602854198 0 0.0041756351760587557 -0.093712780520371922 0 0.0036609465726498559 -0.093783061365046133 0 0.0046820762371303929 -0.092298528027830132 0 0.0036609465726498559 -0.093783061365046133 0 0.0035416210395584902 -0.092152139245286133 0 0.0046820762371303929 -0.092298528027830132 0 0.0035416210395584902 -0.092152139245286133 0 0.0046820762371303929 -0.092298528027830132 0 0.0036307694930647781 -0.090174700434131519 0 0.0041756351760587557 -0.093712780520371922 0 0.0046820762371303929 -0.092298528027830132 0 0.0041390431036465204 -0.093341107929901149 0 0.0046820762371303929 -0.092298528027830132 0 0.0041390431036465204 -0.093341107929901149 0 0.0045712409294834996 -0.093910233744622124 0 0.0039010066425809783 -0.094950125087409493 0 0.0041390431036465204 -0.093341107929901149 0 0.0045712409294834996 -0.093910233744622124 0 0.0053015620883727311 -0.098405263391239922 0 0.0039010066425809783 -0.094950125087409493 0 0.0082380378439820684 -0.096420051510793664 0 0.0039010066425809783 -0.094950125087409493 0 0.0045712409294834996 -0.093910233744622124 0 0.0056436608410681344 -0.095223956285034009 0 0.0033616965351567409 -0.095738108002352995 0 0.0013514035495046418 -0.095440178750095958 0 0.0046820762371303929 -0.092298528027830132 0 0.0045712409294834996 -0.093910233744622124 0 0.0056436608410681344 -0.095223956285034009 0 0.0046820762371303929 -0.092298528027830132 0 0.0051614744321745549 -0.087029673894054915 0 0.0036307694930647781 -0.090174700434131519 0 0.0022097330003192045 -0.092994591084670314 0 0.0013514035495046418 -0.095440178750095958 0 0.0051614744321745549 -0.087029673894054915 0 0.0036307694930647781 -0.090174700434131519 0 0.0032434180310301135 -0.088433804034241184 0 0.0036307694930647781 -0.090174700434131519 0 0.0030639876756242243 -0.089505986466813792 0 0.0032434180310301135 -0.088433804034241184 0 0.0030639876756242243 -0.089505986466813792 0 0.0026026672124630531 -0.088707579480702806 0 0.0028551727590844043 -0.090705077117327212 0 0.0030639876756242243 -0.089505986466813792 0 0.0032434180310301135 -0.088433804034241184 0 0.0026026672124630531 -0.088707579480702806 0 0.0051614744321745549 -0.087029673894054915 0 0.0032434180310301135 -0.088433804034241184 0 0.0030161895345931153 -0.086979467517508929 0 0.0013514035495046418 -0.095440178750095958 0 -0.00086350447312568432 -0.094810274412891984 0 0.0051614744321745549 -0.087029673894054915 0 0.0030161895345931153 -0.086979467517508929 0 0.0028498512495132721 -0.086301397705320013 0 0.0032434180310301135 -0.088433804034241184 0 0.0030161895345931153 -0.086979467517508929 0 0.0027064751965801027 -0.087461295517152107 0 0.0027227012696798454 -0.085295458546536057 0 0.0026199925841495319 -0.086213380330176254 0 0.0028033964513990836 -0.086364255137653653 0 0.0026199925841495319 -0.086213380330176254 0 0.0028033964513990836 -0.086364255137653653 0 0.002717895801678037 -0.086767950356921281 0 0.0030161895345931153 -0.086979467517508929 0 0.0028033964513990836 -0.086364255137653653 0 0.002717895801678037 -0.086767950356921281 0 0.0030161895345931153 -0.086979467517508929 0 0.0028498512495132721 -0.086301397705320013 0 0.0028033964513990836 -0.086364255137653653 0 -0.00086350447312568432 -0.094810274412891984 0 -0.00082230041726027178 -0.094778224258979651 0 0.0030161895345931153 -0.086979467517508929 0 0.002717895801678037 -0.086767950356921281 0 0.0027064751965801027 -0.087461295517152107 0 0.002717895801678037 -0.086767950356921281 0 0.002599750810817575 -0.086914037108167891 0 0.0027064751965801027 -0.087461295517152107 0 0.0026199925841495319 -0.086213380330176254 0 0.002717895801678037 -0.086767950356921281 0 0.002599750810817575 -0.086914037108167891 0 0.0026199925841495319 -0.086213380330176254 0 0.002599750810817575 -0.086914037108167891 0 0.0024252895091616631 -0.087200562803879514 0 0.002599750810817575 -0.086914037108167891 0 0.0027064751965801027 -0.087461295517152107 0 0.0024252895091616631 -0.087200562803879514 0 0.0027064751965801027 -0.087461295517152107 0 0.0026026672124630531 -0.088707579480702806 0 0.0024252895091616631 -0.087200562803879514 0 0.0032434180310301135 -0.088433804034241184 0 0.0027064751965801027 -0.087461295517152107 0 0.0026026672124630531 -0.088707579480702806 0 0.0026026672124630531 -0.088707579480702806 0 0.0022637822687942431 -0.088076656294322112 0 0.0024252895091616631 -0.087200562803879514 0 0.0026026672124630531 -0.088707579480702806 0 0.0020180766891886599 -0.089618154320460289 0 0.0022637822687942431 -0.088076656294322112 0 0.0026026672124630531 -0.088707579480702806 0 0.0020180766891886599 -0.089618154320460289 0 0.0028551727590844043 -0.090705077117327212 0 0.0020180766891886599 -0.089618154320460289 0 0.0028551727590844043 -0.090705077117327212 0 0.0027353292987412239 -0.093535645602854198 0 0.0035416210395584902 -0.092152139245286133 0 0.0028551727590844043 -0.090705077117327212 0 0.0027353292987412239 -0.093535645602854198 0 0.0035416210395584902 -0.092152139245286133 0 0.0036307694930647781 -0.090174700434131519 0 0.0028551727590844043 -0.090705077117327212 0 0.0036307694930647781 -0.090174700434131519 0 0.0030639876756242243 -0.089505986466813792 0 0.0028551727590844043 -0.090705077117327212 0 0.002039727932432343 -0.08936073907934762 0 0.0027353292987412239 -0.093535645602854198 0 0.0018265012341772988 -0.093671814783499008 0 0.0027353292987412239 -0.093535645602854198 0 0.0018265012341772988 -0.093671814783499008 0 0.0023834205982739033 -0.095115067836459372 0 0.0025838668994896015 -0.088980618974680847 0 0.0030755898804907581 -0.090138538268799792 0 0.0018265012341772988 -0.093671814783499008 0 -0.00032354827629169417 -0.095386098967915944 0 -0.0015125633606534797 -0.09411455849396505 0 0.002039727932432343 -0.08936073907934762 0 0.0018265012341772988 -0.093671814783499008 0 0.0020429312136747164 -0.089087875833706115 0 0.0022920689989326492 -0.092079664102736353 0 0.0013504720430740644 -0.091498696783392647 0 -0.00032354827629169417 -0.095386098967915944 0 0.0015121890622681491 -0.096397535751000379 0 0.00022865122099703118 -0.097408327500854763 0 0.0018265012341772988 -0.093671814783499008 0 -0.00032354827629169417 -0.095386098967915944 0 0.0015121890622681491 -0.096397535751000379 0 0.0018265012341772988 -0.093671814783499008 0 0.0023834205982739033 -0.095115067836459372 0 0.0015121890622681491 -0.096397535751000379 0 0.0023834205982739033 -0.095115067836459372 0 0.0015121890622681491 -0.096397535751000379 0 0.0025872800721468215 -0.096923487016041809 0 2.9098719375612029e-05 -0.097664412113889931 0 0.0017048479743895695 -0.098623197496424245 0 0.0015121890622681491 -0.096397535751000379 0 0.0026819833245660123 -0.099055068108731159 0 0.0025872800721468215 -0.096923487016041809 0 0.0015121890622681491 -0.096397535751000379 0 0.00022865122099703118 -0.097408327500854763 0 0.0026819833245660123 -0.099055068108731159 0 8.2411411053819842e-05 -0.097879565747831188 0 -6.6131730131889797e-05 -0.099455218434077688 0 0.00099008413345210095 -0.099762798271477618 0 8.2411411053819842e-05 -0.097879565747831188 0 -6.6131730131889797e-05 -0.099455218434077688 0 -0.001221930490756909 -0.098618508665761176 0 -6.6131730131889797e-05 -0.099455218434077688 0 -0.0011197492766101954 -0.1003945945730174 0 0.00076907438839120409 -0.10061258186618499 0 -6.6131730131889797e-05 -0.099455218434077688 0 0.00099008413345210095 -0.099762798271477618 0 0.00076907438839120409 -0.10061258186618499 0 8.2411411053819842e-05 -0.097879565747831188 0 0.00099008413345210095 -0.099762798271477618 0 0.0014107390787496097 -0.098902146927860771 0 0.00099008413345210095 -0.099762798271477618 0 0.0016851053235315246 -0.099953102471225339 0 0.0011609165128270724 -0.10069590843361112 0 0.00099008413345210095 -0.099762798271477618 0 0.0014107390787496097 -0.098902146927860771 0 0.0016851053235315246 -0.099953102471225339 0 0.0016851053235315246 -0.099953102471225339 0 0.0025375414557463382 -0.099599892432684606 0 0.0021098889298580927 -0.099986034031910559 0 0.0026819833245660123 -0.099055068108731159 0 0.0025375414557463382 -0.099599892432684606 0 0.0028788022385888121 -0.099360008145716952 0 0.0017048479743895695 -0.098623197496424245 0 0.0023060890907448169 -0.099003378464132999 0 0.0014107390787496097 -0.098902146927860771 0 0.0016851053235315246 -0.099953102471225339 0 0.0025375414557463382 -0.099599892432684606 0 0.0025375414557463382 -0.099599892432684606 0 0.0028788022385888121 -0.099360008145716952 0 0.002744243870417603 -0.099760396907378951 0 0.0028788022385888121 -0.099360008145716952 0 0.0030493216259477774 -0.0994943395548777 0 0.002744243870417603 -0.099760396907378951 0 0.0030493216259477774 -0.0994943395548777 0 0.0026973567340082142 -0.10045323443943506 0 0.002744243870417603 -0.099760396907378951 0 0.0030493216259477774 -0.0994943395548777 0 0.0031345323611854576 -0.099556636991441197 0 0.0031453150185826351 -0.098319303222750343 0 0.0030493216259477774 -0.0994943395548777 0 0.0031345323611854576 -0.099556636991441197 0 0.0026973567340082142 -0.10045323443943506 0 0.0030493216259477774 -0.0994943395548777 0 0.0029765839245420832 -0.098485507737733097 0 0.0031453150185826351 -0.098319303222750343 0 0.0028788022385888121 -0.099360008145716952 0 0.0030493216259477774 -0.0994943395548777 0 0.0029765839245420832 -0.098485507737733097 0 0.0026819833245660123 -0.099055068108731159 0 0.0028788022385888121 -0.099360008145716952 0 0.0029765839245420832 -0.098485507737733097 0 0.0026819833245660123 -0.099055068108731159 0 0.0029765839245420832 -0.098485507737733097 0 0.0025872800721468215 -0.096923487016041809 0 0.0029765839245420832 -0.098485507737733097 0 0.0031010102680791105 -0.096930241480782192 0 0.0025872800721468215 -0.096923487016041809 0 0.0031010102680791105 -0.096930241480782192 0 0.0025872800721468215 -0.096923487016041809 0 0.0030552406698643379 -0.095399137290637176 0 0.0023834205982739033 -0.095115067836459372 0 0.0025872800721468215 -0.096923487016041809 0 0.0030552406698643379 -0.095399137290637176 0 0.0031010102680791105 -0.096930241480782192 0 0.0030552406698643379 -0.095399137290637176 0 0.0034762003723949274 -0.095883532388957846 0 0.0031010102680791105 -0.096930241480782192 0 0.0034762003723949274 -0.095883532388957846 0 0.0031453150185826351 -0.098319303222750343 0 0.0034762003723949274 -0.095883532388957846 0 0.003514548027046717 -0.097447138506520883 0 0.0031453150185826351 -0.098319303222750343 0 0.0031345323611854576 -0.099556636991441197 0 0.003514548027046717 -0.097447138506520883 0 0.0031453150185826351 -0.098319303222750343 0 0.0029765839245420832 -0.098485507737733097 0 0.0031010102680791105 -0.096930241480782192 0 0.0031453150185826351 -0.098319303222750343 0 0.0016879654129523538 -0.10445482203011321 0 0.0013737854678831142 -0.10323056643628491 0 0.0033783309689261781 -0.10053996752247345 0 0.0027738682345918803 -0.099053054847420136 0 0.0029407692495925278 -0.099370270866313809 0 0.0052371394337018288 -0.093825803022580617 0 0.003514548027046717 -0.097447138506520883 0 0.0033783309689261781 -0.10053996752247345 0 0.0013737854678831142 -0.10323056643628491 0 0.0018888659286209061 -0.10209749890033167 0 0.0033783309689261781 -0.10053996752247345 0 0.0031345323611854576 -0.099556636991441197 0 0.003514548027046717 -0.097447138506520883 0 0.0033783309689261781 -0.10053996752247345 0 0.0013737854678831142 -0.10323056643628491 0 0.0011886029985549516 -0.1029684807828592 0 0.00052273690836151057 -0.10411935572528269 0 0.0013737854678831142 -0.10323056643628491 0 0.0011886029985549516 -0.1029684807828592 0 0.0018888659286209061 -0.10209749890033167 0 0.0020337441206009581 -0.10170754299703885 0 0.0016670582737325682 -0.10245299518976946 0 0.001055221859860967 -0.1034175087270347 0 0.0011886029985549516 -0.1029684807828592 0 0.0020337441206009581 -0.10170754299703885 0 0.001055221859860967 -0.1034175087270347 0 0.0011886029985549516 -0.1029684807828592 0 0.0018888659286209061 -0.10209749890033167 0 0.0020337441206009581 -0.10170754299703885 0 0.0020337441206009581 -0.10170754299703885 0 0.0026973567340082142 -0.10045323443943506 0 0.0016670582737325682 -0.10245299518976946 0 0.0018888659286209061 -0.10209749890033167 0 0.0020337441206009581 -0.10170754299703885 0 0.0033783309689261781 -0.10053996752247345 0 0.0020337441206009581 -0.10170754299703885 0 0.0033783309689261781 -0.10053996752247345 0 0.0026973567340082142 -0.10045323443943506 0 0.0031345323611854576 -0.099556636991441197 0 0.0033783309689261781 -0.10053996752247345 0 0.0026973567340082142 -0.10045323443943506 0 0.0020018706533026622 -0.10154347184462541 0 0.0018694329977397472 -0.10178917950708934 0 0.0025375414557463382 -0.099599892432684606 0 0.002744243870417603 -0.099760396907378951 0 0.0024290904391139527 -0.099547220775744585 0 0.0026973567340082142 -0.10045323443943506 0 0.00083896131279618668 -0.10366350548998697 0 0.0016670582737325682 -0.10245299518976946 0 0.0026973567340082142 -0.10045323443943506 0 0.002744243870417603 -0.099760396907378951 0 0.0024290904391139527 -0.099547220775744585 0 0.0025375414557463382 -0.099599892432684606 0 0.0024290904391139527 -0.099547220775744585 0 0.0021098889298580927 -0.099986034031910559 0 0.00083896131279618668 -0.10366350548998697 0 0.0011538854827171864 -0.10371174401638639 0 0.0011733172850498723 -0.10437630199331882 0 0.00083896131279618668 -0.10366350548998697 0 0.0011538854827171864 -0.10371174401638639 0 0.0016670582737325682 -0.10245299518976946 0 0.0011538854827171864 -0.10371174401638639 0 0.0016670582737325682 -0.10245299518976946 0 0.001055221859860967 -0.1034175087270347 0 0.001055221859860967 -0.1034175087270347 0 0.00084489953823079433 -0.10429480140876442 0 1.7507939939793286e-06 -0.10499731356408565 0 0.0011538854827171864 -0.10371174401638639 0 0.001055221859860967 -0.1034175087270347 0 0.00084489953823079433 -0.10429480140876442 0 -6.7767260193819407e-08 -0.10499938954074317 0 1.7507939939793286e-06 -0.10499731356408565 0 0.00052273690836151057 -0.10411935572528269 0 0.001055221859860967 -0.1034175087270347 0 1.7507939939793286e-06 -0.10499731356408565 0 0.00052273690836151057 -0.10411935572528269 0 0.0011886029985549516 -0.1029684807828592 0 0.001055221859860967 -0.1034175087270347 0 0.00052273690836151057 -0.10411935572528269 0 0.00078325730915712729 -0.084032313674969911 0 0.00016750546674712245 -0.083948718468506558 0 0.00029770541437129243 -0.083115643742541989 0 -0.0029506160166287206 -0.088545206993659059 0 -0.0027814500759534644 -0.088489546610770672 0 -0.0029506160166287206 -0.088545206993659059 0 -0.0014894119965952635 -0.089535598160163765 0 0.00071920274290666907 -0.084404949673150681 0 0.0024119911181509314 -0.085351585615966868 0 0.001882382274297077 -0.084097507455919374 0 -0.0078701803525292411 -0.093058620193003386 0 -0.0055263147763489574 -0.093584605515457595 0 -0.006952077925409657 -0.09426474928025122 0 -0.0055263147763489574 -0.093584605515457595 0 -0.006952077925409657 -0.09426474928025122 0 -0.0062150512605160194 -0.095479652464559556 0 -0.0072092451535583808 -0.09518968734619572 0 -0.006952077925409657 -0.09426474928025122 0 -0.0062150512605160194 -0.095479652464559556 0 -0.0072092451535583808 -0.09518968734619572 0 -0.006952077925409657 -0.09426474928025122 0 -0.0082108190384704571 -0.094951429455806341 0 -0.0078701803525292411 -0.093058620193003386 0 -0.006952077925409657 -0.09426474928025122 0 -0.0082108190384704571 -0.094951429455806341 0 -0.0029506160166287206 -0.088545206993659059 0 -0.0028298772947112994 -0.090859576380586754 0 0.0009883757468063597 -0.084127264460631276 0 0.00054196813491859646 -0.086857717517293084 0 6.1134426916675406e-05 -0.085243612778536856 0 0.00054196813491859646 -0.086857717517293084 0 -0.00070748843274246527 -0.087228354733642099 0 -0.00041096407052232874 -0.086231436890298982 0 -0.00070748843274246527 -0.087228354733642099 0 -0.0013039626187479867 -0.086313766081239529 0 -0.001986337633922934 -0.087500446762285522 0 -0.00070748843274246527 -0.087228354733642099 0 -0.0013039626187479867 -0.086313766081239529 0 -0.00041096407052232874 -0.086231436890298982 0 -0.0013039626187479867 -0.086313766081239529 0 -0.00064488197885246223 -0.085521382280790204 0 -0.00041096407052232874 -0.086231436890298982 0 -0.0013039626187479867 -0.086313766081239529 0 -0.00064488197885246223 -0.085521382280790204 0 -0.00161374766532124 -0.085236293060059143 0 -0.00064488197885246223 -0.085521382280790204 0 -0.00041096407052232874 -0.086231436890298982 0 6.1134426916675406e-05 -0.085243612778536856 0 0.00054196813491859646 -0.086857717517293084 0 -0.00041096407052232874 -0.086231436890298982 0 6.1134426916675406e-05 -0.085243612778536856 0 -0.0037700657624050436 -0.088171295466868943 0 -0.0025952168643145856 -0.085995984547325446 0 -0.001986337633922934 -0.087500446762285522 0 -0.0013039626187479867 -0.086313766081239529 0 -0.0025952168643145856 -0.085995984547325446 0 -0.001986337633922934 -0.087500446762285522 0 -0.0013039626187479867 -0.086313766081239529 0 -0.0025952168643145856 -0.085995984547325446 0 -0.00161374766532124 -0.085236293060059143 0 -0.0025952168643145856 -0.085995984547325446 0 -0.00161374766532124 -0.085236293060059143 0 -0.0028232931855136294 -0.084165904774012645 0 -0.00161374766532124 -0.085236293060059143 0 -0.0028232931855136294 -0.084165904774012645 0 -0.0013894265939053004 -0.084177084478555264 0 -0.0028232931855136294 -0.084165904774012645 0 -0.0013894265939053004 -0.084177084478555264 0 -0.0019148771786069363 -0.083028982267473753 0 6.1134426916675406e-05 -0.085243612778536856 0 -0.00055393120790289511 -0.084586635867661242 0 0.00016750546674712245 -0.083948718468506558 0 0.0009883757468063597 -0.084127264460631276 0 6.1134426916675406e-05 -0.085243612778536856 0 0.00016750546674712245 -0.083948718468506558 0 -0.00064488197885246223 -0.085521382280790204 0 6.1134426916675406e-05 -0.085243612778536856 0 -0.00055393120790289511 -0.084586635867661242 0 -0.00064488197885246223 -0.085521382280790204 0 -0.00161374766532124 -0.085236293060059143 0 -0.00055393120790289511 -0.084586635867661242 0 -0.00161374766532124 -0.085236293060059143 0 -0.00055393120790289511 -0.084586635867661242 0 -0.0013894265939053004 -0.084177084478555264 0 -0.00059731305417023213 -0.083428857415934449 0 -0.0013894265939053004 -0.084177084478555264 0 -0.0019148771786069363 -0.083028982267473753 0 -0.00055393120790289511 -0.084586635867661242 0 -0.00059731305417023213 -0.083428857415934449 0 -0.0013894265939053004 -0.084177084478555264 0 -0.00055393120790289511 -0.084586635867661242 0 -0.00059731305417023213 -0.083428857415934449 0 0.00016750546674712245 -0.083948718468506558 0 -0.00059731305417023213 -0.083428857415934449 0 0.00016750546674712245 -0.083948718468506558 0 0.00029770541437129243 -0.083115643742541989 0 -0.00059731305417023213 -0.083428857415934449 0 0.00029770541437129243 -0.083115643742541989 0 -0.00037579010104801954 -0.081798551215936086 0 -0.00059731305417023213 -0.083428857415934449 0 -0.00037579010104801954 -0.081798551215936086 0 -0.0019148771786069363 -0.083028982267473753 0 0.00029770541437129243 -0.083115643742541989 0 -0.00037579010104801954 -0.081798551215936086 0 0.0010503269892026873 -0.082671806964451547 0 -0.0038004383664209632 -0.082424720607404162 0 -0.0028232931855136294 -0.084165904774012645 0 -0.0019148771786069363 -0.083028982267473753 0 -0.00037579010104801954 -0.081798551215936086 0 -0.0019148771786069363 -0.083028982267473753 0 -0.002344339217566637 -0.080919818625254797 0 -0.0038004383664209632 -0.082424720607404162 0 -0.0019148771786069363 -0.083028982267473753 0 -0.002344339217566637 -0.080919818625254797 0 -0.000637039199050486 -0.078479609550823823 0 -0.0030529044988634427 -0.078493507156503231 0 -0.002344339217566637 -0.080919818625254797 0 -0.0044093835458882029 -0.080718404024260226 0 -0.0030529044988634427 -0.078493507156503231 0 -0.002344339217566637 -0.080919818625254797 0 -0.000637039199050486 -0.078479609550823823 0 -0.00037579010104801954 -0.081798551215936086 0 -0.002344339217566637 -0.080919818625254797 0 -0.000637039199050486 -0.078479609550823823 0 -0.00037579010104801954 -0.081798551215936086 0 0.0013186610473831812 -0.080695571419598711 0 0.0013186610473831812 -0.080695571419598711 0 0.0010503269892026873 -0.082671806964451547 0 0.002203488780099223 -0.082400498268110869 0 -0.00037579010104801954 -0.081798551215936086 0 0.0013186610473831812 -0.080695571419598711 0 0.0010503269892026873 -0.082671806964451547 0 -0.0029506160166287206 -0.088545206993659059 0 -0.0023223797108745839 -0.086639412516152481 0 0.00078325730915712729 -0.084032313674969911 0 0.00029770541437129243 -0.083115643742541989 0 0.0010503269892026873 -0.082671806964451547 0 0.00071920274290666907 -0.084404949673150681 0 0.001882382274297077 -0.084097507455919374 0 0.0010503269892026873 -0.082671806964451547 0 0.001882382274297077 -0.084097507455919374 0 0.002203488780099223 -0.082400498268110869 0 0.0030938269179927652 -0.083759730345184968 0 0.001882382274297077 -0.084097507455919374 0 0.0010503269892026873 -0.082671806964451547 0 0.002203488780099223 -0.082400498268110869 0 0.0029892103333141319 -0.080491356665272698 0 0.0013186610473831812 -0.080695571419598711 0 0.002203488780099223 -0.082400498268110869 0 0.0029892103333141319 -0.080491356665272698 0 0.002203488780099223 -0.082400498268110869 0 0.0030938269179927652 -0.083759730345184968 0 0.0034173511100572098 -0.08222977654375857 0 0.0029892103333141319 -0.080491356665272698 0 0.0030938269179927652 -0.083759730345184968 0 0.0034173511100572098 -0.08222977654375857 0 0.0030938269179927652 -0.083759730345184968 0 0.0030157958300588853 -0.084244743032485234 0 0.0022155334063647669 -0.086416065999304292 0 0.0023122177862752603 -0.087288474825221729 0 0.0030938269179927652 -0.083759730345184968 0 0.0028952906432787402 -0.086575638692357515 0 0.0029196854998650105 -0.085667495911186525 0 0.0030938269179927652 -0.083759730345184968 0 0.0030157958300588853 -0.084244743032485234 0 0.0023010411767514991 -0.086242883827704717 0 0.0024119911181509314 -0.085351585615966868 0 0.001882382274297077 -0.084097507455919374 0 0.0030938269179927652 -0.083759730345184968 0 0.0024119911181509314 -0.085351585615966868 0 0.0030938269179927652 -0.083759730345184968 0 0.0029196854998650105 -0.085667495911186525 0 0.0029898529468093665 -0.084381680902160361 0 0.0027227012696798454 -0.085295458546536057 0 0.0026460710645247799 -0.08552135930824234 0 0.0026199925841495319 -0.086213380330176254 0 0.0026460710645247799 -0.08552135930824234 0 0.0024252895091616631 -0.087200562803879514 0 0.0027227012696798454 -0.085295458546536057 0 0.0026199925841495319 -0.086213380330176254 0 0.0026460710645247799 -0.08552135930824234 0 0.0030157958300588853 -0.084244743032485234 0 0.0026460710645247799 -0.08552135930824234 0 0.0023010411767514991 -0.086242883827704717 0 0.0029898529468093665 -0.084381680902160361 0 0.0030157958300588853 -0.084244743032485234 0 0.0026460710645247799 -0.08552135930824234 0 0.0026460710645247799 -0.08552135930824234 0 0.0023010411767514991 -0.086242883827704717 0 0.0024252895091616631 -0.087200562803879514 0 0.0023010411767514991 -0.086242883827704717 0 0.0022637822687942431 -0.088076656294322112 0 0.0024252895091616631 -0.087200562803879514 0 0.002039727932432343 -0.08936073907934762 0 0.0025416673611150685 -0.087600256105426849 0 0.0020429312136747164 -0.089087875833706115 0 0.0025838668994896015 -0.088980618974680847 0 0.0023122177862752603 -0.087288474825221729 0 0.0020180766891886599 -0.089618154320460289 0 0.0023010411767514991 -0.086242883827704717 0 0.0022637822687942431 -0.088076656294322112 0 0.002039727932432343 -0.08936073907934762 0 0.0028952906432787402 -0.086575638692357515 0 0.0025416673611150685 -0.087600256105426849 0 0.0028952906432787402 -0.086575638692357515 0 0.0025416673611150685 -0.087600256105426849 0 0.0029196854998650105 -0.085667495911186525 0 0.0025416673611150685 -0.087600256105426849 0 0.0020429312136747164 -0.089087875833706115 0 0.0027952502825932253 -0.086674291956175611 0 0.0013504720430740644 -0.091498696783392647 0 -4.9703676244507073e-06 -0.090528386473654049 0 -0.0026298510835415208 -0.094748174397051604 0 -0.0015125633606534797 -0.09411455849396505 0 -0.0034115006481960169 -0.094085211352139486 0 -0.0014894119965952635 -0.089535598160163765 0 -4.9703676244507073e-06 -0.090528386473654049 0 0.0024119911181509314 -0.085351585615966868 0 0.0029196854998650105 -0.085667495911186525 0 0.0027952502825932253 -0.086674291956175611 0 0.0025416673611150685 -0.087600256105426849 0 0.0029196854998650105 -0.085667495911186525 0 0.0027952502825932253 -0.086674291956175611 0 -0.0026298510835415208 -0.094748174397051604 0 -0.0034115006481960169 -0.094085211352139486 0 -0.0041789960701415991 -0.095333204162534033 0 -0.0055263147763489574 -0.093584605515457595 0 -0.0034115006481960169 -0.094085211352139486 0 -0.0041789960701415991 -0.095333204162534033 0 -0.0055263147763489574 -0.093584605515457595 0 -0.0041789960701415991 -0.095333204162534033 0 -0.0062150512605160194 -0.095479652464559556 0 -0.0041789960701415991 -0.095333204162534033 0 -0.0052625322323680539 -0.096712574303315896 0 -0.0062150512605160194 -0.095479652464559556 0 -0.0041789960701415991 -0.095333204162534033 0 -0.0037522035598781421 -0.097203705870775328 0 -0.0052625322323680539 -0.096712574303315896 0 -0.0041789960701415991 -0.095333204162534033 0 -0.0037522035598781421 -0.097203705870775328 0 -0.001734269855374518 -0.096693472913913475 0 -0.0031682411576499925 -0.096036740578253468 0 -0.0019904025613016493 -0.096604230996443469 0 -0.0037522035598781421 -0.097203705870775328 0 -0.0024291038487083737 -0.098080403803828486 0 -0.0032706201779506739 -0.098873017158392792 0 -0.0037522035598781421 -0.097203705870775328 0 -0.0052625322323680539 -0.096712574303315896 0 -0.0051721064841524127 -0.098202130800967805 0 -0.0037522035598781421 -0.097203705870775328 0 -0.0051721064841524127 -0.098202130800967805 0 -0.0032706201779506739 -0.098873017158392792 0 -0.00032354827629169417 -0.095386098967915944 0 0.00022865122099703118 -0.097408327500854763 0 -0.0024031243675748182 -0.09595212246149179 0 -0.00032354827629169417 -0.095386098967915944 0 -0.0015125633606534797 -0.09411455849396505 0 -0.0024031243675748182 -0.09595212246149179 0 -0.0026298510835415208 -0.094748174397051604 0 -0.0015125633606534797 -0.09411455849396505 0 -0.0024031243675748182 -0.09595212246149179 0 -0.0026298510835415208 -0.094748174397051604 0 -0.0041789960701415991 -0.095333204162534033 0 -0.0024031243675748182 -0.09595212246149179 0 -0.001734269855374518 -0.096693472913913475 0 -0.0024291038487083737 -0.098080403803828486 0 -0.001221930490756909 -0.098618508665761176 0 -0.0037522035598781421 -0.097203705870775328 0 -0.001734269855374518 -0.096693472913913475 0 -0.0024291038487083737 -0.098080403803828486 0 8.2411411053819842e-05 -0.097879565747831188 0 -0.001734269855374518 -0.096693472913913475 0 -0.001221930490756909 -0.098618508665761176 0 2.9098719375612029e-05 -0.097664412113889931 0 -0.0019904025613016493 -0.096604230996443469 0 -0.0024291038487083737 -0.098080403803828486 0 -0.001221930490756909 -0.098618508665761176 0 -0.0022240117881473834 -0.099188924012874213 0 -0.0024291038487083737 -0.098080403803828486 0 -0.0022240117881473834 -0.099188924012874213 0 -0.0032706201779506739 -0.098873017158392792 0 -0.0022240117881473834 -0.099188924012874213 0 -0.0029911203085847193 -0.099886200158929281 0 -0.0011197492766101954 -0.1003945945730174 0 0.0012071570292246534 -0.10034468967028989 0 0.00090427507722366188 -0.10059054217010642 0 -6.6131730131889797e-05 -0.099455218434077688 0 -0.001221930490756909 -0.098618508665761176 0 -0.0011197492766101954 -0.1003945945730174 0 -0.001221930490756909 -0.098618508665761176 0 -0.0022240117881473834 -0.099188924012874213 0 -0.0011197492766101954 -0.1003945945730174 0 -0.0036760521588413376 -0.096204060438466146 0 -0.0034179399758468777 -0.096682012527254182 0 -0.0038820623914639402 -0.098736901721885872 0 -0.0032706201779506739 -0.098873017158392792 0 -0.0040248402626965529 -0.099350071793845626 0 -0.0022240117881473834 -0.099188924012874213 0 -0.0032706201779506739 -0.098873017158392792 0 -0.0029911203085847193 -0.099886200158929281 0 -0.0032706201779506739 -0.098873017158392792 0 -0.0029911203085847193 -0.099886200158929281 0 -0.0040248402626965529 -0.099350071793845626 0 0.0043634822473173126 -0.10236895563831701 0 0.0067386421009040893 -0.10317162025560547 0 0.0054948040726000222 -0.10129988551470304 0 0.0012071570292246534 -0.10034468967028989 0 0.0020674169966631061 -0.099658457819012336 0 -0.0040248402626965529 -0.099350071793845626 0 -0.0044686803410590404 -0.099062511035769948 0 -0.0043016133172786601 -0.098905492868253411 0 0.0067386421009040893 -0.10317162025560547 0 0.0094565210847259908 -0.1039359811090132 0 0.0085164431150628848 -0.10223702303214328 0 0.0020674169966631061 -0.099658457819012336 0 0.0038317594989629553 -0.0980433051565925 0 0.0094565210847259908 -0.1039359811090132 0 0.010465041619285884 -0.10232668668187321 0 0.0085164431150628848 -0.10223702303214328 0 -0.0044686803410590404 -0.099062511035769948 0 -0.0045135376412893512 -0.098891411658944967 0 -0.0046572208079211997 -0.098868351155210435 0 -0.0044686803410590404 -0.099062511035769948 0 -0.0045135376412893512 -0.098891411658944967 0 -0.0043016133172786601 -0.098905492868253411 0 -0.0044670485049170617 -0.098754157371309451 0 -0.0043016133172786601 -0.098905492868253411 0 -0.0042962285879584259 -0.098636767480622722 0 -0.0045135376412893512 -0.098891411658944967 0 -0.0044670485049170617 -0.098754157371309451 0 -0.0043016133172786601 -0.098905492868253411 0 -0.0045135376412893512 -0.098891411658944967 0 -0.0044670485049170617 -0.098754157371309451 0 -0.0045633386591307007 -0.098760223616038353 0 -0.0038820623914639402 -0.098736901721885872 0 -0.0040248402626965529 -0.099350071793845626 0 -0.0043016133172786601 -0.098905492868253411 0 -0.0038820623914639402 -0.098736901721885872 0 -0.0043016133172786601 -0.098905492868253411 0 -0.0042962285879584259 -0.098636767480622722 0 -0.0036760521588413376 -0.096204060438466146 0 -0.0036989770005264326 -0.09489950067022708 0 -0.0052625322323680539 -0.096712574303315896 0 -0.0051721064841524127 -0.098202130800967805 0 -0.0068883252086891882 -0.097500810228832863 0 -0.0068883252086891882 -0.097500810228832863 0 -0.0074622280835147155 -0.096067005285709925 0 -0.0085508758522391416 -0.096854512498765269 0 -0.0044670485049170617 -0.098754157371309451 0 -0.0042962285879584259 -0.098636767480622722 0 -0.0046098849039495791 -0.09853701037448423 0 -0.0036989770005264326 -0.09489950067022708 0 -0.0022232144321012097 -0.092769728093867257 0 -0.0044670485049170617 -0.098754157371309451 0 -0.0046098849039495791 -0.09853701037448423 0 -0.0045633386591307007 -0.098760223616038353 0 -0.0082108190384704571 -0.094951429455806341 0 -0.0074622280835147155 -0.096067005285709925 0 -0.0085508758522391416 -0.096854512498765269 0 -0.0072092451535583808 -0.09518968734619572 0 -0.0082108190384704571 -0.094951429455806341 0 -0.0074622280835147155 -0.096067005285709925 0 -0.0072092451535583808 -0.09518968734619572 0 -0.0074622280835147155 -0.096067005285709925 0 -0.0062150512605160194 -0.095479652464559556 0 -0.0068883252086891882 -0.097500810228832863 0 -0.0074622280835147155 -0.096067005285709925 0 -0.0062150512605160194 -0.095479652464559556 0 -0.0052625322323680539 -0.096712574303315896 0 -0.0068883252086891882 -0.097500810228832863 0 -0.0062150512605160194 -0.095479652464559556 0 -0.0037700657624050436 -0.088171295466868943 0 -0.001986337633922934 -0.087500446762285522 0 -0.0011930015834002547 -0.089112439430715937 0 -0.00081586609612726766 -0.085807365915802056 0 -0.00091618483998422249 -0.090462091390951974 0 -0.00070748843274246527 -0.087228354733642099 0 -0.0012163159396219642 -0.089162243744090916 0 6.7543111668554124e-05 -0.089632603365251293 0 -0.00077369984943234822 -0.089692316453811843 0 -0.00091618483998422249 -0.090462091390951974 0 -0.00070748843274246527 -0.087228354733642099 0 -0.001986337633922934 -0.087500446762285522 0 -0.0011930015834002547 -0.089112439430715937 0 -0.0028298772947112994 -0.090859576380586754 0 -0.0022232144321012097 -0.092769728093867257 0 0.00054196813491859646 -0.086857717517293084 0 -0.00070748843274246527 -0.087228354733642099 0 6.7543111668554124e-05 -0.089632603365251293 0 -0.00091618483998422249 -0.090462091390951974 0 0.0016078137133316466 -0.089706479703199102 0 -0.00091618483998422249 -0.090462091390951974 0 -0.0022232144321012097 -0.092769728093867257 0 -0.0046098849039495791 -0.09853701037448423 0 -0.0045633386591307007 -0.098760223616038353 0 -0.0046572208079211997 -0.098868351155210435 0 -0.0044806049351879653 -0.098026924597229129 0 -0.0050073560921591286 -0.09833458334682979 0 -0.0046748608048783049 -0.09871600587815732 0 -0.0048837730888474252 -0.097866653664445691 0 -0.0044806049351879653 -0.098026924597229129 0 -0.0050073560921591286 -0.09833458334682979 0 -0.0022232144321012097 -0.092769728093867257 0 -0.0029864121606455606 -0.09582978414463808 0 0.0016078137133316466 -0.089706479703199102 0 0.001454806235933924 -0.090533217248857323 0 -0.00081586609612726766 -0.085807365915802056 0 0.0016078137133316466 -0.089706479703199102 0 -0.00025916163061505306 -0.087016743931103091 0 0.0019474531504154807 -0.087829887551213098 0 0.0016248224461749517 -0.089075532856560211 0 0.010210630040300159 -0.072160556011003005 0 0.0098798097663195736 -0.073400512083740835 0 0.011352429495901796 -0.073539967680082391 0 0.0016078137133316466 -0.089706479703199102 0 0.0082591356312638458 -0.094582166548558388 0 0.0098798097663195736 -0.073400512083740835 0 0.011352429495901796 -0.073539967680082391 0 0.01102532359731281 -0.074730669836641422 0 -0.0044686803410590404 -0.099062511035769948 0 -0.0049036756662482334 -0.098906445585942512 0 -0.0046572208079211997 -0.098868351155210435 0 -0.0048277123403767386 -0.098525018752735963 0 -0.0049036756662482334 -0.098906445585942512 0 -0.0046748608048783049 -0.09871600587815732 0 0.0038317594989629553 -0.0980433051565925 0 0.0082591356312638458 -0.094582166548558388 0 -0.0044806049351879653 -0.098026924597229129 0 -0.0046748608048783049 -0.09871600587815732 0 -0.0046572208079211997 -0.098868351155210435 0 -0.0045135376412893512 -0.098891411658944967 0 -0.0045633386591307007 -0.098760223616038353 0 -0.0046572208079211997 -0.098868351155210435 0 -0.0049036756662482334 -0.098906445585942512 0 -0.0046748608048783049 -0.09871600587815732 0 -0.0046572208079211997 -0.098868351155210435 0 0.0094565210847259908 -0.1039359811090132 0 0.012288911433894385 -0.10452494340275652 0 0.010465041619285884 -0.10232668668187321 0 0.0082591356312638458 -0.094582166548558388 0 0.010567784940568394 -0.099747947225299935 0 0.012288911433894385 -0.10452494340275652 0 0.013164202866172005 -0.10176130705098964 0 0.010465041619285884 -0.10232668668187321 0 0.015397320370359657 -0.10395389950094092 0 0.013502111823768776 -0.10515064681099602 0 0.014227599402064615 -0.10207025047063219 0 0.013164202866172005 -0.10176130705098964 0 0.010465041619285884 -0.10232668668187321 0 0.010512500521588404 -0.10060837860626733 0 0.010512500521588404 -0.10060837860626733 0 0.011561273881296404 -0.09913510378943087 0 0.009296743373706555 -0.099001839137376327 0 0.013164202866172005 -0.10176130705098964 0 0.010512500521588404 -0.10060837860626733 0 0.011561273881296404 -0.09913510378943087 0 0.013164202866172005 -0.10176130705098964 0 0.011561273881296404 -0.09913510378943087 0 0.014584321608089101 -0.098902373052849893 0 0.011561273881296404 -0.09913510378943087 0 0.011883886715200841 -0.096530272830680316 0 0.014584321608089101 -0.098902373052849893 0 0.011561273881296404 -0.09913510378943087 0 0.010168122492876094 -0.097506022862467401 0 0.011883886715200841 -0.096530272830680316 0 0.011561273881296404 -0.09913510378943087 0 0.010168122492876094 -0.097506022862467401 0 0.009296743373706555 -0.099001839137376327 0 0.010168122492876094 -0.097506022862467401 0 0.011883886715200841 -0.096530272830680316 0 0.0092606143457546301 -0.095460701709552828 0 0.011883886715200841 -0.096530272830680316 0 0.014584321608089101 -0.098902373052849893 0 0.01482440535482913 -0.096827640404429718 0 0.011883886715200841 -0.096530272830680316 0 0.01482440535482913 -0.096827640404429718 0 0.013894124048386067 -0.094249174125400195 0 0.0074601618115417425 -0.096421111722496344 0 0.0086918452155988167 -0.097383073338100978 0 0.0075333140321374578 -0.09888447509694416 0 0.010168122492876094 -0.097506022862467401 0 0.0086918452155988167 -0.097383073338100978 0 0.0092606143457546301 -0.095460701709552828 0 0.0074601618115417425 -0.096421111722496344 0 0.0086918452155988167 -0.097383073338100978 0 0.0092606143457546301 -0.095460701709552828 0 0.0086918452155988167 -0.097383073338100978 0 0.009296743373706555 -0.099001839137376327 0 0.0075333140321374578 -0.09888447509694416 0 0.010168122492876094 -0.097506022862467401 0 0.0086918452155988167 -0.097383073338100978 0 0.009296743373706555 -0.099001839137376327 0 0.0074601618115417425 -0.096421111722496344 0 0.0075333140321374578 -0.09888447509694416 0 0.0058544800791609205 -0.097927025615892449 0 0.0075333140321374578 -0.09888447509694416 0 0.0089296578786549567 -0.10073354260652026 0 0.0071137683485946145 -0.10103314356939855 0 0.0075333140321374578 -0.09888447509694416 0 0.0071137683485946145 -0.10103314356939855 0 0.0057472263136837242 -0.099689196627781529 0 0.009296743373706555 -0.099001839137376327 0 0.0075333140321374578 -0.09888447509694416 0 0.0089296578786549567 -0.10073354260652026 0 0.010512500521588404 -0.10060837860626733 0 0.009296743373706555 -0.099001839137376327 0 0.0089296578786549567 -0.10073354260652026 0 0.010465041619285884 -0.10232668668187321 0 0.0089296578786549567 -0.10073354260652026 0 0.0085164431150628848 -0.10223702303214328 0 0.010465041619285884 -0.10232668668187321 0 0.010512500521588404 -0.10060837860626733 0 0.0089296578786549567 -0.10073354260652026 0 0.0089296578786549567 -0.10073354260652026 0 0.0085164431150628848 -0.10223702303214328 0 0.0071137683485946145 -0.10103314356939855 0 0.0067386421009040893 -0.10317162025560547 0 0.0085164431150628848 -0.10223702303214328 0 0.0071137683485946145 -0.10103314356939855 0 0.0067386421009040893 -0.10317162025560547 0 0.0071137683485946145 -0.10103314356939855 0 0.0054948040726000222 -0.10129988551470304 0 0.0043634822473173126 -0.10236895563831701 0 0.0054948040726000222 -0.10129988551470304 0 0.0037224621577140824 -0.10034875466091779 0 0.0054948040726000222 -0.10129988551470304 0 0.0057472263136837242 -0.099689196627781529 0 0.0037224621577140824 -0.10034875466091779 0 0.0057472263136837242 -0.099689196627781529 0 0.0037224621577140824 -0.10034875466091779 0 0.0045344597177269397 -0.098872425550344256 0 0.0071137683485946145 -0.10103314356939855 0 0.0054948040726000222 -0.10129988551470304 0 0.0057472263136837242 -0.099689196627781529 0 0.0023060080495064506 -0.10158607951963915 0 0.0037224621577140824 -0.10034875466091779 0 0.001994263360966165 -0.10020699761970568 0 0.0043634822473173126 -0.10236895563831701 0 0.0023060080495064506 -0.10158607951963915 0 0.0037224621577140824 -0.10034875466091779 0 0.001994263360966165 -0.10020699761970568 0 0.0023221857994116146 -0.098647109036368086 0 0.0009839750599407776 -0.099935428313726954 0 0.0037224621577140824 -0.10034875466091779 0 0.001994263360966165 -0.10020699761970568 0 0.0023221857994116146 -0.098647109036368086 0 0.0037224621577140824 -0.10034875466091779 0 0.0023221857994116146 -0.098647109036368086 0 0.0045344597177269397 -0.098872425550344256 0 0.0023221857994116146 -0.098647109036368086 0 0.0045344597177269397 -0.098872425550344256 0 0.004190134700464 -0.097549213197961476 0 0.0025692075223123271 -0.099708213188341166 0 0.004190134700464 -0.097549213197961476 0 0.0028136231549175201 -0.097268462239400513 0 0.0024485879082767202 -0.099248336662738065 0 0.0031518225763437317 -0.09873315055813249 0 0.0025692075223123271 -0.099708213188341166 0 0.0020727209485116339 -0.09888362878218529 0 0.0028136231549175201 -0.097268462239400513 0 0.0057472263136837242 -0.099689196627781529 0 0.0058544800791609205 -0.097927025615892449 0 0.0045344597177269397 -0.098872425550344256 0 0.0075333140321374578 -0.09888447509694416 0 0.0057472263136837242 -0.099689196627781529 0 0.0058544800791609205 -0.097927025615892449 0 0.0058544800791609205 -0.097927025615892449 0 0.0045344597177269397 -0.098872425550344256 0 0.004190134700464 -0.097549213197961476 0 0.0058544800791609205 -0.097927025615892449 0 0.004190134700464 -0.097549213197961476 0 0.0059477003244089834 -0.095974320518806666 0 0.0074601618115417425 -0.096421111722496344 0 0.0058544800791609205 -0.097927025615892449 0 0.0059477003244089834 -0.095974320518806666 0 0.0059477003244089834 -0.095974320518806666 0 0.0046955791489792014 -0.095536731790287294 0 0.0054466017420787428 -0.093409481618036555 0 0.004190134700464 -0.097549213197961476 0 0.0059477003244089834 -0.095974320518806666 0 0.0046955791489792014 -0.095536731790287294 0 0.00662161051567572 -0.093194221842923475 0 0.0054250649755627012 -0.09383226408757453 0 0.0046955791489792014 -0.095536731790287294 0 0.0054466017420787428 -0.093409481618036555 0 0.0036278528370446376 -0.094661833120679176 0 0.0059477003244089834 -0.095974320518806666 0 0.0054466017420787428 -0.093409481618036555 0 0.0076527647061507822 -0.094350509920472045 0 0.0034241333867311586 -0.09518265876917828 0 0.0032385973181924621 -0.095066297385296539 0 0.0032708400049793001 -0.095047331093794693 0 0.0034241333867311586 -0.09518265876917828 0 0.0036278528370446376 -0.094661833120679176 0 0.0032708400049793001 -0.095047331093794693 0 0.0037220668498943485 -0.096898150062170257 0 0.0029241641093077056 -0.097615156263264918 0 0.0020727209485116339 -0.09888362878218529 0 0.0028136231549175201 -0.097268462239400513 0 0.0015322037446874933 -0.09891859374785078 0 0.0046955791489792014 -0.095536731790287294 0 0.0034241333867311586 -0.09518265876917828 0 0.0036278528370446376 -0.094661833120679176 0 0.0043363731572787353 -0.096590997429930048 0 0.0037220668498943485 -0.096898150062170257 0 0.004190134700464 -0.097549213197961476 0 0.0046955791489792014 -0.095536731790287294 0 0.0028136231549175201 -0.097268462239400513 0 0.0071303040513004158 -0.09331786289103601 0 0.0059528744230772229 -0.093099074276063787 0 0.0065904059539663527 -0.092348954978086886 0 0.0054250649755627012 -0.09383226408757453 0 0.00433847600407358 -0.094378888971347302 0 0.0071303040513004158 -0.09331786289103601 0 0.0059528744230772229 -0.093099074276063787 0 0.005266270100312615 -0.094296268551707738 0 0.0059528744230772229 -0.093099074276063787 0 0.0055575328254514863 -0.092135184202457254 0 0.0065904059539663527 -0.092348954978086886 0 0.0071303040513004158 -0.09331786289103601 0 0.0065904059539663527 -0.092348954978086886 0 0.007584624152817904 -0.092073009373960138 0 0.0065904059539663527 -0.092348954978086886 0 0.007584624152817904 -0.092073009373960138 0 0.0062781646702908655 -0.090387303020660364 0 0.0063128053606290703 -0.092674654138893531 0 0.0059265034402082358 -0.092958402058520337 0 0.007584624152817904 -0.092073009373960138 0 0.0077385496108626261 -0.09188888162497745 0 0.0079427192889520749 -0.09180589210994422 0 0.0050315971009801414 -0.091086773801534807 0 0.0050543957226895694 -0.090195848771499859 0 0.0062781646702908655 -0.090387303020660364 0 0.0055575328254514863 -0.092135184202457254 0 0.0065904059539663527 -0.092348954978086886 0 0.0062781646702908655 -0.090387303020660364 0 0.0055575328254514863 -0.092135184202457254 0 0.0050315971009801414 -0.091086773801534807 0 0.0062781646702908655 -0.090387303020660364 0 0.0080218630024321228 -0.092409971325264656 0 0.0079266378735539586 -0.09202436159105036 0 0.008000678587932528 -0.092163280884114587 0 0.00662161051567572 -0.093194221842923475 0 0.007286943673023254 -0.092858193484019858 0 0.0080218630024321228 -0.092409971325264656 0 0.007584624152817904 -0.092073009373960138 0 0.0079266378735539586 -0.09202436159105036 0 0.0080218630024321228 -0.092409971325264656 0 0.0071303040513004158 -0.09331786289103601 0 0.007584624152817904 -0.092073009373960138 0 0.0079266378735539586 -0.09202436159105036 0 0.0080149149357732832 -0.091805255160035376 0 0.0079427192889520749 -0.09180589210994422 0 0.007584624152817904 -0.092073009373960138 0 0.0079266378735539586 -0.09202436159105036 0 0.0079427192889520749 -0.09180589210994422 0 0.0079266378735539586 -0.09202436159105036 0 0.008000678587932528 -0.092163280884114587 0 0.0080149149357732832 -0.091805255160035376 0 0.008000678587932528 -0.092163280884114587 0 0.0086718527942258022 -0.091706950861577485 0 0.0082182618302149082 -0.091597431343004729 0 0.008000678587932528 -0.092163280884114587 0 0.0082182618302149082 -0.091597431343004729 0 0.0080149149357732832 -0.091805255160035376 0 0.008000678587932528 -0.092163280884114587 0 0.0093534474302263623 -0.091996511085577923 0 0.0093068807726309436 -0.093168449446786109 0 0.008000678587932528 -0.092163280884114587 0 0.0086718527942258022 -0.091706950861577485 0 0.0093534474302263623 -0.091996511085577923 0 0.0090861670632676646 -0.091633884114788927 0 0.0086718527942258022 -0.091706950861577485 0 0.0093534474302263623 -0.091996511085577923 0 0.0090861670632676646 -0.091633884114788927 0 0.0086718527942258022 -0.091706950861577485 0 0.0085899100758708019 -0.091421847499266337 0 0.0042125716538428401 -0.081475018819732986 0 0.0034832603862378448 -0.08217268459036671 0 -0.0026487233875992331 -0.073657052062704204 0 0.0090861670632676646 -0.091633884114788927 0 0.0097173050866206957 -0.091561887915951545 0 0.0085899100758708019 -0.091421847499266337 0 0.0066390973499624879 -0.086413830287540072 0 0.0037043784292683708 -0.082421312843104888 0 0.0083113889643425861 -0.07744995158820972 0 0.011995724510642274 -0.074123206560747695 0 0.0042125716538428401 -0.081475018819732986 0 0.011815323347608148 -0.075167375069808431 0 0.012604078927109101 -0.083064727759879053 0 0.0042125716538428401 -0.081475018819732986 0 0.011165722910307804 -0.090970584854839429 0 0.012604078927109101 -0.083064727759879053 0 0.0042125716538428401 -0.081475018819732986 0 0.0034832603862378448 -0.08217268459036671 0 0.011165722910307804 -0.090970584854839429 0 0.0066390973499624879 -0.086413830287540072 0 0.0084421217725653176 -0.088677429778252825 0 0.0097173050866206957 -0.091561887915951545 0 0.0093534474302263623 -0.091996511085577923 0 0.011165722910307804 -0.090970584854839429 0 0.0090861670632676646 -0.091633884114788927 0 0.0097173050866206957 -0.091561887915951545 0 0.0093534474302263623 -0.091996511085577923 0 0.0093534474302263623 -0.091996511085577923 0 0.011165722910307804 -0.090970584854839429 0 0.0093068807726309436 -0.093168449446786109 0 0.011165722910307804 -0.090970584854839429 0 0.01085499551521572 -0.093988472896851319 0 0.0093068807726309436 -0.093168449446786109 0 0.011165722910307804 -0.090970584854839429 0 0.01085499551521572 -0.093988472896851319 0 0.013894124048386067 -0.094249174125400195 0 0.011883886715200841 -0.096530272830680316 0 0.01085499551521572 -0.093988472896851319 0 0.013894124048386067 -0.094249174125400195 0 0.011883886715200841 -0.096530272830680316 0 0.01085499551521572 -0.093988472896851319 0 0.0092606143457546301 -0.095460701709552828 0 0.01085499551521572 -0.093988472896851319 0 0.0092606143457546301 -0.095460701709552828 0 0.0093068807726309436 -0.093168449446786109 0 0.0092606143457546301 -0.095460701709552828 0 0.0076527647061507822 -0.094350509920472045 0 0.0093068807726309436 -0.093168449446786109 0 0.0074601618115417425 -0.096421111722496344 0 0.0059477003244089834 -0.095974320518806666 0 0.0076527647061507822 -0.094350509920472045 0 0.0074601618115417425 -0.096421111722496344 0 0.0092606143457546301 -0.095460701709552828 0 0.0076527647061507822 -0.094350509920472045 0 0.008000678587932528 -0.092163280884114587 0 0.0076527647061507822 -0.094350509920472045 0 0.0093068807726309436 -0.093168449446786109 0 0.0054466017420787428 -0.093409481618036555 0 0.008000678587932528 -0.092163280884114587 0 0.0076527647061507822 -0.094350509920472045 0 1.7507939939793286e-06 -0.10499731356408565 0 9.9505902235443455e-09 -0.10499602056829527 0 0.00056612425069352474 -0.10438996843580016 0 9.4068513048070624e-07 -0.10499734191633417 0 0.00066854147520247962 -0.10376840185884907 0 -1.622237282537733e-08 -0.10500029304812195 0 0.00017523478194372117 -0.10520859644708323 0 5.5493601822244965e-05 -0.10504604967066405 0 0.00073609106045216088 -0.10344101352572455 0 0.00056612425069352474 -0.10438996843580016 0 0.001523780394543826 -0.10281652499316354 0 9.9505902235443455e-09 -0.10499602056829527 0 0.00073609106045216088 -0.10344101352572455 0 0.00056612425069352474 -0.10438996843580016 0 0.00084489953823079433 -0.10429480140876442 0 1.7507939939793286e-06 -0.10499731356408565 0 0.00056612425069352474 -0.10438996843580016 0 0.00084489953823079433 -0.10429480140876442 0 0.00056612425069352474 -0.10438996843580016 0 0.0011733172850498723 -0.10437630199331882 0 0.00056612425069352474 -0.10438996843580016 0 0.0011733172850498723 -0.10437630199331882 0 0.001523780394543826 -0.10281652499316354 0 0.0017522135378801257 -0.10212116367511405 0 0.0016995456556892624 -0.10224816990131276 0 0.0011538854827171864 -0.10371174401638639 0 0.00084489953823079433 -0.10429480140876442 0 0.0011733172850498723 -0.10437630199331882 0 0.0024290904391139527 -0.099547220775744585 0 0.0021098889298580927 -0.099986034031910559 0 0.0022822032147196097 -0.10075554041869601 0 0.0018694329977397472 -0.10178917950708934 0 0.0017522135378801257 -0.10212116367511405 0 0.0021098889298580927 -0.099986034031910559 0 0.0022822032147196097 -0.10075554041869601 0 0.0017041442260632411 -0.10040788449408933 0 0.0022822032147196097 -0.10075554041869601 0 0.0015722322365557036 -0.10174418174280607 0 0.0014804091921769473 -0.10094955278087488 0 0.0022822032147196097 -0.10075554041869601 0 0.0014804091921769473 -0.10094955278087488 0 0.0017041442260632411 -0.10040788449408933 0 0.0014642329828036514 -0.10161835872362282 0 0.0015722322365557036 -0.10174418174280607 0 0.001393193717996719 -0.10130239482845209 0 0.0014642329828036514 -0.10161835872362282 0 0.0015202590747883408 -0.10191141066462756 0 0.0014028533570793374 -0.10150358073991313 0 0.0014642329828036514 -0.10161835872362282 0 0.0015722322365557036 -0.10174418174280607 0 0.0015202590747883408 -0.10191141066462756 0 0.0015722322365557036 -0.10174418174280607 0 0.0015202590747883408 -0.10191141066462756 0 0.0015707784910954225 -0.10225744380972111 0 0.0015722322365557036 -0.10174418174280607 0 0.001523780394543826 -0.10281652499316354 0 0.0015707784910954225 -0.10225744380972111 0 0.0022822032147196097 -0.10075554041869601 0 0.0015722322365557036 -0.10174418174280607 0 0.001523780394543826 -0.10281652499316354 0 0.00073609106045216088 -0.10344101352572455 0 0.001523780394543826 -0.10281652499316354 0 0.0015739459601468049 -0.10227355646660842 0 0.00066854147520247962 -0.10376840185884907 0 0.00099694910816837466 -0.10235734858165756 0 0.00017523478194372117 -0.10520859644708323 0 0.00050330335567747226 -0.10523951273341947 0 0.00058479893496279326 -0.10530604217111905 0 0.001523780394543826 -0.10281652499316354 0 0.0015739459601468049 -0.10227355646660842 0 0.0015707784910954225 -0.10225744380972111 0 0.00050330335567747226 -0.10523951273341947 0 0.00058479893496279326 -0.10530604217111905 0 0.0005834591033255619 -0.10522185850963411 0 0.00058479893496279326 -0.10530604217111905 0 0.0005834591033255619 -0.10522185850963411 0 0.00071575314587693224 -0.10523967824020047 0 0.0015739459601468049 -0.10227355646660842 0 0.0015068792198528907 -0.10189624511991614 0 0.0014022804335335332 -0.1015201334412342 0 0.00099694910816837466 -0.10235734858165756 0 0.0010530903323274069 -0.10038729653806001 0 0.00058479893496279326 -0.10530604217111905 0 0.00071575314587693224 -0.10523967824020047 0 0.00099165403223059733 -0.1052950589094481 0 0.0014319856549537193 -0.10162991502875772 0 0.0015068792198528907 -0.10189624511991614 0 0.0014051189873662212 -0.10154657541585334 0 0.0015068792198528907 -0.10189624511991614 0 0.0014051189873662212 -0.10154657541585334 0 0.0014022804335335332 -0.1015201334412342 0 0.0014319856549537193 -0.10162991502875772 0 0.0014632925797533603 -0.101720087348219 0 0.0015068792198528907 -0.10189624511991614 0 0.0014632925797533603 -0.101720087348219 0 0.0015202590747883408 -0.10191141066462756 0 0.0015068792198528907 -0.10189624511991614 0 0.0014632925797533603 -0.101720087348219 0 0.0015202590747883408 -0.10191141066462756 0 0.0014028533570793374 -0.10150358073991313 0 0.0014319856549537193 -0.10162991502875772 0 0.0014632925797533603 -0.101720087348219 0 0.0013865579936625056 -0.10149299608497113 0 0.0015202590747883408 -0.10191141066462756 0 0.0015707784910954225 -0.10225744380972111 0 0.0015068792198528907 -0.10189624511991614 0 0.0015739459601468049 -0.10227355646660842 0 0.0015707784910954225 -0.10225744380972111 0 0.0015068792198528907 -0.10189624511991614 0 0.0013580320957552307 -0.10147995959086337 0 0.0012425677902479487 -0.10098712627089997 0 0.0011163015562449213 -0.10034416322879232 0 0.0010530903323274069 -0.10038729653806001 0 0.0022177502480257081 -0.098693452935388518 0 0.0012778589865414915 -0.10114972504761359 0 0.0012425677902479487 -0.10098712627089997 0 0.0012124153159050926 -0.10090001573409242 0 0.0012778589865414915 -0.10114972504761359 0 0.0012124153159050926 -0.10090001573409242 0 0.0012866749513804211 -0.1011789986395642 0 0.0012778589865414915 -0.10114972504761359 0 0.0013354593481694833 -0.10133696375404759 0 0.0012866749513804211 -0.1011789986395642 0 0.0014028533570793374 -0.10150358073991313 0 0.0013354593481694833 -0.10133696375404759 0 0.0012866749513804211 -0.1011789986395642 0 0.0014632925797533603 -0.101720087348219 0 0.0014028533570793374 -0.10150358073991313 0 0.0013865579936625056 -0.10149299608497113 0 0.0014028533570793374 -0.10150358073991313 0 0.0013865579936625056 -0.10149299608497113 0 0.0013354593481694833 -0.10133696375404759 0 0.0013865579936625056 -0.10149299608497113 0 0.0013354593481694833 -0.10133696375404759 0 0.0013325224154766757 -0.10135906542746698 0 0.0012778589865414915 -0.10114972504761359 0 0.0013354593481694833 -0.10133696375404759 0 0.0013325224154766757 -0.10135906542746698 0 0.0013325224154766757 -0.10135906542746698 0 0.0013580320957552307 -0.10147995959086337 0 0.0012425677902479487 -0.10098712627089997 0 0.0014319856549537193 -0.10162991502875772 0 0.0013865579936625056 -0.10149299608497113 0 0.0013820115695178804 -0.10149326362189999 0 0.0014319856549537193 -0.10162991502875772 0 0.0013820115695178804 -0.10149326362189999 0 0.0014051189873662212 -0.10154657541585334 0 0.0013865579936625056 -0.10149299608497113 0 0.0013325224154766757 -0.10135906542746698 0 0.0013820115695178804 -0.10149326362189999 0 0.0013325224154766757 -0.10135906542746698 0 0.0013658198001536186 -0.10146979980166072 0 0.0013580320957552307 -0.10147995959086337 0 0.0013820115695178804 -0.10149326362189999 0 0.0013658198001536186 -0.10146979980166072 0 0.0014051189873662212 -0.10154657541585334 0 0.0013325224154766757 -0.10135906542746698 0 0.0013820115695178804 -0.10149326362189999 0 0.0013658198001536186 -0.10146979980166072 0 0.0010521442690003577 -0.10039187242787245 0 0.0010530903323274069 -0.10038729653806001 0 0.0013658198001536186 -0.10146979980166072 0 0.0014051189873662212 -0.10154657541585334 0 0.0013580320957552307 -0.10147995959086337 0 0.0012778589865414915 -0.10114972504761359 0 0.0013325224154766757 -0.10135906542746698 0 0.0012425677902479487 -0.10098712627089997 0 0.0012425677902479487 -0.10098712627089997 0 0.0011801517710215519 -0.10068442398554302 0 0.0011163015562449213 -0.10034416322879232 0 0.0012425677902479487 -0.10098712627089997 0 0.0011801517710215519 -0.10068442398554302 0 0.0012124153159050926 -0.10090001573409242 0 0.0011649356574933406 -0.10053435091516015 0 0.0011970000714319946 -0.10023498965950647 0 0.0011163015562449213 -0.10034416322879232 0 0.0011801517710215519 -0.10068442398554302 0 0.0011649356574933406 -0.10053435091516015 0 0.0011163015562449213 -0.10034416322879232 0 0.0011649356574933406 -0.10053435091516015 0 0.0011777316818783992 -0.10076744965279003 0 0.0012249169024683417 -0.10039093695959023 0 0.0012124153159050926 -0.10090001573409242 0 0.0011777316818783992 -0.10076744965279003 0 0.0012866749513804211 -0.1011789986395642 0 0.0011801517710215519 -0.10068442398554302 0 0.0011649356574933406 -0.10053435091516015 0 0.0012124153159050926 -0.10090001573409242 0 0.0011649356574933406 -0.10053435091516015 0 0.0012124153159050926 -0.10090001573409242 0 0.0011777316818783992 -0.10076744965279003 0 0.0011777316818783992 -0.10076744965279003 0 0.0011604770325884975 -0.10084483074041678 0 0.0012866749513804211 -0.1011789986395642 0 0.0011777316818783992 -0.10076744965279003 0 0.0011604770325884975 -0.10084483074041678 0 0.0012249169024683417 -0.10039093695959023 0 0.0011604770325884975 -0.10084483074041678 0 0.0012866749513804211 -0.1011789986395642 0 0.001393193717996719 -0.10130239482845209 0 0.0011604770325884975 -0.10084483074041678 0 0.001393193717996719 -0.10130239482845209 0 0.0014804091921769473 -0.10094955278087488 0 0.0014642329828036514 -0.10161835872362282 0 0.0014028533570793374 -0.10150358073991313 0 0.001393193717996719 -0.10130239482845209 0 0.0014028533570793374 -0.10150358073991313 0 0.0012866749513804211 -0.1011789986395642 0 0.001393193717996719 -0.10130239482845209 0 0.0015722322365557036 -0.10174418174280607 0 0.001393193717996719 -0.10130239482845209 0 0.0014804091921769473 -0.10094955278087488 0 0.0014804091921769473 -0.10094955278087488 0 0.0017041442260632411 -0.10040788449408933 0 0.0011609165128270724 -0.10069590843361112 0 0.0016851053235315246 -0.099953102471225339 0 0.0021098889298580927 -0.099986034031910559 0 0.0017041442260632411 -0.10040788449408933 0 0.0016851053235315246 -0.099953102471225339 0 0.0017041442260632411 -0.10040788449408933 0 0.0011609165128270724 -0.10069590843361112 0 0.0011604770325884975 -0.10084483074041678 0 0.0014804091921769473 -0.10094955278087488 0 0.0011609165128270724 -0.10069590843361112 0 0.0011609165128270724 -0.10069590843361112 0 0.00076907438839120409 -0.10061258186618499 0 0.0009839750599407776 -0.099935428313726954 0 0.0011604770325884975 -0.10084483074041678 0 0.0011609165128270724 -0.10069590843361112 0 0.0014247166300874632 -0.10064820516427052 0 0.0013696174471176247 -0.10014217582075141 0 0.0016162601925142012 -0.099906038814959505 0 0.00099008413345210095 -0.099762798271477618 0 0.0011609165128270724 -0.10069590843361112 0 0.00076907438839120409 -0.10061258186618499 0 0.00090427507722366188 -0.10059054217010642 0 0.00087697248895225147 -0.10062935233470659 0 0.0023060080495064506 -0.10158607951963915 0 0.001994263360966165 -0.10020699761970568 0 0.00076907438839120409 -0.10061258186618499 0 0.001994263360966165 -0.10020699761970568 0 0.00076907438839120409 -0.10061258186618499 0 0.0009839750599407776 -0.099935428313726954 0 0.0025692075223123271 -0.099708213188341166 0 0.0014247166300874632 -0.10064820516427052 0 0.0015951225755934007 -0.099683069466061522 0 0.0024485879082767202 -0.099248336662738065 0 0.0016162601925142012 -0.099906038814959505 0 0.0011604770325884975 -0.10084483074041678 0 0.0014247166300874632 -0.10064820516427052 0 0.0012249169024683417 -0.10039093695959023 0 0.0014247166300874632 -0.10064820516427052 0 0.0012249169024683417 -0.10039093695959023 0 0.0015951225755934007 -0.099683069466061522 0 0.0012249169024683417 -0.10039093695959023 0 0.0013111391463564187 -0.099813690763992782 0 0.0015951225755934007 -0.099683069466061522 0 0.0011649356574933406 -0.10053435091516015 0 0.0012249169024683417 -0.10039093695959023 0 0.0011970000714319946 -0.10023498965950647 0 0.0012249169024683417 -0.10039093695959023 0 0.0011970000714319946 -0.10023498965950647 0 0.0013111391463564187 -0.099813690763992782 0 0.0011970000714319946 -0.10023498965950647 0 0.0013111391463564187 -0.099813690763992782 0 0.0011163015562449213 -0.10034416322879232 0 0.0025692075223123271 -0.099708213188341166 0 0.0020727209485116339 -0.09888362878218529 0 0.0015951225755934007 -0.099683069466061522 0 0.0020727209485116339 -0.09888362878218529 0 0.0015951225755934007 -0.099683069466061522 0 0.0015322037446874933 -0.09891859374785078 0 0.0013111391463564187 -0.099813690763992782 0 0.0015951225755934007 -0.099683069466061522 0 0.0015322037446874933 -0.09891859374785078 0 0.00433847600407358 -0.094378888971347302 0 0.0037565690777296092 -0.094628682104610784 0 0.0032385973181924621 -0.095066297385296539 0 0.0032708400049793001 -0.095047331093794693 0 0.0030494054152965071 -0.094991595907687701 0 0.005266270100312615 -0.094296268551707738 0 0.0030494054152965071 -0.094991595907687701 0 0.0039995842286132937 -0.09394898755417648 0 0.0013111391463564187 -0.099813690763992782 0 0.0015322037446874933 -0.09891859374785078 0 0.0011163015562449213 -0.10034416322879232 0 0.0029241641093077056 -0.097615156263264918 0 0.0022177502480257081 -0.098693452935388518 0 0.0032385973181924621 -0.095066297385296539 0 0.0030494054152965071 -0.094991595907687701 0 0.0028409331517718637 -0.095047306668096715 0 0.0030494054152965071 -0.094991595907687701 0 0.0039995842286132937 -0.09394898755417648 0 0.0030679443605530076 -0.094084763675845937 0 0.0030494054152965071 -0.094991595907687701 0 0.0030679443605530076 -0.094084763675845937 0 0.0028743446135846631 -0.0948298380280653 0 0.0039995842286132937 -0.09394898755417648 0 0.0030679443605530076 -0.094084763675845937 0 0.0037889117933407211 -0.093185892727016939 0 0.0030679443605530076 -0.094084763675845937 0 0.0037889117933407211 -0.093185892727016939 0 0.0028211990554065569 -0.092161746935306391 0 0.0039995842286132937 -0.09394898755417648 0 0.0037889117933407211 -0.093185892727016939 0 0.0048023957211545051 -0.093108085994598438 0 0.005266270100312615 -0.094296268551707738 0 0.0039995842286132937 -0.09394898755417648 0 0.0048023957211545051 -0.093108085994598438 0 0.0059528744230772229 -0.093099074276063787 0 0.005266270100312615 -0.094296268551707738 0 0.0048023957211545051 -0.093108085994598438 0 0.0059528744230772229 -0.093099074276063787 0 0.0055575328254514863 -0.092135184202457254 0 0.0048023957211545051 -0.093108085994598438 0 0.0055575328254514863 -0.092135184202457254 0 0.0048023957211545051 -0.093108085994598438 0 0.0042629842022901456 -0.092091342408953905 0 0.0055575328254514863 -0.092135184202457254 0 0.0042629842022901456 -0.092091342408953905 0 0.0050315971009801414 -0.091086773801534807 0 0.0037889117933407211 -0.093185892727016939 0 0.0048023957211545051 -0.093108085994598438 0 0.0042629842022901456 -0.092091342408953905 0 0.0042629842022901456 -0.092091342408953905 0 0.0050315971009801414 -0.091086773801534807 0 0.0039095581217291168 -0.090439459312148071 0 0.0050315971009801414 -0.091086773801534807 0 0.0039095581217291168 -0.090439459312148071 0 0.0050543957226895694 -0.090195848771499859 0 0.0042629842022901456 -0.092091342408953905 0 0.0028211990554065569 -0.092161746935306391 0 0.0039095581217291168 -0.090439459312148071 0 0.0042370802533875278 -0.1049201958961634 0 0.0040911598463997355 -0.10297978917720313 0 0.0052114142809269902 -0.10335820134609934 0 0.0035501551628456221 -0.098594087525982949 0 0.004922467376978247 -0.0972544628045625 0 0.0037889117933407211 -0.093185892727016939 0 0.0042629842022901456 -0.092091342408953905 0 0.0028211990554065569 -0.092161746935306391 0 0.0042370802533875278 -0.1049201958961634 0 0.0030728038904010895 -0.1037650646118435 0 0.0040911598463997355 -0.10297978917720313 0 0.0030728038904010895 -0.1037650646118435 0 0.0023958870668451659 -0.10531697174527675 0 0.0014906597404207888 -0.104207498416257 0 0.0042370802533875278 -0.1049201958961634 0 0.0030728038904010895 -0.1037650646118435 0 0.0023958870668451659 -0.10531697174527675 0 0.0042370802533875278 -0.1049201958961634 0 0.0023958870668451659 -0.10531697174527675 0 0.0032949461219877125 -0.10643039109136072 0 0.0024802630233848534 -0.10278681477481037 0 0.0021113415310085961 -0.10008686034659146 0 0.0010531953996750587 -0.1046741704748214 0 0.0012269970344887038 -0.10494053391766446 0 0.00094759697990014224 -0.10490478583197821 0 0.0012269970344887038 -0.10494053391766446 0 0.00098068428059510412 -0.10507505216395242 0 0.00094759697990014224 -0.10490478583197821 0 0.0030679443605530076 -0.094084763675845937 0 0.0028211990554065569 -0.092161746935306391 0 0.0025031132714408003 -0.093977291525832465 0 0.0035501551628456221 -0.098594087525982949 0 0.0021113415310085961 -0.10008686034659146 0 0.0028211990554065569 -0.092161746935306391 0 0.0018195276898466692 -0.093908716302538983 0 0.0025031132714408003 -0.093977291525832465 0 0.0021113415310085961 -0.10008686034659146 0 0.0016335105300443256 -0.099037607993677737 0 0.0014007190656778392 -0.095273116288948606 0 0.0025936203013094883 -0.094695203916277421 0 0.0028409331517718637 -0.095047306668096715 0 0.0018195276898466692 -0.093908716302538983 0 0.0025031132714408003 -0.093977291525832465 0 0.0025936203013094883 -0.094695203916277421 0 0.0030679443605530076 -0.094084763675845937 0 0.0025031132714408003 -0.093977291525832465 0 0.0025936203013094883 -0.094695203916277421 0 0.0030679443605530076 -0.094084763675845937 0 0.0025936203013094883 -0.094695203916277421 0 0.0028743446135846631 -0.0948298380280653 0 0.0030494054152965071 -0.094991595907687701 0 0.0028743446135846631 -0.0948298380280653 0 0.0028409331517718637 -0.095047306668096715 0 0.0025936203013094883 -0.094695203916277421 0 0.0028743446135846631 -0.0948298380280653 0 0.0028409331517718637 -0.095047306668096715 0 0.0010530903323274069 -0.10038729653806001 0 0.0021113415310085961 -0.10008686034659146 0 0.0014007190656778392 -0.095273116288948606 0 0.002113841619768356 -0.094103725265682836 0 0.0025936203013094883 -0.094695203916277421 0 0.00099165403223059733 -0.1052950589094481 0 0.0012269970344887038 -0.10494053391766446 0 0.00098068428059510412 -0.10507505216395242 0 0.00099165403223059733 -0.1052950589094481 0 0.00098068428059510412 -0.10507505216395242 0 0.00090027841186681758 -0.10516149626856279 0 0.00070725559431282687 -0.10510559950245395 0 0.00084252560659952051 -0.10507001693071261 0 0.00079345381019679296 -0.10518753638023502 0 0.00070725559431282687 -0.10510559950245395 0 0.00060010049898622517 -0.10509660608207959 0 0.00071519423416351556 -0.10500093771660889 0 0.00070725559431282687 -0.10510559950245395 0 0.00084252560659952051 -0.10507001693071261 0 0.00071519423416351556 -0.10500093771660889 0 0.00098068428059510412 -0.10507505216395242 0 0.00084252560659952051 -0.10507001693071261 0 0.00094759697990014224 -0.10490478583197821 0 0.00098068428059510412 -0.10507505216395242 0 0.00084252560659952051 -0.10507001693071261 0 0.00090027841186681758 -0.10516149626856279 0 0.00099165403223059733 -0.1052950589094481 0 0.00090027841186681758 -0.10516149626856279 0 0.00079345381019679296 -0.10518753638023502 0 0.00071575314587693224 -0.10523967824020047 0 0.00099165403223059733 -0.1052950589094481 0 0.00079345381019679296 -0.10518753638023502 0 0.00084252560659952051 -0.10507001693071261 0 0.00090027841186681758 -0.10516149626856279 0 0.00079345381019679296 -0.10518753638023502 0 0.00071575314587693224 -0.10523967824020047 0 0.00079345381019679296 -0.10518753638023502 0 0.0006303463019604156 -0.10517744974054638 0 0.00070725559431282687 -0.10510559950245395 0 0.00079345381019679296 -0.10518753638023502 0 0.0006303463019604156 -0.10517744974054638 0 0.00050330335567747226 -0.10523951273341947 0 0.0005834591033255619 -0.10522185850963411 0 0.00049057923028230093 -0.10513462763878377 0 0.0005834591033255619 -0.10522185850963411 0 0.00071575314587693224 -0.10523967824020047 0 0.0006303463019604156 -0.10517744974054638 0 0.00050330335567747226 -0.10523951273341947 0 0.00049057923028230093 -0.10513462763878377 0 0.0001974552256686474 -0.10505538018871821 0 0.0005834591033255619 -0.10522185850963411 0 0.0006303463019604156 -0.10517744974054638 0 0.00049057923028230093 -0.10513462763878377 0 0.0006303463019604156 -0.10517744974054638 0 0.00049057923028230093 -0.10513462763878377 0 0.00060010049898622517 -0.10509660608207959 0 0.00070725559431282687 -0.10510559950245395 0 0.0006303463019604156 -0.10517744974054638 0 0.00060010049898622517 -0.10509660608207959 0 0.00049057923028230093 -0.10513462763878377 0 0.00060010049898622517 -0.10509660608207959 0 0.00045950332998954301 -0.10502603467585311 0 0.00060010049898622517 -0.10509660608207959 0 0.00045950332998954301 -0.10502603467585311 0 0.00071519423416351556 -0.10500093771660889 0 0.00045950332998954301 -0.10502603467585311 0 0.00075433368718849853 -0.10479641026271454 0 0.00045906008770014653 -0.10468205482886958 0 0.00045950332998954301 -0.10502603467585311 0 0.00075433368718849853 -0.10479641026271454 0 0.00071519423416351556 -0.10500093771660889 0 0.0010531953996750587 -0.1046741704748214 0 0.00075433368718849853 -0.10479641026271454 0 0.00094759697990014224 -0.10490478583197821 0 0.00075433368718849853 -0.10479641026271454 0 0.00071519423416351556 -0.10500093771660889 0 0.00094759697990014224 -0.10490478583197821 0 0.00084252560659952051 -0.10507001693071261 0 0.00071519423416351556 -0.10500093771660889 0 0.00094759697990014224 -0.10490478583197821 0 0.0010531953996750587 -0.1046741704748214 0 0.00075433368718849853 -0.10479641026271454 0 0.00096494230257535235 -0.10431733629912557 0 0.0024802630233848534 -0.10278681477481037 0 0.0020079135463464894 -0.10324322197562173 0 0.0014906597404207888 -0.104207498416257 0 0.00062746811688003154 -0.10333711539578398 0 0.0020554719385520509 -0.1032796855777786 0 0.0030728038904010895 -0.1037650646118435 0 0.0014906597404207888 -0.104207498416257 0 0.0020554719385520509 -0.1032796855777786 0 0.0020079135463464894 -0.10324322197562173 0 0.0016933248102822861 -0.1031471694909103 0 0.00096494230257535235 -0.10431733629912557 0 0.00049614077730210403 -0.10426922540566538 0 0.00062746811688003154 -0.10333711539578398 0 0.00096494230257535235 -0.10431733629912557 0 0.00049614077730210403 -0.10426922540566538 0 0.00045906008770014653 -0.10468205482886958 0 0.00075433368718849853 -0.10479641026271454 0 0.00096494230257535235 -0.10431733629912557 0 0.00045906008770014653 -0.10468205482886958 0 0.00045906008770014653 -0.10468205482886958 0 0.00012467708274476312 -0.10487351988294497 0 0.00010063030694215006 -0.104584476678559 0 0.00049614077730210403 -0.10426922540566538 0 0.00045906008770014653 -0.10468205482886958 0 0.00010063030694215006 -0.104584476678559 0 0.00049614077730210403 -0.10426922540566538 0 0.00010063030694215006 -0.104584476678559 0 -0.00018231151163443322 -0.10362526636794352 0 0.00010063030694215006 -0.104584476678559 0 -1.104633833521727e-06 -0.10499821433333387 0 -0.00018231151163443322 -0.10362526636794352 0 -1.0708324215667383e-07 -0.10499856136894506 0 0.00015603924791992839 -0.10403903368239008 0 0.00012467708274476312 -0.10487351988294497 0 0.00010063030694215006 -0.104584476678559 0 -1.104633833521727e-06 -0.10499821433333387 0 0.00012467708274476312 -0.10487351988294497 0 -1.104633833521727e-06 -0.10499821433333387 0 5.8745451147490092e-07 -0.10500056340249736 0 0.00012467708274476312 -0.10487351988294497 0 5.8745451147490092e-07 -0.10500056340249736 0 0.0001974552256686474 -0.10505538018871821 0 -1.2390393393434969e-08 -0.10499991564005626 0 0.00011436842693457046 -0.10494500628699935 0 5.9561846525508007e-08 -0.10499996443103872 0 1.7679912285793578e-07 -0.10500001996096578 0 0.00015322407608096605 -0.10507125490167638 0 0.00045950332998954301 -0.10502603467585311 0 0.00012467708274476312 -0.10487351988294497 0 0.0001974552256686474 -0.10505538018871821 0 0.00045950332998954301 -0.10502603467585311 0 0.00045906008770014653 -0.10468205482886958 0 0.00012467708274476312 -0.10487351988294497 0 0.00027461681411703766 -0.10515179861603402 0 0.00015322407608096605 -0.10507125490167638 0 0.00049057923028230093 -0.10513462763878377 0 0.00045950332998954301 -0.10502603467585311 0 0.0001974552256686474 -0.10505538018871821 0 0.00017523478194372117 -0.10520859644708323 0 0.00050330335567747226 -0.10523951273341947 0 0.00011436842693457046 -0.10494500628699935 0 0.00017523478194372117 -0.10520859644708323 0 0.00011436842693457046 -0.10494500628699935 0 5.5493601822244965e-05 -0.10504604967066405 0 -1.622237282537733e-08 -0.10500029304812195 0 5.5493601822244965e-05 -0.10504604967066405 0 5.9561846525508007e-08 -0.10499996443103872 0 0.00011436842693457046 -0.10494500628699935 0 5.5493601822244965e-05 -0.10504604967066405 0 5.9561846525508007e-08 -0.10499996443103872 0 3.8411070487891723e-05 -0.10497628072462437 0 -6.1428264997546577e-08 -0.10499981517186258 0 5.110793092118636e-05 -0.10481801091144767 0 -4.843416628736517e-07 -0.10499877593961364 0 -0.00018277971363981518 -0.10434844752706958 0 3.8411070487891723e-05 -0.10497628072462437 0 0.00011161662653063829 -0.10477081057236813 0 5.110793092118636e-05 -0.10481801091144767 0 3.4188773722890924e-05 -0.1048855669020073 0 0.00011793775541624524 -0.10485320793066367 0 0.00011161662653063829 -0.10477081057236813 0 3.4188773722890924e-05 -0.1048855669020073 0 0.00011793775541624524 -0.10485320793066367 0 8.6290422879495244e-05 -0.10491926106663994 0 4.2988003596313543e-05 -0.10493359061559455 0 7.027712813459269e-05 -0.10489244973450282 0 3.4188773722890924e-05 -0.1048855669020073 0 8.6290422879495244e-05 -0.10491926106663994 0 4.9750151501947269e-05 -0.10498189590625087 0 8.6290422879495244e-05 -0.10491926106663994 0 4.9750151501947269e-05 -0.10498189590625087 0 0.00014362519821316133 -0.1050065744608122 0 3.4188773722890924e-05 -0.1048855669020073 0 -1.6996231385042043e-08 -0.10499983903518106 0 4.9750151501947269e-05 -0.10498189590625087 0 4.2988003596313543e-05 -0.10493359061559455 0 4.671547635288917e-08 -0.10499990506119974 0 3.8411070487891723e-05 -0.10497628072462437 0 -6.1428264997546577e-08 -0.10499981517186258 0 3.7530488511628311e-08 -0.10500011234265431 0 2.7930493222643035e-08 -0.10500006721412904 0 4.0233371122142606e-05 -0.10502074061029265 0 4.9750151501947269e-05 -0.10498189590625087 0 -1.6996231385042043e-08 -0.10499983903518106 0 2.7930493222643035e-08 -0.10500006721412904 0 4.9750151501947269e-05 -0.10498189590625087 0 -7.5197749858509895e-09 -0.10500000197378059 0 2.7930493222643035e-08 -0.10500006721412904 0 4.0233371122142606e-05 -0.10502074061029265 0 4.0233371122142606e-05 -0.10502074061029265 0 4.9750151501947269e-05 -0.10498189590625087 0 0.00014362519821316133 -0.1050065744608122 0 0.00015603924791992839 -0.10403903368239008 0 0.00033402187453600198 -0.10299563441042831 0 0.00050409316742637002 -0.1017805628774494 0 0.00062746811688003154 -0.10333711539578398 0 0.0016673419635027632 -0.10220525731166609 0 -0.00018231151163443322 -0.10362526636794352 0 0.00050409316742637002 -0.1017805628774494 0 0.00062746811688003154 -0.10333711539578398 0 0.00049614077730210403 -0.10426922540566538 0 -0.00018231151163443322 -0.10362526636794352 0 0.00062746811688003154 -0.10333711539578398 0 0.00062746811688003154 -0.10333711539578398 0 0.0020554719385520509 -0.1032796855777786 0 0.0016673419635027632 -0.10220525731166609 0 0.00050409316742637002 -0.1017805628774494 0 0.0016673419635027632 -0.10220525731166609 0 0.0017566022247101441 -0.099968980831822554 0 0.00033402187453600198 -0.10299563441042831 0 0.00053325598085392136 -0.10166817864062401 0 8.6290422879495244e-05 -0.10491926106663994 0 0.00014362519821316133 -0.1050065744608122 0 0.00016396168100391392 -0.10489757800801189 0 0.00014362519821316133 -0.1050065744608122 0 0.000309150374882419 -0.10491650277197663 0 0.00016396168100391392 -0.10489757800801189 0 0.00011793775541624524 -0.10485320793066367 0 8.6290422879495244e-05 -0.10491926106663994 0 0.00016396168100391392 -0.10489757800801189 0 0.00011793775541624524 -0.10485320793066367 0 0.00016396168100391392 -0.10489757800801189 0 0.00022290069677657459 -0.10478785859743919 0 0.00011793775541624524 -0.10485320793066367 0 0.00022290069677657459 -0.10478785859743919 0 0.00011161662653063829 -0.10477081057236813 0 0.000309150374882419 -0.10491650277197663 0 0.00016396168100391392 -0.10489757800801189 0 0.00022290069677657459 -0.10478785859743919 0 0.000309150374882419 -0.10491650277197663 0 0.00022290069677657459 -0.10478785859743919 0 0.00049632759412815322 -0.10476232557546614 0 0.0017566022247101441 -0.099968980831822554 0 0.0029942463299896193 -0.09844972188020433 0 0.0034560432018946297 -0.099913832011060189 0 0.00053325598085392136 -0.10166817864062401 0 0.0005323530178065304 -0.099759238465963199 0 0.0029942463299896193 -0.09844972188020433 0 0.0034560432018946297 -0.099913832011060189 0 0.0040452718528773447 -0.098792836468674039 0 0.0017566022247101441 -0.099968980831822554 0 0.0034560432018946297 -0.099913832011060189 0 0.0029781788980437728 -0.10153113084487034 0 0.0025018584891284726 -0.10030444165432456 0 0.0031386962147828923 -0.099905066281315347 0 0.0016673419635027632 -0.10220525731166609 0 0.0017566022247101441 -0.099968980831822554 0 0.0029781788980437728 -0.10153113084487034 0 0.0020554719385520509 -0.1032796855777786 0 0.0016673419635027632 -0.10220525731166609 0 0.0031780211117012421 -0.10206392528180894 0 0.0030728038904010895 -0.1037650646118435 0 0.0020554719385520509 -0.1032796855777786 0 0.0031780211117012421 -0.10206392528180894 0 0.0030728038904010895 -0.1037650646118435 0 0.0031780211117012421 -0.10206392528180894 0 0.0040911598463997355 -0.10297978917720313 0 0.0031386962147828923 -0.099905066281315347 0 0.0044921584405296618 -0.098711568989481732 0 0.0031780211117012421 -0.10206392528180894 0 0.0040911598463997355 -0.10297978917720313 0 0.0046281554322932031 -0.10187634928817853 0 0.0034560432018946297 -0.099913832011060189 0 0.0029781788980437728 -0.10153113084487034 0 0.0041798307613610201 -0.10103793748942659 0 0.0046281554322932031 -0.10187634928817853 0 0.0054251308453303866 -0.10230601472607309 0 0.0061732545861178786 -0.10178038524981704 0 0.0041798307613610201 -0.10103793748942659 0 0.0057473480545176502 -0.10090291386331453 0 0.0046416916907562906 -0.099600693131877568 0 0.0044921584405296618 -0.098711568989481732 0 0.0063598453512867682 -0.096378290558703741 0 0.0040911598463997355 -0.10297978917720313 0 0.0046281554322932031 -0.10187634928817853 0 0.0054251308453303866 -0.10230601472607309 0 0.0040911598463997355 -0.10297978917720313 0 0.0054251308453303866 -0.10230601472607309 0 0.0052114142809269902 -0.10335820134609934 0 0.0039095581217291168 -0.090439459312148071 0 0.0050543957226895694 -0.090195848771499859 0 0.0049583833959966159 -0.08876598366856002 0 0.0054251308453303866 -0.10230601472607309 0 0.0052114142809269902 -0.10335820134609934 0 0.0061732545861178786 -0.10178038524981704 0 0.004922467376978247 -0.0972544628045625 0 0.0063598453512867682 -0.096378290558703741 0 0.0050543957226895694 -0.090195848771499859 0 0.0049583833959966159 -0.08876598366856002 0 0.0062781646702908655 -0.090387303020660364 0 0.0076353746419974859 -0.091726503933478226 0 0.007641348430344256 -0.091713761828922172 0 0.0077359054709180445 -0.091775768046042136 0 0.0056848017185967157 -0.10134891913977419 0 0.0058095083481108393 -0.10120011765003518 0 0.0056853942774219776 -0.10037496211435017 0 0.0063598453512867682 -0.096378290558703741 0 0.0067250270323978385 -0.095958764173835184 0 0.0058095083481108393 -0.10120011765003518 0 0.0056853942774219776 -0.10037496211435017 0 0.0076749187136950581 -0.098691179923641056 0 0.0063598453512867682 -0.096378290558703741 0 0.0065928988148078226 -0.097587941266677289 0 0.0056848017185967157 -0.10134891913977419 0 0.0056853942774219776 -0.10037496211435017 0 0.0046416916907562906 -0.099600693131877568 0 0.0056576498549852187 -0.099360303850160786 0 0.0054150650408400398 -0.098531309175216547 0 0.0076749187136950581 -0.098691179923641056 0 0.0056853942774219776 -0.10037496211435017 0 0.0056576498549852187 -0.099360303850160786 0 0.0076749187136950581 -0.098691179923641056 0 0.0046416916907562906 -0.099600693131877568 0 0.004740041012069548 -0.098737136623983979 0 0.0054150650408400398 -0.098531309175216547 0 0.0056576498549852187 -0.099360303850160786 0 0.0046416916907562906 -0.099600693131877568 0 0.0054150650408400398 -0.098531309175216547 0 0.0056853942774219776 -0.10037496211435017 0 0.0056576498549852187 -0.099360303850160786 0 0.0046416916907562906 -0.099600693131877568 0 0.0034560432018946297 -0.099913832011060189 0 0.0041798307613610201 -0.10103793748942659 0 0.0046416916907562906 -0.099600693131877568 0 0.0034560432018946297 -0.099913832011060189 0 0.0046416916907562906 -0.099600693131877568 0 0.0040452718528773447 -0.098792836468674039 0 0.0046416916907562906 -0.099600693131877568 0 0.004740041012069548 -0.098737136623983979 0 0.0040452718528773447 -0.098792836468674039 0 0.004740041012069548 -0.098737136623983979 0 0.0040452718528773447 -0.098792836468674039 0 0.0048067428257015056 -0.098180706645134855 0 0.0028753163018101417 -0.097838064148995166 0 0.0021839475334219163 -0.097237581671461723 0 0.0054150650408400398 -0.098531309175216547 0 0.0033027587169330566 -0.095581480407149935 0 0.0068968923731815342 -0.095548359355586143 0 0.004740041012069548 -0.098737136623983979 0 0.0054150650408400398 -0.098531309175216547 0 0.0048067428257015056 -0.098180706645134855 0 0.006160596394761117 -0.093728405954665597 0 0.0045035730555263017 -0.092773721451756427 0 0.0074741851682064925 -0.092431681600749868 0 0.006160596394761117 -0.093728405954665597 0 0.0033027587169330566 -0.095581480407149935 0 0.0045035730555263017 -0.092773721451756427 0 0.006160596394761117 -0.093728405954665597 0 0.0033027587169330566 -0.095581480407149935 0 0.0068968923731815342 -0.095548359355586143 0 0.0040452718528773447 -0.098792836468674039 0 0.0048067428257015056 -0.098180706645134855 0 0.004192590280820304 -0.097303683713990924 0 0.0033027587169330566 -0.095581480407149935 0 0.0014758347499752196 -0.092958454579583003 0 0.0045035730555263017 -0.092773721451756427 0 0.0021839475334219163 -0.097237581671461723 0 0.00049760697447064344 -0.09605709440023226 0 0.00049760697447064344 -0.09605709440023226 0 0.00038712260957162223 -0.086256760795608595 0 -0.0019143006897289533 -0.091139206117659174 0 0.00071750460678458546 -0.088699824163345792 0 -0.0016407627852965058 -0.08869248873967267 0 0.0045035730555263017 -0.092773721451756427 0 0.0049753446955943222 -0.089711626066219338 0 0.0074741851682064925 -0.092431681600749868 0 0.0014758347499752196 -0.092958454579583003 0 0.0045035730555263017 -0.092773721451756427 0 0.0049753446955943222 -0.089711626066219338 0 0.00071750460678458546 -0.088699824163345792 0 0.0012498294570192437 -0.086574535655423487 0 -0.0008769173264030816 -0.086449045635379848 0 0.0022092246169062445 -0.084655520845924245 0 0.0012498294570192437 -0.086574535655423487 0 -0.0008769173264030816 -0.086449045635379848 0 -0.00045014684563296714 -0.080648777146316228 0 -0.0013157790131470232 -0.091321013980900048 0 0.00034634310411236319 -0.10463975516292691 0 0.00032829532804154189 -0.10467680489615071 0 0.00032458479112151383 -0.10470270161896696 0 0.00030955107565566585 -0.10470114971444142 0 0.00032458479112151383 -0.10470270161896696 0 0.00029391251985121255 -0.10473314927214437 0 0.00032829532804154189 -0.10467680489615071 0 0.00030955107565566585 -0.10470114971444142 0 0.00032458479112151383 -0.10470270161896696 0 -0.0008769173264030816 -0.086449045635379848 0 -0.0016407627852965058 -0.08869248873967267 0 -0.0039472507517037134 -0.088230936971454343 0 0.00071750460678458546 -0.088699824163345792 0 -0.0008769173264030816 -0.086449045635379848 0 -0.0016407627852965058 -0.08869248873967267 0 -0.0013157790131470232 -0.091321013980900048 0 0.00047636122942528337 -0.097341596590128629 0 0.00032458479112151383 -0.10470270161896696 0 0.00028573358702526974 -0.10475326217188666 0 0.00029391251985121255 -0.10473314927214437 0 0.00028573358702526974 -0.10475326217188666 0 0.00029391251985121255 -0.10473314927214437 0 0.0002611665730071753 -0.10476976934908803 0 0.00027334537727305929 -0.10469365989739211 0 0.00029391251985121255 -0.10473314927214437 0 0.0002611665730071753 -0.10476976934908803 0 0.00047636122942528337 -0.097341596590128629 0 -0.000529011071959881 -0.10154880549975547 0 0.00032508754510904655 -0.10486091004561568 0 0.00019616713449768851 -0.10494555603653209 0 0.00019369035721044576 -0.10485783841418962 0 0.00032508754510904655 -0.10486091004561568 0 0.0002611665730071753 -0.10476976934908803 0 0.00019369035721044576 -0.10485783841418962 0 0.00047636122942528337 -0.097341596590128629 0 0.0013178067095553395 -0.09940492601915342 0 0.00054264800548689334 -0.10436089284567593 0 0.00049814520327437462 -0.10456265092106175 0 0.00034607427256402304 -0.10449832599095703 0 0.00049814520327437462 -0.10456265092106175 0 0.00034676905921592738 -0.10465101306007878 0 0.00034607427256402304 -0.10449832599095703 0 0.00049760697447064344 -0.09605709440023226 0 0.00047636122942528337 -0.097341596590128629 0 -0.0019143006897289533 -0.091139206117659174 0 -0.0016407627852965058 -0.08869248873967267 0 -0.0039472507517037134 -0.088230936971454343 0 0.00069451306071104352 -0.104576591693278 0 0.00054264800548689334 -0.10436089284567593 0 0.00049814520327437462 -0.10456265092106175 0 0.0029942463299896193 -0.09844972188020433 0 0.0040452718528773447 -0.098792836468674039 0 0.004192590280820304 -0.097303683713990924 0 0.0005323530178065304 -0.099759238465963199 0 0.00049760697447064344 -0.09605709440023226 0 0.00049632759412815322 -0.10476232557546614 0 0.00069451306071104352 -0.104576591693278 0 0.00049814520327437462 -0.10456265092106175 0 0.00049632759412815322 -0.10476232557546614 0 0.00049814520327437462 -0.10456265092106175 0 0.00034676905921592738 -0.10465101306007878 0 0.00022290069677657459 -0.10478785859743919 0 0.00049632759412815322 -0.10476232557546614 0 0.00034676905921592738 -0.10465101306007878 0 0.00022290069677657459 -0.10478785859743919 0 0.00034676905921592738 -0.10465101306007878 0 0.00017445571257053796 -0.10464943644060358 0 0.00022290069677657459 -0.10478785859743919 0 0.00017445571257053796 -0.10464943644060358 0 0.00011161662653063829 -0.10477081057236813 0 8.9829076548146765e-05 -0.10500112364452771 0 0.0001099688686090335 -0.10490261277572049 0 2.9231626666979947e-05 -0.10496650887932586 0 -0.00040781314693507525 -0.10339170430043267 0 -0.000529011071959881 -0.10154880549975547 0 0.00034676905921592738 -0.10465101306007878 0 0.00017445571257053796 -0.10464943644060358 0 0.00034607427256402304 -0.10449832599095703 0 8.9829076548146765e-05 -0.10500112364452771 0 0.00019616713449768851 -0.10494555603653209 0 0.0001099688686090335 -0.10490261277572049 0 0.00019616713449768851 -0.10494555603653209 0 0.00019369035721044576 -0.10485783841418962 0 0.0001099688686090335 -0.10490261277572049 0 0.00015300654644122776 -0.10475530749328245 0 0.0002611665730071753 -0.10476976934908803 0 0.00019369035721044576 -0.10485783841418962 0 0.00015300654644122776 -0.10475530749328245 0 0.00019369035721044576 -0.10485783841418962 0 0.0001099688686090335 -0.10490261277572049 0 0.00012111886541012848 -0.10484790494595855 0 5.8321118259523186e-05 -0.10489454133398304 0 0.00015300654644122776 -0.10475530749328245 0 0.0001099688686090335 -0.10490261277572049 0 4.1817354106991169e-05 -0.10486769215013335 0 0.0001099688686090335 -0.10490261277572049 0 4.1817354106991169e-05 -0.10486769215013335 0 2.9231626666979947e-05 -0.10496650887932586 0 4.1817354106991169e-05 -0.10486769215013335 0 -1.7029345392122259e-06 -0.10499387694441885 0 2.9231626666979947e-05 -0.10496650887932586 0 -1.7803356831829187e-08 -0.10499994424346741 0 -7.6928178130488058e-07 -0.10498727312213482 0 -6.9156209909202631e-09 -0.10499991003491838 0 9.3936274681608306e-06 -0.10498248654769896 0 -7.6928178130488058e-07 -0.10498727312213482 0 -1.7029345392122259e-06 -0.10499387694441885 0 5.8321118259523186e-05 -0.10489454133398304 0 3.3714877267224043e-05 -0.10491614796260876 0 -7.6928178130488058e-07 -0.10498727312213482 0 -1.7029345392122259e-06 -0.10499387694441885 0 -6.9156209909202631e-09 -0.10499991003491838 0 -1.7029345392122259e-06 -0.10499387694441885 0 -6.9156209909202631e-09 -0.10499991003491838 0 3.9605182089286274e-09 -0.10499998092227096 0 -1.7029345392122259e-06 -0.10499387694441885 0 3.9605182089286274e-09 -0.10499998092227096 0 2.9231626666979947e-05 -0.10496650887932586 0 3.9605182089286274e-09 -0.10499998092227096 0 2.9231626666979947e-05 -0.10496650887932586 0 2.3354282318443698e-05 -0.1050143371453018 0 8.9829076548146765e-05 -0.10500112364452771 0 2.9231626666979947e-05 -0.10496650887932586 0 2.3354282318443698e-05 -0.1050143371453018 0 0.00017445571257053796 -0.10464943644060358 0 0.00011161662653063829 -0.10477081057236813 0 5.110793092118636e-05 -0.10481801091144767 0 -0.00040781314693507525 -0.10339170430043267 0 -0.00018277971363981518 -0.10434844752706958 0 1.256653450894933e-08 -0.10500004453500283 0 3.9605182089286274e-09 -0.10499998092227096 0 2.3354282318443698e-05 -0.1050143371453018 0 -0.0026354182203416903 -0.059460166639849495 0 -0.0078987994228367185 -0.058383593979515029 0 -0.0081326142221931404 -0.065645933707320719 0 -0.0026354182203416903 -0.059460166639849495 0 0.00099244560887436131 -0.065605197103316665 0 -0.0081326142221931404 -0.065645933707320719 0 -0.0078987994228367185 -0.058383593979515029 0 -0.0081326142221931404 -0.065645933707320719 0 -0.013292810086123562 -0.058037388671678826 0 0.0011236346489250139 -0.078234328263275768 0 -0.00071963344378227906 -0.07372913041353836 0 -0.0078987994228367185 -0.058383593979515029 0 -0.013292810086123562 -0.058037388671678826 0 -0.010496110763932908 -0.052708752772997504 0 -0.0078987994228367185 -0.058383593979515029 0 -0.0058369548858745639 -0.056239998546895452 0 -0.010496110763932908 -0.052708752772997504 0 -0.0058369548858745639 -0.056239998546895452 0 -0.0022701671834213784 -0.054471563045096316 0 -0.010496110763932908 -0.052708752772997504 0 -0.0026354182203416903 -0.059460166639849495 0 -0.0078987994228367185 -0.058383593979515029 0 -0.0058369548858745639 -0.056239998546895452 0 -0.0026354182203416903 -0.059460166639849495 0 -0.0058369548858745639 -0.056239998546895452 0 -0.0022701671834213784 -0.054471563045096316 0 -0.0028204781034924836 -0.057873051400416695 0 0.00050921031691143303 -0.057868827477642472 0 -0.0026354182203416903 -0.059460166639849495 0 -0.0022701671834213784 -0.054471563045096316 0 0.0061129727846751872 -0.056175611783780659 0 0.0061129727846751872 -0.056175611783780659 0 0.00099244560887436131 -0.065605197103316665 0 0.0094093115813878667 -0.065903667263460433 0 -0.0026354182203416903 -0.059460166639849495 0 0.0061129727846751872 -0.056175611783780659 0 0.00099244560887436131 -0.065605197103316665 0 0.00099244560887436131 -0.065605197103316665 0 0.0045654062834588173 -0.072619944914106796 0 -0.0026487233875992331 -0.073657052062704204 0 0.00099244560887436131 -0.065605197103316665 0 0.0094093115813878667 -0.065903667263460433 0 0.0045654062834588173 -0.072619944914106796 0 0.0042125716538428401 -0.081475018819732986 0 0.0045654062834588173 -0.072619944914106796 0 0.011170254576399707 -0.074516543391813225 0 0.0094093115813878667 -0.065903667263460433 0 0.0045654062834588173 -0.072619944914106796 0 0.011170254576399707 -0.074516543391813225 0 0.0042125716538428401 -0.081475018819732986 0 0.0045654062834588173 -0.072619944914106796 0 -0.0026487233875992331 -0.073657052062704204 0 0.0086718527942258022 -0.091706950861577485 0 0.0085899100758708019 -0.091421847499266337 0 0.0082182618302149082 -0.091597431343004729 0 0.0085899100758708019 -0.091421847499266337 0 0.0079315081434488989 -0.091667051486708381 0 0.0082182618302149082 -0.091597431343004729 0 0.0037043784292683708 -0.082421312843104888 0 0.0011236346489250139 -0.078234328263275768 0 0.00099244560887436131 -0.065605197103316665 0 -0.0026487233875992331 -0.073657052062704204 0 -0.0081326142221931404 -0.065645933707320719 0 0.0079315081434488989 -0.091667051486708381 0 0.0082182618302149082 -0.091597431343004729 0 0.0080838734712487762 -0.091681780813724661 0 0.0082182618302149082 -0.091597431343004729 0 0.0080149149357732832 -0.091805255160035376 0 0.0080838734712487762 -0.091681780813724661 0 0.0080149149357732832 -0.091805255160035376 0 0.0080838734712487762 -0.091681780813724661 0 0.0079427192889520749 -0.09180589210994422 0 0.0082751571049823024 -0.091759526236520741 0 0.0080838734712487762 -0.091681780813724661 0 0.0079427192889520749 -0.09180589210994422 0 0.0082751571049823024 -0.091759526236520741 0 0.0080838734712487762 -0.091681780813724661 0 0.0081006899332943388 -0.092093144914681055 0 0.0079315081434488989 -0.091667051486708381 0 0.0080838734712487762 -0.091681780813724661 0 0.0081006899332943388 -0.092093144914681055 0 0.0063598453512867682 -0.096378290558703741 0 0.0059265034402082358 -0.092958402058520337 0 0.0076353746419974859 -0.091726503933478226 0 0.0077385496108626261 -0.09188888162497745 0 0.0077359054709180445 -0.091775768046042136 0 0.0077385496108626261 -0.09188888162497745 0 0.0079427192889520749 -0.09180589210994422 0 0.0077359054709180445 -0.091775768046042136 0 0.0079427192889520749 -0.09180589210994422 0 0.0078470977462865524 -0.091687879040235093 0 0.0077359054709180445 -0.091775768046042136 0 0.0082751571049823024 -0.091759526236520741 0 0.0079427192889520749 -0.09180589210994422 0 0.0078470977462865524 -0.091687879040235093 0 0.0085126652981201579 -0.093751346092864563 0 0.0083711012077021425 -0.094211884849287386 0 0.0067250270323978385 -0.095958764173835184 0 0.0083711012077021425 -0.094211884849287386 0 0.007641348430344256 -0.091713761828922172 0 0.0078470977462865524 -0.091687879040235093 0 0.0077359054709180445 -0.091775768046042136 0 0.011137364112957958 -0.091333481235460895 0 0.0097551114737892998 -0.091494674188977554 0 0.010366925521338435 -0.092642750671757812 0 0.0067250270323978385 -0.095958764173835184 0 0.0079943666139130082 -0.095258501485088867 0 0.0082751571049823024 -0.091759526236520741 0 0.0097551114737892998 -0.091494674188977554 0 0.0090324803381137703 -0.092304998894646703 0 0.010366925521338435 -0.092642750671757812 0 0.0090324803381137703 -0.092304998894646703 0 0.0094839141556121304 -0.093068880675924545 0 0.0097551114737892998 -0.091494674188977554 0 0.010366925521338435 -0.092642750671757812 0 0.0090324803381137703 -0.092304998894646703 0 0.010366925521338435 -0.092642750671757812 0 0.0094839141556121304 -0.093068880675924545 0 0.0094866130848382801 -0.094192658725389553 0 0.0090324803381137703 -0.092304998894646703 0 0.0094839141556121304 -0.093068880675924545 0 0.0087210708527051106 -0.092903841480384775 0 0.0092353298964379053 -0.093579365679451978 0 0.0094839141556121304 -0.093068880675924545 0 0.0087210708527051106 -0.092903841480384775 0 0.0092353298964379053 -0.093579365679451978 0 0.0094839141556121304 -0.093068880675924545 0 0.0094866130848382801 -0.094192658725389553 0 0.0079943666139130082 -0.095258501485088867 0 0.0084493209250959839 -0.094856000187650086 0 0.0054150650408400398 -0.098531309175216547 0 0.0076749187136950581 -0.098691179923641056 0 0.0068968923731815342 -0.095548359355586143 0 0.0076749187136950581 -0.098691179923641056 0 0.0068968923731815342 -0.095548359355586143 0 0.0094866130848382801 -0.094192658725389553 0 0.0079315081434488989 -0.091667051486708381 0 0.0081006899332943388 -0.092093144914681055 0 0.0077592768165237616 -0.092567568686583335 0 0.0082751571049823024 -0.091759526236520741 0 0.0090324803381137703 -0.092304998894646703 0 0.0081006899332943388 -0.092093144914681055 0 0.0090324803381137703 -0.092304998894646703 0 0.0081006899332943388 -0.092093144914681055 0 0.0087210708527051106 -0.092903841480384775 0 0.0087210708527051106 -0.092903841480384775 0 0.0077592768165237616 -0.092567568686583335 0 0.0085139217274865595 -0.093974470354414849 0 0.0092353298964379053 -0.093579365679451978 0 0.0087210708527051106 -0.092903841480384775 0 0.008996916233632064 -0.093623068901143983 0 -0.00071963344378227906 -0.07372913041353836 0 -0.0019747780553341842 -0.067266373774349575 0 0.0081006899332943388 -0.092093144914681055 0 0.0087210708527051106 -0.092903841480384775 0 0.0077592768165237616 -0.092567568686583335 0 -0.0019747780553341842 -0.067266373774349575 0 -0.0065716636400480928 -0.059809424335459223 0 -0.0089029364526479089 -0.052196821431827328 0 -0.0072547070602519623 -0.051281940343836506 0 -0.0062275366717941278 -0.052868892893324401 0 -0.013292810086123562 -0.058037388671678826 0 -0.018364661175957062 -0.050871980406311655 0 -0.010496110763932908 -0.052708752772997504 0 -0.0019747780553341842 -0.067266373774349575 0 0.0015936439932050244 -0.070000097978853593 0 0.0087210708527051106 -0.092903841480384775 0 0.008996916233632064 -0.093623068901143983 0 0.0085139217274865595 -0.093974470354414849 0 0.008996916233632064 -0.093623068901143983 0 0.0085139217274865595 -0.093974470354414849 0 0.0093691991720092592 -0.093936522727752422 0 -0.0019274429241553669 -0.068844241952771501 0 -0.0017652871218971295 -0.069065288820629997 0 -0.0015388390057271769 -0.068936793082483266 0 -0.0089029364526479089 -0.052196821431827328 0 -0.0098831911456836157 -0.050849334349541954 0 -0.0072547070602519623 -0.051281940343836506 0 -0.0027975928904009845 -0.067067060138952597 0 -0.0030385677084586861 -0.058718008181136906 0 -0.0089922445284471349 -0.050606791052205377 0 -0.0070797517659133809 -0.049441917799845927 0 -0.0085971726192433599 -0.049056837265224057 0 -0.0019747780553341842 -0.067266373774349575 0 -0.0027975928904009845 -0.067067060138952597 0 -0.0098831911456836157 -0.050849334349541954 0 -0.0072547070602519623 -0.051281940343836506 0 -0.0077953923691712048 -0.049568104970694069 0 -0.0072547070602519623 -0.051281940343836506 0 -0.0077953923691712048 -0.049568104970694069 0 -0.0060964888420815986 -0.050052803668867912 0 0.0068968923731815342 -0.095548359355586143 0 0.0081967989167111531 -0.093977122997912083 0 0.0094866130848382801 -0.094192658725389553 0 0.006160596394761117 -0.093728405954665597 0 0.0081967989167111531 -0.093977122997912083 0 0.0074741851682064925 -0.092431681600749868 0 0.006160596394761117 -0.093728405954665597 0 0.0068968923731815342 -0.095548359355586143 0 0.0081967989167111531 -0.093977122997912083 0 0.0081967989167111531 -0.093977122997912083 0 0.0093849616387049663 -0.093662252510304203 0 0.0074741851682064925 -0.092431681600749868 0 0.0085139217274865595 -0.093974470354414849 0 0.0094185325896271928 -0.093848407131782496 0 0.0093691991720092592 -0.093936522727752422 0 0.0081967989167111531 -0.093977122997912083 0 0.0089784737631339612 -0.09394976870288016 0 0.0093849616387049663 -0.093662252510304203 0 0.0089784737631339612 -0.09394976870288016 0 0.0093849616387049663 -0.093662252510304203 0 0.0093691991720092592 -0.093936522727752422 0 0.0093849616387049663 -0.093662252510304203 0 0.0094185325896271928 -0.093848407131782496 0 0.0093691991720092592 -0.093936522727752422 0 0.0015785407306793721 -0.070071985896244499 0 0.0015936439932050244 -0.070000097978853593 0 0.0081967989167111531 -0.093977122997912083 0 0.0089784737631339612 -0.09394976870288016 0 0.0094866130848382801 -0.094192658725389553 0 0.0089784737631339612 -0.09394976870288016 0 0.0094866130848382801 -0.094192658725389553 0 0.0093691991720092592 -0.093936522727752422 0 0.0092353298964379053 -0.093579365679451978 0 0.0094866130848382801 -0.094192658725389553 0 0.0093691991720092592 -0.093936522727752422 0 0.0092353298964379053 -0.093579365679451978 0 0.008996916233632064 -0.093623068901143983 0 0.0093691991720092592 -0.093936522727752422 0 0.0093849616387049663 -0.093662252510304203 0 0.0096668839973579543 -0.093531050357889597 0 0.0074741851682064925 -0.092431681600749868 0 -0.0027975928904009845 -0.067067060138952597 0 0.0015936439932050244 -0.070000097978853593 0 0.012241915511151866 -0.091787622258881027 0 0.010247836992427806 -0.092976627465345477 0 0.010430884887655735 -0.091663347988297228 0 0.012241915511151866 -0.091787622258881027 0 0.010430884887655735 -0.091663347988297228 0 0.0099306859338605964 -0.090321883035839753 0 0.012241915511151866 -0.091787622258881027 0 0.0099306859338605964 -0.090321883035839753 0 0.010375909844693618 -0.089173817630150448 0 -0.0027975928904009845 -0.067067060138952597 0 -0.0022974462299202299 -0.067739076550888247 0 0.010430884887655735 -0.091663347988297228 0 0.0099306859338605964 -0.090321883035839753 0 0.0093013867035598441 -0.091555515501517457 0 0.010247836992427806 -0.092976627465345477 0 0.010430884887655735 -0.091663347988297228 0 0.0093013867035598441 -0.091555515501517457 0 0.0049753446955943222 -0.089711626066219338 0 0.0079422080983976816 -0.090580994989034547 0 0.0074741851682064925 -0.092431681600749868 0 0.010247836992427806 -0.092976627465345477 0 0.0093013867035598441 -0.091555515501517457 0 0.0074741851682064925 -0.092431681600749868 0 0.0015936439932050244 -0.070000097978853593 0 0.0049724214428539032 -0.073006337363645049 0 0.0093013867035598441 -0.091555515501517457 0 0.0079422080983976816 -0.090580994989034547 0 0.0074741851682064925 -0.092431681600749868 0 0.0099306859338605964 -0.090321883035839753 0 0.0093013867035598441 -0.091555515501517457 0 0.0079422080983976816 -0.090580994989034547 0 0.00038712260957162223 -0.086256760795608595 0 -0.00091730299935428329 -0.074117998020656967 0 0.0049753446955943222 -0.089711626066219338 0 0.0079870867050269544 -0.088874941538591629 0 0.0084551036946297307 -0.086455532835885959 0 0.0049753446955943222 -0.089711626066219338 0 0.0079422080983976816 -0.090580994989034547 0 0.0079870867050269544 -0.088874941538591629 0 0.00071750460678458546 -0.088699824163345792 0 0.0012498294570192437 -0.086574535655423487 0 0.0033598380683378497 -0.086244767901131239 0 0.0099306859338605964 -0.090321883035839753 0 0.0079422080983976816 -0.090580994989034547 0 0.0079870867050269544 -0.088874941538591629 0 0.0079870867050269544 -0.088874941538591629 0 0.010395162410617161 -0.08915773016225513 0 0.0084551036946297307 -0.086455532835885959 0 -0.0022974462299202299 -0.067739076550888247 0 -0.0028196877540237371 -0.058267743062861914 0 -0.010165626284871859 -0.04897771534253078 0 -0.0094070731533802496 -0.047052459552698933 0 -0.0085971726192433599 -0.049056837265224057 0 -0.0022974462299202299 -0.067739076550888247 0 -0.00091730299935428329 -0.074117998020656967 0 0.0099306859338605964 -0.090321883035839753 0 0.0079870867050269544 -0.088874941538591629 0 0.010395162410617161 -0.08915773016225513 0 -0.0023887438709959889 -0.069034984904572466 0 -0.0022974462299202299 -0.067739076550888247 0 -0.0023273630246566043 -0.053269729421563793 0 -0.00091730299935428329 -0.074117998020656967 0 -0.0013281421216266099 -0.059478438742421369 0 -0.0021028195240237824 -0.063957051483193389 0 -0.0068526761023643603 -0.064584253777355008 0 -0.0039619659583199395 -0.068592622959306834 0 -0.0021028195240237824 -0.063957051483193389 0 -0.0068526761023643603 -0.064584253777355008 0 0.0022092246169062445 -0.084655520845924245 0 0.0012498294570192437 -0.086574535655423487 0 0.0033598380683378497 -0.086244767901131239 0 -0.0037813018354295835 -0.063406036212518932 0 -0.0074361175859046684 -0.064805581425183181 0 -0.0049524162504091069 -0.068245153980437442 0 -0.00045014684563296714 -0.080648777146316228 0 -0.00091730299935428329 -0.074117998020656967 0 -0.0030385677084586861 -0.058718008181136906 0 -0.0026959268138885277 -0.054427379899831402 0 -0.0070797517659133809 -0.049441917799845927 0 -0.0064328393530478697 -0.047781004390870872 0 -0.0051908147371580639 -0.048269733350215852 0 -0.0070797517659133809 -0.049441917799845927 0 -0.007824714985642826 -0.047775542838398119 0 -0.0064328393530478697 -0.047781004390870872 0 -0.0070797517659133809 -0.049441917799845927 0 -0.0085971726192433599 -0.049056837265224057 0 -0.007824714985642826 -0.047775542838398119 0 -0.0094070731533802496 -0.047052459552698933 0 -0.0085971726192433599 -0.049056837265224057 0 -0.007824714985642826 -0.047775542838398119 0 -0.0089922445284471349 -0.050606791052205377 0 -0.010165626284871859 -0.04897771534253078 0 -0.0085971726192433599 -0.049056837265224057 0 -0.0094070731533802496 -0.047052459552698933 0 -0.007824714985642826 -0.047775542838398119 0 -0.0082554881345711043 -0.046602731295800705 0 -0.0086482783815179758 -0.045150927828846957 0 -0.0094070731533802496 -0.047052459552698933 0 -0.0082554881345711043 -0.046602731295800705 0 -0.007824714985642826 -0.047775542838398119 0 -0.0082554881345711043 -0.046602731295800705 0 -0.0070523871132770651 -0.046418598805089424 0 -0.0070523871132770651 -0.046418598805089424 0 -0.0064328393530478697 -0.047781004390870872 0 -0.0047729809300246697 -0.04638866239241015 0 -0.007824714985642826 -0.047775542838398119 0 -0.0070523871132770651 -0.046418598805089424 0 -0.0064328393530478697 -0.047781004390870872 0 -0.0047729809300246697 -0.04638866239241015 0 -0.0033405312781732265 -0.047104374496918913 0 -0.0051908147371580639 -0.048269733350215852 0 -0.0064328393530478697 -0.047781004390870872 0 -0.0047729809300246697 -0.04638866239241015 0 -0.0051908147371580639 -0.048269733350215852 0 -0.0026879523010724538 -0.045912687927151856 0 -0.0047729809300246697 -0.04638866239241015 0 -0.0033405312781732265 -0.047104374496918913 0 -0.0022723058204822629 -0.052968008852836285 0 -0.0026959268138885277 -0.054427379899831402 0 -0.0033405312781732265 -0.047104374496918913 0 -0.0055525918114111179 -0.048287147035248786 0 -0.0022966601703321705 -0.04992113135549657 0 -0.0077953923691712048 -0.049568104970694069 0 -0.0055525918114111179 -0.048287147035248786 0 -0.0060964888420815986 -0.050052803668867912 0 -0.0055525918114111179 -0.048287147035248786 0 -0.0060964888420815986 -0.050052803668867912 0 -0.0044276073817324868 -0.051065423941605174 0 -0.0072547070602519623 -0.051281940343836506 0 -0.0060964888420815986 -0.050052803668867912 0 -0.0044276073817324868 -0.051065423941605174 0 -0.0055525918114111179 -0.048287147035248786 0 -0.0044276073817324868 -0.051065423941605174 0 -0.0022966601703321705 -0.04992113135549657 0 -0.0044276073817324868 -0.051065423941605174 0 -0.0034054453799709536 -0.053378451610723028 0 -0.0022966601703321705 -0.04992113135549657 0 -0.0028204781034924836 -0.057873051400416695 0 -0.0065716636400480928 -0.059809424335459223 0 -0.0021130549884568212 -0.049567489281291351 0 -0.00070573437664943599 -0.045845651298500212 0 -0.0028020941335868302 -0.053721001192058977 0 -0.0034054453799709536 -0.053378451610723028 0 -0.0062275366717941278 -0.052868892893324401 0 -0.0044276073817324868 -0.051065423941605174 0 -0.0034054453799709536 -0.053378451610723028 0 -0.0062275366717941278 -0.052868892893324401 0 -0.0072547070602519623 -0.051281940343836506 0 -0.0044276073817324868 -0.051065423941605174 0 -0.0062275366717941278 -0.052868892893324401 0 0.0061129727846751872 -0.056175611783780659 0 0.0025859780351538768 -0.04934345815352853 0 0.010339131438228809 -0.047386160833640958 0 -0.0028020941335868302 -0.053721001192058977 0 0.0061129727846751872 -0.056175611783780659 0 0.0025859780351538768 -0.04934345815352853 0 -0.0034054453799709536 -0.053378451610723028 0 0.0025859780351538768 -0.04934345815352853 0 -0.00046737164060725627 -0.04271910028741159 0 -0.0028020941335868302 -0.053721001192058977 0 -0.0034054453799709536 -0.053378451610723028 0 0.0025859780351538768 -0.04934345815352853 0 0.0025859780351538768 -0.04934345815352853 0 -0.00046737164060725627 -0.04271910028741159 0 0.0060168475857094702 -0.042790156978120282 0 0.0025859780351538768 -0.04934345815352853 0 0.0060168475857094702 -0.042790156978120282 0 0.010339131438228809 -0.047386160833640958 0 0.0060168475857094702 -0.042790156978120282 0 0.010928901627754794 -0.038441829724845313 0 0.010339131438228809 -0.047386160833640958 0 0.0060168475857094702 -0.042790156978120282 0 0.0031559694893510859 -0.031772346524988199 0 0.010928901627754794 -0.038441829724845313 0 -0.0033405312781732265 -0.047104374496918913 0 -0.0022966601703321705 -0.04992113135549657 0 -0.001156518816002026 -0.046732067875244789 0 -0.00046737164060725627 -0.04271910028741159 0 0.0060168475857094702 -0.042790156978120282 0 0.0031559694893510859 -0.031772346524988199 0 -0.00070573437664943599 -0.045845651298500212 0 0.0020685227174018772 -0.039408544703914562 0 -0.0026879523010724538 -0.045912687927151856 0 -0.0033405312781732265 -0.047104374496918913 0 -0.001156518816002026 -0.046732067875244789 0 0.0031559694893510859 -0.031772346524988199 0 0.012034569136360565 -0.031689313580039895 0 0.010928901627754794 -0.038441829724845313 0 0.010209654504107442 -0.026334899303783132 0 0.0031559694893510859 -0.031772346524988199 0 0.012034569136360565 -0.031689313580039895 0 0.012034569136360565 -0.031689313580039895 0 0.016993280875218193 -0.030791774288691325 0 0.016740151491052041 -0.036999988425937123 0 0.014477738762608879 -0.026166935196062231 0 0.012034569136360565 -0.031689313580039895 0 0.016993280875218193 -0.030791774288691325 0 0.021158533387220214 -0.02661624896321399 0 0.016993280875218193 -0.030791774288691325 0 0.021985714270410909 -0.034231617885894107 0 0.016993280875218193 -0.030791774288691325 0 0.016740151491052041 -0.036999988425937123 0 0.021985714270410909 -0.034231617885894107 0 0.016740151491052041 -0.036999988425937123 0 0.021086981410532769 -0.040509998016027934 0 0.021985714270410909 -0.034231617885894107 0 0.016740151491052041 -0.036999988425937123 0 0.021086981410532769 -0.040509998016027934 0 0.017220348614892696 -0.045338024846725743 0 0.012034569136360565 -0.031689313580039895 0 0.016740151491052041 -0.036999988425937123 0 0.010928901627754794 -0.038441829724845313 0 0.016740151491052041 -0.036999988425937123 0 0.010928901627754794 -0.038441829724845313 0 0.017220348614892696 -0.045338024846725743 0 0.021158533387220214 -0.02661624896321399 0 0.028547496610625216 -0.031016343653859049 0 0.021985714270410909 -0.034231617885894107 0 0.028547496610625216 -0.031016343653859049 0 0.021985714270410909 -0.034231617885894107 0 0.027332359951477075 -0.039286602184768094 0 0.021086981410532769 -0.040509998016027934 0 0.021985714270410909 -0.034231617885894107 0 0.027332359951477075 -0.039286602184768094 0 0.027332359951477075 -0.039286602184768094 0 0.033043170443337044 -0.042269428646332416 0 0.034935051842970001 -0.036787650939780536 0 0.028547496610625216 -0.031016343653859049 0 0.027332359951477075 -0.039286602184768094 0 0.034935051842970001 -0.036787650939780536 0 0.025808313597142696 -0.048130687069052575 0 0.035420083515531685 -0.048549597391595326 0 0.033043170443337044 -0.042269428646332416 0 0.027332359951477075 -0.039286602184768094 0 0.025808313597142696 -0.048130687069052575 0 0.033043170443337044 -0.042269428646332416 0 0.021086981410532769 -0.040509998016027934 0 0.027332359951477075 -0.039286602184768094 0 0.025808313597142696 -0.048130687069052575 0 0.021086981410532769 -0.040509998016027934 0 0.025808313597142696 -0.048130687069052575 0 0.017220348614892696 -0.045338024846725743 0 0.025808313597142696 -0.048130687069052575 0 0.017611798811137027 -0.052304294355837673 0 0.023950419240812152 -0.054812357409382256 0 0.025808313597142696 -0.048130687069052575 0 0.032684654137946433 -0.055039590963496345 0 0.035420083515531685 -0.048549597391595326 0 0.025808313597142696 -0.048130687069052575 0 0.023950419240812152 -0.054812357409382256 0 0.032684654137946433 -0.055039590963496345 0 0.0061129727846751872 -0.056175611783780659 0 0.010339131438228809 -0.047386160833640958 0 0.017611798811137027 -0.052304294355837673 0 0.010928901627754794 -0.038441829724845313 0 0.010339131438228809 -0.047386160833640958 0 0.017220348614892696 -0.045338024846725743 0 0.025808313597142696 -0.048130687069052575 0 0.017220348614892696 -0.045338024846725743 0 0.017611798811137027 -0.052304294355837673 0 0.010339131438228809 -0.047386160833640958 0 0.017220348614892696 -0.045338024846725743 0 0.017611798811137027 -0.052304294355837673 0 0.0061129727846751872 -0.056175611783780659 0 0.017611798811137027 -0.052304294355837673 0 0.015958528774850881 -0.060154330446492904 0 0.0061129727846751872 -0.056175611783780659 0 0.0094093115813878667 -0.065903667263460433 0 0.015958528774850881 -0.060154330446492904 0 0.0094093115813878667 -0.065903667263460433 0 0.015958528774850881 -0.060154330446492904 0 0.018256401946996639 -0.067982137760487948 0 0.015958528774850881 -0.060154330446492904 0 0.02550227871865873 -0.06145887599670833 0 0.018256401946996639 -0.067982137760487948 0 0.017611798811137027 -0.052304294355837673 0 0.015958528774850881 -0.060154330446492904 0 0.023950419240812152 -0.054812357409382256 0 0.015958528774850881 -0.060154330446492904 0 0.023950419240812152 -0.054812357409382256 0 0.02550227871865873 -0.06145887599670833 0 0.024802078088054354 -0.062440130405658281 0 0.028446406346156822 -0.059155291543241895 0 0.023950419240812152 -0.054812357409382256 0 0.02550227871865873 -0.06145887599670833 0 0.032684654137946433 -0.055039590963496345 0 0.031797819828560191 -0.064641510818680248 0 0.025198347172141651 -0.061927285640177882 0 0.032684654137946433 -0.055039590963496345 0 0.024802078088054354 -0.062440130405658281 0 0.018403153623877681 -0.068273381284661067 0 0.025198347172141651 -0.061927285640177882 0 0.025975788359812079 -0.069655732801271589 0 0.018319876202053803 -0.068711851991360623 0 0.031797819828560191 -0.064641510818680248 0 0.025975788359812079 -0.069655732801271589 0 0.035561454799228731 -0.072344111479514514 0 0.031797819828560191 -0.064641510818680248 0 0.025198347172141651 -0.061927285640177882 0 0.025975788359812079 -0.069655732801271589 0 0.025975788359812079 -0.069655732801271589 0 0.035561454799228731 -0.072344111479514514 0 0.027991812604352736 -0.076750334978235399 0 0.025975788359812079 -0.069655732801271589 0 0.019800780582034199 -0.078100940689366419 0 0.027991812604352736 -0.076750334978235399 0 0.025975788359812079 -0.069655732801271589 0 0.018319876202053803 -0.068711851991360623 0 0.019800780582034199 -0.078100940689366419 0 0.011815323347608148 -0.075167375069808431 0 0.018319876202053803 -0.068711851991360623 0 0.019800780582034199 -0.078100940689366419 0 0.011995724510642274 -0.074123206560747695 0 0.018403153623877681 -0.068273381284661067 0 0.0094093115813878667 -0.065903667263460433 0 0.011170254576399707 -0.074516543391813225 0 0.018256401946996639 -0.067982137760487948 0 0.045189717740128844 -0.06707907553563644 0 0.046287871427507211 -0.072953456127040517 0 0.041945370569447006 -0.070963912288389705 0 0.045189717740128844 -0.06707907553563644 0 0.051369871674095943 -0.066935054032223829 0 0.046287871427507211 -0.072953456127040517 0 0.027674207296744517 -0.044717351261680818 0 0.029264444555205434 -0.050933452006846423 0 0.050660447244491633 -0.067087225511252763 0 0.049866435251724517 -0.068912996588366887 0 0.046287871427507211 -0.072953456127040517 0 0.018303025830618332 -0.038492556567081219 0 0.018838023845859156 -0.037796545145469353 0 0.019690414465683641 -0.03901817132104015 0 0.027674207296744517 -0.044717351261680818 0 0.024822073394707923 -0.034822295055838892 0 0.022915681942514313 -0.033816943602359394 0 0.023886318457819536 -0.032568451226803963 0 0.023296860257347504 -0.032460127362420127 0 0.018303025830618332 -0.038492556567081219 0 0.018288091318835849 -0.039558104300202325 0 0.019690414465683641 -0.03901817132104015 0 0.050660447244491633 -0.067087225511252763 0 0.049866435251724517 -0.068912996588366887 0 0.050660439636965988 -0.070336013785894921 0 0.027674207296744517 -0.044717351261680818 0 0.02910636598363027 -0.053207040294417245 0 0.029605967127504199 -0.053905113516968237 0 0.02910636598363027 -0.053207040294417245 0 0.050698602776453564 -0.070374479773649384 0 0.046287871427507211 -0.072953456127040517 0 0.050585739476350942 -0.08001931665932932 0 0.026590112115623708 -0.057333476980818372 0 0.028232735303427851 -0.060320099230629122 0 0.026534715946008171 -0.061631105926140836 0 0.049866435251724517 -0.068912996588366887 0 0.050698602776453564 -0.070374479773649384 0 0.046287871427507211 -0.072953456127040517 0 0.018288091318835849 -0.039558104300202325 0 0.019690414465683641 -0.03901817132104015 0 0.019482799586805533 -0.041759538993306387 0 0.02910636598363027 -0.053207040294417245 0 0.025886772106577513 -0.052090941542676045 0 0.02910636598363027 -0.053207040294417245 0 0.032134438714930914 -0.06916302368898207 0 0.046287871427507211 -0.072953456127040517 0 0.041945370569447006 -0.070963912288389705 0 0.043326645371324884 -0.078018453593538609 0 0.041945370569447006 -0.070963912288389705 0 0.035561454799228731 -0.072344111479514514 0 0.043326645371324884 -0.078018453593538609 0 0.031797819828560191 -0.064641510818680248 0 0.035561454799228731 -0.072344111479514514 0 0.039532579457628933 -0.06388685443638778 0 0.041945370569447006 -0.070963912288389705 0 0.035561454799228731 -0.072344111479514514 0 0.039532579457628933 -0.06388685443638778 0 0.045189717740128844 -0.06707907553563644 0 0.041945370569447006 -0.070963912288389705 0 0.039532579457628933 -0.06388685443638778 0 0.045189717740128844 -0.06707907553563644 0 0.039532579457628933 -0.06388685443638778 0 0.045769141824724975 -0.059826201336312543 0 0.039532579457628933 -0.06388685443638778 0 0.040631014425286813 -0.054303582216505629 0 0.045769141824724975 -0.059826201336312543 0 0.031797819828560191 -0.064641510818680248 0 0.039532579457628933 -0.06388685443638778 0 0.032684654137946433 -0.055039590963496345 0 0.039532579457628933 -0.06388685443638778 0 0.032684654137946433 -0.055039590963496345 0 0.040631014425286813 -0.054303582216505629 0 0.040631014425286813 -0.054303582216505629 0 0.045769141824724975 -0.059826201336312543 0 0.046182291802799182 -0.050870455024349788 0 0.045769141824724975 -0.059826201336312543 0 0.051719888418943837 -0.055806901536968441 0 0.046182291802799182 -0.050870455024349788 0 0.045189717740128844 -0.06707907553563644 0 0.051369871674095943 -0.066935054032223829 0 0.045769141824724975 -0.059826201336312543 0 0.051369871674095943 -0.066935054032223829 0 0.045769141824724975 -0.059826201336312543 0 0.051719888418943837 -0.055806901536968441 0 0.022915681942514313 -0.033816943602359394 0 0.023296860257347504 -0.032460127362420127 0 0.022967414455339639 -0.027647301777389971 0 0.027674207296744517 -0.044717351261680818 0 0.029160827745681378 -0.03958189619773949 0 0.023296860257347504 -0.032460127362420127 0 0.022967414455339639 -0.027647301777389971 0 0.026142593182174999 -0.02963537654791194 0 0.023886123584125989 -0.03256676505041798 0 0.023296860257347504 -0.032460127362420127 0 0.026142593182174999 -0.02963537654791194 0 0.024822073394707923 -0.034822295055838892 0 0.024800121622255998 -0.034811104486410005 0 0.022967414455339639 -0.027647301777389971 0 0.025695498770990238 -0.024130940042746619 0 0.02579561810338404 -0.027032959122072396 0 0.022967414455339639 -0.027647301777389971 0 0.023025677052403583 -0.021532334314328192 0 0.025695498770990238 -0.024130940042746619 0 0.051719888418943837 -0.055806901536968441 0 0.046182291802799182 -0.050870455024349788 0 0.051917058970978085 -0.044634639366838112 0 0.029160827745681378 -0.03958189619773949 0 0.02398582390227785 -0.022904402363276389 0 0.046182291802799182 -0.050870455024349788 0 0.044650272497170414 -0.044388785532344849 0 0.041571224755138497 -0.047585488349353472 0 0.046182291802799182 -0.050870455024349788 0 0.044650272497170414 -0.044388785532344849 0 0.051917058970978085 -0.044634639366838112 0 0.044650272497170414 -0.044388785532344849 0 0.051917058970978085 -0.044634639366838112 0 0.044343608876371503 -0.037048129270887846 0 0.0041012228504691221 0.0056629182605397402 0 0.0039260726986835165 0.0055213039744390277 0 0.0043095052438350059 0.0063895340631668577 0 0.023814599066263153 -0.021917473458364093 0 0.02398582390227785 -0.022904402363276389 0 0.0041012228504691221 0.0056629182605397402 0 0.0047476043796289774 0.0057561133598421528 0 0.005142605651491894 0.0050023864757132129 0 0.0041012228504691221 0.0056629182605397402 0 0.0040696190472255846 0.0049646457764123859 0 0.005142605651491894 0.0050023864757132129 0 0.02398582390227785 -0.022904402363276389 0 0.017394628622878761 -0.015956219987019005 0 0.0040696190472255846 0.0049646457764123859 0 0.0053428008609105841 0.0035145596087304541 0 0.005142605651491894 0.0050023864757132129 0 0.032684654137946433 -0.055039590963496345 0 0.040631014425286813 -0.054303582216505629 0 0.035420083515531685 -0.048549597391595326 0 0.040631014425286813 -0.054303582216505629 0 0.035420083515531685 -0.048549597391595326 0 0.041571224755138497 -0.047585488349353472 0 0.040631014425286813 -0.054303582216505629 0 0.046182291802799182 -0.050870455024349788 0 0.041571224755138497 -0.047585488349353472 0 0.035420083515531685 -0.048549597391595326 0 0.041571224755138497 -0.047585488349353472 0 0.03924541110124935 -0.041815395683905084 0 0.044650272497170414 -0.044388785532344849 0 0.041571224755138497 -0.047585488349353472 0 0.03924541110124935 -0.041815395683905084 0 0.035420083515531685 -0.048549597391595326 0 0.03924541110124935 -0.041815395683905084 0 0.033043170443337044 -0.042269428646332416 0 0.03924541110124935 -0.041815395683905084 0 0.033043170443337044 -0.042269428646332416 0 0.034935051842970001 -0.036787650939780536 0 0.03924541110124935 -0.041815395683905084 0 0.034935051842970001 -0.036787650939780536 0 0.044343608876371503 -0.037048129270887846 0 0.044650272497170414 -0.044388785532344849 0 0.03924541110124935 -0.041815395683905084 0 0.044343608876371503 -0.037048129270887846 0 0.036889817262522731 -0.029255907278344744 0 0.034935051842970001 -0.036787650939780536 0 0.044343608876371503 -0.037048129270887846 0 0.023279780152089369 -0.014696847719750852 0 0.023873345395974174 -0.017672182363479443 0 0.011675275713677361 0.0023638899328768327 0 0.0053101488050563807 0.0069872037964441849 0 0.0058140114844855567 0.0038208203140326874 0 0.036889817262522731 -0.029255907278344744 0 0.028547496610625216 -0.031016343653859049 0 0.034935051842970001 -0.036787650939780536 0 0.0044492719123381845 0.0062177426016632089 0 0.0043095052438350059 0.0063895340631668577 0 0.0033153411190057556 0.0064077935159776132 0 0.0044492719123381845 0.0062177426016632089 0 0.0043611388268664552 0.0060434328561107644 0 0.0043095052438350059 0.0063895340631668577 0 0.0041012228504691221 0.0056629182605397402 0 0.0047476043796289774 0.0057561133598421528 0 0.0043611388268664552 0.0060434328561107644 0 0.0044492719123381845 0.0062177426016632089 0 0.0047476043796289774 0.0057561133598421528 0 0.0043611388268664552 0.0060434328561107644 0 0.0041012228504691221 0.0056629182605397402 0 0.0043611388268664552 0.0060434328561107644 0 0.0043095052438350059 0.0063895340631668577 0 0.02398582390227785 -0.022904402363276389 0 0.023873345395974174 -0.017672182363479443 0 0.0053101488050563807 0.0069872037964441849 0 0.0043095052438350059 0.0063895340631668577 0 0.0033153411190057556 0.0064077935159776132 0 0.0039260726986835165 0.0055213039744390277 0 0.0053101488050563807 0.0069872037964441849 0 0.0043095052438350059 0.0063895340631668577 0 0.0053101488050563807 0.0069872037964441849 0 0.0058140114844855567 0.0038208203140326874 0 0.0033153411190057556 0.0064077935159776132 0 0.0044492719123381845 0.0062177426016632089 0 0.0033153411190057556 0.0064077935159776132 0 0.0057980210053219239 0.0085256041209136706 0 0.0044492719123381845 0.0062177426016632089 0 0.0057980210053219239 0.0085256041209136706 0 0.0068099437161501467 0.0070913407403040704 0 0.0044492719123381845 0.0062177426016632089 0 0.0059493400315201303 0.0056799139836849156 0 0.0068099437161501467 0.0070913407403040704 0 0.0044492719123381845 0.0062177426016632089 0 0.0047476043796289774 0.0057561133598421528 0 0.0059493400315201303 0.0056799139836849156 0 0.0068099437161501467 0.0070913407403040704 0 0.0087121301696344838 0.0068224112154004332 0 0.0078221651449216136 0.0049839077430616453 0 0.0059493400315201303 0.0056799139836849156 0 0.0068099437161501467 0.0070913407403040704 0 0.0078221651449216136 0.0049839077430616453 0 0.0087121301696344838 0.0068224112154004332 0 0.0093223756919383945 0.0054714893528469352 0 0.0078221651449216136 0.0049839077430616453 0 0.0068099437161501467 0.0070913407403040704 0 0.0081104824112831798 0.0087009879229274743 0 0.0087121301696344838 0.0068224112154004332 0 0.0057980210053219239 0.0085256041209136706 0 0.0068099437161501467 0.0070913407403040704 0 0.0081104824112831798 0.0087009879229274743 0 0.0081104824112831798 0.0087009879229274743 0 0.010268447445078545 0.0081713389058857434 0 0.0087121301696344838 0.0068224112154004332 0 0.010268447445078545 0.0081713389058857434 0 0.011644795420917474 0.0065820563695503792 0 0.0099870622157015709 0.0067557596883524593 0 0.010268447445078545 0.0081713389058857434 0 0.0087121301696344838 0.0068224112154004332 0 0.0099870622157015709 0.0067557596883524593 0 0.010268447445078545 0.0081713389058857434 0 0.011644795420917474 0.0065820563695503792 0 0.01308300190690031 0.0090270340438930261 0 0.011644795420917474 0.0065820563695503792 0 0.01308300190690031 0.0090270340438930261 0 0.012919377306689355 0.0051116769817482893 0 0.011644795420917474 0.0065820563695503792 0 0.010436389417633135 0.0040416298714507515 0 0.012919377306689355 0.0051116769817482893 0 0.013958675275887891 0.0017546851486791081 0 0.013791491743154017 -0.00084173785804329295 0 0.011644795420917474 0.0065820563695503792 0 0.0093223756919383945 0.0054714893528469352 0 0.0094987611555577695 0.0039509987792621997 0 0.011644795420917474 0.0065820563695503792 0 0.0099870622157015709 0.0067557596883524593 0 0.0093223756919383945 0.0054714893528469352 0 0.0087121301696344838 0.0068224112154004332 0 0.0099870622157015709 0.0067557596883524593 0 0.0093223756919383945 0.0054714893528469352 0 0.011644795420917474 0.0065820563695503792 0 0.010436389417633135 0.0040416298714507515 0 0.0093954767423205486 0.0037143092964901842 0 0.0093223756919383945 0.0054714893528469352 0 0.0094987611555577695 0.0039509987792621997 0 0.0086180371599382695 0.0043730819809443917 0 0.010436389417633135 0.0040416298714507515 0 0.0093954767423205486 0.0037143092964901842 0 0.010350405625404943 0.0019805529346895215 0 0.010153780593989404 0.0078965796073788095 0 0.010764314641999125 0.012085789713846761 0 0.010436389417633135 0.0040416298714507515 0 0.012756424361888164 0.0012113211268662419 0 0.012919377306689355 0.0051116769817482893 0 0.011610999796331019 0.0052234979137341575 0 0.010153780593989404 0.0078965796073788095 0 0.013079273752015928 0.00084042060299392663 0 0.010350405625404943 0.0019805529346895215 0 0.010271159405625901 0.00054164745853306192 0 0.010436389417633135 0.0040416298714507515 0 0.013079273752015928 0.00084042060299392663 0 0.010350405625404943 0.0019805529346895215 0 0.0093954767423205486 0.0037143092964901842 0 0.010350405625404943 0.0019805529346895215 0 0.008938923871762176 0.00044631402788582723 0 0.010350405625404943 0.0019805529346895215 0 0.010271159405625901 0.00054164745853306192 0 0.008938923871762176 0.00044631402788582723 0 0.0073908053010892042 0.0011859713383313576 0 0.0079992455368348842 0.003570117654610047 0 0.0066559976101653968 0.0033728326116166107 0 0.014524515932129762 -0.0085152065686554985 0 0.010891629492530475 -0.00057255062908544488 0 0.0093954767423205486 0.0037143092964901842 0 0.008938923871762176 0.00044631402788582723 0 0.0069451581775408265 0.00055620075827104022 0 0.0070864961492138881 0.0026923893685559595 0 0.006317129366586776 0.0033900560269586378 0 0.006483952638768011 0.0043933350375800024 0 0.013791491743154017 -0.00084173785804329295 0 0.014524515932129762 -0.0085152065686554985 0 0.0094987611555577695 0.0039509987792621997 0 0.0073908053010892042 0.0011859713383313576 0 0.0079992455368348842 0.003570117654610047 0 0.0070864961492138881 0.0026923893685559595 0 0.006317129366586776 0.0033900560269586378 0 0.0066681686163413984 0.0021584947468444859 0 0.025695498770990238 -0.024130940042746619 0 0.02579561810338404 -0.027032959122072396 0 0.028371750096811518 -0.026724454771694776 0 0.017394628622878761 -0.015956219987019005 0 0.01527231793135907 -0.014422964794384064 0 0.0053428008609105841 0.0035145596087304541 0 0.006317129366586776 0.0033900560269586378 0 0.0066681686163413984 0.0021584947468444859 0 0.0053428008609105841 0.0035145596087304541 0 0.006317129366586776 0.0033900560269586378 0 0.006483952638768011 0.0043933350375800024 0 0.0059493400315201303 0.0056799139836849156 0 0.005142605651491894 0.0050023864757132129 0 0.006483952638768011 0.0043933350375800024 0 0.0098412269692178967 0.0016607416398380787 0 0.010891629492530475 -0.00057255062908544488 0 0.0053428008609105841 0.0035145596087304541 0 0.005142605651491894 0.0050023864757132129 0 0.006483952638768011 0.0043933350375800024 0 0.0047476043796289774 0.0057561133598421528 0 0.0059493400315201303 0.0056799139836849156 0 0.005142605651491894 0.0050023864757132129 0 0.0059493400315201303 0.0056799139836849156 0 0.0078221651449216136 0.0049839077430616453 0 0.0066559976101653968 0.0033728326116166107 0 0.0086180371599382695 0.0043730819809443917 0 0.0078221651449216136 0.0049839077430616453 0 0.0079992455368348842 0.003570117654610047 0 0.0093223756919383945 0.0054714893528469352 0 0.0086180371599382695 0.0043730819809443917 0 0.0078221651449216136 0.0049839077430616453 0 0.0094987611555577695 0.0039509987792621997 0 0.0086180371599382695 0.0043730819809443917 0 0.0079992455368348842 0.003570117654610047 0 0.0078221651449216136 0.0049839077430616453 0 0.0079992455368348842 0.003570117654610047 0 0.0066559976101653968 0.0033728326116166107 0 0.0056091239284727177 0.019776880810860185 0 0.0073782280283760607 0.019976045243455372 0 0.0068682367723766928 0.018053074570723152 0 0.0073782280283760607 0.019976045243455372 0 0.0068682367723766928 0.018053074570723152 0 0.008355045940411138 0.01898829305865575 0 0.0068682367723766928 0.018053074570723152 0 0.0081900988435415142 0.017659559682372688 0 0.008355045940411138 0.01898829305865575 0 0.0073782280283760607 0.019976045243455372 0 0.008355045940411138 0.01898829305865575 0 0.0085656281153703266 0.020671395384726954 0 0.008355045940411138 0.01898829305865575 0 0.010036096767598911 0.019971783552868376 0 0.0085656281153703266 0.020671395384726954 0 0.008355045940411138 0.01898829305865575 0 0.010036096767598911 0.019971783552868376 0 0.010030966761867708 0.018234709099130657 0 0.010036096767598911 0.019971783552868376 0 0.010030966761867708 0.018234709099130657 0 0.010847114858349322 0.01891996169023678 0 0.0083387622035828394 0.016512624652880739 0 0.0088726754938808633 0.015829249588873627 0 0.0084564279538306905 0.016759975492814851 0 0.0081900988435415142 0.017659559682372688 0 0.0087719928071830419 0.017896586596075539 0 0.0081900988435415142 0.017659559682372688 0 0.008355045940411138 0.01898829305865575 0 0.0087719928071830419 0.017896586596075539 0 0.010030966761867708 0.018234709099130657 0 0.011648146613720938 0.017423872838710087 0 0.010847114858349322 0.01891996169023678 0 0.011648146613720938 0.017423872838710087 0 0.010847114858349322 0.01891996169023678 0 0.011669375621985154 0.020034731548797955 0 0.0088726754938808633 0.015829249588873627 0 0.010151109759984997 0.013879381883299558 0 0.010151109759984997 0.013879381883299558 0 0.010764314641999125 0.012085789713846761 0 0.010036096767598911 0.019971783552868376 0 0.010847114858349322 0.01891996169023678 0 0.011669375621985154 0.020034731548797955 0 0.010036096767598911 0.019971783552868376 0 0.011669375621985154 0.020034731548797955 0 0.010561747692593267 0.021281492852257954 0 0.011574843629817399 0.022387495578105421 0 0.011669375621985154 0.020034731548797955 0 0.010561747692593267 0.021281492852257954 0 0.011574843629817399 0.022387495578105421 0 0.010561747692593267 0.021281492852257954 0 0.0097888923538115291 0.022526633355258913 0 0.0097888923538115291 0.022526633355258913 0 0.0094645861338470191 0.021433957836338162 0 0.0085212781635459998 0.022156530358449698 0 0.010561747692593267 0.021281492852257954 0 0.0097888923538115291 0.022526633355258913 0 0.0094645861338470191 0.021433957836338162 0 0.010036096767598911 0.019971783552868376 0 0.010561747692593267 0.021281492852257954 0 0.0094645861338470191 0.021433957836338162 0 0.010036096767598911 0.019971783552868376 0 0.0094645861338470191 0.021433957836338162 0 0.0085656281153703266 0.020671395384726954 0 0.0094645861338470191 0.021433957836338162 0 0.0085656281153703266 0.020671395384726954 0 0.0085212781635459998 0.022156530358449698 0 0.0085656281153703266 0.020671395384726954 0 0.0085212781635459998 0.022156530358449698 0 0.0078606979482892247 0.021305915885067007 0 0.0073782280283760607 0.019976045243455372 0 0.0085656281153703266 0.020671395384726954 0 0.0078606979482892247 0.021305915885067007 0 0.0097888923538115291 0.022526633355258913 0 0.0085212781635459998 0.022156530358449698 0 0.0088678480594421277 0.023417047691978908 0 0.0085212781635459998 0.022156530358449698 0 0.0076609310745304757 0.022207075694085417 0 0.0078606979482892247 0.021305915885067007 0 0.0085212781635459998 0.022156530358449698 0 0.0076609310745304757 0.022207075694085417 0 0.0079618586223135415 0.023041847373646084 0 0.0076609310745304757 0.022207075694085417 0 0.0068992919283961448 0.021266643527161688 0 0.0078606979482892247 0.021305915885067007 0 0.0056091239284727177 0.019776880810860185 0 0.0073782280283760607 0.019976045243455372 0 0.0068992919283961448 0.021266643527161688 0 0.0065842249675085859 0.022072182484825637 0 0.0076609310745304757 0.022207075694085417 0 0.0068992919283961448 0.021266643527161688 0 0.0073782280283760607 0.019976045243455372 0 0.0068992919283961448 0.021266643527161688 0 0.0078606979482892247 0.021305915885067007 0 0.0070755142645649201 0.023549173305678683 0 0.007983765711105836 0.023907707272492664 0 0.0076407552002600672 0.024816775836431385 0 0.0062225287622939612 0.025517995786560908 0 0.0069086449585596529 0.024133550017655287 0 0.0070755142645649201 0.023549173305678683 0 0.0076609310745304757 0.022207075694085417 0 0.0079618586223135415 0.023041847373646084 0 0.0070755142645649201 0.023549173305678683 0 0.007983765711105836 0.023907707272492664 0 0.0079618586223135415 0.023041847373646084 0 0.007983765711105836 0.023907707272492664 0 0.0079618586223135415 0.023041847373646084 0 0.0088678480594421277 0.023417047691978908 0 0.0085212781635459998 0.022156530358449698 0 0.0079618586223135415 0.023041847373646084 0 0.0088678480594421277 0.023417047691978908 0 0.007983765711105836 0.023907707272492664 0 0.0091023566960690416 0.024853296986039001 0 0.0076407552002600672 0.024816775836431385 0 0.007983765711105836 0.023907707272492664 0 0.0088678480594421277 0.023417047691978908 0 0.0091023566960690416 0.024853296986039001 0 0.0073343317865130642 0.0036293472376636802 0 0.0071876391853682216 0.0048742716386727426 0 0.0062546818370118693 0.0048733918814728777 0 0.0088678480594421277 0.023417047691978908 0 0.010234489435272207 0.023748110497837045 0 0.0091023566960690416 0.024853296986039001 0 0.0082825313005393027 0.012251104445931867 0 0.0073263726532837191 0.014313907449344732 0 0.0097888923538115291 0.022526633355258913 0 0.0088678480594421277 0.023417047691978908 0 0.010234489435272207 0.023748110497837045 0 0.010153780593989404 0.0078965796073788095 0 0.0082825313005393027 0.012251104445931867 0 0.011574843629817399 0.022387495578105421 0 0.0097888923538115291 0.022526633355258913 0 0.010234489435272207 0.023748110497837045 0 0.0083508330883554395 0.0024301361077487585 0 0.0073343317865130642 0.0036293472376636802 0 0.0083919139648593669 0.0038680544363469669 0 0.0073343317865130642 0.0036293472376636802 0 0.007883488998422887 0.0046344508166628225 0 0.0083919139648593669 0.0038680544363469669 0 0.0073343317865130642 0.0036293472376636802 0 0.007883488998422887 0.0046344508166628225 0 0.0071876391853682216 0.0048742716386727426 0 0.007883488998422887 0.0046344508166628225 0 0.0083919139648593669 0.0038680544363469669 0 0.0084545420968692737 0.0054210113770247984 0 0.007883488998422887 0.0046344508166628225 0 0.0077580275812207753 0.0054869378159258016 0 0.0071876391853682216 0.0048742716386727426 0 0.007883488998422887 0.0046344508166628225 0 0.0077580275812207753 0.0054869378159258016 0 0.0084545420968692737 0.0054210113770247984 0 0.010086222007263414 -0.0060577540137174007 0 0.010648468396645941 -0.0066548992242407845 0 0.0077580275812207753 0.0054869378159258016 0 0.0073440743524078736 0.006545932967953836 0 0.0084893061049445707 0.0054147551785869346 0 0.0063660310109213431 0.0015421567856227353 0 0.010648468396645941 -0.0066548992242407845 0 0.0077580275812207753 0.0054869378159258016 0 0.0073440743524078736 0.006545932967953836 0 0.0068017362209863855 0.0057299842524677807 0 0.0075501615843041612 0.0061978674167014036 0 0.009043055208858182 0.0047202487741171998 0 0.0090991215222349011 0.0072331650514258876 0 0.0073440743524078736 0.006545932967953836 0 0.0068017362209863855 0.0057299842524677807 0 0.0061928987073856965 0.0066445188618144647 0 0.0068017362209863855 0.0057299842524677807 0 0.0071876391853682216 0.0048742716386727426 0 0.0062546818370118693 0.0048733918814728777 0 0.0077580275812207753 0.0054869378159258016 0 0.0068017362209863855 0.0057299842524677807 0 0.0071876391853682216 0.0048742716386727426 0 0.0073263726532837191 0.014313907449344732 0 0.0064353928313209355 0.015731364621300786 0 0.0091023566960690416 0.024853296986039001 0 0.0081475177697580298 0.02586778813808862 0 0.0076407552002600672 0.024816775836431385 0 0.0068017362209863855 0.0057299842524677807 0 0.0062546818370118693 0.0048733918814728777 0 0.0051461932658237227 0.0061864064708759157 0 0.0068017362209863855 0.0057299842524677807 0 0.0061928987073856965 0.0066445188618144647 0 0.0051461932658237227 0.0061864064708759157 0 0.0061928987073856965 0.0066445188618144647 0 0.0051461932658237227 0.0061864064708759157 0 0.0054485395333352471 0.0071280810173423919 0 0.0069676450225408942 0.025917146259739912 0 0.0081475177697580298 0.02586778813808862 0 0.0076407552002600672 0.024816775836431385 0 0.0069676450225408942 0.025917146259739912 0 0.0072602701993381277 0.026879097653030353 0 0.0081475177697580298 0.02586778813808862 0 0.014556316842048774 -0.012618554423391144 0 0.01587426129044783 -0.016690595202318369 0 0.017251924217301116 -0.018863708239663123 0 0.017052875149033288 -0.020493427964671795 0 0.016130845501185539 -0.017589324076753059 0 0.017803337276145477 -0.019427867056987479 0 0.017251924217301116 -0.018863708239663123 0 0.017052875149033288 -0.020493427964671795 0 0.017803337276145477 -0.019427867056987479 0 0.017251924217301116 -0.018863708239663123 0 0.018015304850927616 -0.017951641835930381 0 0.020260434729626003 -0.018393156752263471 0 0.019091602165289923 -0.01985796708172374 0 0.018015304850927616 -0.017951641835930381 0 0.017803337276145477 -0.019427867056987479 0 0.019091602165289923 -0.01985796708172374 0 0.018015304850927616 -0.017951641835930381 0 0.024822073394707923 -0.034822295055838892 0 0.020594834030697274 -0.024328355400053722 0 0.020594834030697274 -0.024328355400053722 0 0.01527231793135907 -0.014422964794384064 0 0.017803337276145477 -0.019427867056987479 0 0.019091602165289923 -0.01985796708172374 0 0.017925961948857132 -0.021333578552208576 0 0.026142593182174999 -0.02963537654791194 0 0.02579561810338404 -0.027032959122072396 0 0.028371750096811518 -0.026724454771694776 0 0.022967414455339639 -0.027647301777389971 0 0.026142593182174999 -0.02963537654791194 0 0.02579561810338404 -0.027032959122072396 0 0.014524515932129762 -0.0085152065686554985 0 0.01527231793135907 -0.014422964794384064 0 0.014524515932129762 -0.0085152065686554985 0 0.014556316842048774 -0.012618554423391144 0 0.01527231793135907 -0.014422964794384064 0 0.014556316842048774 -0.012618554423391144 0 0.017803337276145477 -0.019427867056987479 0 0.017925961948857132 -0.021333578552208576 0 0.017052875149033288 -0.020493427964671795 0 0.013910032564352557 -0.016468506127144081 0 0.015258127620916374 -0.014739753483636911 0 0.012442936838840759 -0.012027969677731289 0 0.008938923871762176 0.00044631402788582723 0 0.0069451581775408265 0.00055620075827104022 0 0.0075940337855680438 -0.0014206265199793987 0 0.008938923871762176 0.00044631402788582723 0 0.0075940337855680438 -0.0014206265199793987 0 0.010127341927066083 -0.0015774227618662814 0 0.010271159405625901 0.00054164745853306192 0 0.008938923871762176 0.00044631402788582723 0 0.010127341927066083 -0.0015774227618662814 0 0.010153780593989404 0.0078965796073788095 0 0.010448930930194656 0.00072771278307906095 0 0.013079273752015928 0.00084042060299392663 0 0.010127341927066083 -0.0015774227618662814 0 0.012951670844973876 -0.0027405839511864603 0 0.013079273752015928 0.00084042060299392663 0 0.010271159405625901 0.00054164745853306192 0 0.010127341927066083 -0.0015774227618662814 0 0.010127341927066083 -0.0015774227618662814 0 0.012951670844973876 -0.0027405839511864603 0 0.0100876965331512 -0.0038426638844199167 0 0.012951670844973876 -0.0027405839511864603 0 0.0100876965331512 -0.0038426638844199167 0 0.012582773446423633 -0.0062726787014871777 0 0.0075940337855680438 -0.0014206265199793987 0 0.010127341927066083 -0.0015774227618662814 0 0.0100876965331512 -0.0038426638844199167 0 0.014556316842048774 -0.012618554423391144 0 0.013096387171098851 -0.010846170413294279 0 0.016707087989496307 -0.019519325184190025 0 0.015524188787870947 -0.018400015475900901 0 0.016130845501185539 -0.017589324076753059 0 0.015524188787870947 -0.018400015475900901 0 0.015851327539333354 -0.017470513696418926 0 0.014253759876230036 -0.017193653665033115 0 0.015524188787870947 -0.018400015475900901 0 0.016130845501185539 -0.017589324076753059 0 0.015851327539333354 -0.017470513696418926 0 0.011300866068672427 -0.015196450241348259 0 0.011653888289493462 -0.015435599068645642 0 0.012073866866142619 -0.015307617655526885 0 0.013096387171098851 -0.010846170413294279 0 0.01181395205712704 -0.0089886661715526481 0 0.012951670844973876 -0.0027405839511864603 0 0.012810834033749016 -0.0064948081682902909 0 0.012582773446423633 -0.0062726787014871777 0 0.010448930930194656 0.00072771278307906095 0 0.010648468396645941 -0.0066548992242407845 0 0.018807049670039235 -0.022787151083204112 0 0.01181395205712704 -0.0089886661715526481 0 0.011653888289493462 -0.015435599068645642 0 0.012128943681501449 -0.015360803013414841 0 0.012073866866142619 -0.015307617655526885 0 0.010648468396645941 -0.0066548992242407845 0 0.01181395205712704 -0.0089886661715526481 0 0.010648468396645941 -0.0066548992242407845 0 0.0099959134936179871 -0.0048834143035075533 0 0.011653888289493462 -0.015435599068645642 0 0.012128943681501449 -0.015360803013414841 0 0.011739628690257997 -0.015973537451525858 0 0.012128943681501449 -0.015360803013414841 0 0.011739628690257997 -0.015973537451525858 0 0.01206963151161081 -0.01641495051458149 0 0.011300866068672427 -0.015196450241348259 0 0.011653888289493462 -0.015435599068645642 0 0.01125535909625041 -0.016135309724886495 0 0.018807049670039235 -0.022787151083204112 0 0.017398530355274836 -0.028076278505389712 0 0.011653888289493462 -0.015435599068645642 0 0.011739628690257997 -0.015973537451525858 0 0.01125535909625041 -0.016135309724886495 0 0.023660491494949237 -0.038669005917730821 0 0.021600373079284595 -0.040310981535032632 0 0.023586077762174258 -0.041644321148293757 0 0.023660491494949237 -0.038669005917730821 0 0.021600373079284595 -0.040310981535032632 0 0.021245715642452593 -0.038210526650800679 0 0.018807049670039235 -0.022787151083204112 0 0.020764332772336531 -0.028515005940148334 0 0.017251924217301116 -0.018863708239663123 0 0.016130845501185539 -0.017589324076753059 0 0.018015304850927616 -0.017951641835930381 0 0.016130845501185539 -0.017589324076753059 0 0.015851327539333354 -0.017470513696418926 0 0.018015304850927616 -0.017951641835930381 0 0.018838023845859156 -0.037796545145469353 0 0.021245715642452593 -0.038210526650800679 0 0.019690414465683641 -0.03901817132104015 0 0.024822073394707923 -0.034822295055838892 0 0.020764332772336531 -0.028515005940148334 0 0.021600373079284595 -0.040310981535032632 0 0.021245715642452593 -0.038210526650800679 0 0.019690414465683641 -0.03901817132104015 0 0.021600373079284595 -0.040310981535032632 0 0.019690414465683641 -0.03901817132104015 0 0.019482799586805533 -0.041759538993306387 0 0.019482799586805533 -0.041759538993306387 0 0.020688326625034018 -0.044023237123566331 0 0.021885535918324688 -0.042753213227508899 0 0.025886772106577513 -0.052090941542676045 0 0.025057299117403394 -0.054161293376262042 0 0.021600373079284595 -0.040310981535032632 0 0.019482799586805533 -0.041759538993306387 0 0.021885535918324688 -0.042753213227508899 0 0.028232735303427851 -0.060320099230629122 0 0.029871464687491436 -0.063288852971945433 0 0.027678224149690313 -0.063526304882506518 0 0.029871464687491436 -0.063288852971945433 0 0.029061283688410475 -0.065436818389516982 0 0.027678224149690313 -0.063526304882506518 0 0.022293683359680683 -0.044553603638370035 0 0.021885535918324688 -0.042753213227508899 0 0.023540211792517154 -0.044659301824044775 0 0.020688326625034018 -0.044023237123566331 0 0.022293683359680683 -0.044553603638370035 0 0.021940830802717668 -0.046361942693679568 0 0.020688326625034018 -0.044023237123566331 0 0.022293683359680683 -0.044553603638370035 0 0.021885535918324688 -0.042753213227508899 0 0.021600373079284595 -0.040310981535032632 0 0.021885535918324688 -0.042753213227508899 0 0.023586077762174258 -0.041644321148293757 0 0.01125535909625041 -0.016135309724886495 0 0.01159182654925562 -0.016519215190385923 0 0.011205445264845392 -0.017066437495079932 0 0.017398530355274836 -0.028076278505389712 0 0.01604384760605344 -0.030702899322119434 0 0.021885535918324688 -0.042753213227508899 0 0.023586077762174258 -0.041644321148293757 0 0.023540211792517154 -0.044659301824044775 0 0.011739628690257997 -0.015973537451525858 0 0.01125535909625041 -0.016135309724886495 0 0.01159182654925562 -0.016519215190385923 0 0.011739628690257997 -0.015973537451525858 0 0.01159182654925562 -0.016519215190385923 0 0.01206963151161081 -0.01641495051458149 0 0.0099959134936179871 -0.0048834143035075533 0 0.0088674409683422301 -0.0045388221154731897 0 0.01206963151161081 -0.01641495051458149 0 0.011655076355207605 -0.017008691780817552 0 0.011988420354016911 -0.01744948880861745 0 0.0090991215222349011 0.0072331650514258876 0 0.009106887444921212 0.0096801511108416411 0 0.0087073911397622071 0.0093358075373421966 0 0.01159182654925562 -0.016519215190385923 0 0.01206963151161081 -0.01641495051458149 0 0.011655076355207605 -0.017008691780817552 0 0.01159182654925562 -0.016519215190385923 0 0.011655076355207605 -0.017008691780817552 0 0.011205445264845392 -0.017066437495079932 0 0.022293683359680683 -0.044553603638370035 0 0.023540211792517154 -0.044659301824044775 0 0.023407551687647261 -0.045166429694259928 0 0.023540211792517154 -0.044659301824044775 0 0.023407551687647261 -0.045166429694259928 0 0.023370914582144367 -0.049111601190906559 0 0.01604384760605344 -0.030702899322119434 0 0.013952659610205819 -0.032521053528045671 0 0.023407551687647261 -0.045166429694259928 0 0.022871791602335611 -0.047397384062990655 0 0.023370914582144367 -0.049111601190906559 0 0.011205445264845392 -0.017066437495079932 0 0.011528867305984701 -0.017501760252612117 0 0.011155722748963925 -0.017973907943754638 0 0.011655076355207605 -0.017008691780817552 0 0.011205445264845392 -0.017066437495079932 0 0.011528867305984701 -0.017501760252612117 0 0.011655076355207605 -0.017008691780817552 0 0.011528867305984701 -0.017501760252612117 0 0.011988420354016911 -0.01744948880861745 0 0.011528867305984701 -0.017501760252612117 0 0.011988420354016911 -0.01744948880861745 0 0.011590940334346506 -0.017952396948680435 0 0.009106887444921212 0.0096801511108416411 0 0.0082791256540878065 0.010345003283113569 0 0.0091362334504892246 0.011848924107442175 0 0.0088674409683422301 -0.0045388221154731897 0 0.0063909387834069275 -0.0074109044605091771 0 0.011988420354016911 -0.01744948880861745 0 0.011590940334346506 -0.017952396948680435 0 0.011913494205395267 -0.018449161267538448 0 0.011590940334346506 -0.017952396948680435 0 0.011485038586955987 -0.018372050718221462 0 0.011913494205395267 -0.018449161267538448 0 0.022871791602335611 -0.047397384062990655 0 0.023370914582144367 -0.049111601190906559 0 0.022680732643081684 -0.048229850009077695 0 0.023370914582144367 -0.049111601190906559 0 0.022379008092385046 -0.049091741589886655 0 0.022680732643081684 -0.048229850009077695 0 0.011528867305984701 -0.017501760252612117 0 0.011590940334346506 -0.017952396948680435 0 0.011155722748963925 -0.017973907943754638 0 0.011590940334346506 -0.017952396948680435 0 0.011355794319268928 -0.018208413808258644 0 0.011485038586955987 -0.018372050718221462 0 0.011590940334346506 -0.017952396948680435 0 0.011155722748963925 -0.017973907943754638 0 0.011355794319268928 -0.018208413808258644 0 0.022158765983854915 -0.050172274527104418 0 0.020723022047111458 -0.05037780830363596 0 0.022259806434450455 -0.051736186841370761 0 0.022379008092385046 -0.049091741589886655 0 0.020723022047111458 -0.05037780830363596 0 0.02109283395285096 -0.046816457149483306 0 0.020723022047111458 -0.05037780830363596 0 0.017941974419042637 -0.049443497529656287 0 0.02109283395285096 -0.046816457149483306 0 0.022158765983854915 -0.050172274527104418 0 0.022379008092385046 -0.049091741589886655 0 0.020723022047111458 -0.05037780830363596 0 0.023370914582144367 -0.049111601190906559 0 0.022158765983854915 -0.050172274527104418 0 0.022259806434450455 -0.051736186841370761 0 0.023370914582144367 -0.049111601190906559 0 0.022158765983854915 -0.050172274527104418 0 0.022379008092385046 -0.049091741589886655 0 0.022379008092385046 -0.049091741589886655 0 0.022680732643081684 -0.048229850009077695 0 0.021231420391596069 -0.046990625733831531 0 0.023450202283445621 -0.054918478626275739 0 0.024387052063343923 -0.056886038290241699 0 0.020723022047111458 -0.05037780830363596 0 0.017941974419042637 -0.049443497529656287 0 0.019648459401357933 -0.051780958912655821 0 0.025426866581880637 -0.064535764308509339 0 0.024387052063343923 -0.056886038290241699 0 0.028991289723682832 -0.068418681970296102 0 0.029061283688410475 -0.065436818389516982 0 0.031526142034446751 -0.066242940018816962 0 0.029871464687491436 -0.063288852971945433 0 0.029061283688410475 -0.065436818389516982 0 0.031526142034446751 -0.066242940018816962 0 0.028991289723682832 -0.068418681970296102 0 0.029061283688410475 -0.065436818389516982 0 0.027237555517794328 -0.065711274948292139 0 0.025057299117403394 -0.054161293376262042 0 0.024387052063343923 -0.056886038290241699 0 0.023407551687647261 -0.045166429694259928 0 0.022871791602335611 -0.047397384062990655 0 0.021231420391596069 -0.046990625733831531 0 0.022293683359680683 -0.044553603638370035 0 0.023407551687647261 -0.045166429694259928 0 0.021940830802717668 -0.046361942693679568 0 0.025286700306948566 -0.054903373103750527 0 0.024387052063343923 -0.056886038290241699 0 0.022871791602335611 -0.047397384062990655 0 0.022680732643081684 -0.048229850009077695 0 0.021231420391596069 -0.046990625733831531 0 0.0055458756261908678 0.016825565579893738 0 0.0050896719959811314 0.012841912790076652 0 0.0037321001851504314 0.0082751204577212519 0 0.0053650680749470188 0.0093394989768351838 0 0.0045286636127365521 0.0094386028087342731 0 0.0046353051218658977 0.01837075991159005 0 0.003898461287486252 0.013330384830218533 0 0.0040595432205948806 0.0083196165239106216 0 0.0056561053188058123 0.0084567696488584091 0 0.0054940341710427911 0.0092700163124588026 0 0.0040595432205948806 0.0083196165239106216 0 0.0043107557155014336 0.0080105285385723719 0 0.0056561053188058123 0.0084567696488584091 0 0.0055458756261908678 0.016825565579893738 0 0.0064353928313209355 0.015731364621300786 0 0.0040505579563660252 0.0075330871095935434 0 0.0051461932658237227 0.0061864064708759157 0 0.0054485395333352471 0.0071280810173423919 0 0.0040505579563660252 0.0075330871095935434 0 0.0054485395333352471 0.0071280810173423919 0 0.0054459929910800776 0.0080311994640332972 0 0.0054485395333352471 0.0071280810173423919 0 0.0061947829004965742 0.0076625574658099197 0 0.0054459929910800776 0.0080311994640332972 0 0.0061928987073856965 0.0066445188618144647 0 0.0054485395333352471 0.0071280810173423919 0 0.0061947829004965742 0.0076625574658099197 0 0.0056561053188058123 0.0084567696488584091 0 0.0071072451202090717 0.0089007400832989015 0 0.0054940341710427911 0.0092700163124588026 0 0.0061947829004965742 0.0076625574658099197 0 0.0054459929910800776 0.0080311994640332972 0 0.0069908288645560788 0.0086495916936320597 0 0.0050896719959811314 0.012841912790076652 0 0.0061818885302637704 0.011441337812656967 0 0.0069908288645560788 0.0086495916936320597 0 0.0073871037547913864 0.0074589809256315103 0 0.0080835961425405438 0.0081568876425690464 0 0.0061947829004965742 0.0076625574658099197 0 0.0069908288645560788 0.0086495916936320597 0 0.0073871037547913864 0.0074589809256315103 0 0.0075501615843041612 0.0061978674167014036 0 0.0061947829004965742 0.0076625574658099197 0 0.0073871037547913864 0.0074589809256315103 0 0.0073440743524078736 0.006545932967953836 0 0.0061928987073856965 0.0066445188618144647 0 0.0061947829004965742 0.0076625574658099197 0 0.0063660310109213431 0.0015421567856227353 0 0.0054250526214822846 0.0036204484641889491 0 0.0075501615843041612 0.0061978674167014036 0 0.0090991215222349011 0.0072331650514258876 0 0.0073871037547913864 0.0074589809256315103 0 0.0090991215222349011 0.0072331650514258876 0 0.0073871037547913864 0.0074589809256315103 0 0.0080835961425405438 0.0081568876425690464 0 0.0090991215222349011 0.0072331650514258876 0 0.0080835961425405438 0.0081568876425690464 0 0.0087073911397622071 0.0093358075373421966 0 0.0069908288645560788 0.0086495916936320597 0 0.0080835961425405438 0.0081568876425690464 0 0.0087073911397622071 0.0093358075373421966 0 0.0071072451202090717 0.0089007400832989015 0 0.0087073911397622071 0.0093358075373421966 0 0.0077786790502106587 0.0097286584409039343 0 0.0077786790502106587 0.0097286584409039343 0 0.0082791256540878065 0.010345003283113569 0 0.007046208544627109 0.01033979886048233 0 0.0061818885302637704 0.011441337812656967 0 0.0069029508653910493 0.01117503638650888 0 0.009106887444921212 0.0096801511108416411 0 0.0087073911397622071 0.0093358075373421966 0 0.0082791256540878065 0.010345003283113569 0 0.0087073911397622071 0.0093358075373421966 0 0.0077786790502106587 0.0097286584409039343 0 0.0082791256540878065 0.010345003283113569 0 0.0082791256540878065 0.010345003283113569 0 0.0078163082552879532 0.011222630977091239 0 0.007046208544627109 0.01033979886048233 0 0.0082791256540878065 0.010345003283113569 0 0.0078163082552879532 0.011222630977091239 0 0.0091362334504892246 0.011848924107442175 0 0.007046208544627109 0.01033979886048233 0 0.0064405675228652514 0.010990343776657889 0 0.0057531529259109036 0.010665177749232053 0 0.0078163082552879532 0.011222630977091239 0 0.007046208544627109 0.01033979886048233 0 0.0068684475631519372 0.011421294851960731 0 0.007046208544627109 0.01033979886048233 0 0.0068684475631519372 0.011421294851960731 0 0.0064405675228652514 0.010990343776657889 0 0.0068684475631519372 0.011421294851960731 0 0.0064405675228652514 0.010990343776657889 0 0.0062938898304792865 0.011388632612179515 0 0.0071072451202090717 0.0089007400832989015 0 0.007046208544627109 0.01033979886048233 0 0.0054940341710427911 0.0092700163124588026 0 0.0071072451202090717 0.0089007400832989015 0 0.0077786790502106587 0.0097286584409039343 0 0.007046208544627109 0.01033979886048233 0 0.0046606942749773108 0.012592310071173989 0 0.003898461287486252 0.013330384830218533 0 0.007046208544627109 0.01033979886048233 0 0.0055249116755122151 0.010016253011241896 0 0.0057531529259109036 0.010665177749232053 0 0.007046208544627109 0.01033979886048233 0 0.0053650680749470188 0.0093394989768351838 0 0.0055249116755122151 0.010016253011241896 0 0.0055249116755122151 0.010016253011241896 0 0.0057531529259109036 0.010665177749232053 0 0.0048163406604081922 0.010250434007689472 0 0.0064405675228652514 0.010990343776657889 0 0.0056522216736106228 0.011282252758928232 0 0.0057531529259109036 0.010665177749232053 0 0.0064405675228652514 0.010990343776657889 0 0.0062938898304792865 0.011388632612179515 0 0.0056522216736106228 0.011282252758928232 0 0.0056522216736106228 0.011282252758928232 0 0.0057531529259109036 0.010665177749232053 0 0.0049370007379685842 0.010895757757273864 0 0.0057531529259109036 0.010665177749232053 0 0.0049370007379685842 0.010895757757273864 0 0.0048163406604081922 0.010250434007689472 0 0.0049370007379685842 0.010895757757273864 0 0.0042392264427037109 0.010646472324873505 0 0.0048163406604081922 0.010250434007689472 0 0.0056522216736106228 0.011282252758928232 0 0.0049370007379685842 0.010895757757273864 0 0.0042250817210205223 0.011636189258254374 0 0.0049370007379685842 0.010895757757273864 0 0.0042392264427037109 0.010646472324873505 0 0.0042250817210205223 0.011636189258254374 0 0.0039749004335813748 0.0097600755644924372 0 0.0042392264427037109 0.010646472324873505 0 0.0048163406604081922 0.010250434007689472 0 0.0055249116755122151 0.010016253011241896 0 0.0048163406604081922 0.010250434007689472 0 0.0045286636127365521 0.0094386028087342731 0 0.0053650680749470188 0.0093394989768351838 0 0.0055249116755122151 0.010016253011241896 0 0.0045286636127365521 0.0094386028087342731 0 0.0039749004335813748 0.0097600755644924372 0 0.0048163406604081922 0.010250434007689472 0 0.0045286636127365521 0.0094386028087342731 0 0.0039749004335813748 0.0097600755644924372 0 0.0038528984430768868 0.0091627626787522155 0 0.0045286636127365521 0.0094386028087342731 0 -0.0047464082302215854 0.016284570928309709 0 -0.0059192820764053114 0.016706431834461414 0 -0.0058004673838014335 0.015637119544070665 0 -0.0059192820764053114 0.016706431834461414 0 -0.0058004673838014335 0.015637119544070665 0 -0.0074976198698128906 0.015469075598874971 0 -0.0034869077273068697 0.016232069271618688 0 -0.0035678110040598368 0.015944198717244281 0 -0.0030176222717376573 0.01596771000653717 0 -0.0034869077273068697 0.016232069271618688 0 -0.0030176222717376573 0.01596771000653717 0 -0.002953312770150149 0.016080391156856385 0 0.00071374068292210367 0.012734128542055622 0 0.0020003886580546933 0.0039869313034835699 0 -0.0047173300209869618 0.010462010625586124 0 0.0004041131470811643 0.0033481053320260821 0 0.0056522216736106228 0.011282252758928232 0 0.0042250817210205223 0.011636189258254374 0 0.0063596517075438907 0.011938361080829527 0 0.0062938898304792865 0.011388632612179515 0 0.0056522216736106228 0.011282252758928232 0 0.0063596517075438907 0.011938361080829527 0 -0.0059192820764053114 0.016706431834461414 0 -0.0085806965848594791 0.017303602920248667 0 -0.0074976198698128906 0.015469075598874971 0 0.0004041131470811643 0.0033481053320260821 0 -0.00092701092366867716 0.0028850935714951945 0 -0.0085806965848594791 0.017303602920248667 0 -0.0096170370163811119 0.015406097097974813 0 -0.0074976198698128906 0.015469075598874971 0 0.0026987085185454359 -0.002565331585271325 0 0.0012304126643912128 -0.0022674055767587771 0 0.0016489380674044039 -0.0045741774422986443 0 0.0020003886580546933 0.0039869313034835699 0 0.0039600329608037053 -0.0025224565758451239 0 0.0068684475631519372 0.011421294851960731 0 0.0063596517075438907 0.011938361080829527 0 0.0077502744793902633 0.012152391560948559 0 0.0013673349261400236 -0.00036250340213773931 0 0.0015578991869272395 -2.5197762305658773e-06 0 0.0024261337610616764 -0.0001945891448351795 0 0.0020003886580546933 0.0039869313034835699 0 0.0004041131470811643 0.0033481053320260821 0 0.0068684475631519372 0.011421294851960731 0 0.0062938898304792865 0.011388632612179515 0 0.0063596517075438907 0.011938361080829527 0 0.0078163082552879532 0.011222630977091239 0 0.0068684475631519372 0.011421294851960731 0 0.0077502744793902633 0.012152391560948559 0 0.0004041131470811643 0.0033481053320260821 0 0.0039600329608037053 -0.0025224565758451239 0 0.0033747853479685142 -0.0057143068880459655 0 0.0094294143573986945 -0.0069940750601681827 0 0.0095104089868138456 -0.0046683675297286651 0 0.0012304126643912128 -0.0022674055767587771 0 0.00040725000504835784 -0.0037052882785090615 0 -0.00056697176310720643 -0.0025941446669368786 0 0.0039600329608037053 -0.0025224565758451239 0 0.0059573227550603356 -0.012101966995505092 0 0.0039600329608037053 -0.0025224565758451239 0 0.0063909387834069275 -0.0074109044605091771 0 0.0078163082552879532 0.011222630977091239 0 0.0077502744793902633 0.012152391560948559 0 0.0091362334504892246 0.011848924107442175 0 0.0012304126643912128 -0.0022674055767587771 0 0.00040725000504835784 -0.0037052882785090615 0 0.0016489380674044039 -0.0045741774422986443 0 0.00059153265672576673 -0.0065868674310914799 0 0.0016489380674044039 -0.0045741774422986443 0 -0.00068268010389422652 -0.0053876348867234946 0 0.00040725000504835784 -0.0037052882785090615 0 0.0016489380674044039 -0.0045741774422986443 0 -0.00068268010389422652 -0.0053876348867234946 0 -0.0015686325806774351 -0.00016207675183224754 0 -0.00092701092366867716 0.0028850935714951945 0 -0.0086549425888861383 0.012688401314981409 0 -0.010667998857048213 0.013493908157723082 0 -0.0089421895027836998 0.01415475208143064 0 -0.0086549425888861383 0.012688401314981409 0 -0.0089421895027836998 0.01415475208143064 0 -0.0076225082754333645 0.013978180991517491 0 -0.0096170370163811119 0.015406097097974813 0 -0.0089421895027836998 0.01415475208143064 0 -0.0074976198698128906 0.015469075598874971 0 -0.010667998857048213 0.013493908157723082 0 -0.0096170370163811119 0.015406097097974813 0 -0.0089421895027836998 0.01415475208143064 0 -0.0074976198698128906 0.015469075598874971 0 -0.0076225082754333645 0.013978180991517491 0 -0.0061342403783506225 0.01459135099430166 0 -0.0089421895027836998 0.01415475208143064 0 -0.0074976198698128906 0.015469075598874971 0 -0.0076225082754333645 0.013978180991517491 0 -0.0086549425888861383 0.012688401314981409 0 -0.0076225082754333645 0.013978180991517491 0 -0.0065865302961911881 0.013096336497483544 0 -0.004668421074468368 0.013895435481778282 0 -0.0065865302961911881 0.013096336497483544 0 -0.0061342403783506225 0.01459135099430166 0 -0.0076225082754333645 0.013978180991517491 0 -0.0065865302961911881 0.013096336497483544 0 -0.0061342403783506225 0.01459135099430166 0 -0.0058004673838014335 0.015637119544070665 0 -0.0074976198698128906 0.015469075598874971 0 -0.0061342403783506225 0.01459135099430166 0 -0.0048711305890957336 0.015061175442625906 0 -0.0058004673838014335 0.015637119544070665 0 -0.0061342403783506225 0.01459135099430166 0 0.016567249719418572 -0.0465789425127471 0 0.010037458140058662 -0.031265658511191889 0 0.016567249719418572 -0.0465789425127471 0 0.0081783161516180234 -0.032658065122841549 0 0.010072475889477331 -0.038440737757074857 0 0.0082932362007205433 -0.038659348585750757 0 0.0083535021130479465 -0.036324706684275419 0 0.010718243976612748 -0.051619480333846501 0 0.0098990535889670276 -0.052377784735007538 0 0.0098518480302775876 -0.051464993099733403 0 0.016910518806278866 -0.05719508382821941 0 0.016827343088173512 -0.055365389160243673 0 0.019521323200920503 -0.054699099641163818 0 0.01722980422856734 -0.0604298613555058 0 0.016567249719418572 -0.0465789425127471 0 0.016827343088173512 -0.055365389160243673 0 0.019479535528217809 -0.054714977671857332 0 0.017891698659494686 -0.052761902197174526 0 0.016502900742196926 -0.047195322435078721 0 0.016567249719418572 -0.0465789425127471 0 0.017941974419042637 -0.049443497529656287 0 0.017891698659494686 -0.052761902197174526 0 0.014635266637056518 -0.052183125089586523 0 0.016567249719418572 -0.0465789425127471 0 0.017277926892807348 -0.04771908608142994 0 0.017941974419042637 -0.049443497529656287 0 0.017891698659494686 -0.052761902197174526 0 0.019648459401357933 -0.051780958912655821 0 0.019378240546030153 -0.054549786386534203 0 0.017891698659494686 -0.052761902197174526 0 0.019648459401357933 -0.051780958912655821 0 0.019452472658446737 -0.054330067455421363 0 0.022259806434450455 -0.051736186841370761 0 0.023206793287414054 -0.053857275212830368 0 0.020723022047111458 -0.05037780830363596 0 0.019648459401357933 -0.051780958912655821 0 0.022259806434450455 -0.051736186841370761 0 0.019378240546030153 -0.054549786386534203 0 0.019648459401357933 -0.051780958912655821 0 0.022259806434450455 -0.051736186841370761 0 0.016567249719418572 -0.0465789425127471 0 0.017133473606995093 -0.047679241255505822 0 0.011355794319268928 -0.018208413808258644 0 0.011485038586955987 -0.018372050718221462 0 0.011123826129016363 -0.018839728277130461 0 0.023370914582144367 -0.049111601190906559 0 0.022259806434450455 -0.051736186841370761 0 0.023206793287414054 -0.053857275212830368 0 0.013952659610205819 -0.032521053528045671 0 0.010037458140058662 -0.031265658511191889 0 0.011155722748963925 -0.017973907943754638 0 0.011355794319268928 -0.018208413808258644 0 0.011123826129016363 -0.018839728277130461 0 0.0059573227550603356 -0.012101966995505092 0 0.010037458140058662 -0.031265658511191889 0 0.011485038586955987 -0.018372050718221462 0 0.011859977037345119 -0.018674571719554608 0 0.011123826129016363 -0.018839728277130461 0 0.011485038586955987 -0.018372050718221462 0 0.011864466461551789 -0.018448462294674884 0 0.011859977037345119 -0.018674571719554608 0 0.0078353877949301019 -0.0083160047803764892 0 0.0063909387834069275 -0.0074109044605091771 0 0.0063909387834069275 -0.0074109044605091771 0 0.0059573227550603356 -0.012101966995505092 0 0.0059573227550603356 -0.012101966995505092 0 0.0023222815939848511 -0.012763177629326043 0 0.0027661213978201291 -0.02272011545790114 0 0.0036593650495236538 -0.021548633711587273 0 0.0028116917618542527 -0.020791552412901856 0 0.00040725000504835784 -0.0037052882785090615 0 -0.00056697176310720643 -0.0025941446669368786 0 -0.00068268010389422652 -0.0053876348867234946 0 0.0027661213978201291 -0.02272011545790114 0 0.0043043803837227073 -0.02247692787824623 0 0.0036593650495236538 -0.021548633711587273 0 0.0043043803837227073 -0.02247692787824623 0 0.0036593650495236538 -0.021548633711587273 0 0.0043538128085713499 -0.020675204566480539 0 0.010037458140058662 -0.031265658511191889 0 0.0081783161516180234 -0.032658065122841549 0 0.0036593650495236538 -0.021548633711587273 0 0.0043538128085713499 -0.020675204566480539 0 0.0028116917618542527 -0.020791552412901856 0 -0.00080575132708774464 -0.0082030309307242026 0 0.00059153265672576673 -0.0065868674310914799 0 -0.00068268010389422652 -0.0053876348867234946 0 -0.00032046441067160562 -0.011708368012053582 0 0.0023222815939848511 -0.012763177629326043 0 0.0028474394125513514 -0.01881546699648173 0 0.0028116917618542527 -0.020791552412901856 0 0.0036072718522366662 -0.019746655032172825 0 0.0056915049417790471 -0.033736285238523595 0 0.0081783161516180234 -0.032658065122841549 0 0.0043538128085713499 -0.020675204566480539 0 0.0028116917618542527 -0.020791552412901856 0 0.0036072718522366662 -0.019746655032172825 0 0.0061004790490557246 -0.020943263924169748 0 0.0059161886885605872 -0.027942682414138342 0 0.002960416491977052 -0.024300597681721894 0 0.0081783161516180234 -0.032658065122841549 0 0.0037737569734424873 -0.022061904120541983 0 0.0086144632723606004 -0.049059097804691261 0 0.0085827788557458692 -0.050764564503078861 0 0.010127492534428456 -0.050298769981359674 0 0.0098990535889670276 -0.052377784735007538 0 0.0085827788557458692 -0.050764564503078861 0 0.0098518480302775876 -0.051464993099733403 0 0.0085827788557458692 -0.050764564503078861 0 0.0098518480302775876 -0.051464993099733403 0 0.010127492534428456 -0.050298769981359674 0 0.010718243976612748 -0.051619480333846501 0 0.0098518480302775876 -0.051464993099733403 0 0.010127492534428456 -0.050298769981359674 0 0.010718243976612748 -0.051619480333846501 0 0.010127492534428456 -0.050298769981359674 0 0.011466863255265828 -0.050932554991970344 0 0.010309509626189187 -0.04892789377348479 0 0.011465444974966982 -0.049470376711021065 0 0.010127492534428456 -0.050298769981359674 0 0.01429606891654308 -0.073889467823453403 0 0.015251858304892795 -0.073779973647431163 0 0.014873681283417794 -0.076711223552396554 0 0.011465444974966982 -0.049470376711021065 0 0.010127492534428456 -0.050298769981359674 0 0.011466863255265828 -0.050932554991970344 0 0.013344702965124874 -0.065362190607599555 0 0.017803909294989092 -0.075001376707148223 0 0.01429606891654308 -0.073889467823453403 0 0.014873681283417794 -0.076711223552396554 0 0.014325128759642992 -0.077234393395484324 0 0.015743780987995983 -0.081626287856560481 0 0.018143183238947501 -0.082077830423657558 0 0.019281902559846222 -0.095194930868933533 0 0.018143183238947501 -0.082077830423657558 0 0.0250818386164628 -0.10315871226345427 0 0.027583379252184577 -0.10075981339126025 0 0.025447051310466005 -0.10087984887265368 0 0.024822780654502552 -0.10272164529620663 0 0.027157369630297915 -0.10255015241689118 0 0.027498319233437728 -0.10005186931859911 0 0.026177585138710296 -0.10010889009712688 0 0.026811324980467014 -0.099320123580012826 0 0.025056314160019893 -0.099461877794390807 0 0.026177585138710296 -0.10010889009712688 0 0.027583379252184577 -0.10075981339126025 0 0.025447051310466005 -0.10087984887265368 0 0.026177585138710296 -0.10010889009712688 0 0.026811324980467014 -0.099320123580012826 0 0.027583379252184577 -0.10075981339126025 0 0.018143183238947501 -0.082077830423657558 0 0.019185514511015096 -0.090736184539747744 0 0.017803909294989092 -0.075001376707148223 0 0.021264960725986621 -0.076213978995439788 0 0.027494323080966169 -0.099908133016118464 0 0.027808916391951603 -0.099627649951549754 0 0.027913008478214957 -0.098234265238585847 0 0.016910518806278866 -0.05719508382821941 0 0.014516052718899991 -0.059476203455483038 0 0.014559042591567111 -0.055786754346138952 0 0.026811324980467014 -0.099320123580012826 0 0.027583379252184577 -0.10075981339126025 0 0.02788167994110825 -0.098043696868846342 0 0.018143183238947501 -0.082077830423657558 0 0.017803909294989092 -0.075001376707148223 0 0.01722980422856734 -0.0604298613555058 0 0.017803909294989092 -0.075001376707148223 0 0.027494323080966169 -0.099908133016118464 0 0.02788167994110825 -0.098043696868846342 0 0.027913008478214957 -0.098234265238585847 0 0.016827343088173512 -0.055365389160243673 0 0.014559042591567111 -0.055786754346138952 0 0.014635266637056518 -0.052183125089586523 0 0.016910518806278866 -0.05719508382821941 0 0.016827343088173512 -0.055365389160243673 0 0.014559042591567111 -0.055786754346138952 0 0.02788167994110825 -0.098043696868846342 0 0.027913008478214957 -0.098234265238585847 0 0.027954627398581136 -0.096441933953835546 0 0.026811324980467014 -0.099320123580012826 0 0.025790642345063529 -0.098282345685365202 0 0.025056314160019893 -0.099461877794390807 0 0.026811324980467014 -0.099320123580012826 0 0.02788167994110825 -0.098043696868846342 0 0.025790642345063529 -0.098282345685365202 0 0.02788167994110825 -0.098043696868846342 0 0.025790642345063529 -0.098282345685365202 0 0.027954627398581136 -0.096441933953835546 0 0.025790642345063529 -0.098282345685365202 0 0.025736595603463478 -0.096096275481255211 0 0.02791605228292084 -0.096478041962537328 0 0.021402990601206765 -0.084482094298785934 0 0.024737972230873879 -0.076520426011930778 0 0.016827343088173512 -0.055365389160243673 0 0.017891698659494686 -0.052761902197174526 0 0.014635266637056518 -0.052183125089586523 0 0.021264960725986621 -0.076213978995439788 0 0.024737972230873879 -0.076520426011930778 0 0.023480592149969833 -0.097870976862739475 0 0.021614168813916305 -0.096443023113201562 0 0.023756543033532914 -0.095680363785657807 0 0.025790642345063529 -0.098282345685365202 0 0.025736595603463478 -0.096096275481255211 0 0.023480592149969833 -0.097870976862739475 0 0.025736595603463478 -0.096096275481255211 0 0.023480592149969833 -0.097870976862739475 0 0.023756543033532914 -0.095680363785657807 0 0.025790642345063529 -0.098282345685365202 0 0.023480592149969833 -0.097870976862739475 0 0.025056314160019893 -0.099461877794390807 0 0.023480592149969833 -0.097870976862739475 0 0.02354172580976522 -0.10012235462772352 0 0.025056314160019893 -0.099461877794390807 0 0.023480592149969833 -0.097870976862739475 0 0.02354172580976522 -0.10012235462772352 0 0.021844612417077639 -0.099611281057538761 0 0.02354172580976522 -0.10012235462772352 0 0.02229249350772065 -0.10130023348682023 0 0.021844612417077639 -0.099611281057538761 0 0.02354172580976522 -0.10012235462772352 0 0.025056314160019893 -0.099461877794390807 0 0.025447051310466005 -0.10087984887265368 0 0.02354172580976522 -0.10012235462772352 0 0.025447051310466005 -0.10087984887265368 0 0.0239283643700339 -0.10182131156547147 0 0.026177585138710296 -0.10010889009712688 0 0.025056314160019893 -0.099461877794390807 0 0.025447051310466005 -0.10087984887265368 0 0.0250818386164628 -0.10315871226345427 0 0.025447051310466005 -0.10087984887265368 0 0.0239283643700339 -0.10182131156547147 0 0.023421911084840857 -0.10338438833655769 0 0.0250818386164628 -0.10315871226345427 0 0.0239283643700339 -0.10182131156547147 0 0.02354172580976522 -0.10012235462772352 0 0.0239283643700339 -0.10182131156547147 0 0.02229249350772065 -0.10130023348682023 0 0.02247166003023781 -0.10288004514132058 0 0.023421911084840857 -0.10338438833655769 0 0.0239283643700339 -0.10182131156547147 0 0.02247166003023781 -0.10288004514132058 0 0.0239283643700339 -0.10182131156547147 0 0.02229249350772065 -0.10130023348682023 0 0.02247166003023781 -0.10288004514132058 0 0.02229249350772065 -0.10130023348682023 0 0.020907659876051334 -0.10248459438275211 0 0.02229249350772065 -0.10130023348682023 0 0.020907659876051334 -0.10248459438275211 0 0.020806673039492365 -0.10091338175541123 0 0.020907659876051334 -0.10248459438275211 0 0.019235027852413461 -0.10175869399816335 0 0.020806673039492365 -0.10091338175541123 0 0.019243196531535164 -0.10386320113667515 0 0.020907659876051334 -0.10248459438275211 0 0.019235027852413461 -0.10175869399816335 0 0.019243196531535164 -0.10386320113667515 0 0.019235027852413461 -0.10175869399816335 0 0.017063788918318074 -0.10286874880361643 0 0.019825463303457563 -0.099745847743470561 0 0.017417595176273223 -0.10056097936025264 0 0.018481672113379203 -0.098668391705538677 0 0.019235027852413461 -0.10175869399816335 0 0.019825463303457563 -0.099745847743470561 0 0.020806673039492365 -0.10091338175541123 0 0.019235027852413461 -0.10175869399816335 0 0.019825463303457563 -0.099745847743470561 0 0.017417595176273223 -0.10056097936025264 0 0.019825463303457563 -0.099745847743470561 0 0.021844612417077639 -0.099611281057538761 0 0.020806673039492365 -0.10091338175541123 0 0.02229249350772065 -0.10130023348682023 0 0.021844612417077639 -0.099611281057538761 0 0.020806673039492365 -0.10091338175541123 0 0.014227599402064615 -0.10207025047063219 0 0.017063788918318074 -0.10286874880361643 0 0.017417595176273223 -0.10056097936025264 0 0.015397320370359657 -0.10395389950094092 0 0.014227599402064615 -0.10207025047063219 0 0.017063788918318074 -0.10286874880361643 0 0.019235027852413461 -0.10175869399816335 0 0.017063788918318074 -0.10286874880361643 0 0.017417595176273223 -0.10056097936025264 0 0.014227599402064615 -0.10207025047063219 0 0.017417595176273223 -0.10056097936025264 0 0.014584321608089101 -0.098902373052849893 0 0.010567784940568394 -0.099747947225299935 0 0.011678041871036136 -0.099302148279216435 0 0.014584321608089101 -0.098902373052849893 0 0.017682654220026826 -0.097448707137718221 0 0.01482440535482913 -0.096827640404429718 0 0.017417595176273223 -0.10056097936025264 0 0.014584321608089101 -0.098902373052849893 0 0.018481672113379203 -0.098668391705538677 0 0.014584321608089101 -0.098902373052849893 0 0.018481672113379203 -0.098668391705538677 0 0.017682654220026826 -0.097448707137718221 0 0.017682654220026826 -0.097448707137718221 0 0.01482440535482913 -0.096827640404429718 0 0.016788192632563988 -0.094932434448823211 0 0.018481672113379203 -0.098668391705538677 0 0.017682654220026826 -0.097448707137718221 0 0.01984250493429169 -0.097094198007272731 0 0.023480592149969833 -0.097870976862739475 0 0.021844612417077639 -0.099611281057538761 0 0.020897521200014847 -0.098006408017638824 0 0.019825463303457563 -0.099745847743470561 0 0.021844612417077639 -0.099611281057538761 0 0.020897521200014847 -0.098006408017638824 0 0.019825463303457563 -0.099745847743470561 0 0.018481672113379203 -0.098668391705538677 0 0.020897521200014847 -0.098006408017638824 0 0.018481672113379203 -0.098668391705538677 0 0.020897521200014847 -0.098006408017638824 0 0.01984250493429169 -0.097094198007272731 0 0.01984250493429169 -0.097094198007272731 0 0.021614168813916305 -0.096443023113201562 0 0.019957330944840816 -0.095398892362516488 0 0.017682654220026826 -0.097448707137718221 0 0.01984250493429169 -0.097094198007272731 0 0.019957330944840816 -0.095398892362516488 0 0.020897521200014847 -0.098006408017638824 0 0.01984250493429169 -0.097094198007272731 0 0.021614168813916305 -0.096443023113201562 0 0.023480592149969833 -0.097870976862739475 0 0.020897521200014847 -0.098006408017638824 0 0.021614168813916305 -0.096443023113201562 0 0.030541865015615503 -0.094653753354778034 0 0.019957330944840816 -0.095398892362516488 0 0.025435627493512091 -0.091194278366318701 0 0.021614168813916305 -0.096443023113201562 0 0.022144556390325011 -0.094907189237043638 0 0.019957330944840816 -0.095398892362516488 0 0.026233101829844081 -0.091106228780942711 0 0.023360031149768257 -0.092621903927883165 0 0.019957330944840816 -0.095398892362516488 0 0.020192693818472121 -0.093397661618234762 0 0.025435627493512091 -0.091194278366318701 0 0.020192693818472121 -0.093397661618234762 0 0.025435627493512091 -0.091194278366318701 0 0.024105210451343038 -0.084992543906681595 0 0.021227990672582676 -0.091768918418188891 0 0.023799180003112704 -0.085863294852626629 0 0.020705675314749792 -0.09327085881381568 0 0.020035100971878377 -0.089674879058644741 0 0.024733287697693025 -0.085945899817647123 0 0.025435627493512091 -0.091194278366318701 0 0.024105210451343038 -0.084992543906681595 0 0.032672678965157007 -0.08631387675891472 0 0.030541865015615503 -0.094653753354778034 0 0.025435627493512091 -0.091194278366318701 0 0.032672678965157007 -0.08631387675891472 0 0.01482440535482913 -0.096827640404429718 0 0.013894124048386067 -0.094249174125400195 0 0.016788192632563988 -0.094932434448823211 0 0.013894124048386067 -0.094249174125400195 0 0.016788192632563988 -0.094932434448823211 0 0.017386892923109253 -0.092071183990525385 0 0.019949673518779028 -0.094569574206860449 0 0.021227990672582676 -0.091768918418188891 0 0.017682654220026826 -0.097448707137718221 0 0.020705675314749792 -0.09327085881381568 0 0.016788192632563988 -0.094932434448823211 0 0.017682654220026826 -0.097448707137718221 0 0.019957330944840816 -0.095398892362516488 0 0.020192693818472121 -0.093397661618234762 0 0.020705675314749792 -0.09327085881381568 0 0.016788192632563988 -0.094932434448823211 0 0.017386892923109253 -0.092071183990525385 0 0.020035100971878377 -0.089674879058644741 0 0.017386892923109253 -0.092071183990525385 0 0.017504418953749445 -0.087161922988299431 0 0.020705675314749792 -0.09327085881381568 0 0.020035100971878377 -0.089674879058644741 0 0.017386892923109253 -0.092071183990525385 0 0.011165722910307804 -0.090970584854839429 0 0.013894124048386067 -0.094249174125400195 0 0.017386892923109253 -0.092071183990525385 0 0.011165722910307804 -0.090970584854839429 0 0.017386892923109253 -0.092071183990525385 0 0.017504418953749445 -0.087161922988299431 0 0.011165722910307804 -0.090970584854839429 0 0.012604078927109101 -0.083064727759879053 0 0.017504418953749445 -0.087161922988299431 0 0.012604078927109101 -0.083064727759879053 0 0.017504418953749445 -0.087161922988299431 0 0.019800780582034199 -0.078100940689366419 0 0.017504418953749445 -0.087161922988299431 0 0.019800780582034199 -0.078100940689366419 0 0.024733287697693025 -0.085945899817647123 0 0.020035100971878377 -0.089674879058644741 0 0.017504418953749445 -0.087161922988299431 0 0.024733287697693025 -0.085945899817647123 0 0.011815323347608148 -0.075167375069808431 0 0.012604078927109101 -0.083064727759879053 0 0.019800780582034199 -0.078100940689366419 0 0.024105210451343038 -0.084992543906681595 0 0.027991812604352736 -0.076750334978235399 0 0.032672678965157007 -0.08631387675891472 0 0.023799180003112704 -0.085863294852626629 0 0.025407319236467756 -0.08197200552384129 0 0.019800780582034199 -0.078100940689366419 0 0.024733287697693025 -0.085945899817647123 0 0.027991812604352736 -0.076750334978235399 0 0.035561454799228731 -0.072344111479514514 0 0.027991812604352736 -0.076750334978235399 0 0.036855205847922935 -0.080076612574646613 0 0.027991812604352736 -0.076750334978235399 0 0.036855205847922935 -0.080076612574646613 0 0.032672678965157007 -0.08631387675891472 0 0.036855205847922935 -0.080076612574646613 0 0.032672678965157007 -0.08631387675891472 0 0.04265894470731138 -0.084801410484552711 0 0.035561454799228731 -0.072344111479514514 0 0.036855205847922935 -0.080076612574646613 0 0.043326645371324884 -0.078018453593538609 0 0.036855205847922935 -0.080076612574646613 0 0.04265894470731138 -0.084801410484552711 0 0.043326645371324884 -0.078018453593538609 0 0.04265894470731138 -0.084801410484552711 0 0.043326645371324884 -0.078018453593538609 0 0.050585739476350942 -0.08001931665932932 0 0.046287871427507211 -0.072953456127040517 0 0.043326645371324884 -0.078018453593538609 0 0.050585739476350942 -0.08001931665932932 0 0.028232735303427851 -0.060320099230629122 0 0.026534715946008171 -0.061631105926140836 0 0.027678224149690313 -0.063526304882506518 0 0.032134438714930914 -0.06916302368898207 0 0.030870015082347557 -0.078490128126040129 0 0.026534715946008171 -0.061631105926140836 0 0.027678224149690313 -0.063526304882506518 0 0.026489561858894877 -0.065907708972342494 0 0.04265894470731138 -0.084801410484552711 0 0.050585739476350942 -0.08001931665932932 0 0.050468272588016977 -0.089808212007520441 0 0.030870015082347557 -0.078490128126040129 0 0.030558409012741618 -0.086740257197589113 0 0.04265894470731138 -0.084801410484552711 0 0.050468272588016977 -0.089808212007520441 0 0.040719574460096282 -0.092292917001333075 0 0.028991289723682832 -0.068418681970296102 0 0.027237555517794328 -0.065711274948292139 0 0.02648128058786162 -0.065906594836300791 0 0.029061283688410475 -0.065436818389516982 0 0.027678224149690313 -0.063526304882506518 0 0.027237555517794328 -0.065711274948292139 0 0.027678224149690313 -0.063526304882506518 0 0.027237555517794328 -0.065711274948292139 0 0.026489561858894877 -0.065907708972342494 0 0.030812911230084259 -0.078367990776926771 0 0.030870015082347557 -0.078490128126040129 0 0.024737972230873879 -0.076520426011930778 0 0.030870015082347557 -0.078490128126040129 0 0.025426866581880637 -0.064535764308509339 0 0.024737972230873879 -0.076520426011930778 0 0.028991289723682832 -0.068418681970296102 0 0.026432318127518614 -0.070597745886802732 0 0.02648128058786162 -0.065906594836300791 0 0.025736595603463478 -0.096096275481255211 0 0.02795094331487584 -0.093208915606708229 0 0.025006661852542595 -0.094011420189083775 0 0.025736595603463478 -0.096096275481255211 0 0.02791605228292084 -0.096478041962537328 0 0.02795094331487584 -0.093208915606708229 0 0.025736595603463478 -0.096096275481255211 0 0.023756543033532914 -0.095680363785657807 0 0.025006661852542595 -0.094011420189083775 0 0.022144556390325011 -0.094907189237043638 0 0.023756543033532914 -0.095680363785657807 0 0.025006661852542595 -0.094011420189083775 0 0.026233101829844081 -0.091106228780942711 0 0.030558409012741618 -0.086740257197589113 0 0.021614168813916305 -0.096443023113201562 0 0.022144556390325011 -0.094907189237043638 0 0.023756543033532914 -0.095680363785657807 0 0.030541865015615503 -0.094653753354778034 0 0.032672678965157007 -0.08631387675891472 0 0.040719574460096282 -0.092292917001333075 0 0.032672678965157007 -0.08631387675891472 0 0.04265894470731138 -0.084801410484552711 0 0.040719574460096282 -0.092292917001333075 0 
</DataArray>
</PointData>
<CellData Scalars="region_id,cross_section_updated," Vectors="" Tensors="stress,">
<DataArray type="Float64" Name="region_id" format="ascii">
5 5 6 5 5 5 5 6 5 5 5 5 5 5 5 5 5 5 5 5 6 5 5 5 5 6 5 5 5 5 5 5 5 6 5 5 5 5 5 5 5 5 6 5 5 5 5 5 5 5 5 5 5 5 6 6 5 5 5 5 5 5 5 5 6 5 5 5 5 5 5 5 5 5 5 5 5 5 5 5 5 5 5 5 5 5 5 6 5 5 5 5 5 5 5 5 5 5 5 6 5 5 5 6 5 5 5 5 5 5 5 5 5 5 5 5 5 5 5 5 5 5 5 5 5 5 5 5 5 5 5 5 5 5 5 5 5 5 5 5 5 5 5 5 5 5 5 5 5 6 5 6 5 5 5 5 5 5 5 5 5 5 5 5 5 5 5 5 5 5 5 5 5 5 5 5 5 5 6 5 5 6 5 6 5 5 5 5 5 5 5 5 5 5 5 5 5 5 6 5 6 5 5 5 5 5 5 5 6 5 6 5 5 5 5 5 5 6 5 5 6 5 5 5 5 5 5 6 6 5 5 6 5 6 5 6 6 5 5 5 6 5 5 5 5 5 5 5 5 5 5 5 5 5 6 5 5 5 5 5 5 5 6 5 5 5 5 5 5 5 6 5 5 5 5 6 5 5 5 5 5 5 6 5 5 5 6 5 5 5 5 5 5 5 6 5 5 5 5 5 5 6 5 5 5 5 5 5 6 5 5 5 5 5 5 5 6 5 5 5 5 5 5 5 5 5 5 5 5 5 5 5 5 5 5 5 5 5 6 6 5 5 5 5 5 6 5 5 5 5 5 5 5 6 5 6 5 5 5 6 5 5 5 6 5 6 5 5 5 5 5 5 5 6 5 5 5 5 5 5 5 6 5 5 5 6 5 5 5 5 5 5 5 5 5 5 5 5 5 5 5 5 5 5 5 5 5 5 5 5 5 5 5 5 5 5 5 5 6 5 5 5 5 5 5 5 5 5 5 5 5 5 5 5 5 5 5 5 5 5 5 5 5 5 5 5 5 5 5 5 5 6 5 5 5 5 5 5 5 5 5 5 5 5 5 5 5 5 5 5 5 5 6 5 5 5 5 5 5 5 6 5 5 5 5 5 6 5 5 6 5 6 5 5 5 5 6 5 5 6 5 5 5 5 5 5 6 5 5 5 5 5 5 5 5 5 5 5 5 5 5 5 5 5 5 5 6 5 5 5 5 5 5 5 5 5 5 5 6 6 5 5 5 5 5 5 5 5 5 5 5 5 5 5 5 5 5 5 5 5 5 6 5 6 6 5 5 6 5 5 5 5 5 5 5 5 5 5 5 5 5 6 5 5 5 5 5 5 5 6 6 5 5 5 5 5 5 5 5 6 6 5 5 5 6 5 5 5 5 5 5 5 5 5 5 5 5 5 5 5 5 5 5 5 5 5 5 5 5 5 5 5 5 5 5 5 5 5 5 5 6 5 5 6 5 5 5 5 6 5 5 5 6 5 5 5 6 5 5 6 5 5 5 5 5 5 5 5 5 5 5 5 5 5 5 5 5 5 5 5 5 6 5 5 5 6 5 5 5 5 5 6 5 5 5 5 5 5 6 5 5 5 5 5 5 5 5 5 5 5 5 5 5 5 5 5 5 6 5 5 5 5 5 5 5 5 5 5 5 5 5 5 5 5 5 5 5 5 5 6 5 5 5 5 5 5 5 5 5 5 5 5 5 5 5 6 5 5 5 5 5 5 5 5 5 5 5 5 5 5 5 5 5 5 6 5 5 5 5 5 5 5 6 5 5 5 5 5 5 5 5 5 5 5 5 5 5 5 5 5 5 5 5 5 6 5 5 5 5 5 5 5 5 5 6 5 5 5 5 5 5 5 5 6 5 5 5 5 5 5 5 5 5 5 5 5 5 5 5 5 5 5 5 6 5 5 5 5 5 6 5 5 5 6 5 5 5 5 5 5 6 5 5 5 5 5 5 5 5 5 5 6 5 5 5 5 5 5 5 5 5 5 5 5 6 5 6 5 5 5 5 5 5 5 6 5 6 5 5 5 5 5 5 5 5 5 5 5 5 5 5 5 5 5 5 5 5 5 5 5 5 5 5 5 5 5 5 5 5 5 5 5 5 5 5 5 5 5 5 5 5 5 6 6 5 5 6 5 5 5 5 5 5 5 5 5 5 5 5 5 5 5 5 6 5 5 5 5 6 5 5 6 5 5 5 5 5 5 6 5 6 5 5 6 5 5 5 5 5 5 5 5 5 5 6 5 5 5 5 5 6 6 5 5 5 5 6 5 5 6 5 6 5 5 5 5 5 6 5 5 6 5 5 5 5 5 5 5 5 5 5 5 5 6 5 5 5 5 5 5 5 5 5 5 5 5 5 5 5 6 5 6 5 6 6 5 6 5 5 6 5 5 5 5 5 5 6 5 6 5 5 6 5 5 5 6 5 5 6 5 5 5 5 5 6 5 5 6 5 5 5 5 5 6 5 6 5 5 6 5 5 6 5 5 5 5 5 5 5 5 6 5 5 5 5 5 5 5 5 5 5 6 5 5 5 5 6 5 5 6 5 5 5 5 5 6 5 5 5 5 5 6 5 6 5 5 5 5 5 5 6 5 5 5 5 5 5 5 5 6 6 6 5 5 5 5 6 5 6 5 5 5 6 6 5 5 5 6 5 5 5 6 5 6 5 6 6 5 6 5 5 5 5 6 5 5 5 6 5 6 5 6 5 5 5 5 5 5 5 6 5 5 5 5 6 5 5 5 5 5 5 5 5 6 5 6 6 5 5 5 6 5 5 5 5 6 6 5 5 6 6 5 5 5 5 5 6 5 5 5 5 5 5 5 5 6 5 6 5 5 5 5 5 5 5 5 5 5 5 5 5 5 5 5 5 6 5 5 5 5 5 5 5 5 5 5 5 5 5 5 5 5 5 5 5 5 5 5 5 5 5 6 5 6 5 5 5 5 5 6 6 5 5 5 5 6 6 5 6 5 5 6 5 5 6 5 5 5 5 6 6 5 5 5 5 5 5 5 5 6 5 5 6 5 5 5 6 5 5 6 5 5 5 5 5 5 6 5 5 5 5 5 5 6 5 5 5 5 5 6 5 5 6 6 5 5 6 5 5 6 5 5 5 5 5 5 5 5 5 5 5 5 6 5 6 5 5 6 5 5 5 5 5 5 6 5 5 5 6 6 6 5 5 5 6 6 5 6 6 5 5 6 5 5 6 5 6 5 6 5 5 5 6 6 5 5 6 6 6 6 5 5 5 6 6 5 5 6 6 6 5 6 6 5 5 6 5 6 6 5 6 5 5 6 5 6 6 5 5 5 5 6 6 5 5 6 5 5 5 6 5 5 5 5 5 5 5 5 5 5 5 5 5 5 5 5 5 5 5 5 5 5 5 5 5 5 5 5 5 5 5 5 5 5 5 5 5 5 5 5 5 5 5 5 5 5 5 5 5 5 5 5 5 5 5 5 5 5 6 5 6 5 5 5 5 5 5 5 5 5 5 5 5 5 5 6 5 5 5 5 5 5 5 5 5 5 6 5 5 5 5 5 5 5 5 5 5 5 5 5 5 5 5 5 5 5 5 5 5 5 5 5 5 5 5 5 5 5 5 5 5 5 5 5 5 5 5 5 5 5 5 5 5 6 5 5 5 6 5 6 5 5 5 5 5 6 5 6 5 5 5 5 5 5 5 5 5 5 5 5 5 5 5 5 5 5 5 5 5 5 5 5 5 6 5 5 5 5 5 5 6 5 6 5 5 5 6 5 5 6 5 5 5 5 5 5 5 5 5 5 5 5 5 5 5 5 5 5 5 5 5 5 5 5 5 5 5 5 5 5 5 5 5 5 5 5 5 6 5 6 5 5 5 5 5 5 5 5 5 5 6 5 5 5 5 5 5 5 5 5 5 5 5 5 5 5 5 5 6 5 5 5 6 6 5 6 5 5 5 5 5 5 5 5 6 5 5 5 5 6 5 5 5 5 5 5 5 6 5 5 6 5 6 5 5 6 5 5 6 6 5 5 5 5 5 5 5 5 5 5 5 5 5 5 5 6 5 6 5 5 5 6 5 6 5 5 5 5 5 5 5 5 5 5 5 5 6 5 6 5 5 5 5 5 5 5 5 6 5 5 6 5 5 5 6 6 5 5 5 5 5 5 5 5 5 5 5 5 5 5 5 5 5 5 5 5 5 6 5 5 5 5 5 6 5 6 5 5 5 5 6 5 5 6 5 5 5 5 5 6 5 5 5 5 6 5 5 5 5 5 5 5 6 5 5 5 6 5 5 5 5 5 5 5 5 5 5 5 6 5 5 5 5 5 5 5 5 6 5 5 5 5 5 5 6 5 5 5 5 5 5 6 5 5 5 5 5 5 5 5 5 5 5 6 5 5 5 6 5 5 5 6 5 6 5 5 5 5 5 5 6 5 5 5 5 5 5 5 5 5 5 5 5 5 5 5 6 5 5 5 5 5 6 5 5 5 5 5 5 5 5 6 5 5 5 5 5 5 5 5 5 5 5 5 5 5 5 5 6 5 5 5 5 6 5 5 5 5 5 5 5 5 5 5 5 5 5 5 5 5 5 5 5 5 5 5 5 5 5 5 6 5 5 5 6 5 6 5 5 5 5 6 5 6 5 5 5 5 5 6 5 5 5 5 5 5 5 5 5 6 5 5 5 5 5 5 5 5 5 5 5 5 5 5 5 5 5 5 5 5 5 5 5 5 6 6 5 5 5 5 5 6 5 5 5 6 5 5 5 6 5 5 6 5 6 5 5 5 5 6 5 5 5 5 6 6 5 5 5 5 5 5 5 5 5 5 5 5 6 5 5 5 5 6 5 5 5 5 5 6 5 5 6 5 5 5 5 5 5 5 5 5 5 5 5 5 5 5 5 6 5 5 6 5 5 5 6 5 5 5 5 5 5 5 5 5 5 5 6 5 5 5 5 5 5 5 5 5 5 5 5 5 5 5 5 6 5 5 6 5 6 5 5 6 5 6 5 6 5 5 5 5 5 5 5 5 5 5 5 5 5 6 5 6 6 5 5 6 6 5 5 6 6 5 5 5 6 5 6 5 5 6 5 5 5 5 6 6 5 6 5 5 6 6 5 5 6 5 5 5 6 5 5 5 6 6 6 5 5 6 5 6 6 5 5 5 5 5 5 5 5 5 5 5 6 6 5 6 5 6 5 6 5 5 5 6 5 5 5 5 5 6 5 5 5 5 5 5 5 5 5 5 5 5 5 5 5 5 5 5 5 5 5 5 5 5 6 5 5 5 5 5 5 5 5 5 5 5 5 5 5 5 5 5 5 6 5 5 5 5 5 5 5 5 5 5 5 6 5 5 5 5 5 6 5 5 5 5 5 5 5 5 5 5 5 5 5 5 6 5 5 5 5 5 5 5 5 5 5 5 5 5 5 6 5 6 5 5 5 5 6 5 5 5 5 5 5 5 5 5 5 5 5 6 5 6 5 5 5 5 6 5 5 5 5 5 5 5 6 5 5 5 5 5 5 5 6 5 5 5 6 5 6 5 5 5 5 5 5 5 5 5 6 5 5 5 5 5 5 5 5 5 5 5 5 5 5 5 5 5 5 5 5 5 5 5 5 5 5 5 5 5 5 5 5 5 5 5 5 5 5 5 5 5 5 5 6 5 5 6 5 5 5 5 5 5 5 5 5 5 6 5 5 5 5 5 6 5 5 6 5 5 5 5 5 5 6 5 5 5 5 6 5 5 6 5 6 5 5 5 5 5 5 5 5 5 5 5 6 5 6 5 5 5 5 6 5 5 5 5 5 5 5 5 5 5 5 5 5 5 5 5 5 5 5 5 5 6 5 5 5 5 6 5 5 5 5 5 5 5 6 5 5 5 5 5 6 5 5 5 6 5 5 5 6 5 5 6 5 5 5 6 5 5 6 5 5 5 5 5 5 5 5 5 5 5 5 5 5 5 5 5 5 5 5 5 5 5 5 5 5 5 5 5 5 5 6 5 5 5 5 5 5 5 5 5 5 5 6 5 5 5 5 5 5 5 5 5 5 5 5 5 5 5 6 6 5 5 5 6 5 5 5 5 6 5 5 6 5 5 5 5 5 5 5 5 5 5 5 5 5 6 6 5 5 5 5 5 5 5 5 5 5 5 6 5 5 6 5 5 5 5 5 5 5 5 5 5 5 5 5 5 5 5 5 5 5 6 5 5 5 6 5 5 5 5 5 6 5 5 5 5 5 5 5 5 5 5 5 5 5 5 5 5 5 5 5 5 6 5 5 6 5 5 5 5 5 5 5 5 5 5 5 5 5 5 5 5 5 5 5 6 5 5 5 5 5 5 5 5 5 5 5 5 5 5 5 5 5 5 5 5 5 5 5 5 5 5 5 5 5 5 5 5 6 5 5 5 5 5 5 6 5 5 5 5 5 6 5 5 5 5 6 5 5 5 5 5 5 5 5 5 5 5 5 5 5 5 5 5 5 5 5 5 5 6 5 5 5 5 5 5 5 6 5 5 6 5 5 6 5 5 5 5 5 5 6 5 5 5 5 5 5 5 5 5 5 6 5 6 5 5 5 5 5 5 5 5 6 5 5 6 5 5 5 6 5 5 5 6 5 5 5 6 6 5 5 6 5 5 6 5 5 6 5 5 5 5 5 5 5 5 5 6 5 5 5 6 5 5 5 6 5 5 5 6 5 6 5 5 6 5 5 5 5 5 5 5 5 6 5 5 6 5 5 5 5 5 5 5 5 5 5 5 5 5 6 5 6 5 5 5 6 6 5 6 5 5 5 5 6 5 6 5 5 5 5 5 5 5 5 5 6 5 5 5 5 5 5 5 5 5 5 5 5 5 5 5 5 5 5 5 5 5 5 5 5 5 5 5 5 6 5 5 5 5 5 5 6 5 5 5 5 5 5 6 5 5 5 5 5 5 6 5 5 5 6 5 5 5 6 5 5 6 5 5 5 5 5 5 6 5 5 5 6 6 5 5 5 5 5 5 5 5 5 5 5 5 5 5 5 5 5 6 5 5 5 5 5 5 5 6 5 5 5 5 5 6 5 5 5 5 5 6 5 5 6 5 5 5 5 6 5 5 5 5 5 5 6 5 6 5 6 6 5 6 5 5 5 6 5 5 5 5 5 6 5 5 5 6 5 5 5 5 6 6 6 5 5 5 5 6 6 5 6 5 5 5 5 5 5 6 5 6 5 5 6 5 5 5 6 5 5 6 5 5 5 5 5 5 5 5 5 5 5 5 6 5 5 5 5 6 5 5 5 5 6 5 5 5 5 5 5 5 5 5 6 6 6 5 5 5 6 6 5 5 6 5 6 5 5 5 5 5 5 5 6 5 5 5 5 5 5 5 5 5 5 5 5 5 5 5 5 6 5 5 5 5 5 5 5 5 5 6 5 5 6 5 6 5 6 5 5 6 5 5 5 6 6 5 5 6 5 5 5 6 5 5 5 5 6 5 5 5 5 5 5 5 5 5 5 5 6 6 5 5 5 5 5 5 5 5 5 5 5 5 5 5 5 5 5 5 5 5 5 5 5 5 5 5 5 5 5 5 5 5 6 5 5 5 5 5 5 5 5 5 5 5 5 5 5 5 5 5 5 5 6 5 5 5 5 5 5 6 6 5 5 6 6 5 5 5 6 5 5 5 5 5 5 5 5 5 5 5 5 5 5 5 5 5 5 5 5 5 5 5 6 5 6 5 6 5 5 5 5 5 5 6 5 6 6 5 5 6 5 5 5 5 5 5 6 6 5 5 6 6 5 5 6 6 5 5 5 5 5 5 5 5 6 5 5 5 5 5 6 5 5 6 5 5 5 6 5 5 5 5 5 5 5 5 5 5 5 5 5 5 5 5 5 5 5 5 5 5 5 5 5 5 5 5 5 5 5 5 5 5 6 5 5 6 5 6 6 5 5 5 5 5 5 5 5 5 6 5 5 5 5 5 6 5 5 5 5 5 5 5 6 5 5 5 5 5 5 5 5 6 5 5 5 5 5 6 5 5 5 5 5 5 5 5 5 5 5 5 5 5 5 5 5 5 5 5 5 5 5 5 5 5 5 5 5 5 6 6 5 5 5 5 5 5 5 6 5 5 5 6 5 6 5 5 5 5 5 5 5 5 5 5 5 5 5 5 5 5 5 5 5 5 5 6 5 5 5 5 5 5 6 5 5 5 5 5 5 5 6 5 5 6 5 5 5 5 5 5 6 5 5 5 6 5 5 6 6 5 5 5 5 5 5 5 5 5 5 5 5 5 5 5 5 5 5 5 5 5 5 5 5 5 5 5 5 6 5 5 5 5 5 5 5 5 5 5 5 5 5 5 5 5 5 5 5 6 5 5 5 6 6 5 5 5 5 5 6 5 5 5 6 5 5 5 5 5 6 5 5 5 5 5 5 5 5 5 5 5 5 5 5 5 5 5 5 5 5 5 6 5 5 5 5 5 5 6 5 5 5 5 5 5 5 5 5 5 5 5 6 5 5 5 5 6 5 6 5 5 5 5 5 5 5 5 5 5 5 5 5 6 5 5 5 5 5 6 5 5 5 5 5 5 6 5 5 5 5 5 5 5 5 5 5 5 5 6 5 5 6 5 5 6 5 5 6 5 5 5 5 5 5 5 5 5 5 6 5 5 5 5 5 5 5 5 6 5 5 5 6 5 5 5 6 5 5 6 5 5 5 6 5 5 5 5 5 6 5 6 5 5 5 5 6 6 5 5 5 6 5 5 5 5 6 5 5 5 5 5 5 5 5 5 5 5 5 5 5 5 6 5 5 6 6 5 5 5 5 6 5 5 5 5 5 5 6 5 5 5 5 5 5 6 5 5 5 5 5 5 5 5 6 5 5 5 5 5 5 5 5 5 5 6 5 5 6 5 5 6 5 5 5 5 5 6 6 5 5 6 6 5 6 5 6 5 6 6 5 5 6 5 6 5 6 5 6 5 6 5 5 6 5 6 5 6 5 5 5 5 5 5 6 5 5 5 6 5 5 5 5 5 5 5 5 5 6 5 5 6 5 6 5 6 5 5 5 6 6 5 5 5 5 5 5 5 5 5 5 5 6 5 5 5 5 5 6 5 5 5 5 5 5 5 5 5 5 5 5 5 5 5 5 5 6 5 5 5 5 5 5 6 5 5 5 6 5 5 6 5 5 5 6 5 6 6 5 5 5 5 5 5 5 5 5 6 5 5 5 5 5 5 5 6 5 6 5 6 5 5 5 5 5 5 5 5 5 5 5 5 5 5 5 5 5 5 5 5 5 5 5 5 5 5 5 5 5 5 5 5 5 5 5 5 5 6 5 5 6 6 5 5 5 5 6 5 5 5 5 5 6 5 5 6 6 5 5 5 5 5 5 6 5 6 5 5 6 6 5 6 5 5 5 6 5 5 5 5 6 5 5 5 6 5 5 6 6 5 5 5 6 5 5 5 5 6 5 5 6 5 5 5 6 5 5 6 5 5 5 6 5 6 5 5 6 5 5 6 6 5 5 6 5 6 6 5 5 5 5 6 5 5 5 5 6 5 5 5 5 5 5 5 5 5 5 5 5 6 5 5 5 5 6 5 6 5 5 5 5 5 6 6 6 5 5 5 5 5 5 5 5 6 5 5 5 5 5 5 6 5 5 5 5 6 5 5 5 5 5 5 5 5 5 5 5 5 5 5 5 5 5 5 6 5 6 5 5 6 6 5 6 5 5 6 5 6 5 6 5 6 5 5 5 5 6 5 5 5 6 5 5 5 5 5 5 5 5 5 5 5 5 5 5 5 5 5 5 5 5 5 5 5 5 5 6 5 5 5 5 5 6 5 5 5 5 5 5 5 5 5 5 5 6 5 5 5 5 5 6 5 5 6 6 5 5 5 6 5 5 6 6 5 6 5 5 5 5 5 5 5 5 5 5 5 5 5 5 5 5 6 5 5 5 5 6 5 5 5 5 5 5 5 5 6 6 5 5 6 5 5 5 5 5 5 5 5 5 6 6 5 5 6 5 5 5 6 5 5 5 5 5 5 5 5 5 5 5 5 5 5 5 5 5 5 5 5 5 5 5 5 5 5 6 5 5 5 5 5 5 5 5 5 5 5 5 5 5 5 5 5 5 5 5 6 5 5 5 6 6 5 5 5 6 5 5 6 5 5 5 5 5 6 5 6 5 5 5 5 5 5 5 5 6 5 5 5 6 5 5 6 5 6 5 5 5 6 5 5 5 6 5 5 5 5 5 5 5 5 5 5 5 5 5 5 5 5 5 6 5 5 5 5 5 5 5 5 5 6 5 5 5 5 5 5 5 5 6 5 5 5 5 5 5 5 5 5 5 5 5 5 6 5 5 5 6 5 5 5 5 5 5 5 5 5 5 5 5 5 5 5 5 5 5 5 6 5 5 5 6 5 6 5 5 5 6 5 5 5 6 6 5 5 5 5 5 5 5 5 5 5 5 5 5 5 5 5 5 5 5 5 5 5 6 5 5 5 5 6 5 5 5 5 6 5 5 5 5 5 5 5 6 5 5 5 5 6 5 5 5 5 5 5 6 5 5 5 5 5 5 6 5 5 5 6 5 5 5 5 5 5 5 5 5 6 5 5 5 5 5 5 6 5 5 5 5 5 5 5 5 5 5 5 6 5 5 6 5 5 5 5 5 6 5 5 6 5 5 5 5 5 5 5 6 6 5 5 5 5 6 5 5 5 5 5 5 6 5 5 5 5 5 5 5 5 5 5 6 5 5 5 5 5 5 5 5 5 5 5 5 6 5 6 5 5 5 6 5 5 6 5 5 5 5 6 5 5 5 5 5 6 5 5 5 5 5 5 5 5 6 5 5 5 5 6 5 5 5 5 5 5 5 6 5 5 5 5 5 5 5 5 5 5 6 5 5 5 6 5 6 5 5 5 5 5 5 6 5 6 5 6 5 5 5 5 6 5 5 5 5 5 5 5 5 5 5 5 5 5 5 6 5 6 5 5 5 5 5 5 5 6 5 5 5 5 5 5 5 5 5 5 5 5 5 6 5 5 5 5 6 5 5 5 5 5 5 5 5 5 5 5 5 5 5 5 5 5 5 5 5 5 5 5 5 6 5 5 5 5 6 5 5 5 6 5 5 6 5 5 6 5 5 5 5 5 5 5 5 5 5 5 5 5 5 5 6 5 5 6 5 5 5 5 5 5 5 6 5 5 5 5 5 6 5 5 5 6 5 5 5 6 5 5 5 5 5 5 5 6 5 5 5 6 5 6 6 5 5 5 5 5 6 5 5 5 5 5 5 5 5 5 5 6 5 5 5 5 5 5 5 5 5 5 5 5 5 5 5 5 5 5 5 5 5 5 5 5 5 5 5 5 5 5 5 5 5 5 5 5 5 6 5 5 5 5 5 5 5 5 5 5 5 5 5 5 5 5 6 5 5 5 5 5 5 5 5 5 6 5 5 5 5 5 5 5 6 5 5 5 5 5 5 5 5 5 5 5 5 5 5 5 5 5 5 5 5 5 6 5 5 5 5 5 5 5 5 5 5 5 5 5 5 5 5 5 6 5 5 5 5 5 5 5 5 5 5 5 5 5 5 5 5 5 5 5 5 5 5 5 5 5 5 5 5 5 5 5 5 5 5 5 5 5 5 5 5 5 5 5 5 5 5 6 5 5 5 5 5 5 5 5 5 5 5 5 5 6 5 6 5 5 5 5 5 6 5 5 5 5 5 6 6 5 5 5 5 5 5 5 5 5 5 5 5 5 5 5 5 5 6 6 5 5 5 5 5 5 6 5 6 5 5 5 5 5 5 5 5 5 6 5 5 5 5 5 5 5 5 5 5 5 5 5 5 5 5 5 5 5 6 5 5 5 5 5 6 5 6 5 5 5 5 5 5 5 6 5 5 5 6 5 5 5 6 5 5 6 5 5 5 6 5 5 6 5 6 5 6 5 5 6 5 5 5 5 5 5 5 5 5 5 5 5 5 5 5 5 5 5 5 5 5 6 5 6 5 5 5 5 5 5 5 6 5 5 5 5 5 5 5 5 5 5 5 5 5 5 5 5 5 5 5 6 5 5 5 6 5 5 5 5 5 5 5 5 5 5 6 5 5 5 5 6 5 5 6 5 5 5 5 5 6 5 5 5 5 6 5 6 5 5 6 5 5 5 5 5 5 5 6 5 5 6 5 6 5 5 5 5 5 5 5 5 5 5 5 5 5 5 5 5 5 5 6 5 5 5 5 5 5 5 6 5 5 5 5 6 5 5 5 5 5 5 5 5 5 6 5 5 5 5 6 5 5 5 5 5 5 5 5 5 5 5 5 6 5 5 5 5 5 5 5 5 5 6 5 5 5 5 5 5 5 5 5 5 5 5 6 5 5 6 5 5 5 5 5 5 5 5 5 6 6 6 5 5 5 6 5 5 5 5 5 5 6 5 5 5 6 6 5 5 5 5 5 5 5 5 5 5 5 5 6 5 5 5 6 6 5 5 5 5 5 6 5 5 5 5 6 5 5 5 5 6 5 5 5 5 5 6 6 6 5 5 5 6 6 5 5 5 5 5 5 5 5 5 6 6 5 5 5 6 6 5 5 5 5 5 5 5 5 5 5 5 5 5 5 5 5 5 6 5 6 5 5 5 5 6 5 5 5 5 5 5 5 6 5 5 5 5 5 5 5 6 5 5 6 5 6 6 5 5 5 6 6 5 5 5 6 6 5 5 5 5 5 5 5 5 5 5 6 5 5 5 5 5 5 5 6 5 5 5 5 6 5 5 5 5 5 5 6 5 5 5 5 6 5 6 5 5 5 5 5 5 5 5 5 5 5 5 5 5 6 5 5 5 5 5 5 5 6 5 5 5 5 6 5 5 5 6 5 5 5 5 5 5 5 5 5 5 5 5 5 5 5 5 5 5 5 5 5 5 6 5 6 5 5 6 5 5 5 6 5 5 6 5 5 5 5 5 5 5 5 5 5 5 5 5 5 5 5 5 5 5 5 6 6 6 5 5 5 5 5 5 5 5 5 5 5 5 5 6 5 5 5 6 5 5 6 5 5 5 5 6 5 5 6 6 5 5 5 5 6 5 5 6 5 6 5 5 5 5 5 5 5 5 5 5 5 5 6 5 5 5 5 5 5 5 6 5 6 5 5 5 5 6 5 5 5 5 5 5 5 5 5 5 5 5 5 5 5 5 5 5 5 5 5 5 5 6 5 5 5 6 5 6 5 5 5 6 5 5 5 5 5 6 5 5 6 5 5 5 5 5 5 5 5 6 5 5 5 5 5 6 5 5 5 5 5 5 5 5 5 5 5 5 5 5 6 5 5 5 5 6 5 5 5 5 5 5 5 5 5 5 5 5 6 5 5 5 5 6 5 5 5 5 5 5 5 5 5 5 5 5 5 6 5 5 6 5 5 5 6 5 5 5 5 5 5 5 5 5 5 5 5 5 6 6 5 6 6 5 5 5 6 6 5 6 5 6 5 6 5 5 5 6 5 6 5 5 5 5 6 5 5 5 5 5 5 6 5 5 5 5 5 6 5 5 6 5 5 6 5 5 6 5 5 5 5 5 6 5 6 5 5 5 5 5 5 5 5 5 5 5 5 5 6 5 5 6 5 5 5 5 5 5 5 5 5 6 5 5 5 5 5 5 5 5 5 6 5 5 6 5 6 5 5 5 5 5 5 5 6 5 5 5 5 5 5 5 6 5 6 5 5 6 5 5 5 6 5 5 5 5 6 5 5 5 5 5 6 5 5 5 5 5 5 5 5 5 5 5 5 5 5 5 5 5 5 5 5 5 6 5 5 6 5 5 5 6 5 5 5 5 6 5 5 5 5 5 5 5 5 5 5 5 5 5 5 5 5 5 5 5 5 5 5 5 6 5 5 5 5 5 5 6 5 5 5 5 5 5 5 5 5 5 5 5 5 6 5 6 5 5 6 5 5 5 5 6 6 5 6 5 6 5 5 5 5 5 6 5 5 6 6 5 5 5 5 5 6 5 5 6 5 5 5 5 5 5 5 5 6 6 5 5 5 6 5 6 5 5 5 5 5 6 5 6 5 5 5 5 5 6 6 5 5 5 5 6 5 5 5 5 6 5 5 5 5 5 5 5 5 5 5 5 5 5 5 5 5 5 6 5 5 6 5 5 5 6 5 5 5 5 5 5 5 5 5 5 5 5 5 5 5 5 5 5 5 6 5 5 5 5 5 5 5 5 5 5 5 5 5 5 6 6 5 5 5 6 5 5 5 5 5 6 5 5 5 5 5 5 5 5 5 5 5 6 5 5 6 5 5 5 5 5 5 5 5 5 5 6 5 5 5 6 5 6 5 6 5 5 5 6 6 5 6 5 5 6 5 5 6 6 5 5 5 6 5 5 6 5 6 5 5 5 6 5 5 6 6 5 6 5 5 6 5 6 5 5 5 5 5 5 5 5 5 6 5 5 5 5 5 6 5 5 5 5 5 5 5 5 5 5 6 5 5 5 5 6 6 5 5 6 5 6 5 5 5 5 5 6 5 5 6 5 6 5 5 5 5 5 5 5 6 5 5 5 5 5 5 5 5 5 6 5 6 5 6 5 6 5 5 5 5 6 5 5 5 5 5 6 6 5 5 5 5 5 5 6 5 5 5 5 5 6 5 5 5 5 6 5 5 6 5 6 5 5 5 6 5 6 5 5 6 6 6 5 5 5 5 5 5 6 6 6 5 5 5 5 6 5 6 5 6 5 5 5 5 5 5 6 5 5 5 5 5 5 5 5 5 5 5 5 5 5 5 5 5 5 5 5 5 5 5 5 5 5 5 5 5 5 5 5 5 5 5 5 5 5 5 5 5 5 5 5 5 5 5 5 5 6 5 5 5 6 6 5 5 5 5 5 5 5 5 5 5 5 5 5 5 5 5 5 5 5 6 5 5 5 5 5 5 5 6 5 5 6 5 5 6 5 5 6 5 6 5 5 6 5 5 5 6 5 6 5 6 6 5 5 5 6 6 5 5 6 5 5 6 5 5 5 5 5 5 5 5 5 5 5 5 6 5 5 5 5 6 5 5 5 5 6 5 5 5 5 5 5 5 5 5 6 5 6 5 5 5 5 6 5 5 5 6 5 5 5 5 5 5 6 5 5 6 5 5 5 6 5 5 5 5 5 5 5 6 5 5 5 5 5 6 5 5 5 5 5 5 5 5 5 5 5 5 5 5 5 6 5 5 5 5 5 6 5 5 6 5 6 5 5 5 5 6 6 5 5 6 5 5 5 5 5 5 5 5 5 5 5 6 5 6 5 5 5 5 5 6 5 5 5 6 5 5 5 6 5 5 5 5 5 5 5 5 5 5 5 5 5 6 5 5 5 5 5 5 5 6 5 6 5 5 5 5 5 5 5 6 6 5 5 5 5 5 5 5 5 5 6 5 5 5 5 5 5 6 6 6 5 6 5 5 5 5 5 5 6 5 6 5 6 5 6 5 5 5 5 5 5 6 5 5 6 5 5 5 5 6 5 5 5 5 5 5 5 5 5 5 5 5 5 5 5 5 5 5 5 5 5 6 5 6 5 5 5 5 5 5 5 5 5 5 5 5 5 5 5 5 5 5 5 5 5 5 5 5 5 5 5 5 5 5 5 5 5 5 5 5 5 5 5 5 5 5 5 5 5 5 5 5 5 5 5 5 5 5 5 5 5 5 6 5 5 5 5 5 5 5 5 5 5 5 5 5 5 5 5 5 5 5 5 5 5 5 6 5 5 5 6 5 6 5 5 5 5 5 5 5 5 5 5 5 5 5 5 5 5 5 5 5 5 5 5 5 5 5 5 5 5 5 5 5 5 5 5 5 5 5 5 5 6 5 6 5 5 5 5 5 5 5 5 5 5 5 5 5 5 5 5 5 5 5 5 5 5 5 5 5 6 5 5 5 5 5 5 5 5 5 5 5 5 5 5 5 5 5 5 5 5 5 5 5 5 5 5 5 5 5 5 5 5 5 5 5 5 5 5 5 5 5 5 5 5 5 5 5 5 5 5 5 5 5 5 5 5 5 5 5 5 5 5 5 5 5 5 5 5 5 6 5 5 5 5 5 5 5 6 5 5 6 5 5 5 5 5 5 5 5 5 5 5 5 5 5 5 5 5 5 5 5 6 5 5 5 5 5 5 5 5 5 5 5 5 5 5 5 5 5 5 5 5 5 5 5 5 5 5 5 5 5 5 5 5 6 5 5 5 5 6 5 6 5 5 5 5 5 5 6 5 5 6 5 5 6 6 5 6 5 5 5 6 5 5 5 5 5 5 5 5 5 5 5 5 5 5 5 6 5 5 5 5 5 5 5 5 6 5 5 5 5 5 5 5 5 5 5 5 5 5 5 5 5 5 5 5 5 5 5 5 5 5 5 5 5 5 5 5 5 5 5 5 5 6 5 5 5 5 5 5 5 6 5 5 6 5 6 5 5 5 5 5 5 5 5 5 5 5 6 6 5 5 6 5 5 6 6 5 5 5 5 6 5 6 5 5 6 5 6 6 5 6 5 6 5 5 5 5 5 5 5 6 5 6 5 5 5 5 5 6 5 5 5 6 5 5 6 5 6 5 6 6 5 5 6 5 5 5 5 5 5 6 5 5 5 5 5 5 5 5 6 6 5 5 5 6 5 5 5 5 6 6 5 6 5 5 5 6 5 5 5 5 5 5 5 5 5 5 5 5 5 5 5 5 6 5 5 5 5 5 5 6 5 6 5 5 5 6 6 5 5 6 5 6 5 5 5 5 5 5 5 5 5 5 5 5 6 6 5 5 5 5 5 6 5 5 5 5 5 5 5 6 5 5 5 6 5 6 5 5 6 5 5 5 5 5 5 5 5 5 6 5 5 6 5 5 5 5 5 5 5 5 5 5 5 6 5 5 5 5 5 5 5 5 5 5 5 5 5 5 5 5 5 5 5 5 5 5 6 5 5 5 5 5 5 5 5 5 5 5 6 5 5 5 5 6 5 5 5 5 5 5 5 5 5 5 5 6 5 5 5 5 5 6 5 6 5 5 5 5 5 5 5 5 5 6 5 5 6 5 5 6 5 5 5 5 6 5 5 5 5 5 5 5 5 5 5 5 5 5 5 5 5 5 5 5 5 5 6 5 5 6 5 6 5 5 5 5 5 5 5 5 5 6 5 5 6 6 6 5 5 5 6 5 5 5 5 5 5 6 6 5 6 5 5 6 5 5 6 5 5 5 5 6 5 5 5 5 6 5 5 5 5 5 5 5 5 5 5 5 6 5 5 6 5 6 6 5 5 6 6 6 5 5 5 5 5 5 5 5 5 5 6 5 5 5 5 5 5 5 5 5 6 5 5 5 5 5 6 5 5 5 5 5 5 5 5 5 5 6 5 5 5 5 5 5 5 5 5 5 5 5 5 5 5 5 5 5 5 5 5 5 5 5 6 6 5 5 5 5 5 5 5 5 6 5 5 5 5 5 5 5 5 5 5 5 5 5 5 5 5 6 5 5 5 5 6 5 5 5 6 6 5 5 5 5 5 5 6 5 6 5 5 5 6 5 5 5 5 5 5 5 5 6 5 6 6 5 5 5 5 5 5 5 5 5 5 5 5 6 5 5 6 5 6 5 5 5 5 5 5 5 5 5 5 5 5 5 5 5 5 5 5 5 5 5 5 5 6 5 5 5 5 5 6 5 5 5 5 5 5 5 5 5 5 6 5 5 5 6 5 5 5 5 5 5 5 5 5 5 5 6 6 5 5 5 5 5 6 5 5 5 6 5 5 5 5 5 5 5 5 5 5 6 5 5 5 5 5 5 5 6 6 5 6 5 5 5 5 6 5 5 5 5 5 6 5 5 5 5 5 5 5 5 5 5 6 5 5 5 5 5 5 5 5 5 5 6 5 5 5 5 5 5 5 6 5 5 5 5 5 5 5 5 5 5 5 5 5 5 5 5 5 5 5 5 6 5 5 5 6 5 5 5 5 5 5 5 5 5 5 5 5 5 6 5 6 6 5 6 6 5 5 5 5 5 6 5 5 5 5 5 5 5 6 5 5 6 5 5 6 5 5 6 5 5 6 6 6 6 5 5 6 6 5 5 6 5 5 6 5 5 5 5 6 6 6 6 5 5 5 6 5 6 5 6 5 6 6 5 5 5 5 5 5 5 6 5 5 6 5 6 5 5 6 6 5 5 5 5 5 5 5 5 5 5 5 5 5 5 5 5 5 6 5 5 5 5 5 5 5 5 5 5 5 5 5 5 5 5 5 6 5 5 5 5 5 5 5 5 5 5 5 5 5 5 6 6 5 5 5 5 6 5 6 5 5 5 6 6 5 6 5 5 5 5 5 5 5 5 5 5 5 5 5 5 5 5 5 5 5 6 5 6 5 5 5 5 6 5 5 5 5 5 5 5 5 5 5 5 5 5 5 5 5 5 5 5 5 6 5 5 5 5 5 5 5 5 5 5 5 5 5 5 6 5 5 5 5 5 5 5 5 5 5 5 5 5 5 5 5 5 5 5 5 5 5 5 5 5 5 5 5 5 5 5 5 5 5 5 5 5 5 5 5 5 5 5 5 5 5 5 5 5 5 5 5 5 5 5 5 5 5 5 5 5 5 6 5 5 5 6 5 5 6 5 5 5 5 5 5 5 5 5 5 5 6 5 5 5 5 6 5 5 5 5 5 5 5 5 5 5 5 5 5 5 5 5 5 5 5 5 5 5 5 5 5 5 5 5 5 6 5 5 5 5 6 5 5 5 5 5 5 5 5 5 5 6 5 5 6 5 5 5 5 5 5 5 5 5 5 5 5 6 5 5 5 5 5 5 5 5 6 5 5 5 5 5 5 5 5 5 5 6 5 6 5 5 5 6 5 5 5 6 5 6 5 6 6 5 5 5 5 5 6 5 5 5 5 5 5 5 5 5 5 5 5 5 5 5 5 5 5 5 5 5 5 5 6 5 5 6 5 5 5 6 5 6 5 5 5 5 5 5 5 5 5 5 5 5 6 5 5 5 5 5 5 5 5 5 5 5 5 5 5 5 5 5 5 5 6 5 5 5 5 5 5 5 5 5 5 5 5 5 5 5 5 5 5 5 5 5 5 5 5 5 5 5 6 5 5 5 5 5 5 5 5 5 5 5 5 5 5 5 5 5 5 6 5 5 5 6 5 5 5 6 6 5 5 5 5 5 6 5 5 5 5 5 5 5 6 6 5 5 5 6 5 6 5 5 5 5 5 5 6 6 5 5 6 6 5 5 5 5 5 5 5 5 5 5 6 5 5 5 5 5 5 6 5 5 5 5 5 5 5 5 5 5 5 5 5 5 5 5 5 6 5 5 5 5 6 5 5 6 5 5 5 5 5 5 5 5 5 5 5 6 5 6 5 6 5 5 5 5 5 5 5 5 5 5 5 5 5 5 5 5 5 5 5 6 5 5 6 5 5 5 6 5 5 6 5 5 5 5 6 5 5 5 5 5 5 5 6 5 5 5 5 5 5 5 5 5 5 5 5 5 5 5 5 5 5 5 5 5 5 5 5 5 5 5 5 5 6 5 5 5 5 5 5 5 5 5 5 5 5 5 5 5 5 5 5 5 5 5 5 5 5 5 5 5 5 5 5 5 5 5 5 5 5 5 6 6 6 5 5 6 5 5 5 6 5 6 5 5 5 5 5 6 5 5 5 5 5 5 5 6 5 5 5 5 5 5 5 5 5 5 5 5 5 5 6 5 5 5 6 5 6 5 5 5 5 5 5 5 5 6 5 5 5 5 5 5 5 6 5 6 5 6 5 5 5 5 5 5 5 5 6 5 5 6 6 6 5 6 5 6 5 5 5 5 5 5 5 5 5 5 5 5 5 5 5 5 5 5 5 5 5 6 5 5 6 6 5 5 5 6 5 5 5 5 5 5 5 6 5 6 5 5 5 5 6 5 5 6 5 5 5 5 5 5 5 6 5 5 6 5 5 5 6 5 5 5 5 5 5 5 5 5 6 5 5 5 5 5 5 6 5 5 6 5 5 5 5 6 5 5 5 5 5 5 6 6 6 5 5 5 6 5 6 5 6 5 5 5 5 5 5 6 5 5 5 6 5 5 5 6 5 5 5 5 5 5 5 5 5 5 5 5 6 5 5 5 6 5 5 5 5 5 6 6 5 5 6 5 6 6 6 5 5 5 6 5 5 5 5 5 6 5 5 5 5 5 5 5 5 5 5 5 5 6 5 5 5 5 5 5 6 5 5 6 5 5 6 5 5 5 5 5 6 5 5 6 5 6 5 6 5 5 5 5 5 5 6 5 5 5 5 6 5 5 5 5 5 5 5 5 5 5 6 5 5 5 5 5 6 5 5 5 5 5 5 5 5 5 5 5 5 5 5 5 6 5 5 5 5 5 6 5 6 5 5 5 5 5 6 5 5 5 5 5 6 5 5 5 5 5 6 5 5 5 5 5 5 5 5 5 5 6 5 6 5 6 5 5 6 5 5 5 5 5 5 5 5 6 5 6 5 5 5 5 5 5 5 5 5 5 6 5 5 5 5 5 5 5 5 5 5 6 5 5 5 6 5 6 6 5 5 5 6 5 5 5 6 6 5 5 5 5 5 5 5 5 5 5 6 6 5 5 5 5 5 6 5 5 5 5 5 5 5 5 5 5 6 5 6 6 6 5 5 5 5 5 5 5 5 6 5 5 5 5 5 5 5 5 5 5 5 5 5 5 5 5 5 5 5 5 5 5 5 5 5 5 5 5 5 6 5 5 5 5 6 5 5 5 5 5 5 5 5 6 5 5 5 5 5 5 5 5 6 5 5 5 5 5 5 5 5 5 5 5 5 5 5 5 5 5 5 5 5 5 5 5 5 5 5 6 5 5 5 5 5 5 6 5 6 5 5 6 5 5 5 6 5 6 5 5 5 6 5 5 5 6 5 5 5 5 5 5 6 5 5 5 5 5 5 5 5 5 5 5 5 5 5 5 5 5 5 5 5 5 5 5 5 5 5 5 6 5 6 5 5 5 5 6 5 5 5 5 5 5 5 5 5 5 5 5 5 6 5 5 6 5 5 6 5 5 5 5 5 6 5 5 5 5 5 5 5 5 6 5 6 5 5 5 5 5 6 6 5 5 6 5 5 5 6 5 5 5 5 5 5 5 6 5 5 5 5 5 5 5 5 5 5 5 5 5 5 5 5 6 5 5 5 5 5 6 5 6 5 5 5 5 5 5 5 5 5 5 5 5 6 5 6 5 5 5 5 5 5 6 6 5 5 5 5 5 5 5 5 5 5 5 5 5 5 5 5 5 5 5 5 5 6 5 5 6 5 5 5 5 5 6 5 5 5 5 5 5 6 5 5 5 5 5 5 5 5 5 5 5 5 5 5 5 5 6 5 5 6 5 5 5 5 6 5 5 5 5 5 5 5 5 5 5 5 6 5 5 5 5 5 5 5 5 5 5 5 5 5 5 5 5 5 5 5 6 5 5 5 5 5 5 5 5 5 5 5 5 6 5 5 5 5 5 5 5 5 5 5 5 5 5 6 6 5 5 5 5 5 5 6 5 5 5 5 5 5 5 5 5 5 5 5 5 5 5 5 5 5 5 5 5 5 5 5 5 5 5 5 5 5 5 5 5 5 5 6 5 5 5 5 5 5 5 5 6 5 5 5 5 5 5 5 5 5 5 5 5 6 5 5 5 5 6 5 6 5 5 5 5 5 5 5 5 6 5 5 5 5 5 5 5 5 5 5 6 5 5 5 6 5 5 6 5 5 5 5 6 5 5 6 5 5 5 5 5 5 5 5 6 5 5 5 6 5 5 5 5 5 5 5 6 5 6 5 6 5 6 6 5 5 5 6 6 6 5 5 6 5 5 5 6 5 5 5 5 6 5 5 5 5 5 5 5 5 5 5 5 5 5 5 5 5 5 5 5 5 5 5 5 5 5 5 5 5 5 5 5 5 5 5 5 5 5 5 6 5 5 5 5 5 5 5 5 6 5 5 5 5 6 5 5 6 5 5 6 5 5 5 5 6 5 5 5 5 5 6 5 5 5 5 5 5 5 5 5 5 5 5 5 6 6 5 5 5 6 5 5 5 5 5 5 5 5 5 5 5 5 5 5 6 5 5 5 5 5 5 6 5 5 6 5 5 5 5 5 5 5 5 5 5 6 5 5 5 5 5 6 5 5 5 5 5 5 5 5 5 5 6 5 5 5 5 5 5 5 5 5 5 5 5 5 5 5 6 5 5 5 5 5 5 5 5 5 5 5 5 5 5 5 5 5 5 5 5 5 5 5 6 5 6 5 5 5 6 5 5 5 5 5 5 5 5 5 6 5 5 5 6 5 5 5 5 5 5 5 5 5 5 5 5 5 5 5 5 6 5 5 5 5 5 6 5 5 5 6 5 6 5 5 5 5 5 5 6 5 5 5 5 5 5 5 5 5 5 5 5 5 5 5 5 5 5 5 5 5 5 5 5 5 5 5 6 5 5 6 5 5 5 5 5 5 5 6 5 5 5 5 6 5 5 6 5 5 5 5 5 5 6 5 5 5 6 5 5 5 6 5 5 5 5 5 6 5 5 5 5 5 6 5 5 5 5 5 5 5 5 6 5 5 6 5 5 5 5 6 5 5 5 5 6 5 5 5 5 6 5 5 5 6 5 6 5 5 5 5 5 5 5 5 5 5 6 5 5 5 5 5 5 5 6 6 5 5 5 5 5 6 5 5 5 5 5 6 5 5 5 6 5 5 6 5 5 6 5 5 5 6 5 5 5 5 5 5 6 5 5 5 5 5 6 5 5 5 5 5 6 5 5 5 5 5 5 6 5 5 5 5 6 5 5 5 5 5 6 5 5 5 5 5 5 5 5 5 5 6 5 5 5 5 5 5 5 6 5 5 5 5 6 6 5 5 6 5 5 5 5 5 5 5 6 5 5 5 5 5 5 5 6 5 6 5 5 6 5 5 5 5 6 5 6 5 5 5 5 5 5 5 5 5 5 6 5 5 5 5 5 6 5 5 5 6 5 5 5 5 6 5 5 6 5 5 5 5 5 6 5 6 5 6 6 5 5 5 5 6 6 5 5 5 5 5 5 5 5 5 5 5 5 5 6 5 5 5 5 5 5 6 6 5 5 5 5 5 5 5 5 5 5 5 5 5 6 5 5 5 5 5 5 5 5 5 5 5 5 5 5 5 5 5 5 5 5 5 5 5 5 5 5 5 5 5 5 5 5 5 6 5 5 6 5 5 5 5 5 5 5 6 5 5 5 6 5 5 6 5 5 5 6 6 5 5 5 5 6 6 5 5 5 5 5 5 5 5 5 5 5 5 5 5 6 5 5 6 5 5 5 6 5 5 5 5 6 5 5 6 5 5 5 5 5 5 5 5 5 5 5 6 5 5 5 5 5 5 5 6 5 5 5 5 5 5 5 5 5 5 5 5 5 5 5 5 5 5 6 5 5 5 5 5 5 6 5 6 5 5 5 5 5 6 5 5 6 5 5 5 6 5 5 5 6 5 5 5 5 5 5 5 5 5 5 5 5 5 5 6 5 5 5 5 6 6 5 5 5 5 5 5 5 5 5 5 5 5 5 5 5 5 5 5 5 6 5 5 5 5 5 5 5 5 6 5 6 5 5 5 5 5 5 5 6 5 6 5 5 5 5 5 6 5 5 5 5 5 5 6 5 5 5 5 5 6 6 5 5 5 6 6 6 5 5 5 5 5 6 5 5 5 5 5 6 5 5 5 5 6 5 6 6 5 6 6 5 5 5 6 5 5 5 6 5 5 5 6 5 5 5 6 5 5 5 5 5 5 5 5 6 5 5 5 6 5 5 5 5 5 5 6 5 5 5 5 5 5 6 5 5 5 5 5 5 5 5 5 5 5 5 5 5 6 5 6 5 5 5 6 5 5 6 5 6 5 6 5 5 6 5 5 5 5 5 5 6 5 5 5 5 6 5 5 5 5 5 5 6 5 5 5 5 5 5 5 5 5 5 6 5 5 5 5 5 5 5 5 5 5 5 5 5 5 5 5 5 5 5 6 6 5 5 5 6 5 5 6 5 5 6 5 5 6 5 5 6 6 5 5 5 5 6 5 5 5 5 5 5 5 5 5 5 5 6 6 5 5 5 6 5 6 5 6 5 5 5 5 5 6 5 5 6 5 6 5 5 6 6 6 5 5 5 5 6 5 5 6 5 6 5 5 6 5 5 5 5 5 5 5 5 6 5 6 6 5 5 5 5 5 6 6 5 5 5 6 6 5 5 5 5 5 5 5 5 6 5 6 5 5 5 5 5 5 5 5 5 5 5 5 5 5 5 5 5 5 5 5 5 5 5 5 5 5 5 5 5 6 5 5 5 5 5 5 5 5 5 5 5 5 5 5 5 6 5 5 6 5 5 5 5 5 6 5 5 5 5 5 5 5 5 5 5 5 5 5 6 5 5 5 5 5 5 5 5 5 6 5 5 6 5 5 5 5 6 6 6 5 5 5 5 5 6 5 5 5 
</DataArray>
<DataArray type="Float64" Name="stress" NumberOfComponents="9" format="ascii">
389371.61914912728 -1094389524.2963715 0 -1094389524.2963715 6579280891.3720045 0 0 0 0 1226727.0460983815 -1838333.1864471436 0 -1838333.1864471436 389830372.3555603 0 0 0 0 -146522.13792380883 -1777486.6593541652 0 -1777486.6593541652 3334527.3487216979 0 0 0 0 -936841789.37496042 732210981.60715485 0 732210981.60715485 1796833183.3335876 0 0 0 0 -1009781565.9150653 -895128371.65930939 0 -895128371.65930939 6603716218.5244751 0 0 0 0 298716102.98485452 -1818798536.8192749 0 -1818798536.8192749 2145904612.5273438 0 0 0 0 489089597.68088508 -1891876091.7238007 0 -1891876091.7238007 1468365983.8789291 0 0 0 0 -81630.053043469641 -2004635.1296290867 0 -2004635.1296290867 3482531.2516286224 0 0 0 0 761154009.27170646 -2524415049.2659149 0 -2524415049.2659149 2651581142.6047363 0 0 0 0 -420268.01897215843 -1181067403.2154236 0 -1181067403.2154236 3722033279.4783325 0 0 0 0 1313751.4115642789 -980523596.55247831 0 -980523596.55247831 1743286971.3553162 0 0 0 0 -180258123.19854498 -659188390.26647949 0 -659188390.26647949 2297096688.277153 0 0 0 0 198523472.20271087 -420268662.06828308 0 -420268662.06828308 2022916698.2938538 0 0 0 0 189523742.07164538 -383643858.94125366 0 -383643858.94125366 2197478609.3442383 0 0 0 0 4764307.2509451825 -329109600.32699585 0 -329109600.32699585 2563595961.1689911 0 0 0 0 -628198697.55103493 -1423561557.5988617 0 -1423561557.5988617 2967753693.8263855 0 0 0 0 -160549893.73636222 -657678084.45654297 0 -657678084.45654297 1935868165.6091766 0 0 0 0 -481976671.03940487 -229634090.27006531 0 -229634090.27006531 1992408218.1995049 0 0 0 0 -1137625767.5294154 471081427.9478302 0 471081427.9478302 787389360.95223999 0 0 0 0 -2887701288.8703089 -464699084.47837067 0 -464699084.47837067 2646039637.2124023 0 0 0 0 -93987.181820240163 -3335891.2237845901 0 -3335891.2237845901 6062707.7392389178 0 0 0 0 759997539.81416416 -1542998687.4874878 0 -1542998687.4874878 -462127588.12236023 0 0 0 0 111014462.97366852 -1754126619.5771255 0 -1754126619.5771255 2734798606.8612366 0 0 0 0 -1000965872.2626555 -1826658485.3700409 0 -1826658485.3700409 2730073887.5934315 0 0 0 0 -1000674925.4013767 -2718175409.1687851 0 -2718175409.1687851 6601396156.9243164 0 0 0 0 -618990.96741980826 -4304040.3507351242 0 -4304040.3507351242 5766917.6277974844 0 0 0 0 -2743829214.4119463 1293355813.5554543 0 1293355813.5554543 4733844013.4249268 0 0 0 0 526473597.15636748 -3484928106.092659 0 -3484928106.092659 2318154770.4821777 0 0 0 0 -2459920904.3196492 35215652.926780701 0 35215652.926780701 6600144959.3848267 0 0 0 0 -132964362.57468243 -319522738.51296997 0 -319522738.51296997 3752697469.9655609 0 0 0 0 -132108681.45828322 -1098926416.5567324 0 -1098926416.5567324 5134087639.4538879 0 0 0 0 -934462866.27530217 1481341479.1584015 0 1481341479.1584015 1515492673.3764648 0 0 0 0 2639366789.1442809 -2960929659.7178936 0 -2960929659.7178936 10267377819.635254 0 0 0 0 -631917.98647634452 2440291.5875900872 0 2440291.5875900872 8704409.2524480075 0 0 0 0 2794993115.9529381 -2909394439.3324966 0 -2909394439.3324966 4458734310.8491516 0 0 0 0 651498089.68780684 -2297914410.1045837 0 -2297914410.1045837 6619320437.4954329 0 0 0 0 2029550345.6774244 -1691111299.7485886 0 -1691111299.7485886 2738001738.4698792 0 0 0 0 2089673783.307626 -2507850519.5229034 0 -2507850519.5229034 2824243004.2653246 0 0 0 0 200738113.19291568 1054662500.9346466 0 1054662500.9346466 -2037837173.7057343 0 0 0 0 -669088802.87343371 4939611963.3873596 0 4939611963.3873596 -38350991.460418701 0 0 0 0 -381503235.95688367 346606927.87094879 0 346606927.87094879 357147316.52114868 0 0 0 0 -1968167274.2304275 -465874673.50676155 0 -465874673.50676155 438313297.49685669 0 0 0 0 -4114766.761678637 4633470.068966791 0 4633470.068966791 21533729.433674783 0 0 0 0 -2525954381.4290457 1597145392.2887764 0 1597145392.2887764 -311441875.10325623 0 0 0 0 -1303594471.1543188 82359318.486129761 0 82359318.486129761 26110180.76600647 0 0 0 0 -765449230.95818233 182378478.1859436 0 182378478.1859436 9939600.6685638428 0 0 0 0 -1254370060.9749937 106281333.14285278 0 106281333.14285278 139935805.81312561 0 0 0 0 -862883829.58491421 -6734028.3407821655 0 -6734028.3407821655 755854097.49142456 0 0 0 0 422530534.30712843 -1013072062.7483826 0 -1013072062.7483826 707155962.52444458 0 0 0 0 -400721051.7851882 -3039117784.6562576 0 -3039117784.6562576 1980524457.1444702 0 0 0 0 1018623081.9883826 -2445130888.1682587 0 -2445130888.1682587 -485729381.7607193 0 0 0 0 1423907695.9547229 -2674603690.6872253 0 -2674603690.6872253 1928387527.3876853 0 0 0 0 1395024658.4138432 -1480952964.9170074 0 -1480952964.9170074 1924122240.9718628 0 0 0 0 -1649366024.9870625 631822578.69803619 0 631822578.69803619 -190474197.49447632 0 0 0 0 -6566241.4261933407 4208955.5383992977 0 4208955.5383992977 26574429.608111411 0 0 0 0 -4347371.1235761223 -3038440.6358328164 0 -3038440.6358328164 4719306.0436563492 0 0 0 0 -1067657362.503653 -3114227934.3850746 0 -3114227934.3850746 3084279707.1691284 0 0 0 0 -1210185301.3247223 -1387623588.9732208 0 -1387623588.9732208 2475032049.8983459 0 0 0 0 718972217.87235355 163160306.82092285 0 163160306.82092285 -89708055.99621582 0 0 0 0 37066459.120010376 -249925265.21878052 0 -249925265.21878052 500191070.64689636 0 0 0 0 -1838896806.7043653 -102979828.93739319 0 -102979828.93739319 818052650.44046021 0 0 0 0 -1681665439.7941568 31388729.657871246 0 31388729.657871246 563687054.00674438 0 0 0 0 -1664719736.9800081 -999504949.12086487 0 -999504949.12086487 -689702820.06829834 0 0 0 0 -1518617375.9341524 -629596390.8470459 0 -629596390.8470459 210414215.65768433 0 0 0 0 -3227643.2272006916 -8090910.8447293583 0 -8090910.8447293583 30040784.077503204 0 0 0 0 -1167402665.7857847 -477863097.10842896 0 -477863097.10842896 -309652520.75384521 0 0 0 0 -831768743.82392788 198516902.69602966 0 198516902.69602966 -13395297.639633179 0 0 0 0 -794617337.69928396 335678659.78559113 0 335678659.78559113 257777903.20135498 0 0 0 0 -1040534363.0722079 -101537958.12841034 0 -101537958.12841034 778221102.38482666 0 0 0 0 738158509.31796718 -657040057.88343811 0 -657040057.88343811 540632294.56677246 0 0 0 0 -47815791.161668777 -826210780.14738464 0 -826210780.14738464 816309715.18292236 0 0 0 0 -651503256.36956263 -16950533.398353577 0 -16950533.398353577 292629614.17144775 0 0 0 0 -1293400430.7859707 5080647.617477417 0 5080647.617477417 609621510.24389648 0 0 0 0 -357906909.89078617 -949608985.66001892 0 -949608985.66001892 326856805.84182739 0 0 0 0 -235307882.65070486 -714947763.42169189 0 -714947763.42169189 664642281.68856049 0 0 0 0 -768806850.60618043 25394267.877578735 0 25394267.877578735 -219800111.76559448 0 0 0 0 -199111892.3447119 -590627709.92065048 0 -590627709.92065048 1056863044.4045715 0 0 0 0 968628077.8556006 -1027383665.8024902 0 -1027383665.8024902 299756270.03890991 0 0 0 0 868733864.17075348 -689640218.32306671 0 -689640218.32306671 -52971035.955596924 0 0 0 0 450936033.56127357 -1117237557.296463 0 -1117237557.296463 438439233.3203125 0 0 0 0 -24373818.995352268 -591112304.06463623 0 -591112304.06463623 -650686.40075683594 0 0 0 0 481617485.11653519 -451187949.0629425 0 -451187949.0629425 -271777689.59407043 0 0 0 0 436977759.69734001 -1061524625.0379791 0 -1061524625.0379791 336333925.61825562 0 0 0 0 459224090.37742853 -949941673.33239746 0 -949941673.33239746 14414217.924667835 0 0 0 0 458917491.40996915 -715037080.71087968 0 -715037080.71087968 -101108338.20831299 0 0 0 0 -1740953245.1688762 -105845642.90541077 0 -105845642.90541077 397166286.2902832 0 0 0 0 -1277770945.1465111 -364571591.01224518 0 -364571591.01224518 322843321.51234436 0 0 0 0 -1549394.562618209 -6454080.4558903277 0 -6454080.4558903277 21688843.24108763 0 0 0 0 -590669053.69491291 559569477.62023926 0 559569477.62023926 134339228.08712006 0 0 0 0 -452341493.41085148 615692081.20210266 0 615692081.20210266 310417133.35751724 0 0 0 0 -653920073.32216811 262524743.4822998 0 262524743.4822998 400026810.65631104 0 0 0 0 -573988673.35600853 39741805.887268066 0 39741805.887268066 -223729464.2334137 0 0 0 0 -61728290.464646101 248662479.83246613 0 248662479.83246613 529704436.87374878 0 0 0 0 -184860990.10916495 464720957.68985748 0 464720957.68985748 289226256.75805664 0 0 0 0 59589349.688346624 506847610.61447144 0 506847610.61447144 975728485.69439697 0 0 0 0 142913227.48541641 500318390.50039673 0 500318390.50039673 352494991.97694397 0 0 0 0 251584022.8945148 313091238.77459717 0 313091238.77459717 202040828.4596405 0 0 0 0 505204154.44051212 31293597.040542603 0 31293597.040542603 -11371985.746459961 0 0 0 0 478042143.80678546 558516415.8724823 0 558516415.8724823 430218339.19485474 0 0 0 0 -955854.81879197911 -152569.68869110942 0 -152569.68869110942 6486897.8780686408 0 0 0 0 122189.45816017949 137256680.29138184 0 137256680.29138184 -463822117.78079224 0 0 0 0 -127317362.57489227 43988602.54724884 0 43988602.54724884 -13340314.466552734 0 0 0 0 55551619.156389236 91375107.106338501 0 91375107.106338501 137826411.61375427 0 0 0 0 -163657.31788524293 596199.64980802359 0 596199.64980802359 2600922.5077177286 0 0 0 0 1116979493.83213 563912086.71954346 0 563912086.71954346 95793102.901515961 0 0 0 0 -357129371.34305835 -200415898.29307556 0 -200415898.29307556 1513727688.6262512 0 0 0 0 1377439995.5330529 1115710473.5055542 0 1115710473.5055542 998448875.92572021 0 0 0 0 293033303.48748207 424614379.83233643 0 424614379.83233643 523985774.47480774 0 0 0 0 446590244.38668793 850085930.62916565 0 850085930.62916565 1410908302.7835083 0 0 0 0 67753932.593819499 384787175.99382782 0 384787175.99382782 1703981809.3453979 0 0 0 0 248430403.30938262 751502778.74850464 0 751502778.74850464 3047787876.64328 0 0 0 0 156977643.24051034 296485066.35917664 0 296485066.35917664 1480344263.0812302 0 0 0 0 527509447.63998008 -431667457.49282837 0 -431667457.49282837 2348538704.6873322 0 0 0 0 -972301.65024769795 656501472.82697296 0 656501472.82697296 3148057799.4502258 0 0 0 0 799950913.81225455 -112746791.03468323 0 -112746791.03468323 2193020021.2110901 0 0 0 0 461060942.56339717 -69564859.898254395 0 -69564859.898254395 2275870915.0955505 0 0 0 0 -211508831.00174904 -554594150.38432312 0 -554594150.38432312 2112190957.161499 0 0 0 0 76668483.970518291 -233315520.30613327 0 -233315520.30613327 1922950981.4464417 0 0 0 0 106689443.85473162 -361243530.32670593 0 -361243530.32670593 2417805417.8965454 0 0 0 0 -1036156538.2848525 -771771613.93592072 0 -771771613.93592072 2021992128.3189392 0 0 0 0 -253428334.24595165 -329749997.06365967 0 -329749997.06365967 1333195533.1637878 0 0 0 0 -251943821.72698402 -720760709.86026001 0 -720760709.86026001 2019451236.5054398 0 0 0 0 1206628819.2446389 -1803313405.1324787 0 -1803313405.1324787 1211454630.7268372 0 0 0 0 -319147189.49530888 -573285615.92999268 0 -573285615.92999268 934405086.5359993 0 0 0 0 -116930748.53695512 -719214375.57871246 0 -719214375.57871246 938100742.4180603 0 0 0 0 -406678699.93253517 -166371687.26069641 0 -166371687.26069641 622955462.86567688 0 0 0 0 -190656175.95566189 47441970.718170166 0 47441970.718170166 822678060.71243286 0 0 0 0 -169571284.81631687 -145728261.94137192 0 -145728261.94137192 1499705213.8986816 0 0 0 0 18187693.78149271 75747247.569381714 0 75747247.569381714 903577263.11356735 0 0 0 0 -253358104.23873019 -346238636.0385437 0 -346238636.0385437 2000993363.9920959 0 0 0 0 324369567.29579329 -221292675.80715561 0 -221292675.80715561 -243458181.31735229 0 0 0 0 87791841.170837641 -561291627.17459869 0 -561291627.17459869 1009878449.3372345 0 0 0 0 -113771284.35336816 -379554497.88787079 0 -379554497.88787079 1197085978.1380005 0 0 0 0 165133406.33787012 -227704185.36135101 0 -227704185.36135101 1444055898.8017349 0 0 0 0 60266298.322587103 -664882695.89213753 0 -664882695.89213753 2098287894.0917511 0 0 0 0 210238926.63529176 -1504100296.1142731 0 -1504100296.1142731 2944335681.5822296 0 0 0 0 -151731165.18409064 -1073043545.6438141 0 -1073043545.6438141 2970368678.3299103 0 0 0 0 846545708.05037045 -1018532790.4962006 0 -1018532790.4962006 1020777667.323761 0 0 0 0 -527230070.51234406 -1840678660.556324 0 -1840678660.556324 6617533983.3720093 0 0 0 0 -919480921.39879048 -1051817612.8518639 0 -1051817612.8518639 5191496246.5032196 0 0 0 0 -753416615.49243295 -1044894204.372673 0 -1044894204.372673 5189444188.155899 0 0 0 0 -561128762.69408524 -1020836951.5615654 0 -1020836951.5615654 4056179272.3216553 0 0 0 0 -1005145177.6317941 -329599214.11839294 0 -329599214.11839294 5331225271.3914719 0 0 0 0 -1262220307.9058583 -867308615.6629982 0 -867308615.6629982 6613926105.3891525 0 0 0 0 -996973539.14654362 -565132125.93577778 0 -565132125.93577778 5278541925.3522644 0 0 0 0 -209890950.86943847 -283439934.09674454 0 -283439934.09674454 2728756196.3483734 0 0 0 0 -452097339.16664863 122960301.84714508 0 122960301.84714508 3407775003.1120987 0 0 0 0 112577860.18252182 370711205.4442749 0 370711205.4442749 961766723.15374756 0 0 0 0 -188503196.17808723 613565030.29810333 0 613565030.29810333 2568989526.4499893 0 0 0 0 1332656.6198081267 2050147.1203716956 0 2050147.1203716956 1858720.5984065533 0 0 0 0 529545257.30291796 1349228354.0564499 0 1349228354.0564499 2462984396.6343689 0 0 0 0 1463579.2655879958 -1812309.2092488324 0 -1812309.2092488324 7064378.510806337 0 0 0 0 -205956460.90684021 -520429511.62096405 0 -520429511.62096405 4884755840.4611511 0 0 0 0 -226642517.79915893 766148625.97412109 0 766148625.97412109 4446572222.6679001 0 0 0 0 -293222878.81671304 447736204.33751678 0 447736204.33751678 6613333946.6097031 0 0 0 0 -151427193.16586041 383916125.97322464 0 383916125.97322464 4909693085.7588959 0 0 0 0 464814151.26623708 1600684024.7510071 0 1600684024.7510071 6613499045.0340796 0 0 0 0 2302113600.0244923 231594217.56789398 0 231594217.56789398 4587658308.9706345 0 0 0 0 2052341935.1374419 1526293225.9343033 0 1526293225.9343033 3201975277.942688 0 0 0 0 974759506.06400096 2351183681.3019714 0 2351183681.3019714 4812233355.9918365 0 0 0 0 291901026.7782979 2555271023.7709045 0 2555271023.7709045 4773588663.4256592 0 0 0 0 -261240404.33499572 2199915132.8868256 0 2199915132.8868256 7653469837.9044952 0 0 0 0 4250445214.6527209 1357143981.4378052 0 1357143981.4378052 6617086420.2501612 0 0 0 0 -617779953.07124555 4424242826.3600311 0 4424242826.3600311 5136222341.9567108 0 0 0 0 339753573.32231045 1851301846.2528687 0 1851301846.2528687 2375103060.0409012 0 0 0 0 1027088309.4499645 2608717720.7711563 0 2608717720.7711563 1769108014.1334229 0 0 0 0 60940195.022753239 -666991757.44073486 0 -666991757.44073486 2415351778.6613617 0 0 0 0 1171882303.3468752 777680280.57667542 0 777680280.57667542 937306732.71298218 0 0 0 0 1211374950.9768631 1315550532.1713867 0 1315550532.1713867 4119053234.7953949 0 0 0 0 1463104080.0810595 -1621486481.9568634 0 -1621486481.9568634 3547711233.9094143 0 0 0 0 3066760162.2457695 -1545867699.9109879 0 -1545867699.9109879 624925086.89562988 0 0 0 0 571641977.00757313 -782828026.14857483 0 -782828026.14857483 749507771.08882904 0 0 0 0 1363777177.3099766 -1088004723.9153996 0 -1088004723.9153996 765134730.21331787 0 0 0 0 715272543.16077614 -812696343.99789619 0 -812696343.99789619 1493606165.783905 0 0 0 0 2046882076.4650507 -962790266.30987549 0 -962790266.30987549 441736862.07696533 0 0 0 0 1636074426.8538287 -1419344365.7937927 0 -1419344365.7937927 857765644.39337158 0 0 0 0 779694946.12425613 -98140948.029529572 0 -98140948.029529572 -58646243.510467529 0 0 0 0 -327852132.81224442 -167598705.66465759 0 -167598705.66465759 620370163.620224 0 0 0 0 4339286.1157211512 -2112956.3775876164 0 -2112956.3775876164 15938322.903308894 0 0 0 0 355859395.40189362 21245598.345672607 0 21245598.345672607 -264991216.08590698 0 0 0 0 2971651075.9401078 -472291206.68056488 0 -472291206.68056488 76935343.272155762 0 0 0 0 549713.58635559306 295294.45263853669 0 295294.45263853669 388836.72053680383 0 0 0 0 2643442193.729682 -1466280453.0251007 0 -1466280453.0251007 569595289.85096741 0 0 0 0 1473584.9623610743 -1621435.411367137 0 -1621435.411367137 1187366.6919495612 0 0 0 0 976970994.89549971 -658251909.63168788 0 -658251909.63168788 590884756.2336731 0 0 0 0 1296919677.4320126 -1147133374.2820435 0 -1147133374.2820435 435820006.88374329 0 0 0 0 299866578.92590332 336520043.02270508 0 336520043.02270508 148356186.87860107 0 0 0 0 2060722967.1545553 -230859859.65454102 0 -230859859.65454102 -428285196.4185791 0 0 0 0 1263799961.6021881 746316133.94311523 0 746316133.94311523 -311302789.38648224 0 0 0 0 830904581.94190025 -379476345.2464447 0 -379476345.2464447 -231514696.23455811 0 0 0 0 777991082.06242466 -404457344.03448486 0 -404457344.03448486 -174338874.84973145 0 0 0 0 725385452.20287418 -825787992.68186951 0 -825787992.68186951 -106560426.61434174 0 0 0 0 286009831.65203667 -424575234.16566467 0 -424575234.16566467 -112193307.60493469 0 0 0 0 475376202.87129402 -642016076.12312317 0 -642016076.12312317 32971759.225891113 0 0 0 0 420778395.73000526 -222337603.47259903 0 -222337603.47259903 -313460718.91275024 0 0 0 0 108992135.59050226 -255620009.34500313 0 -255620009.34500313 23025385.789031982 0 0 0 0 39553854.294820786 -20875369.897918701 0 -20875369.897918701 -10499618.492858887 0 0 0 0 13982204.258571625 -16293047.855278015 0 -16293047.855278015 -1990469.0358734131 0 0 0 0 6767088.0058548478 -9342814.3288609535 0 -9342814.3288609535 -8738881.7848715186 0 0 0 0 -12727914.672790527 -33813216.489967346 0 -33813216.489967346 7736029.5805664062 0 0 0 0 6713813.5579616455 -14124183.738446176 0 -14124183.738446176 15350708.393205777 0 0 0 0 20698324.543272018 -43703752.745185852 0 -43703752.745185852 340024.57067871094 0 0 0 0 -13411679.914676666 20501261.213897705 0 20501261.213897705 40574539.981674194 0 0 0 0 24588263.771869659 -18973012.538314819 0 -18973012.538314819 4704910.3752746582 0 0 0 0 23320674.583637238 -16727805.318599701 0 -16727805.318599701 37089809.795318604 0 0 0 0 -1198385.2457962036 -1172988.8924636841 0 -1172988.8924636841 26436368.054512024 0 0 0 0 18830972.009738922 -5833530.0359649658 0 -5833530.0359649658 20790530.073852539 0 0 0 0 60127573.449266195 -16348098.707992554 0 -16348098.707992554 -43135408.933395386 0 0 0 0 14459806.664217157 -2023083.727039516 0 -2023083.727039516 19778365.09010151 0 0 0 0 116990767.54945278 -341446189.84289551 0 -341446189.84289551 517893722.82012939 0 0 0 0 4443832.293977459 -7062526.443686014 0 -7062526.443686014 17633659.881412119 0 0 0 0 -64882836.063002601 -76721951.640678406 0 -76721951.640678406 22943777.738082886 0 0 0 0 25245814.377830982 -6892646.5867843628 0 -6892646.5867843628 -5990943.1478881836 0 0 0 0 201393882.43696743 -137606117.02676392 0 -137606117.02676392 -3094825.5625610352 0 0 0 0 210908534.58118284 84322598.070868492 0 84322598.070868492 34490755.528930664 0 0 0 0 245398648.98134184 68947092.789161682 0 68947092.789161682 326522009.64648438 0 0 0 0 -57587912.610319376 -408861859.69991302 0 -408861859.69991302 269458165.0597086 0 0 0 0 9823465.8251291532 7049569.721159488 0 7049569.721159488 -186452.41598743945 0 0 0 0 -127025329.12898374 -101079115.01644135 0 -101079115.01644135 669186859.51950836 0 0 0 0 54609470.789377928 38838564.019256592 0 38838564.019256592 -15765718.135421753 0 0 0 0 29119554.859150033 191184.10870919377 0 191184.10870919377 16892212.79731521 0 0 0 0 37645741.499588013 -7970858.7330169678 0 -7970858.7330169678 34417885.780424118 0 0 0 0 20504440.181949615 -86127.640186309814 0 -86127.640186309814 37574956.560028076 0 0 0 0 31032430.897062302 -25133805.318077087 0 -25133805.318077087 39012751.673812866 0 0 0 0 56367773.347137451 -25674644.74394989 0 -25674644.74394989 51945734.744430542 0 0 0 0 36849939.669960022 -11911799.466884613 0 -11911799.466884613 62895457.847518921 0 0 0 0 34932408.197635651 -9445878.0042934418 0 -9445878.0042934418 52557376.657928467 0 0 0 0 21319094.987167895 -3982416.3894831166 0 -3982416.3894831166 27295139.389217854 0 0 0 0 4991549.522662906 5517130.7904326189 0 5517130.7904326189 58469260.780423775 0 0 0 0 -6854600.9885749817 73595539.48632431 0 73595539.48632431 13141531.733715057 0 0 0 0 651057987.46476746 -459201068.05759811 0 -459201068.05759811 -207175876.1770401 0 0 0 0 -7254837.1713737547 6069556.5936042257 0 6069556.5936042257 16774600.779365588 0 0 0 0 35417469.634117126 649440777.47294998 0 649440777.47294998 606662973.07648849 0 0 0 0 12488403.212489828 8835908.1385673843 0 8835908.1385673843 25506072.854002289 0 0 0 0 717662908.80726242 -471855291.08493233 0 -471855291.08493233 -514844405.85282898 0 0 0 0 115788.49403662607 2152527.446449928 0 2152527.446449928 5239117.8108591959 0 0 0 0 15111894.693584336 4783768.7391564213 0 4783768.7391564213 16954874.206350982 0 0 0 0 113308913.14980721 -107513438.57275391 0 -107513438.57275391 -203136651.17514229 0 0 0 0 4125673.3016033173 3841177.681804657 0 3841177.681804657 10452606.284065247 0 0 0 0 334657527.25318807 155606160.76455688 0 155606160.76455688 45909912.278259277 0 0 0 0 12564291.78369588 13359207.772472046 0 13359207.772472046 29379093.170249537 0 0 0 0 -144380975.71754235 366996683.65243149 0 366996683.65243149 337913301.00582886 0 0 0 0 685656398.54975128 46579806.755958557 0 46579806.755958557 57869392.729797363 0 0 0 0 174563783.40351677 211352647.03921318 0 211352647.03921318 67861590.777587891 0 0 0 0 89720433.377426147 189908757.07417107 0 189908757.07417107 127341471.3101902 0 0 0 0 10512129.175018311 170962918.90212631 0 170962918.90212631 125442600.87958908 0 0 0 0 7999547.550588131 150804310.43951011 0 150804310.43951011 53109499.072296143 0 0 0 0 96019179.146198273 180157499.14923477 0 180157499.14923477 8897729.6124343872 0 0 0 0 157488950.94472122 170200638.35298347 0 170200638.35298347 2460193.4580001831 0 0 0 0 204162878.76464272 128949386.89255905 0 128949386.89255905 -82899337.637798309 0 0 0 0 300957317.34544945 148340534.99315166 0 148340534.99315166 -83371330.34740448 0 0 0 0 155546356.60295868 17170118.311741829 0 17170118.311741829 -12256664.428195953 0 0 0 0 -116811301.18541336 148120143.50064087 0 148120143.50064087 4394408.344701767 0 0 0 0 43866032.371387482 98530856.229954243 0 98530856.229954243 -19396521.586597443 0 0 0 0 -269417.67359801941 13420260.443224505 0 13420260.443224505 74713110.007047743 0 0 0 0 26131377.626838684 -46163526.364959717 0 -46163526.364959717 80010739.450408936 0 0 0 0 7869900.6443023682 -49951840.181976318 0 -49951840.181976318 79927701.607635498 0 0 0 0 26596972.124277115 -40145926.557853699 0 -40145926.557853699 47915295.648101807 0 0 0 0 46768882.96125412 -75629989.316238403 0 -75629989.316238403 61206744.168243408 0 0 0 0 -10633092.618965149 -60791712.069335938 0 -60791712.069335938 98376841.347915649 0 0 0 0 19637044.89661026 -66038561.589401245 0 -66038561.589401245 99240791.876800537 0 0 0 0 -456028584.28274918 -97340556.302330017 0 -97340556.302330017 164129583.5925293 0 0 0 0 -524135.96463056654 21996651.511869438 0 21996651.511869438 88619011.988514215 0 0 0 0 16584893.607666016 -438458064.59083557 0 -438458064.59083557 -143375442.1725769 0 0 0 0 -163034825.84649277 107798096.84441566 0 107798096.84441566 74406190.124147415 0 0 0 0 -207435501.69943428 211167322.02897453 0 211167322.02897453 20673626.601928711 0 0 0 0 -134574137.88657379 122795297.54895782 0 122795297.54895782 108005646.8224678 0 0 0 0 -135567257.14043427 99847223.917728424 0 99847223.917728424 170819431.06823921 0 0 0 0 -287833359.97373962 153966308.41958237 0 153966308.41958237 128308767.25871277 0 0 0 0 -205731620.44564056 75034536.438796997 0 75034536.438796997 77689013.343420982 0 0 0 0 -184730.16920012422 29856086.151838616 0 29856086.151838616 101061151.08553255 0 0 0 0 -151542872.36841965 35658975.725830078 0 35658975.725830078 1241701141.755127 0 0 0 0 -1134522906.735508 745259810.15661621 0 745259810.15661621 1646144033.1382141 0 0 0 0 843295312.65233803 -3692188.1792488098 0 -3692188.1792488098 -307828835.65740967 0 0 0 0 623503767.16630554 -271297690.59161377 0 -271297690.59161377 -322233911.51495361 0 0 0 0 1381590.5845332816 -4467059.20110723 0 -4467059.20110723 2137323.4392554015 0 0 0 0 -251078055.71630859 192987393.34669495 0 192987393.34669495 994621511.57261658 0 0 0 0 -67098592.76442337 169947765.77804565 0 169947765.77804565 449141722.6336937 0 0 0 0 -232993809.56389427 148943481.95143127 0 148943481.95143127 503334695.42041016 0 0 0 0 -64740889.07642746 52893426.472198486 0 52893426.472198486 548604294.35137939 0 0 0 0 357279030.45823669 136499030.65322876 0 136499030.65322876 -598138581.07769775 0 0 0 0 -948621072.68038177 -138561904.61253357 0 -138561904.61253357 885719678.56341553 0 0 0 0 2175621.3511183644 -3150007.9738924988 0 -3150007.9738924988 -1958977.0991007984 0 0 0 0 -418690112.99569702 -69109623.152084351 0 -69109623.152084351 460026082.75311279 0 0 0 0 348415278.94664764 19886225.013595581 0 19886225.013595581 117381269.23709106 0 0 0 0 -2383531.1840209961 -196832738.53030396 0 -196832738.53030396 96321620.979364395 0 0 0 0 3092617.1515415385 -9467850.7767358162 0 -9467850.7767358162 6933481.4567217231 0 0 0 0 207278313.59331894 -111868563.26455688 0 -111868563.26455688 28769038.026321411 0 0 0 0 11145272.071428299 -31246165.285552979 0 -31246165.285552979 32240207.757064819 0 0 0 0 41152226.578409672 -50767419.845836639 0 -50767419.845836639 16615144.523742676 0 0 0 0 18887640.770172119 -25786699.815376282 0 -25786699.815376282 29835533.940582275 0 0 0 0 31624333.217353821 -40631412.911026001 0 -40631412.911026001 35187667.173835754 0 0 0 0 -110343739.92796135 -113155246.21346283 0 -113155246.21346283 10255384.041503906 0 0 0 0 162628955.36535454 -154144519.98580933 0 -154144519.98580933 -165873523.40356445 0 0 0 0 4456651.7666460397 -11729349.486446043 0 -11729349.486446043 11459774.358994588 0 0 0 0 215222106.61166763 12791325.643341064 0 12791325.643341064 -112105320.49107361 0 0 0 0 -239603887.98802471 28281518.431549072 0 28281518.431549072 304261392.66201782 0 0 0 0 349325340.49120903 -483749826.7565918 0 -483749826.7565918 -334451223.74085999 0 0 0 0 -708855300.87812805 277614904.67269897 0 277614904.67269897 984369991.39920044 0 0 0 0 -59058706.198551178 -28157767.748748779 0 -28157767.748748779 -165273699.41021729 0 0 0 0 -524883610.14536572 -507494068.28708649 0 -507494068.28708649 -81542501.697174072 0 0 0 0 4714164.2918074988 -6740430.2961286716 0 -6740430.2961286716 -4894489.395216912 0 0 0 0 23231264.236881256 -286794995.72859192 0 -286794995.72859192 54687990.123055458 0 0 0 0 176117737.33445454 -207198019.65374756 0 -207198019.65374756 -229642956.95953369 0 0 0 0 381056500.45537376 61521589.484146118 0 61521589.484146118 -140802293.97993088 0 0 0 0 12769607.452950776 338229460.14933777 0 338229460.14933777 -302811977.96369934 0 0 0 0 658517750.94813681 -52953549.606868744 0 -52953549.606868744 449670509.62240601 0 0 0 0 -112102150.93218565 -186992112.35971832 0 -186992112.35971832 1670293783.080246 0 0 0 0 2235628.6493411856 1829600.7845932022 0 1829600.7845932022 552407.8938729954 0 0 0 0 64537426.370887756 461249278.87683105 0 461249278.87683105 731175451.610672 0 0 0 0 7104870.7574968338 22676643.537223816 0 22676643.537223816 512890154.52944946 0 0 0 0 70788875.210386276 49247642.691619873 0 49247642.691619873 395103366.23303223 0 0 0 0 -14755415.304355621 75956463.302368164 0 75956463.302368164 397175253.28351021 0 0 0 0 60583564.202804565 105271143.2355957 0 105271143.2355957 441126703.42024231 0 0 0 0 167816430.36656952 127205408.17855072 0 127205408.17855072 213780342.5111084 0 0 0 0 -178868352.00808096 -85741069.199134827 0 -85741069.199134827 257509667.84747314 0 0 0 0 190688.92627420137 -72819.471982978284 0 -72819.471982978284 -579514.5639128536 0 0 0 0 150013282.25198364 44435636.546691895 0 44435636.546691895 -32860662.947814941 0 0 0 0 47091000.523412704 -2087276.9915924072 0 -2087276.9915924072 -179238033.45134354 0 0 0 0 55044272.510437012 46045577.08807373 0 46045577.08807373 215644691.33459473 0 0 0 0 68836250.441726685 43841762.358337402 0 43841762.358337402 214780610.47190857 0 0 0 0 -62929438.546180725 -20020172.978179932 0 -20020172.978179932 247371518.74493408 0 0 0 0 20047007.094409943 -3511517.3768005371 0 -3511517.3768005371 244706109.77158737 0 0 0 0 37331550.205760956 -17327915.879516602 0 -17327915.879516602 34427958.723999023 0 0 0 0 69916561.909492493 9714489.6222839355 0 9714489.6222839355 54664105.410583496 0 0 0 0 144101855.81044865 81635291.527900696 0 81635291.527900696 54701638.172973633 0 0 0 0 89797021.827430725 51046251.508178711 0 51046251.508178711 31248547.135498047 0 0 0 0 124885122.5241127 18158733.758270264 0 18158733.758270264 -31756991.947265625 0 0 0 0 100615401.95449829 28968398.466888428 0 28968398.466888428 -36315272.097442627 0 0 0 0 75703953.493087769 33770575.118667603 0 33770575.118667603 -60658269.952423096 0 0 0 0 115304475.02834702 27760095.471786499 0 27760095.471786499 -101128328.48980713 0 0 0 0 10304697.83480072 75185626.712615967 0 75185626.712615967 -88076165.099975586 0 0 0 0 78220573.490562439 13541579.424346924 0 13541579.424346924 -13077142.286865234 0 0 0 0 91577706.951835632 36058909.608459473 0 36058909.608459473 -132184648.08300781 0 0 0 0 70522495.338599205 64485940.461368561 0 64485940.461368561 -125826553.36755371 0 0 0 0 -26375346.179164886 110965265.56880188 0 110965265.56880188 -70134911.625244141 0 0 0 0 65571048.549308777 48625965.225067139 0 48625965.225067139 -81805262.609130859 0 0 0 0 -20486335.491921425 2640603.1779899597 0 2640603.1779899597 -12558438.512939453 0 0 0 0 -2758064.6597110578 6833417.7101438195 0 6833417.7101438195 1039382.2994528264 0 0 0 0 -432911.37936684396 906303.22949290276 0 906303.22949290276 -899772.97085665166 0 0 0 0 -23343940.227164268 80710369.029327393 0 80710369.029327393 83985516.165802002 0 0 0 0 68206978.733837128 13972318.188415527 0 13972318.188415527 -64826067.933654785 0 0 0 0 -69701305.903470516 52047768.824020386 0 52047768.824020386 148832469.90441895 0 0 0 0 127577891.15550995 -7197949.0581665039 0 -7197949.0581665039 -66207537.889785767 0 0 0 0 -5140978.4149165154 258405999.49419785 0 258405999.49419785 -95147171.674560547 0 0 0 0 -3896117.800324501 7459287.4511539787 0 7459287.4511539787 8619139.0500547066 0 0 0 0 -2071825.1531048417 -10671709.775054932 0 -10671709.775054932 -2770999.2201843262 0 0 0 0 -24079798.118896127 -6300119.3997573853 0 -6300119.3997573853 8812465.1363525391 0 0 0 0 -39760604.443956867 -22821353.523170471 0 -22821353.523170471 17618800.218597412 0 0 0 0 -19344872.166947633 -27641175.950027466 0 -27641175.950027466 13201397.319000244 0 0 0 0 -565794.55618035793 -5476661.4791870117 0 -5476661.4791870117 7139878.8328857422 0 0 0 0 -103671930.33885002 36856094.563140869 0 36856094.563140869 94786055.150238037 0 0 0 0 -1831996.7684731483 24385377.517333984 0 24385377.517333984 19316788.026184082 0 0 0 0 -7201185.9369829632 -3463290.3975977972 0 -3463290.3975977972 26482016.963033691 0 0 0 0 -44708798.203422546 74771420.088134766 0 74771420.088134766 56230665.047363281 0 0 0 0 -15294274.741084803 23840975.956293628 0 23840975.956293628 15498809.79908482 0 0 0 0 25956769.856536865 40955744.658111572 0 40955744.658111572 23380338.343566895 0 0 0 0 -44997233.640716553 98969541.476654053 0 98969541.476654053 26701309.885467529 0 0 0 0 -58698394.458930969 97512261.958084106 0 97512261.958084106 26770747.408416748 0 0 0 0 -27093131.49140374 -18049904.166677803 0 -18049904.166677803 61740463.229483336 0 0 0 0 -54373436.271002293 -50625864.237564087 0 -50625864.237564087 -4967488.4569702148 0 0 0 0 -70239302.519073486 13215892.342147827 0 13215892.342147827 77819383.704147339 0 0 0 0 -53296181.728796005 -47378892.225708008 0 -47378892.225708008 -2011298.1115837097 0 0 0 0 2689304.197597594 1339186.0320315361 0 1339186.0320315361 -452633.58631999046 0 0 0 0 -505797.35272026062 21975714.53918457 0 21975714.53918457 107718801.84350586 0 0 0 0 -471224.32608865394 182722.84324262291 0 182722.84324262291 23184.235361218452 0 0 0 0 -1562170.9624977112 45687156.37789917 0 45687156.37789917 126870458.67050171 0 0 0 0 -4343474.4594912529 14679427.012573242 0 14679427.012573242 143660595.85571289 0 0 0 0 -174880882.9282093 -174953575.00504303 0 -174953575.00504303 -160189261.73379517 0 0 0 0 -47749181.744901657 -35665630.208526611 0 -35665630.208526611 -2922848.3061523438 0 0 0 0 -46035440.865098953 -48025811.29598999 0 -48025811.29598999 -19807486.884102821 0 0 0 0 -46916936.228495836 -40971342.747776031 0 -40971342.747776031 -19938377.469787598 0 0 0 0 -117055657.87628174 11690563.725679398 0 11690563.725679398 136767669.19108963 0 0 0 0 -15288614.069071133 114091.21400544047 0 114091.21400544047 94715212.940203652 0 0 0 0 -109557703.78913116 -24862886.517525434 0 -24862886.517525434 121319251.90238571 0 0 0 0 -53325552.496302605 -53881984.707183838 0 -53881984.707183838 -10749533.514648438 0 0 0 0 -148004677.30490112 18063567.61674118 0 18063567.61674118 138442193.0954895 0 0 0 0 -143236630.84170532 10331180.617012024 0 10331180.617012024 150352510.23557281 0 0 0 0 -169976731.54729462 38020281.483421326 0 38020281.483421326 148983128.26833344 0 0 0 0 -149241458.63620758 31678105.478975296 0 31678105.478975296 142056601.19381332 0 0 0 0 -402879141.45729303 576570403.56442833 0 576570403.56442833 -390644935.02871704 0 0 0 0 -5692310.5891561508 33492059.666485481 0 33492059.666485481 114438185.31068678 0 0 0 0 -155839388.75440979 26243155.489280701 0 26243155.489280701 156337023.66960812 0 0 0 0 -149140137.90592766 40337950.348008513 0 40337950.348008513 144191381.24824524 0 0 0 0 -151462553.65112305 28784397.009395599 0 28784397.009395599 139297275.74171925 0 0 0 0 -10176504.756325049 7786123.3326381817 0 7786123.3326381817 15133888.907827452 0 0 0 0 -333677848.80344391 95359843.44140625 0 95359843.44140625 135747849.38905334 0 0 0 0 -335324112.54381561 222563880.63043213 0 222563880.63043213 -228589517.57159424 0 0 0 0 -144476142.64926529 231317931.12982178 0 231317931.12982178 -141251361.86029053 0 0 0 0 19600140.083137512 79057536.068634033 0 79057536.068634033 -209125554.19947815 0 0 0 0 -255245037.2796936 283690124.63391113 0 283690124.63391113 -289459887.43859863 0 0 0 0 137891888.73287201 -52220254.340789795 0 -52220254.340789795 -191245992.17991638 0 0 0 0 -6726178.0463027954 -52435201.725616455 0 -52435201.725616455 13709646.721496582 0 0 0 0 3921500.4446792603 -839741.29467773438 0 -839741.29467773438 18664402.439025879 0 0 0 0 -81685554.162101746 -151267999.06616211 0 -151267999.06616211 336258197.1831665 0 0 0 0 -105910586.83448792 -414080227.91094971 0 -414080227.91094971 892288863.22720337 0 0 0 0 -90418013.837270737 -239865019.51286316 0 -239865019.51286316 -15091478.550231934 0 0 0 0 676925313.36156845 -569926304.42237854 0 -569926304.42237854 -607511446.89825439 0 0 0 0 50881457.353627205 427932327.87803841 0 427932327.87803841 -787666020.25009155 0 0 0 0 -194418426.40575409 134050292.03872681 0 134050292.03872681 84359718.930333138 0 0 0 0 -153089007.09375 57617968.438488007 0 57617968.438488007 108137958.35618019 0 0 0 0 -172941449.50862122 52860879.658058167 0 52860879.658058167 168643054.90428352 0 0 0 0 -214008931.01138306 84732839.726085663 0 84732839.726085663 192650071.4920311 0 0 0 0 -154419607.76836777 19110490.50551033 0 19110490.50551033 243895392.22801208 0 0 0 0 -169318704.10368538 81525207.603967667 0 81525207.603967667 279854933.15049362 0 0 0 0 -191180969.98783112 1742522.4167947769 0 1742522.4167947769 199558305.32559013 0 0 0 0 -184382214.76079559 18535999.081508636 0 18535999.081508636 218810124.06734467 0 0 0 0 -200048595.34156799 74377072.753932953 0 74377072.753932953 184964172.75854492 0 0 0 0 -182812473.27960205 25561057.100814819 0 25561057.100814819 182045633.3649323 0 0 0 0 -159992138.86947632 -4737559.2240467072 0 -4737559.2240467072 161942587.94662476 0 0 0 0 -168897522.18190002 -2191447.1966228485 0 -2191447.1966228485 179228329.39255404 0 0 0 0 -177823688.62873077 -4585129.3159122467 0 -4585129.3159122467 198368364.64994431 0 0 0 0 -175397950.16221619 -61019643.858310699 0 -61019643.858310699 170870881.93436241 0 0 0 0 -179779172.21160126 -37336907.018283844 0 -37336907.018283844 205140016.94585419 0 0 0 0 -154119952.19918823 -19940207.042604446 0 -19940207.042604446 158932904.09821844 0 0 0 0 -161225896.58322144 -35159508.695220947 0 -35159508.695220947 154545122.43857956 0 0 0 0 -168142630.21685791 -57895525.164274216 0 -57895525.164274216 153508419.81612468 0 0 0 0 -196061037.83892822 -140598316.28041267 0 -140598316.28041267 96682121.747048378 0 0 0 0 -7615428.0956865838 -15066834.915191948 0 -15066834.915191948 89601169.174667656 0 0 0 0 -145870486.82264709 -106723642.22899818 0 -106723642.22899818 59936725.852173805 0 0 0 0 -128372561.97169495 -50801659.305499077 0 -50801659.305499077 85937237.887390137 0 0 0 0 -182311744.58683777 -94216266.114590645 0 -94216266.114590645 143015534.17740011 0 0 0 0 -167862129.35372925 -80821384.810764313 0 -80821384.810764313 136494119.53976822 0 0 0 0 -161479981.97807693 -50867824.767423153 0 -50867824.767423153 140144643.24119186 0 0 0 0 -155976672.23968506 -120250804.44098949 0 -120250804.44098949 164407809.15214705 0 0 0 0 -152212605.61136627 -124826298.43400574 0 -124826298.43400574 117827893.25526881 0 0 0 0 -160592616.59465027 -102513905.72496986 0 -102513905.72496986 174847826.49991608 0 0 0 0 -144703470.79975891 -106198859.16352749 0 -106198859.16352749 192791754.91929054 0 0 0 0 -147165362.69036865 -91330805.680538177 0 -91330805.680538177 160432137.54963946 0 0 0 0 -177318947.33199692 -71006948.159749031 0 -71006948.159749031 251823299.75172615 0 0 0 0 -173547065.25799561 -55156581.703275681 0 -55156581.703275681 185989620.69305611 0 0 0 0 -191239669.31813312 -121030.4195202738 0 -121030.4195202738 286950513.39448166 0 0 0 0 -176060184.75663757 -42897508.125857353 0 -42897508.125857353 233251837.39867306 0 0 0 0 -150010936.26361847 -115237291.90442848 0 -115237291.90442848 277362844.47016335 0 0 0 0 -180874140.84883881 -47918769.841520309 0 -47918769.841520309 382485136.4395504 0 0 0 0 -142087572.14135742 -95781666.540469885 0 -95781666.540469885 230217660.97400665 0 0 0 0 -67840314.429901123 -188339516.23355722 0 -188339516.23355722 169448743.17948103 0 0 0 0 -105053532.60231543 -261834449.09895241 0 -261834449.09895241 488393184.50883865 0 0 0 0 -89137724.655742645 -301095908.3913424 0 -301095908.3913424 228124259.13838983 0 0 0 0 -129510509.95428085 -143562071.26593876 0 -143562071.26593876 555895198.70392227 0 0 0 0 -135408770.54099369 -66714583.406019688 0 -66714583.406019688 374803014.7339077 0 0 0 0 -44347787.729701996 171785382.51321697 0 171785382.51321697 538658919.37568283 0 0 0 0 -127188601.0212326 68777113.00510025 0 68777113.00510025 333738358.69255018 0 0 0 0 -126606760.99808502 57854202.434252739 0 57854202.434252739 382476973.49331093 0 0 0 0 -64341541.08623457 131411131.03855419 0 131411131.03855419 244482878.5500946 0 0 0 0 -66355562.095314026 114546731.08086777 0 114546731.08086777 164770107.41128349 0 0 0 0 30741431.173698425 217545899.61468124 0 217545899.61468124 320597860.45027637 0 0 0 0 53694932.596688271 180872773.37744904 0 180872773.37744904 222385912.15769577 0 0 0 0 100647487.79537392 233690304.42901659 0 233690304.42901659 236481981.18447876 0 0 0 0 48288392.556361437 4700663.1728057861 0 4700663.1728057861 767611528.93789673 0 0 0 0 35259149.123210929 -103727356.23012066 0 -103727356.23012066 679969289.45367432 0 0 0 0 -122682.24259372294 -51695.602873645723 0 -51695.602873645723 2769943.4062047019 0 0 0 0 -35936834.306521475 14264376.890899658 0 14264376.890899658 892037470.48352051 0 0 0 0 -69846747.15334177 -67598728.849411011 0 -67598728.849411011 979127547.78912354 0 0 0 0 -44481573.907547832 -99689535.856292725 0 -99689535.856292725 840783001.15126038 0 0 0 0 -6101777.8747724891 -76238014.94317627 0 -76238014.94317627 765074165.80639648 0 0 0 0 -46800717.669267774 -159883031.38615417 0 -159883031.38615417 748808241.23840332 0 0 0 0 17236528.228889674 -130962186.23982239 0 -130962186.23982239 453057539.06057739 0 0 0 0 31703144.252146684 -125948624.54619598 0 -125948624.54619598 465129914.39361572 0 0 0 0 -10882149.146094106 -133546913.66905212 0 -133546913.66905212 620674551.8548584 0 0 0 0 -17692834.885186285 -129956323.22694397 0 -129956323.22694397 652262639.25983429 0 0 0 0 24349519.780203275 -107038235.79241943 0 -107038235.79241943 640400911.88592529 0 0 0 0 12223003.972887434 -59664465.994064331 0 -59664465.994064331 464162568.65103149 0 0 0 0 -11227685.87875846 -79986190.607391357 0 -79986190.607391357 572684787.63959885 0 0 0 0 -12799120.108687613 -64903168.608215332 0 -64903168.608215332 653210324.6363678 0 0 0 0 -6159591.9376979917 -61210589.381225586 0 -61210589.381225586 570855906.62388611 0 0 0 0 8638154.8364247307 -102829384.57119751 0 -102829384.57119751 530687729.10741425 0 0 0 0 37720106.725741908 -32932056.459259033 0 -32932056.459259033 560596312.70556641 0 0 0 0 -90757.119746405617 -99685291.152206421 0 -99685291.152206421 629831743.33251953 0 0 0 0 115843762.6734039 -162568985.5677948 0 -162568985.5677948 268668641.06158447 0 0 0 0 -2552055.6780305058 -37237721.437164307 0 -37237721.437164307 669594266.48669434 0 0 0 0 -37955902.808184855 -35438069.384155273 0 -35438069.384155273 673628816.43768311 0 0 0 0 -134878.84933174361 209834.82579174638 0 209834.82579174638 850287.08629214403 0 0 0 0 -39235476.345202282 -79897398.425262451 0 -79897398.425262451 742852349.06420803 0 0 0 0 -37585263.771484241 -41116905.11932373 0 -41116905.11932373 695779619.43688965 0 0 0 0 -27970962.115656015 -98357738.50062561 0 -98357738.50062561 677833099.29968262 0 0 0 0 11058749.277714372 -35773652.006347656 0 -35773652.006347656 32435859.578796387 0 0 0 0 -15430487.503292382 -12918718.058868408 0 -12918718.058868408 57867038.422756195 0 0 0 0 22963191.369284213 -7225893.6604156494 0 -7225893.6604156494 -17282140.442932129 0 0 0 0 -5166955.1001474261 2235020.0504150391 0 2235020.0504150391 12688177.142333984 0 0 0 0 77375.290036135702 -212263.5561245475 0 -212263.5561245475 256490.72254838049 0 0 0 0 -38399665.837032467 36982575.183181763 0 36982575.183181763 163350320.31732178 0 0 0 0 -5330.8137594070913 -19799030.231758118 0 -19799030.231758118 -59738392.981964111 0 0 0 0 45361394.516323775 -20174253.514877319 0 -20174253.514877319 -18915937.448242188 0 0 0 0 5946472.7088133097 9943938.0691833496 0 9943938.0691833496 -17785989.905586243 0 0 0 0 -11581187.659100369 7770066.4701538086 0 7770066.4701538086 -11570540.951171875 0 0 0 0 236754.01229515095 -737753.96036717203 0 -737753.96036717203 644427.61561724544 0 0 0 0 5074730.7709154487 -2386559.671585083 0 -2386559.671585083 -15877270.638000488 0 0 0 0 -11423849.408518896 -3487150.7425994873 0 -3487150.7425994873 1934695.2237548828 0 0 0 0 -1309737.9482948226 168341.47167517245 0 168341.47167517245 7621159.3824042231 0 0 0 0 255467827.92514467 51004225.505813599 0 51004225.505813599 25429409.627563477 0 0 0 0 -972674.65637055167 -2684377.6199544966 0 -2684377.6199544966 6588497.6483218074 0 0 0 0 141291686.09403479 282788916.8336792 0 282788916.8336792 237176519.90560913 0 0 0 0 76234668.309953332 310742152.05648422 0 310742152.05648422 382651903.01855469 0 0 0 0 83395689.696731567 298801150.1736908 0 298801150.1736908 323396075.07797241 0 0 0 0 82977897.208803654 257318021.44114685 0 257318021.44114685 313523940.54309464 0 0 0 0 884414.78619516944 -4146250.1371106282 0 -4146250.1371106282 5351448.1017828584 0 0 0 0 662521.05001910031 -20307432.314311981 0 -20307432.314311981 4341313.052154541 0 0 0 0 25188272.564047575 8718514.2125549316 0 8718514.2125549316 9019653.7601013184 0 0 0 0 3519925.3524881531 -4913715.5797601864 0 -4913715.5797601864 4036466.3141011596 0 0 0 0 -245886146.49163032 -48615049.155380249 0 -48615049.155380249 356753882.59927368 0 0 0 0 -9626526.0568593144 -5454676.8274917603 0 -5454676.8274917603 21731143.259674072 0 0 0 0 -215321400.95236135 324726704.33165264 0 324726704.33165264 667380737.81640625 0 0 0 0 -200891814.85006571 415770596.1980896 0 415770596.1980896 371514217.17671204 0 0 0 0 65038842.70387125 259249328.00691223 0 259249328.00691223 373542295.31008911 0 0 0 0 -618392084.89761734 472155222.3932724 0 472155222.3932724 749886007.33956909 0 0 0 0 -240314.61464179249 -2971224.5391146927 0 -2971224.5391146927 7959610.3116640449 0 0 0 0 -795218409.19003344 580231812.80065918 0 580231812.80065918 1400403478.7381287 0 0 0 0 785592512.92701054 -1038815835.6798553 0 -1038815835.6798553 -1293428068.9326782 0 0 0 0 -499066111.28470039 -780303880.73448181 0 -780303880.73448181 2659579871.244873 0 0 0 0 1085152304.8158951 -1980972158.7888641 0 -1980972158.7888641 23110597.681945801 0 0 0 0 -576502850.04305696 117043196.73594666 0 117043196.73594666 568625333.67225647 0 0 0 0 -573129924.35546923 71766559.11252594 0 71766559.11252594 1078080351.3117752 0 0 0 0 -641962950.90715766 -193655616.20187759 0 -193655616.20187759 266673951.2303772 0 0 0 0 -22556727.355926037 -582087516.49382019 0 -582087516.49382019 372170988.95135593 0 0 0 0 115344617.29964852 -455100003.79171753 0 -455100003.79171753 352860747.66867065 0 0 0 0 1222124055.593827 -1081208525.8073616 0 -1081208525.8073616 260821529.63391113 0 0 0 0 362223425.63277674 -1324734590.3124466 0 -1324734590.3124466 1783632934.8014221 0 0 0 0 -339197775.6747427 622049247.0997467 0 622049247.0997467 2068319888.1517334 0 0 0 0 996585203.48954582 757836385.13157654 0 757836385.13157654 -1782218705.5967102 0 0 0 0 616046726.84174538 1793911828.2279663 0 1793911828.2279663 103342742.86602783 0 0 0 0 -479796130.7779848 29599758.514709473 0 29599758.514709473 406964163.58607101 0 0 0 0 -110459750.12931484 -215671628.35958862 0 -215671628.35958862 -365089293.6217041 0 0 0 0 90413872.049260139 -126430806.69126892 0 -126430806.69126892 663099761.68835449 0 0 0 0 38717416.469965935 -301452325.08831787 0 -301452325.08831787 1115855806.1656189 0 0 0 0 -119423025.11077118 -268622234.16348267 0 -268622234.16348267 1279137130.0174561 0 0 0 0 6034583.374478084 1467929.5868441314 0 1467929.5868441314 1576065.9804203922 0 0 0 0 -48028585.805508614 176829226.77519226 0 176829226.77519226 1411352078.0498657 0 0 0 0 -159094184.02214622 -371073186.237854 0 -371073186.237854 1495818149.6464233 0 0 0 0 255046222.77282715 68342384.856231689 0 68342384.856231689 528918387.76104736 0 0 0 0 711071.26255321503 106625531.37155151 0 106625531.37155151 525813626.85603523 0 0 0 0 -23967487.232488632 -49736199.923965454 0 -49736199.923965454 1067442650.4465027 0 0 0 0 -26384983.569917262 21643478.39424181 0 21643478.39424181 664646509.63793945 0 0 0 0 28618095.36075592 -86842580.173126221 0 -86842580.173126221 498688359.12524414 0 0 0 0 -121872390.39974785 62899161.45854187 0 62899161.45854187 616802244.56181717 0 0 0 0 72990301.725273728 -20645219.058280945 0 -20645219.058280945 809940621.96240234 0 0 0 0 2679039.2799297571 -118819849.15377808 0 -118819849.15377808 871207136.63809204 0 0 0 0 -37800393.914448261 129033647.17306519 0 129033647.17306519 1291843896.5079346 0 0 0 0 1911274.2012373293 -85902.374832719564 0 -85902.374832719564 -190196.29014470428 0 0 0 0 4959995.0336943846 -1973782.9088246673 0 -1973782.9088246673 3499765.4843110433 0 0 0 0 -121158175.62768602 -100419218.70095825 0 -100419218.70095825 1913376308.6786194 0 0 0 0 264972276.76881504 -107752913.68835449 0 -107752913.68835449 45124325.714654446 0 0 0 0 625296977.26422882 77946442.635696411 0 77946442.635696411 936516997.92956543 0 0 0 0 185903298.9555774 -369476110.35242462 0 -369476110.35242462 804299241.57208252 0 0 0 0 46669645.628137589 -58728345.337402344 0 -58728345.337402344 921507017.94129944 0 0 0 0 99244860.503245354 122859482.34991455 0 122859482.34991455 592324093.02981567 0 0 0 0 145271927.78964901 -109074662.44689941 0 -109074662.44689941 382498728.13389587 0 0 0 0 -113095008.00000429 -71218269.012390137 0 -71218269.012390137 552423073.59463501 0 0 0 0 33733317.951054096 -279910680 0 -279910680 359746251.29705811 0 0 0 0 -93631483.429249525 -188171105.1315918 0 -188171105.1315918 904773206.76027679 0 0 0 0 -26427339.523226023 -227232221.391922 0 -227232221.391922 465830406.86602783 0 0 0 0 16799928.334501628 -195096484.7191925 0 -195096484.7191925 264292089.96386719 0 0 0 0 26115014.851745203 -92164159.860672951 0 -92164159.860672951 -43935604.088989258 0 0 0 0 -179138906.58379912 16116728.848266602 0 16116728.848266602 105552977.62042236 0 0 0 0 -198658768.56253958 -236242319.41821289 0 -236242319.41821289 359336689.41345215 0 0 0 0 -42531029.366219521 -269992094.78704834 0 -269992094.78704834 287564828.27404785 0 0 0 0 -110114872.40940523 12538094.71163559 0 12538094.71163559 -98551294.910949707 0 0 0 0 -26970749.013045654 160405148.69827557 0 160405148.69827557 123641347.33117676 0 0 0 0 63668807.032668114 -128406994.98016357 0 -128406994.98016357 -47237701.716125488 0 0 0 0 -202310475.01643908 -46037908.07634449 0 -46037908.07634449 -57638435.166992188 0 0 0 0 -196208247.85684538 -88592269.972915649 0 -88592269.972915649 -37386482.047225952 0 0 0 0 21070.223747448646 281204.81936272234 0 281204.81936272234 -13484.041314423084 0 0 0 0 -8069656.0185852051 32268641.193878174 0 32268641.193878174 -96093572.568695068 0 0 0 0 76316.82957375524 213824.07422034675 0 213824.07422034675 -138065.77099938691 0 0 0 0 933175.64846603875 2388190.8945450336 0 2388190.8945450336 -6507.5577524006367 0 0 0 0 -1555384.3421309143 1314901.5108952522 0 1314901.5108952522 2355347.893951416 0 0 0 0 -148230284.77905002 -13027252.789823532 0 -13027252.789823532 59240798.963195801 0 0 0 0 -1634950.3052920366 -12325.279680089792 0 -12325.279680089792 1451049.8593324125 0 0 0 0 -113021213.78633332 10918794.024139404 0 10918794.024139404 -3021135.4722900391 0 0 0 0 -108422193.09329456 32709916.304973602 0 32709916.304973602 93179654.610473633 0 0 0 0 -19307896.409603119 -30693850.637664795 0 -30693850.637664795 58118292.521728516 0 0 0 0 45332234.019302368 134673054.87243652 0 134673054.87243652 290363596.1061554 0 0 0 0 34694095.131166458 -667778.19975280762 0 -667778.19975280762 -11894266.171142578 0 0 0 0 52467229.518218994 71243935.358978271 0 71243935.358978271 -7657723.5666503906 0 0 0 0 15880851.433980465 -13384648.149269104 0 -13384648.149269104 151459636.0993042 0 0 0 0 16567370.640388489 70363895.514770508 0 70363895.514770508 129083493.51263428 0 0 0 0 81248848.544378281 -24510992.458709717 0 -24510992.458709717 -2265280.7058105469 0 0 0 0 126702928.94675803 -4090698.3731231689 0 -4090698.3731231689 167288413.77557373 0 0 0 0 -31016871.763853073 -99616962.747680664 0 -99616962.747680664 -31741007.511283875 0 0 0 0 154927357.20966101 13052228.555175781 0 13052228.555175781 -57551515.355285645 0 0 0 0 43385774.233241081 -121368350.64361572 0 -121368350.64361572 -108631046.43998718 0 0 0 0 -738691.10510534514 3237336.0253974348 0 3237336.0253974348 789192.7773860395 0 0 0 0 -1111020.1357350349 2242808.416015625 0 2242808.416015625 3821246.2270202637 0 0 0 0 -1034763.2136049271 590984.32693481445 0 590984.32693481445 1391364.8473052979 0 0 0 0 -18173298.778071702 55650617.752038002 0 55650617.752038002 -64929663.010498047 0 0 0 0 48437067.939134598 -16610565.358581543 0 -16610565.358581543 -121623654.67729187 0 0 0 0 1503908.9466218948 4243727.7861175537 0 4243727.7861175537 -54737506.525268555 0 0 0 0 9829102.1916379929 67172286.067276001 0 67172286.067276001 -34727111.777313232 0 0 0 0 -5142991.3038168848 3341581.5556564331 0 3341581.5556564331 -8300305.3775024414 0 0 0 0 -4332255.8170530573 693158.33411158621 0 693158.33411158621 2506992.5897334442 0 0 0 0 -3081102.9852837259 -106538.82837641984 0 -106538.82837641984 1595730.826670289 0 0 0 0 -1190575.2927830964 15808204.638336182 0 15808204.638336182 -9357388.8618164062 0 0 0 0 23637061.967323661 -13470994.69519043 0 -13470994.69519043 1588374.512377739 0 0 0 0 -8087117.552382879 -1469667.9464836121 0 -1469667.9464836121 1147571.0112915039 0 0 0 0 -7922218.1463190317 20772857.068878174 0 20772857.068878174 12433933.774627686 0 0 0 0 -125757870.67339173 79076540.756256104 0 79076540.756256104 44752434.278869629 0 0 0 0 -33969591.90267396 51031427.105148315 0 51031427.105148315 8903313.7017822266 0 0 0 0 -106191597.05719948 32971193.926330566 0 32971193.926330566 18241783.139465332 0 0 0 0 -2896800.453204155 106053.80799865723 0 106053.80799865723 2344627.0119781494 0 0 0 0 -1594577.7261255002 152600.16239957511 0 152600.16239957511 1621918.4113889635 0 0 0 0 -1004059.1363821584 588.68106546928175 0 588.68106546928175 920975.83582162857 0 0 0 0 -2227743.1892490387 4906581.6175689697 0 4906581.6175689697 24669085.986328125 0 0 0 0 -29424423.542171896 4977908.7141418457 0 4977908.7141418457 4301962.8988037109 0 0 0 0 -93352915.514504164 95893296.58039856 0 95893296.58039856 -63613984.805221558 0 0 0 0 -1215443.9028844074 251976.38472843915 0 251976.38472843915 973640.57865904272 0 0 0 0 4473080.7637261152 1774484.404510498 0 1774484.404510498 -32334597.836921692 0 0 0 0 -107793321.06360078 26499101.302612305 0 26499101.302612305 52608760.845794678 0 0 0 0 -45287990.226769179 255588263.48603821 0 255588263.48603821 -134474708.54882812 0 0 0 0 44639207.404702716 -51436382.081230164 0 -51436382.081230164 120628711.1335144 0 0 0 0 16566638.085561946 48193451.258987427 0 48193451.258987427 76758629.323455811 0 0 0 0 -23393129.670849144 -24102982.941604614 0 -24102982.941604614 60372820.942647934 0 0 0 0 60716045.590366393 -70839475.38470459 0 -70839475.38470459 127077360.17367554 0 0 0 0 14138284.913874388 -103250503.85171509 0 -103250503.85171509 234124303.44000244 0 0 0 0 -1714975.2008752525 14895566.053939819 0 14895566.053939819 122776047.07058716 0 0 0 0 3347973.0758314133 -3464916.1377868652 0 -3464916.1377868652 90357239.927337646 0 0 0 0 45042376.826447159 -21239409.761627197 0 -21239409.761627197 187040851.29918671 0 0 0 0 62326952.983934045 -82578587.687599182 0 -82578587.687599182 210438408.82519531 0 0 0 0 29146383.857117221 -47620228.418991089 0 -47620228.418991089 261262642.13916016 0 0 0 0 46594588.544732928 -136794989.17086792 0 -136794989.17086792 313807496.01550293 0 0 0 0 13208301.697569393 -77715705.615142822 0 -77715705.615142822 446416494.05484009 0 0 0 0 7845165.1274293661 -181456603.50186157 0 -181456603.50186157 421462188.50843811 0 0 0 0 9255901.9831603765 -112567477.2817688 0 -112567477.2817688 393078226.7638855 0 0 0 0 41331897.439087376 -78591446.768984795 0 -78591446.768984795 254434575.81274414 0 0 0 0 68030.349352865043 -24450553.646064758 0 -24450553.646064758 406405393.58537292 0 0 0 0 28075651.992885828 -51742878.432113647 0 -51742878.432113647 352082457.61138153 0 0 0 0 36254148.116660014 -121686531.85567474 0 -121686531.85567474 388310044.75588989 0 0 0 0 50170390.578978434 -34279232.625823975 0 -34279232.625823975 236930912.73147583 0 0 0 0 32513707.084520034 -66862909.562103271 0 -66862909.562103271 339540148.28265381 0 0 0 0 61269927.450772256 10358177.879150391 0 10358177.879150391 179112367.72351074 0 0 0 0 59169.186152290757 3823290.2265531113 0 3823290.2265531113 223492815.70144653 0 0 0 0 61893156.960573018 12738335.875930786 0 12738335.875930786 160070593.11100006 0 0 0 0 60741286.600638188 -61084045.545120239 0 -61084045.545120239 197006639.58686829 0 0 0 0 53374245.242275529 -8155627.1805725098 0 -8155627.1805725098 129264555.59005737 0 0 0 0 89459566.377016112 22239857.329483032 0 22239857.329483032 108638978.70098877 0 0 0 0 -5027.7858744841215 38842618.946998596 0 38842618.946998596 170890995.96021652 0 0 0 0 62196375.25555715 71706331.318374634 0 71706331.318374634 153735401.7671814 0 0 0 0 -38235263.224540874 17763920.450332642 0 17763920.450332642 129408055.89241028 0 0 0 0 -43915541.961109191 -57869153.578161716 0 -57869153.578161716 -5576261.0766906738 0 0 0 0 85419.265214754138 47246460.686340332 0 47246460.686340332 59882501.60333252 0 0 0 0 -30010189.536975846 14959500.299385071 0 14959500.299385071 359189531.18304443 0 0 0 0 -209174.88915359031 73697.906367689371 0 73697.906367689371 219724.79396563023 0 0 0 0 -26866026.231082141 143259111.05825806 0 143259111.05825806 333090068.67959595 0 0 0 0 72951738.996559113 280459371.61103821 0 280459371.61103821 186506886.30979919 0 0 0 0 -90874.634256946621 -88911.091411553323 0 -88911.091411553323 425012.46847131848 0 0 0 0 5868333.8984019607 63387803.585403442 0 63387803.585403442 11394899.576309204 0 0 0 0 118115046.86878097 163317199.14607239 0 163317199.14607239 280621493.03917694 0 0 0 0 37399021.034930229 58639565.601867676 0 58639565.601867676 166902394.91238403 0 0 0 0 -35957507.03583464 -29620882.544548035 0 -29620882.544548035 74082109.849365234 0 0 0 0 -138727.30939430327 -272026.5271795094 0 -272026.5271795094 915590.76371029019 0 0 0 0 113129043.87132651 -3997251.7720108032 0 -3997251.7720108032 45556040.741668701 0 0 0 0 -67654596.428206325 12132635.757637024 0 12132635.757637024 166337760.21853638 0 0 0 0 -35057836.645114124 69955088.746749878 0 69955088.746749878 134895183.3359375 0 0 0 0 -162256.3684963909 19513.95975420624 0 19513.95975420624 255813.98174912483 0 0 0 0 17833866.339859053 24684690.483779907 0 24684690.483779907 184740310.7962265 0 0 0 0 14766866.890138984 66493768.514007568 0 66493768.514007568 214406969.89163208 0 0 0 0 57983526.93242979 211584658.93972778 0 211584658.93972778 231370603.97288513 0 0 0 0 -120229.69970269974 -23567.927789531648 0 -23567.927789531648 171525.57962626964 0 0 0 0 8789776.3076939583 63213795.159881592 0 63213795.159881592 320965875.23171997 0 0 0 0 6055612.4861787707 69332328.702476501 0 69332328.702476501 309563710.34136963 0 0 0 0 -50098.499277391064 56419.719319179654 0 56419.719319179654 226024.99855615944 0 0 0 0 15473569.709165685 25981963.637298584 0 25981963.637298584 105503059.41860962 0 0 0 0 5599439.0988468528 70347022.173339844 0 70347022.173339844 80046545.26902771 0 0 0 0 25422716.344655842 4360333.1902923584 0 4360333.1902923584 91313703.226776123 0 0 0 0 -6319245.9389721602 31962013.656860352 0 31962013.656860352 221433103.02078247 0 0 0 0 1703185.3705160469 28325030.828155518 0 28325030.828155518 221329636.5683589 0 0 0 0 -7499.3769036155336 2449173.9738388062 0 2449173.9738388062 192918563.17883301 0 0 0 0 -8446112.7592260502 30846599.359558105 0 30846599.359558105 218747787.74461365 0 0 0 0 -16678.126422596462 -2567223.3178939819 0 -2567223.3178939819 263105309.16220093 0 0 0 0 -9322742.260457864 -1691166.3488693237 0 -1691166.3488693237 276938598.12557983 0 0 0 0 6042551.5909345262 -23347933.912239075 0 -23347933.912239075 294668571.81973267 0 0 0 0 -8833333.0904166624 15108528.17868042 0 15108528.17868042 274010191.57646179 0 0 0 0 -11607794.427866109 7646028.2690372467 0 7646028.2690372467 267261415.58773804 0 0 0 0 -3178669.3583708629 19477046.626773834 0 19477046.626773834 279922621.01760864 0 0 0 0 -2058180.8492153585 22975113.411849976 0 22975113.411849976 282396251.07261658 0 0 0 0 -5955810.8267921656 -5627760.8233337402 0 -5627760.8233337402 319725356.7749939 0 0 0 0 8573792.9881391227 38067113.845882416 0 38067113.845882416 360581480.55749512 0 0 0 0 9846217.5900893807 37578772.388946533 0 37578772.388946533 297604092.54200745 0 0 0 0 -16165953.793298602 13032136.021911621 0 13032136.021911621 341513587.39801025 0 0 0 0 -4234370.0894300342 10804392.609777451 0 10804392.609777451 335447875.18383789 0 0 0 0 -10592857.065495402 -9777728.8480949402 0 -9777728.8480949402 428993018.52679443 0 0 0 0 54344575.424201354 1086710.4707336426 0 1086710.4707336426 313459853.23123169 0 0 0 0 343500.85913030634 -1411.3441916033626 0 -1411.3441916033626 436310.79736336507 0 0 0 0 -851041.38849395514 -29659440.16784668 0 -29659440.16784668 377442389.89385986 0 0 0 0 6460673.0982130766 -34610948.608505249 0 -34610948.608505249 361423568.42444611 0 0 0 0 -13512275.809947535 -19567436.030937195 0 -19567436.030937195 336383542.15252686 0 0 0 0 247698.27175692338 81975.158417731524 0 81975.158417731524 584088.53274616972 0 0 0 0 -2087740.3411113322 -8403722.0829467773 0 -8403722.0829467773 317236063.05513 0 0 0 0 73587483.387016475 15298715.418792725 0 15298715.418792725 386253357.38066483 0 0 0 0 -87141375.908771724 -80329735.700805664 0 -80329735.700805664 570769593.63867188 0 0 0 0 26230926.56062907 214042256.65501404 0 214042256.65501404 622415672.86237335 0 0 0 0 -52067336.683328748 22602723.038421631 0 22602723.038421631 27128870.708471298 0 0 0 0 411903.5606815411 421655.61496840417 0 421655.61496840417 1571642.9167492986 0 0 0 0 -61349236.1389919 -126148190.51631391 0 -126148190.51631391 278647712.73828125 0 0 0 0 -61175246.922797561 -144367961.41065979 0 -144367961.41065979 8679686.5255737305 0 0 0 0 33480626.817662023 -10553088.90512085 0 -10553088.90512085 142410756.38388062 0 0 0 0 -6576518.5413104296 23730470.780548096 0 23730470.780548096 169215343.42567444 0 0 0 0 9214405.7682422996 -19255968.195678711 0 -19255968.195678711 265107310.94132996 0 0 0 0 -51544222.428154081 -47373449.816936493 0 -47373449.816936493 479851671.19845581 0 0 0 0 49973.528427096971 81145.400652140379 0 81145.400652140379 644826.21095595695 0 0 0 0 47176.532824456655 36050951.015670776 0 36050951.015670776 300971443.15797424 0 0 0 0 -30787740.137035877 17618726.228042603 0 17618726.228042603 417897433.78353882 0 0 0 0 -25770763.231156051 39032941.5234375 0 39032941.5234375 271993262.24168396 0 0 0 0 -27170440.151420593 22704463.984893799 0 22704463.984893799 206308651.305691 0 0 0 0 -48919957.278609842 45664070.141994476 0 45664070.141994476 292229464.58215332 0 0 0 0 -17935788.224594533 50132878.715423584 0 50132878.715423584 206779129.01580811 0 0 0 0 -17249719.589489937 44966841.926269531 0 44966841.926269531 117674177.7482605 0 0 0 0 -11839482.220659256 27052234.515274048 0 27052234.515274048 141360464.26477051 0 0 0 0 6575287.7420567274 43533622.549179077 0 43533622.549179077 143716162.63861084 0 0 0 0 -4992669.4407545179 52887352.83391571 0 52887352.83391571 203468296.00317383 0 0 0 0 39157826.618026197 44860181.917602539 0 44860181.917602539 200721191.06058121 0 0 0 0 41946249.566039547 82848934.349060059 0 82848934.349060059 128546915.97975159 0 0 0 0 44520212.381943844 62259589.647491455 0 62259589.647491455 206273770.54323578 0 0 0 0 32893676.104241043 63229174.815612793 0 63229174.815612793 206611925.64942932 0 0 0 0 -15660552.634487882 -39237.19367980957 0 -39237.19367980957 393594813.07718658 0 0 0 0 73086881.921795189 125743905.18737793 0 125743905.18737793 315639327.18060303 0 0 0 0 -8221069.8209014237 -10217151.605712891 0 -10217151.605712891 269986444.68494415 0 0 0 0 15990281.894251645 22941973.555084229 0 22941973.555084229 284996073.5229187 0 0 0 0 155760.01987757851 -35333.338932149112 0 -35333.338932149112 181207.75002821162 0 0 0 0 34584010.742744826 -16817274.575279236 0 -16817274.575279236 263461728.31433105 0 0 0 0 19743760.191681325 -2422121.860458374 0 -2422121.860458374 452715621.45351791 0 0 0 0 10641503.104923666 -46036860.382980347 0 -46036860.382980347 393858050.30383301 0 0 0 0 3032750.0742488503 69622837.895950317 0 69622837.895950317 322360143.51751709 0 0 0 0 -24707902.969681382 69234093.997619629 0 69234093.997619629 395395926.91835022 0 0 0 0 -30452917.65964973 85871877.455123901 0 85871877.455123901 589715199.17141724 0 0 0 0 -24134191.186792612 86116557.491226196 0 86116557.491226196 359105368.09558105 0 0 0 0 -45655947.712250113 -83445197.718231201 0 -83445197.718231201 369807342.52515793 0 0 0 0 124985347.91424888 -31954487.449905396 0 -31954487.449905396 454083495.30297852 0 0 0 0 53923302.254575372 54447860.859375 0 54447860.859375 389826612.07293701 0 0 0 0 -52816069.752882898 -31300997.419944763 0 -31300997.419944763 370203386.03459167 0 0 0 0 60636696.575097464 83294704.912124634 0 83294704.912124634 292933620.36697388 0 0 0 0 -138143104.29861692 -84306461.646575928 0 -84306461.646575928 229449348.07608032 0 0 0 0 -74863455.75652954 9312096.4284896851 0 9312096.4284896851 330916118.08666992 0 0 0 0 -67181044.8016451 -3667213.616973877 0 -3667213.616973877 329119685.04694176 0 0 0 0 3299990.634288758 -16741517.501335144 0 -16741517.501335144 229932636.12164307 0 0 0 0 -4942052.375700295 9668175.2110671997 0 9668175.2110671997 226409537.52661133 0 0 0 0 17605071.390414238 64865685.7081604 0 64865685.7081604 184184713.9241333 0 0 0 0 -4488263.4290311933 39617882.202590942 0 39617882.202590942 221770775.08076668 0 0 0 0 -25078057.632885188 69168759.383338928 0 69168759.383338928 181039485.47189331 0 0 0 0 16495646.630639076 177781894.83227539 0 177781894.83227539 419766860.66845703 0 0 0 0 -53916.525936224265 -167321.64310014993 0 -167321.64310014993 524012.1285815239 0 0 0 0 46926208.28714788 -86245512.778747559 0 -86245512.778747559 -70266322.683013916 0 0 0 0 -29556596.198119879 -185318337.88122559 0 -185318337.88122559 49723340.835388184 0 0 0 0 15906150.698101223 -86719220.544845581 0 -86719220.544845581 68512713.656677246 0 0 0 0 -41273044.963418856 -150617149.70889282 0 -150617149.70889282 194106133.16400146 0 0 0 0 43931057.143714786 -36541136.235931396 0 -36541136.235931396 158337198.60040283 0 0 0 0 37822562.091810882 -27249249.998626709 0 -27249249.998626709 145466753.59912109 0 0 0 0 81517056.043731093 45562606.502441406 0 45562606.502441406 149886609.45560837 0 0 0 0 125149748.61814153 46796562.14604187 0 46796562.14604187 130108879.1408596 0 0 0 0 51009273.868169665 40684857.604003906 0 40684857.604003906 64085295.511332512 0 0 0 0 50716500.388437033 8493658.6529083252 0 8493658.6529083252 127425056.69210815 0 0 0 0 -48421700.189849854 97191406.578887939 0 97191406.578887939 112675332.2063446 0 0 0 0 53494385.684083104 11004049.997894287 0 11004049.997894287 -68327506.185251713 0 0 0 0 -57406048.538884819 79687880.883712769 0 79687880.883712769 245744312.22018433 0 0 0 0 -39513471.512486219 107498904.02655029 0 107498904.02655029 288070592.65101624 0 0 0 0 -14043259.748236001 9212317.3523788452 0 9212317.3523788452 267840374.86140442 0 0 0 0 -300792.47438264708 26585.706428851699 0 26585.706428851699 371288.23961032927 0 0 0 0 89672149.68661122 145984834.66080427 0 145984834.66080427 169471097.93740845 0 0 0 0 1085572.8549311496 -84967401.711760998 0 -84967401.711760998 139018975.50146484 0 0 0 0 46987853.029912114 22893575.742767334 0 22893575.742767334 12542131.13494873 0 0 0 0 -23836031.632101476 -3345095.2584533691 0 -3345095.2584533691 232135105.13208008 0 0 0 0 -18647615.632382393 28860081.459671021 0 28860081.459671021 185273014.62875366 0 0 0 0 -7056451.5099211782 22353479.107070923 0 22353479.107070923 125898161.56881714 0 0 0 0 81834567.554500133 114891164.87708664 0 114891164.87708664 216375210.37582397 0 0 0 0 -36897015.465587139 33403937.225234985 0 33403937.225234985 298539433.37986755 0 0 0 0 7077905.3151373565 -38026982.094768524 0 -38026982.094768524 109847642.97235107 0 0 0 0 30583999.393441319 -12234446.385543823 0 -12234446.385543823 5070877.4187011719 0 0 0 0 12008080.27269268 2276785.8997497559 0 2276785.8997497559 32817978.756195068 0 0 0 0 5398881.9176581204 -20129402.497760773 0 -20129402.497760773 33474156.005157471 0 0 0 0 -18961340.31727463 4917136.144821167 0 4917136.144821167 83884440.336425781 0 0 0 0 -11774198.760524288 5730187.6048126221 0 5730187.6048126221 14622553.740478516 0 0 0 0 -11339988.722626224 508417.04593658447 0 508417.04593658447 64330224.987518311 0 0 0 0 13717663.168835163 40875081.99848938 0 40875081.99848938 74570460.180831909 0 0 0 0 -155600367.66232347 -81648790.778533936 0 -81648790.778533936 65328417.145324707 0 0 0 0 -45018553.340598524 9345643.3130645752 0 9345643.3130645752 66909748.870071411 0 0 0 0 -1649588.0798827803 -6338476.6634758618 0 -6338476.6634758618 17740117.769609094 0 0 0 0 -2767810.8219418526 -56384567.088409424 0 -56384567.088409424 -22312787.808288574 0 0 0 0 21936831.911853075 40771676.902000427 0 40771676.902000427 82502940.344299316 0 0 0 0 6412622.0537457466 40297821.846343994 0 40297821.846343994 87424289.277099609 0 0 0 0 26362912.262879372 -23292061.385604858 0 -23292061.385604858 28231411.767425537 0 0 0 0 -11702398.003248334 4719532.3608045578 0 4719532.3608045578 111375469.76409912 0 0 0 0 -7991929.259708643 -29293329.907775879 0 -29293329.907775879 13969749.218109131 0 0 0 0 -35822807.549022675 41167454.051879883 0 41167454.051879883 431938347.4119873 0 0 0 0 1988266.1326036993 1269536.4938724712 0 1269536.4938724712 -1292108.4705866128 0 0 0 0 42647006.9961586 82403325.92098999 0 82403325.92098999 235624114.45367432 0 0 0 0 51543504.011339188 66767457.559387207 0 66767457.559387207 154103753.48364258 0 0 0 0 18117758.568151474 24637097.180053711 0 24637097.180053711 107963474.40100098 0 0 0 0 41237070.84967041 -41355669.017578125 0 -41355669.017578125 125896546.72412109 0 0 0 0 25847975.624757767 -22390031.786865234 0 -22390031.786865234 108112190.50286865 0 0 0 0 58211228.519752502 -74632579.582260132 0 -74632579.582260132 90989698.235900879 0 0 0 0 24703447.463043213 -38939301.05871582 0 -38939301.05871582 263476284.28005219 0 0 0 0 -16172957.218818665 -64506582.634246826 0 -64506582.634246826 54391659.803787231 0 0 0 0 64828425.454438686 -54802852.527103424 0 -54802852.527103424 45634052.828491211 0 0 0 0 61738028.612716675 -64265700.188079834 0 -64265700.188079834 43503546.088684082 0 0 0 0 40187995.458442926 -36965976.782287598 0 -36965976.782287598 9569222.3981018066 0 0 0 0 -6023747.9095058441 -14080052.254898071 0 -14080052.254898071 -26747852.304885864 0 0 0 0 -106240717.48265213 -532961.46294403076 0 -532961.46294403076 51759923.788330078 0 0 0 0 7857802.6293883324 -52326345.901596069 0 -52326345.901596069 49192379.939193726 0 0 0 0 1177557.362916708 -25931157.890808105 0 -25931157.890808105 20154208.474197388 0 0 0 0 -57271213.150297165 -79336134.469497681 0 -79336134.469497681 14594427.267662048 0 0 0 0 58215689.432461262 -129871420.98366547 0 -129871420.98366547 109799076.45144653 0 0 0 0 90100012.469412804 -75724080.189544678 0 -75724080.189544678 -1250446.9382705688 0 0 0 0 -21423120.102531433 -145417089.75065613 0 -145417089.75065613 106765897.72460938 0 0 0 0 49241595.59446907 -250262076.03730011 0 -250262076.03730011 255087477.91262817 0 0 0 0 -10092556.808458328 -197026569.09970093 0 -197026569.09970093 256145695.91533232 0 0 0 0 580585.51844594628 -2417490.6309661176 0 -2417490.6309661176 3363916.2998037189 0 0 0 0 573397035.85044515 -361324339.89079285 0 -361324339.89079285 156063134.54005432 0 0 0 0 281730096.37213111 -81529985.746894836 0 -81529985.746894836 -42160402.337615967 0 0 0 0 -25087377.190361142 128175677.76359558 0 128175677.76359558 198520976.77264595 0 0 0 0 538914235.75059938 674873559.24694061 0 674873559.24694061 727301805.95892334 0 0 0 0 -106503144.29240468 63674890.136638641 0 63674890.136638641 269516118.61090088 0 0 0 0 -44851115.202230155 171871264.20271301 0 171871264.20271301 452271592.25283813 0 0 0 0 28533984.948656559 90313403.187133789 0 90313403.187133789 111901675.02522278 0 0 0 0 -31907880.226883173 96779294.779060364 0 96779294.779060364 274247760.51385498 0 0 0 0 60102853.284926459 141659755.9215126 0 141659755.9215126 195374302.01953125 0 0 0 0 338396.80246973614 -5326344.2427886147 0 -5326344.2427886147 10480501.860485137 0 0 0 0 84337127.415035248 -111880880.39278746 0 -111880880.39278746 -14847377.468129635 0 0 0 0 -6522227.1116676331 -88349999.808181882 0 -88349999.808181882 19178920.569053173 0 0 0 0 -797243.98879241943 -143110236.39870143 0 -143110236.39870143 4773235.4791837446 0 0 0 0 -53972750.389602661 -187602645.70463896 0 -187602645.70463896 3902661.834924221 0 0 0 0 -53392720.946594238 -107900165.22158432 0 -107900165.22158432 15767492.38617754 0 0 0 0 -94562437.323656082 -89694879.562659264 0 -89694879.562659264 18581836.155807495 0 0 0 0 -37580026.932807922 -133242847.34136057 0 -133242847.34136057 21356567.990331531 0 0 0 0 -155248433.79429436 -161631276.27987981 0 -161631276.27987981 31188582.233944893 0 0 0 0 -6242534.4625316402 -23818590.150158815 0 -23818590.150158815 95201374.230998456 0 0 0 0 -125244666.56395531 -87590958.910751343 0 -87590958.910751343 108686993.66674805 0 0 0 0 -102084425.89406586 -138195550.8743031 0 -138195550.8743031 57680650.805929184 0 0 0 0 -103355626.22568512 -117466984.63386273 0 -117466984.63386273 -3647141.3685693741 0 0 0 0 -94606089.318527222 -130230277.36810493 0 -130230277.36810493 54350649.958946228 0 0 0 0 -151635752.67617798 -278895942.46154785 0 -278895942.46154785 124908108.05249023 0 0 0 0 -197922194.81396484 -84194413.114810228 0 -84194413.114810228 83598438.695306301 0 0 0 0 10370089.314357758 59285101.435699463 0 59285101.435699463 -39114960.905593872 0 0 0 0 14356516.909889221 -191350710.4498291 0 -191350710.4498291 377121308.93269348 0 0 0 0 159014992.4641571 -274653169.96920776 0 -274653169.96920776 -178425691.75970459 0 0 0 0 20535748.190570831 -60494635.031921387 0 -60494635.031921387 96571433.595718384 0 0 0 0 -16894938.770544052 -69396308.339279175 0 -69396308.339279175 93275312.693267822 0 0 0 0 -130091092.37979126 -10885203.123214722 0 -10885203.123214722 83694199.09375 0 0 0 0 -83888856.235925674 -71309899.588188171 0 -71309899.588188171 151060994.98869324 0 0 0 0 -93930767.767998695 -98114859.590312958 0 -98114859.590312958 190447438.78045654 0 0 0 0 -63540525.968761444 -160557225.6628418 0 -160557225.6628418 234215562.21661377 0 0 0 0 -132532339.29034615 -12664822.196960449 0 -12664822.196960449 155055181.85342407 0 0 0 0 -157963928.88932037 -103128908.1776123 0 -103128908.1776123 300174915.12892151 0 0 0 0 -208334277.30885696 -29743022.261688232 0 -29743022.261688232 239092639.28561401 0 0 0 0 -185847849.82476139 -23548169.872879028 0 -23548169.872879028 210942434.97454834 0 0 0 0 -11399691.881554201 40235086.635105632 0 40235086.635105632 96541069.857192263 0 0 0 0 -133923038.74409866 11283384.486831665 0 11283384.486831665 146024623.27447319 0 0 0 0 -51914567.988834381 -5540802.2796096802 0 -5540802.2796096802 148593483.74198914 0 0 0 0 -88753561.311281204 -56436253.924346924 0 -56436253.924346924 106867988.59735394 0 0 0 0 -35189956.894080162 -104900246.34357795 0 -104900246.34357795 19361151.871520758 0 0 0 0 -36099266.821277618 -109554347.77740574 0 -109554347.77740574 21036724.938985586 0 0 0 0 -9293672.4008402042 -29020384.82264708 0 -29020384.82264708 106687939.11412896 0 0 0 0 -1207148041.1861038 -1120833252.5107441 0 -1120833252.5107441 1146632879.9678817 0 0 0 0 66193960.978346825 -315390005.13989401 0 -315390005.13989401 218954063.5223484 0 0 0 0 -3658870472.581913 -56664088.006570816 0 -56664088.006570816 920627237.35113621 0 0 0 0 -3803699.2527124463 2923941.1411274225 0 2923941.1411274225 5338632.438339958 0 0 0 0 2122807409.0016174 601535345.91371393 0 601535345.91371393 -251465479.3972218 0 0 0 0 61023072.055091858 309272404.88450837 0 309272404.88450837 664688657.52141237 0 0 0 0 -172862581.39736176 -25062489.659941673 0 -25062489.659941673 966274876.38326859 0 0 0 0 -122245213.6763649 2052205.694740057 0 2052205.694740057 359022391.95487356 0 0 0 0 111625664.27243042 842116428.03242731 0 842116428.03242731 -95095917.012029469 0 0 0 0 -411427902.19961929 -164608240.66389966 0 -164608240.66389966 427738652.28657436 0 0 0 0 -18077911.157060597 -17664302.003580429 0 -17664302.003580429 42145355.66535522 0 0 0 0 18231603.555742264 28334261.091861248 0 28334261.091861248 164865227.78733689 0 0 0 0 25568332.834060669 5228874.9590348601 0 5228874.9590348601 185380049.66343307 0 0 0 0 71432825.701133728 26890483.4271698 0 26890483.4271698 139211406.27234554 0 0 0 0 69187992.157299995 85671247.391137272 0 85671247.391137272 170307137.46261406 0 0 0 0 -65447413.627586365 74922446.444786549 0 74922446.444786549 235421350.14074159 0 0 0 0 228823800.44964027 192877395.82666516 0 192877395.82666516 163216098.50046873 0 0 0 0 85419276.815933228 41880068.088936329 0 41880068.088936329 124478426.56014919 0 0 0 0 101754840.97195435 75987152.719176531 0 75987152.719176531 182445725.58548975 0 0 0 0 157160154.94869995 93063391.171214104 0 93063391.171214104 83468132.655846119 0 0 0 0 54573857.237129211 -16380229.568069935 0 -16380229.568069935 100865388.51633739 0 0 0 0 653465.43697974086 -1695990.5198741686 0 -1695990.5198741686 11578315.18132139 0 0 0 0 143027704.50196838 40719417.849886894 0 40719417.849886894 60258148.466622591 0 0 0 0 91210992.440139771 -16237948.811918974 0 -16237948.811918974 12360277.317126751 0 0 0 0 20104153.137989044 -75048533.992493391 0 -75048533.992493391 40082452.887188911 0 0 0 0 -75419601.043830872 -52607819.438066483 0 -52607819.438066483 133023016.7097265 0 0 0 0 -44711090.250320435 -39258587.046764374 0 -39258587.046764374 132532910.74863195 0 0 0 0 73928143.04479003 -5729419.7331410795 0 -5729419.7331410795 106545734.04212189 0 0 0 0 15070433.274154663 -25085802.277396202 0 -25085802.277396202 139266953.90129375 0 0 0 0 28631659.07938385 -23384220.574576855 0 -23384220.574576855 139459238.07978648 0 0 0 0 20090675.945663452 -8584245.9860868454 0 -8584245.9860868454 143804452.13538206 0 0 0 0 12308587.300060272 -9072770.2086229324 0 -9072770.2086229324 143886920.68353128 0 0 0 0 -62457562.416805267 -853009.23282384872 0 -853009.23282384872 165491757.17049062 0 0 0 0 -44681032.213943481 -1821059.4773299694 0 -1821059.4773299694 164771564.1406458 0 0 0 0 -521755.68667445891 7004576.5148331281 0 7004576.5148331281 50120629.897455096 0 0 0 0 -66215690.841453552 -6666833.3143672943 0 -6666833.3143672943 161229571.57733297 0 0 0 0 -7111133.9224592904 -6058158.5957571659 0 -6058158.5957571659 49581553.576059774 0 0 0 0 -78259893.191131592 -22558593.981462479 0 -22558593.981462479 146542307.47691202 0 0 0 0 -42638040.64087677 277309.35797166824 0 277309.35797166824 160243590.05682611 0 0 0 0 -209308853.89172554 -274738680.64868736 0 -274738680.64868736 357601484.38761616 0 0 0 0 544605247.17061901 206022930.25762939 0 206022930.25762939 111596105.75824928 0 0 0 0 -311931472.52237129 406506227.695755 0 406506227.695755 53788378.665138245 0 0 0 0 -185817311.62969971 121026662.30918884 0 121026662.30918884 -51359439.172821045 0 0 0 0 -248914105.24961281 38046571.853500366 0 38046571.853500366 391230137.04327393 0 0 0 0 -13146471.376887247 42429081.766985819 0 42429081.766985819 93305313.169935659 0 0 0 0 55701352.736274481 3880745.7047815323 0 3880745.7047815323 153717915.62867737 0 0 0 0 3329868.2801939826 -32558586.518936977 0 -32558586.518936977 90917866.557932645 0 0 0 0 -34782639.390007019 -15979879.097882271 0 -15979879.097882271 182247593.58330917 0 0 0 0 24064433.536953688 -94356673.234230518 0 -94356673.234230518 123672373.10396957 0 0 0 0 46361829.298252106 -47768227.498090148 0 -47768227.498090148 -64161670.787117004 0 0 0 0 -124924757.78097534 75979211.838043213 0 75979211.838043213 63788628.169041634 0 0 0 0 -23358963.130941391 -9033191.5881538391 0 -9033191.5881538391 116221228.01293755 0 0 0 0 -38921729.459544301 -14314406.230552673 0 -14314406.230552673 171407419.08629608 0 0 0 0 -80856399.043273926 -16834034.227428436 0 -16834034.227428436 173940925.84983063 0 0 0 0 -126377051.53635788 29414967.453304291 0 29414967.453304291 156352000.42670822 0 0 0 0 -154399316.91452599 -11799561.962532997 0 -11799561.962532997 244894922.06365204 0 0 0 0 -185160798.13420105 -48944910.149944305 0 -48944910.149944305 213424840.50596237 0 0 0 0 -76063833.189720154 -62712247.368030548 0 -62712247.368030548 203974456.81304932 0 0 0 0 34713830.006706238 -246812849.14253235 0 -246812849.14253235 185904867.69752121 0 0 0 0 -41616533.893615723 -124297251.48581314 0 -124297251.48581314 93606005.293312073 0 0 0 0 -199247899.38888502 -195648017.68443596 0 -195648017.68443596 368976090.91558838 0 0 0 0 -181547125.16172791 592464235.96769142 0 592464235.96769142 -658740390.23553443 0 0 0 0 -348461334.48298645 -155119752.80817604 0 -155119752.80817604 358640493.81778336 0 0 0 0 -15948831.397850037 51206346.066461563 0 51206346.066461563 -203482280.08930779 0 0 0 0 -600267223.40280151 233785036.40368652 0 233785036.40368652 427186234.4507165 0 0 0 0 -372060783.76384735 -69500041.096843719 0 -69500041.096843719 510481633.97719193 0 0 0 0 -126911338.76493835 78953871.576568604 0 78953871.576568604 118732118.75947285 0 0 0 0 -352254395.01930237 112041246.33543015 0 112041246.33543015 171626723.93359184 0 0 0 0 -318046305.18865204 358949259.57795811 0 358949259.57795811 -163631782.91467667 0 0 0 0 -592044132.42376709 108360234.57061672 0 108360234.57061672 737369537.40786362 0 0 0 0 -1969489443.6473389 2109608754.8461485 0 2109608754.8461485 486695960.97204387 0 0 0 0 -1171516092.2556152 -1125172716.9843102 0 -1125172716.9843102 2270587674.8192215 0 0 0 0 -4793820079.1836853 1567203168.2568464 0 1567203168.2568464 5239687628.0878401 0 0 0 0 1763286223.5014801 -2148792000.3892365 0 -2148792000.3892365 1716294445.5353737 0 0 0 0 -5132273149.5178719 -537590574.03411353 0 -537590574.03411353 8222152876.0847816 0 0 0 0 -871707347.7509613 -3470736471.9317369 0 -3470736471.9317369 5588504560.9648933 0 0 0 0 470973777.08929443 -808054154.90188408 0 -808054154.90188408 432504040.84115219 0 0 0 0 367469641.88563538 -756202423.36317444 0 -756202423.36317444 425799581.52090979 0 0 0 0 -204823160.0242691 -501481337.96803665 0 -501481337.96803665 879117196.85913849 0 0 0 0 -614701022.28944397 -1508143781.6178856 0 -1508143781.6178856 2530755101.5021172 0 0 0 0 -1000178550.9383087 -84247810.202171326 0 -84247810.202171326 723793226.70794678 0 0 0 0 302120114.86520386 -447525888.21671677 0 -447525888.21671677 209232855.74386215 0 0 0 0 88040648.609344482 -441978351.12907219 0 -441978351.12907219 219692088.92208862 0 0 0 0 39367454.880700588 -198625389.11600566 0 -198625389.11600566 -25335787.927398682 0 0 0 0 253618260.7053299 -143220807.69154358 0 -143220807.69154358 -146455273.74108124 0 0 0 0 864711424.91236877 -395489226.00741005 0 -395489226.00741005 -5174075.3387756348 0 0 0 0 255921205.99727154 -127847337.69970131 0 -127847337.69970131 -120014707.51053619 0 0 0 0 -112595496.33839417 130673648.71146202 0 130673648.71146202 2792385.2011375427 0 0 0 0 362972587.45201874 93035033.398565292 0 93035033.398565292 -35814762.225883484 0 0 0 0 -183024627.17970276 54635497.681790352 0 54635497.681790352 -50011674.435031891 0 0 0 0 363493221.28199005 567234029.91188037 0 567234029.91188037 565659515.27606511 0 0 0 0 1941275327.869421 -1846806610.7003913 0 -1846806610.7003913 653251146.04388785 0 0 0 0 6413269.571297206 1136575.7223660769 0 1136575.7223660769 20036999.44217921 0 0 0 0 5526099.1316189729 -5597624.4809886739 0 -5597624.4809886739 513548.0201053815 0 0 0 0 1185560942.7282696 -385549907.75562119 0 -385549907.75562119 227197166.5241394 0 0 0 0 -104907198.26145196 77976430.009185791 0 77976430.009185791 559518141.28655243 0 0 0 0 -194407.55521767773 1467052.0232504085 0 1467052.0232504085 13317659.307980984 0 0 0 0 275703806.52519053 -684711180.1421051 0 -684711180.1421051 -813174875.87588501 0 0 0 0 -31417679.723690867 132263863.11212158 0 132263863.11212158 419057376.565979 0 0 0 0 -6873927.5717896223 25882865.238494873 0 25882865.238494873 301492857.13041687 0 0 0 0 -274056150.39233452 28792783.033432007 0 28792783.033432007 412171326.49960327 0 0 0 0 -134806330.06915024 81212692.109024048 0 81212692.109024048 -17137878.388183594 0 0 0 0 -446769254.59253448 -65477486.31337738 0 -65477486.31337738 1374680100.6620178 0 0 0 0 -146427328.70780891 -1102031812.5638733 0 -1102031812.5638733 559042370.88493347 0 0 0 0 191418208.92750263 -552539350.5597229 0 -552539350.5597229 872119231.02813721 0 0 0 0 -290498816.58737946 106294290.34631348 0 106294290.34631348 1508406389.9965363 0 0 0 0 997703615.21196342 1284139798.8930969 0 1284139798.8930969 112371894.05570984 0 0 0 0 -403405506.96980286 343411603.02973938 0 343411603.02973938 186773175.06451416 0 0 0 0 -177683914.12744308 -183155238.69705582 0 -183155238.69705582 631730840.83691406 0 0 0 0 -205577335.24173927 163682225.23207092 0 163682225.23207092 319338210.76329041 0 0 0 0 -416165606.40896893 152300540.47007751 0 152300540.47007751 374190614.44377136 0 0 0 0 584243664.69765985 231235823.44562531 0 231235823.44562531 -1123699911.8543854 0 0 0 0 127692412.32562345 107242302.79341125 0 107242302.79341125 281458461.37495422 0 0 0 0 -3988762.8508696943 1666916.9853118509 0 1666916.9853118509 49353543.335927784 0 0 0 0 -14923083.031718569 102087662.63232994 0 102087662.63232994 516345329.73880005 0 0 0 0 567764783.15960443 94213305.584991455 0 94213305.584991455 -360300985.53363037 0 0 0 0 310191769.32809627 -237052906.44497681 0 -237052906.44497681 168027855.72979736 0 0 0 0 -48778647.120942235 -67514321.364044189 0 -67514321.364044189 586201043.58215332 0 0 0 0 -12816737.742416568 42189805.715037003 0 42189805.715037003 105846971.30536813 0 0 0 0 -257476163.26489937 -142181895.12232971 0 -142181895.12232971 760727839.75247192 0 0 0 0 -34174050.692525387 56038163.801086426 0 56038163.801086426 174397165.78344727 0 0 0 0 -13323165.92971045 -4738149.8974749148 0 -4738149.8974749148 28515721.703563526 0 0 0 0 66744902.816830426 -4109037.5528945923 0 -4109037.5528945923 148516754.74913788 0 0 0 0 -2968689.5200906992 20923023.854118347 0 20923023.854118347 177378435.10727549 0 0 0 0 59119941.284053326 -30041089.495369911 0 -30041089.495369911 160533604.4149704 0 0 0 0 33028027.641960144 -23534300.804115295 0 -23534300.804115295 159365529.43486023 0 0 0 0 -45130938.664857626 -82169893.933670044 0 -82169893.933670044 35085202.697509766 0 0 0 0 -145821664.61845243 120913811.22949219 0 120913811.22949219 70215528.62625885 0 0 0 0 -11261361.151006008 35177170.741916701 0 35177170.741916701 94506412.104357243 0 0 0 0 120068159.15794456 403362228.45248413 0 403362228.45248413 -257552026.24151611 0 0 0 0 -12606980.89064943 29704638.264947169 0 29704638.264947169 91503339.527264357 0 0 0 0 -19028958.987123251 81615495.52520752 0 81615495.52520752 -105630215.8913269 0 0 0 0 18653969.372422814 7118547.4407348633 0 7118547.4407348633 36243223.240837097 0 0 0 0 -3847335.5748669696 -2234118.0755681321 0 -2234118.0755681321 22942067.010012008 0 0 0 0 15077066.426002145 12107727.668777466 0 12107727.668777466 38112476.011993408 0 0 0 0 -32840074.61976099 28227181.294052124 0 28227181.294052124 221127639.45632935 0 0 0 0 -16981740.69520992 -47054745.694961548 0 -47054745.694961548 251318738.6383667 0 0 0 0 -40435815.212842494 -4738659.5969848633 0 -4738659.5969848633 287724146.0484314 0 0 0 0 -20054570.698901214 28927455.090704918 0 28927455.090704918 441124031.69448853 0 0 0 0 -77907696.447168827 50681679.949783325 0 50681679.949783325 433005823.80462646 0 0 0 0 -69911727.452549338 83451061.210113525 0 83451061.210113525 234887898.99140167 0 0 0 0 -64881474.746428132 -28129899.643676758 0 -28129899.643676758 189217308.10368347 0 0 0 0 -45338873.590275429 6148741.6039206982 0 6148741.6039206982 119667872.0302124 0 0 0 0 -43957765.466044374 38651237.06842804 0 38651237.06842804 120687843.35668945 0 0 0 0 -1741957.9298870903 8036539.205034636 0 8036539.205034636 22181153.663166843 0 0 0 0 -19345615.855105996 20760721.674934387 0 20760721.674934387 83590076.935577393 0 0 0 0 -19419.984548568726 -3372801.0453491211 0 -3372801.0453491211 13169289.929786682 0 0 0 0 3161986.3389282227 -4201398.5065917969 0 -4201398.5065917969 11810263.933837891 0 0 0 0 8513743.087018013 -3009004.7588768005 0 -3009004.7588768005 51449451.097229004 0 0 0 0 4121760.3676772118 -10563091.648376465 0 -10563091.648376465 63972631.190368652 0 0 0 0 1419039.0051618358 -710926.91363684088 0 -710926.91363684088 16898321.24494715 0 0 0 0 -93762.169482886791 2742966.7612038553 0 2742966.7612038553 9350290.7906176299 0 0 0 0 -3883241.7876701355 -5162373.3394470215 0 -5162373.3394470215 38053315.588130951 0 0 0 0 4742029.263425827 -11639236.956260681 0 -11639236.956260681 65622555.624526978 0 0 0 0 8328303.4204816818 -13870294.91696167 0 -13870294.91696167 60787901.929351807 0 0 0 0 -5075196.0445159078 -5058568.312412262 0 -5058568.312412262 115469027.65670776 0 0 0 0 -2255897.2091563796 2901458.8295654058 0 2901458.8295654058 51486687.797853425 0 0 0 0 -804395.78311538696 -18467270.590301514 0 -18467270.590301514 133249243.12365723 0 0 0 0 -3876424.7243306637 -4788910.3011207581 0 -4788910.3011207581 27231917.878234863 0 0 0 0 -9646588.6179315783 -432246.52748233825 0 -432246.52748233825 69053908.64552547 0 0 0 0 -4696197.7764663696 -6957139.4986953735 0 -6957139.4986953735 44926196.799407959 0 0 0 0 11863425.881785655 -26255810.869101129 0 -26255810.869101129 40078179.624634981 0 0 0 0 7862195.5650968552 -13380045.888511658 0 -13380045.888511658 42702587.636825562 0 0 0 0 36778720.996706009 -15038064.276649475 0 -15038064.276649475 163432120.34341049 0 0 0 0 21022824.327803135 -18192391.092681885 0 -18192391.092681885 41464773.582622528 0 0 0 0 8295317.3164305687 6100554.3096427917 0 6100554.3096427917 156011114.47398949 0 0 0 0 1325837.5838119686 -5009607.5983567238 0 -5009607.5983567238 82914068.369506836 0 0 0 0 2585309.3075496722 5477132.711617358 0 5477132.711617358 19293875.523951586 0 0 0 0 -36534722.19757843 -10894156.103622437 0 -10894156.103622437 122618592.76173401 0 0 0 0 27450259.301005125 -10404888.199081421 0 -10404888.199081421 84021638.488101959 0 0 0 0 -72537.927625667595 1462684.158310838 0 1462684.158310838 2946294.3781488938 0 0 0 0 -13998641.191536665 -2928762.0127563477 0 -2928762.0127563477 126151505.10273933 0 0 0 0 6392991.0902018547 -4646923.3891677856 0 -4646923.3891677856 37659896.420196533 0 0 0 0 -1375751.1190490723 -24499358.636352539 0 -24499358.636352539 127588364.73991394 0 0 0 0 -30872011.5991745 -36935829.242843628 0 -36935829.242843628 123945558.44735718 0 0 0 0 6040355.5633456707 -43961278.538528442 0 -43961278.538528442 125822607.1373291 0 0 0 0 -149836958.44857216 -141328640.47059631 0 -141328640.47059631 206518718.81390381 0 0 0 0 -72244933.35219574 -14990061.219497681 0 -14990061.219497681 147417198.08120728 0 0 0 0 8987437.4313306808 -50490375.893882751 0 -50490375.893882751 115817050.7467041 0 0 0 0 -31427765.887962341 -39034053.716171265 0 -39034053.716171265 155890224.72943115 0 0 0 0 21266180.964094639 -11499023.598503113 0 -11499023.598503113 83388230.733520508 0 0 0 0 179891575.74123383 -78810929.25831604 0 -78810929.25831604 98803397.188110352 0 0 0 0 -61362963.994935989 -13688129.49395752 0 -13688129.49395752 95636225.49659729 0 0 0 0 -2684672.231525287 8584859.9152560234 0 8584859.9152560234 -2375386.2720105946 0 0 0 0 -10466458.033073425 1770689.6251754761 0 1770689.6251754761 88510448.132843018 0 0 0 0 -40936135.004447937 -30131326.376953125 0 -30131326.376953125 113045174.2434082 0 0 0 0 -12783289.116872787 -26488196.997070312 0 -26488196.997070312 77257904.925662994 0 0 0 0 -18617670.906408787 -47146851.604125977 0 -47146851.604125977 85902708.998596191 0 0 0 0 -4187533.5322465897 -23917091.230224609 0 -23917091.230224609 110341529.18247986 0 0 0 0 -6136739.887879014 -27566520.65813446 0 -27566520.65813446 127426310.95291138 0 0 0 0 -9144771.3894701004 -76797508.968994141 0 -76797508.968994141 53644699.483100891 0 0 0 0 68062401.284017086 -42189116.665679932 0 -42189116.665679932 65477646.227714539 0 0 0 0 58028946.153384924 -48048641.50112915 0 -48048641.50112915 83334082.808837891 0 0 0 0 10352860.948802948 -4770669.2942199707 0 -4770669.2942199707 39870008.024230957 0 0 0 0 6740278.3086025715 -14680158.882328033 0 -14680158.882328033 53470915.668823242 0 0 0 0 47981509.618430614 -28996827.294616699 0 -28996827.294616699 55356345.95211792 0 0 0 0 356131.92921066284 1001527.6734619141 0 1001527.6734619141 87654435.061508179 0 0 0 0 246249.64192581177 -1265213.0647583008 0 -1265213.0647583008 7831244.7171630859 0 0 0 0 -400254.79963561893 15747736.731534481 0 15747736.731534481 21090337.398498535 0 0 0 0 -971783.35388121149 4705486.6177722886 0 4705486.6177722886 18058913.910763104 0 0 0 0 1378776.4608097076 -14003899.188858032 0 -14003899.188858032 43650786.928833008 0 0 0 0 -135247.927089273 -386109.03947609663 0 -386109.03947609663 2709444.506065771 0 0 0 0 8445287.6381912231 -7769496.1057128906 0 -7769496.1057128906 29601105.451599121 0 0 0 0 4076787.9316162542 -2201426.28984119 0 -2201426.28984119 24021829.417528696 0 0 0 0 -1773160.8835071374 1837178.6750241444 0 1837178.6750241444 10686248.009036034 0 0 0 0 6863196.9119491577 -2499462.3479919434 0 -2499462.3479919434 67252062.885253906 0 0 0 0 1443034.2652374802 4963545.7018074095 0 4963545.7018074095 21930577.800277673 0 0 0 0 18642858.852881908 -19252853.44745636 0 -19252853.44745636 109640846.72619629 0 0 0 0 46510832.924871445 -28321161.663192749 0 -28321161.663192749 83959721.386856079 0 0 0 0 -34980.81505846628 568603.97304838896 0 568603.97304838896 5064481.2398619354 0 0 0 0 8254980.4461803436 -6885186.362991333 0 -6885186.362991333 58513660.026535034 0 0 0 0 -11330353.474915504 -8457985.1550197601 0 -8457985.1550197601 50838903.689865112 0 0 0 0 -15194996.493468285 -1352550.7719154358 0 -1352550.7719154358 47684004.535820007 0 0 0 0 -73401057.125701904 -2339040.1804857254 0 -2339040.1804857254 88988890.693878174 0 0 0 0 -11826675.558479309 -68831813.893235207 0 -68831813.893235207 8459546.809627533 0 0 0 0 -10427948.457921028 4396016.5753211975 0 4396016.5753211975 33197476.759422302 0 0 0 0 -15118348.291429644 -6369835.3640009668 0 -6369835.3640009668 42959227.462632664 0 0 0 0 21873295.634490967 -117944680.00109863 0 -117944680.00109863 51208903.482505798 0 0 0 0 -11161274.423669368 -5410438.2197144646 0 -5410438.2197144646 14891828.527847208 0 0 0 0 65642200.10338974 73951514.00561142 0 73951514.00561142 -191342758.78305483 0 0 0 0 24499469.127971649 -119686553.94446945 0 -119686553.94446945 48347109.712776184 0 0 0 0 -10517340.730811441 -18337306.718647584 0 -18337306.718647584 41315150.061301604 0 0 0 0 -20945484.493286133 14855284.28134346 0 14855284.28134346 44333596.090927124 0 0 0 0 -7184272.5758590698 -2531874.2746200562 0 -2531874.2746200562 40666149.599700928 0 0 0 0 -222394813.60220337 109370330.45420837 0 109370330.45420837 90556697.411560059 0 0 0 0 -16829091.983949095 8695316.370581165 0 8695316.370581165 51493655.310024582 0 0 0 0 -407948164.65473938 46583323.322021484 0 46583323.322021484 531529160.70834351 0 0 0 0 -36271099.204742432 41244122.741333008 0 41244122.741333008 -79643470.497039795 0 0 0 0 960074.27317237854 1191930.7589493692 0 1191930.7589493692 -2439569.8413550667 0 0 0 0 -410331008.97465134 -65648810.248970032 0 -65648810.248970032 224078795.11763 0 0 0 0 6722701.0547485352 -46543438.258586884 0 -46543438.258586884 -17821929.848487854 0 0 0 0 -58204349.83099556 -95559679.155853271 0 -95559679.155853271 145806964.60260773 0 0 0 0 4627875.0367839336 -47289362.907641888 0 -47289362.907641888 110860788.77906799 0 0 0 0 -24432860.895183563 -34377728.61882019 0 -34377728.61882019 131429609.64945984 0 0 0 0 5650142.1482922789 -19376158.182662454 0 -19376158.182662454 21055909.713665642 0 0 0 0 1379848.2188072205 -12543288.131446838 0 -12543288.131446838 145475990.59953308 0 0 0 0 1176837.3724598885 -3096562.0261249542 0 -3096562.0261249542 77883471.151168823 0 0 0 0 2473919.5842132661 5771038.3889962211 0 5771038.3889962211 27312118.025503397 0 0 0 0 570618753.85818481 76573941.432434082 0 76573941.432434082 332201209.36322021 0 0 0 0 24596483.128284454 -348205398.89916992 0 -348205398.89916992 225068641.07446671 0 0 0 0 -246099410.94243431 126730825.03252029 0 126730825.03252029 66026935.093002319 0 0 0 0 245425089.58735275 160058486.01543808 0 160058486.01543808 -128035169.07847595 0 0 0 0 222012655.09225845 -313110761.54740906 0 -313110761.54740906 96761147.264801025 0 0 0 0 -2388972.021230136 630923.4150680732 0 630923.4150680732 1122940.4072531164 0 0 0 0 38510746.1515131 117934285.09272003 0 117934285.09272003 -122766611.86664581 0 0 0 0 -12846229.696872381 4576892.8446887415 0 4576892.8446887415 45328831.436754361 0 0 0 0 -15226410.610581398 -6550032.8761520386 0 -6550032.8761520386 54504559.495941162 0 0 0 0 -21870598.091454506 20856976.083110809 0 20856976.083110809 47293933.6912117 0 0 0 0 -11541420.226738011 8020433.8641839288 0 8020433.8641839288 44850087.923783749 0 0 0 0 -12315133.556290627 -6832910.0956830978 0 -6832910.0956830978 49793298.191963196 0 0 0 0 -1798992.7989215851 4572701.3845405579 0 4572701.3845405579 61949769.792385101 0 0 0 0 -9931230.3985351175 14607057.177136 0 14607057.177136 30560740.399728917 0 0 0 0 -199134.36143016815 -20859063.140288353 0 -20859063.140288353 79710554.112449646 0 0 0 0 29230920.449875593 -29407028.401626587 0 -29407028.401626587 98631177.499980927 0 0 0 0 -694146678.0798645 -183778350.86964417 0 -183778350.86964417 253197586.18150973 0 0 0 0 -254911644.5661335 -266894043.9283905 0 -266894043.9283905 -66454843.971870422 0 0 0 0 -300079326.47201633 -57289267.452623367 0 -57289267.452623367 227348168.31163025 0 0 0 0 -353201556.95480347 -84237651.680805206 0 -84237651.680805206 258225835.48570538 0 0 0 0 -239669717.60444641 101102006.55801392 0 101102006.55801392 178698447.98298454 0 0 0 0 -88457430.331510544 -47572524.106454849 0 -47572524.106454849 221990448.43373108 0 0 0 0 -13036686.061001027 12955143.131178308 0 12955143.131178308 30897506.717939995 0 0 0 0 -3640312.6328830719 -24322416.59879303 0 -24322416.59879303 83392657.893703461 0 0 0 0 -121074715.54365683 -91108419.225705147 0 -91108419.225705147 234266138.11912918 0 0 0 0 -69193576.789541125 -41913655.722801208 0 -41913655.722801208 219374536.35263824 0 0 0 0 -96485508.582079887 -108860307.35320282 0 -108860307.35320282 94622182.447624207 0 0 0 0 -81928381.557315826 -56838542.590641022 0 -56838542.590641022 106344044.73550415 0 0 0 0 38267705.737751842 -77348948.620363235 0 -77348948.620363235 172716470.40267372 0 0 0 0 411915.58519786596 3860044.5688686371 0 3860044.5688686371 60365125.781311035 0 0 0 0 -22320441.261365414 18446152.846212387 0 18446152.846212387 51093209.39994812 0 0 0 0 2565883.1829693317 -5197122.9693965912 0 -5197122.9693965912 46964333.974212646 0 0 0 0 -10901763.31349206 -16201223.134620667 0 -16201223.134620667 74960613.036560059 0 0 0 0 -14300273.076356564 8914720.4175837524 0 8914720.4175837524 34680105.94031392 0 0 0 0 21421476.034852549 -42236103.007902265 0 -42236103.007902265 129384958.75729752 0 0 0 0 2975613.770149231 -26460277.64068985 0 -26460277.64068985 50319501.470329285 0 0 0 0 -17856606.652044296 -21753706.662849426 0 -21753706.662849426 90222701.597112656 0 0 0 0 -18586104.617655516 -31508953.358654022 0 -31508953.358654022 67814589.768966675 0 0 0 0 -159148.83942786884 -9801272.1523271352 0 -9801272.1523271352 8119692.6916033234 0 0 0 0 -11925419.571351051 -73625635.133167267 0 -73625635.133167267 69095550.738815308 0 0 0 0 -79000511.488456726 -57726926.358383179 0 -57726926.358383179 112603366.029459 0 0 0 0 -8382300.2071346687 -7656283.9776946306 0 -7656283.9776946306 3730144.3709364887 0 0 0 0 -15272704.008453876 16258408.163780212 0 16258408.163780212 67113074.168388367 0 0 0 0 -39565994.262112617 32044448.418729782 0 32044448.418729782 57113025.442138672 0 0 0 0 1288699.3677694798 29945240.982147217 0 29945240.982147217 30176804.228935242 0 0 0 0 37521062.4891994 -191335427.39632511 0 -191335427.39632511 56137122.100540161 0 0 0 0 9352745.4591948986 14297990.874679565 0 14297990.874679565 43701730.621780396 0 0 0 0 -5101761.2755821133 2115179.3594662249 0 2115179.3594662249 27498168.388313778 0 0 0 0 -14105526.04760313 -224499507.35985184 0 -224499507.35985184 79645609.235549927 0 0 0 0 -114236843.390625 -196837686.00460815 0 -196837686.00460815 122898398.07951355 0 0 0 0 -236470284.00958252 353165710.47001648 0 353165710.47001648 268337631.87988281 0 0 0 0 -159370210.88827896 -220852382.67409134 0 -220852382.67409134 113374545.08161926 0 0 0 0 -427388739.78129578 -136394967.61284637 0 -136394967.61284637 108879190.49877167 0 0 0 0 -75716.070652984083 174963.45424553752 0 174963.45424553752 499193.02466092585 0 0 0 0 153814104.34316635 -53722722.863273621 0 -53722722.863273621 -26771680.555488586 0 0 0 0 -3176876.1731055784 -4582567.4174146801 0 -4582567.4174146801 3298694.4226653278 0 0 0 0 -1084898575.8155823 210190816.83660126 0 210190816.83660126 -2025663.6558647156 0 0 0 0 -1272436516.3893356 -262295830.2051239 0 -262295830.2051239 202690424.17593384 0 0 0 0 220194593.91596055 -267813708.32797241 0 -267813708.32797241 90959570.181716919 0 0 0 0 -20188989.922765255 37098530.665435791 0 37098530.665435791 -176965087.27806091 0 0 0 0 -94100954.524045944 -4610531.2139434814 0 -4610531.2139434814 478440583.84072876 0 0 0 0 171238343.77438021 -388244780.56719971 0 -388244780.56719971 355048271.21760559 0 0 0 0 1464818.4021768267 -193790.37465791032 0 -193790.37465791032 998903.45404820144 0 0 0 0 67121461.809189558 213449444.52503204 0 213449444.52503204 -63806559.566825867 0 0 0 0 -21167538.652756333 -119824578.53237534 0 -119824578.53237534 54719848.17980957 0 0 0 0 339483736.76981103 -37984578.458305359 0 -37984578.458305359 -16487867.026794434 0 0 0 0 92859316.316663027 -5782930.9139556885 0 -5782930.9139556885 6059386.0375671387 0 0 0 0 124404494.63119411 -108128033.40744591 0 -108128033.40744591 27910975.157470703 0 0 0 0 -1358660.8513097763 -71164441.340690613 0 -71164441.340690613 51301268.410339355 0 0 0 0 -24457504.459505081 -49681895.452880859 0 -49681895.452880859 47773008.753540039 0 0 0 0 -219691334.42801094 56173880.422393799 0 56173880.422393799 44923160.274700165 0 0 0 0 -9182294.9624392502 12096397.037158715 0 12096397.037158715 16055974.303817332 0 0 0 0 -6973538.782449062 1474926.8967454433 0 1474926.8967454433 25873549.241271928 0 0 0 0 -13519227.313253341 1401983.7219347805 0 1401983.7219347805 45260823.331742808 0 0 0 0 -35285721.397019863 25509014.798187256 0 25509014.798187256 3938815.7240600586 0 0 0 0 -15310727.621784687 10376947.822132111 0 10376947.822132111 40937191.716293335 0 0 0 0 -3167303.8877782822 -9918025.3580093384 0 -9918025.3580093384 45149141.769239426 0 0 0 0 -123412433.53526878 -169031761.67644501 0 -169031761.67644501 92433910.291320801 0 0 0 0 -10995423.539655518 6593751.027124526 0 6593751.027124526 18484091.439341374 0 0 0 0 -16998462.41767025 16616931.195480347 0 16616931.195480347 -12153806.319076538 0 0 0 0 -1818312.8497835076 -8553958.5813206807 0 -8553958.5813206807 37268623.507052876 0 0 0 0 -24871535.292028785 17315695.216445923 0 17315695.216445923 15378788.394683838 0 0 0 0 -972314.37404108047 -8282726.5742874146 0 -8282726.5742874146 38911802.397735596 0 0 0 0 -14267181.038948059 -120314037.30914688 0 -120314037.30914688 236296769.09150314 0 0 0 0 -22778618.923183464 709051.93785236217 0 709051.93785236217 43979807.879437812 0 0 0 0 -731390.16820373386 -3722923.1215727441 0 -3722923.1215727441 9111104.2617337406 0 0 0 0 17719095.953105927 -73940577.330681801 0 -73940577.330681801 171072131.74460602 0 0 0 0 71694538.521377563 -65998679.558929443 0 -65998679.558929443 147140548.42077637 0 0 0 0 39876151.795753479 -25939511.830116272 0 -25939511.830116272 118465184.54816818 0 0 0 0 9434742.8952230252 -16733175.899351263 0 -16733175.899351263 18259999.014261443 0 0 0 0 29715156.070251465 -40785779.092391968 0 -40785779.092391968 119585857.23218155 0 0 0 0 7826861.708032608 -23853214.900398254 0 -23853214.900398254 48281859.011154175 0 0 0 0 -3513416.5454697609 -11292746.194404602 0 -11292746.194404602 27370782.385913849 0 0 0 0 -2930869.506579374 -11777593.303671345 0 -11777593.303671345 26720117.016447127 0 0 0 0 -194056.391497612 3389085.6187896729 0 3389085.6187896729 41652839.339263916 0 0 0 0 2805673.9222416314 -11495632.116622962 0 -11495632.116622962 28666553.029052343 0 0 0 0 -1896497.7771186829 -6239071.6820983887 0 -6239071.6820983887 12458011.850112915 0 0 0 0 -4708349.9875402004 -4187758.8895334341 0 -4187758.8895334341 23467561.902675852 0 0 0 0 -18501210.722131442 -5420030.1210911833 0 -5420030.1210911833 38414081.589882679 0 0 0 0 -5587017.4126491547 -17897633.192188263 0 -17897633.192188263 47327614.859695435 0 0 0 0 -169261.23749018414 241038.15581457317 0 241038.15581457317 4141143.7006396689 0 0 0 0 -6159158.5288124084 -11847764.960876465 0 -11847764.960876465 53270227.013008118 0 0 0 0 -736731.5492477417 -17725258.005371094 0 -17725258.005371094 45575769.889316559 0 0 0 0 -347057208.33319378 483492282.34820557 0 483492282.34820557 120571799.81826782 0 0 0 0 -398946401.30428594 -107083808.48755646 0 -107083808.48755646 379451767.65829468 0 0 0 0 -4197208.2287424644 5890020.0543571115 0 5890020.0543571115 19165120.773119636 0 0 0 0 475205877.71901238 -31145541.962127686 0 -31145541.962127686 128019134.96757507 0 0 0 0 54002762.955551863 121029012.89640045 0 121029012.89640045 216563206.88671875 0 0 0 0 -169186972.96571875 -102841193.20288849 0 -102841193.20288849 396192521.68667603 0 0 0 0 754997.48828508379 -239235.04651341587 0 -239235.04651341587 817318.47900699079 0 0 0 0 346815918.89924002 314646529.2006073 0 314646529.2006073 -571719075.20097351 0 0 0 0 -4908423.6810195651 -2425789.5576096103 0 -2425789.5576096103 44713717.771583244 0 0 0 0 -1902857.7496528625 -7760143.9783325195 0 -7760143.9783325195 57194347.808258057 0 0 0 0 -482044.82865852246 -3442634.6828973889 0 -3442634.6828973889 36856331.965997428 0 0 0 0 -20101053.698374689 876582.4709777832 0 876582.4709777832 66052591.812736511 0 0 0 0 3797708.2930918932 21298948.766998291 0 21298948.766998291 52979677.403533936 0 0 0 0 -16167422.37132287 18402546.925827026 0 18402546.925827026 88067323.135314941 0 0 0 0 27771975.931212127 -17729245.604492188 0 -17729245.604492188 11038614.189758301 0 0 0 0 15323292.380235195 -435055493.48957825 0 -435055493.48957825 -1741735.7567443848 0 0 0 0 121922688.49025726 481331668.2527771 0 481331668.2527771 -26148673.802050591 0 0 0 0 543540512.16891336 297407780.44141388 0 297407780.44141388 -144653380.85821533 0 0 0 0 102483.38437943388 404718.34714286728 0 404718.34714286728 572851.09341683984 0 0 0 0 -28900639.327869654 -21220491.716888428 0 -21220491.716888428 38383886.011779785 0 0 0 0 -46112032.338404655 75003494.699356079 0 75003494.699356079 150419785.92489624 0 0 0 0 175143878.18642998 30027226.332763672 0 30027226.332763672 103785734.46124268 0 0 0 0 -358453526.07082367 220961549.81165314 0 220961549.81165314 184593973.76196289 0 0 0 0 3488816.4735827483 -7816012.5548878387 0 -7816012.5548878387 30096478.340159401 0 0 0 0 -75893277.528240204 -19178295.830413818 0 -19178295.830413818 -77653489.672607422 0 0 0 0 -303319489.96068501 -78658636.557023048 0 -78658636.557023048 118623509.45861816 0 0 0 0 -10603399.545121074 -45333405.44430542 0 -45333405.44430542 45012671.406585693 0 0 0 0 -97772674.160984993 -39723111.607620239 0 -39723111.607620239 22245340.720672607 0 0 0 0 -38435337.717177868 59469782.69178009 0 59469782.69178009 40419974.624816895 0 0 0 0 -17009628.785010338 14982175.241546631 0 14982175.241546631 36641144.596282959 0 0 0 0 -75540335.825677633 -2132285.8098754883 0 -2132285.8098754883 41606353.900665283 0 0 0 0 -7968457.9153518677 -5026770.28515625 0 -5026770.28515625 27205258.290618896 0 0 0 0 -688176.04639994935 -933272.94519494474 0 -933272.94519494474 3889321.8174403459 0 0 0 0 7811899.1788873672 30357091.463623047 0 30357091.463623047 -1274019.2408828735 0 0 0 0 78067.979332858988 2210192.427394683 0 2210192.427394683 2057189.9797162116 0 0 0 0 98467.541298650438 1446821.5429654457 0 1446821.5429654457 4392589.099810347 0 0 0 0 114740858.90715277 95690222.839097977 0 95690222.839097977 18886173.255432129 0 0 0 0 25709886.787804604 37086993.915771484 0 37086993.915771484 26989313.481658936 0 0 0 0 6741.0408003330231 1478940.5768432617 0 1478940.5768432617 13026944.588920593 0 0 0 0 570365.93133641861 -3860741.3692973852 0 -3860741.3692973852 10742441.858130645 0 0 0 0 6170358.9234939516 -5079036.4674911499 0 -5079036.4674911499 35671765.381286621 0 0 0 0 -1104293.5744701624 -446060.16218566895 0 -446060.16218566895 12428683.288467407 0 0 0 0 -1096533.4459335804 212723.287109375 0 212723.287109375 12983187.297302246 0 0 0 0 -5516057.4168677628 -8699676.1623077393 0 -8699676.1623077393 42555926.340633392 0 0 0 0 590650.82959351281 -4864811.6395245641 0 -4864811.6395245641 14520855.425523631 0 0 0 0 287454.54700700333 -820662.87471649051 0 -820662.87471649051 8610921.2910175622 0 0 0 0 -363877.82093286514 426975.57424926758 0 426975.57424926758 12277879.859588623 0 0 0 0 -6340759.8774864674 -7711111.9045257568 0 -7711111.9045257568 -31088212.58581543 0 0 0 0 -2063153.045891949 -4492773.9269143045 0 -4492773.9269143045 37508800.441517651 0 0 0 0 -4375556.572424517 -4767758.1166929007 0 -4767758.1166929007 12930666.12173973 0 0 0 0 -19785481.962264597 -12511508.951469421 0 -12511508.951469421 30130281.403686523 0 0 0 0 -7831865.0545986295 -6475871.5042533875 0 -6475871.5042533875 21994687.012573242 0 0 0 0 -8534423.2279573083 -32423678.556411743 0 -32423678.556411743 63375171.898956299 0 0 0 0 9646649.9742661715 -19199904.823287964 0 -19199904.823287964 13933225.601119995 0 0 0 0 -1345842.8451285213 -13017112.160964966 0 -13017112.160964966 39503617.333709717 0 0 0 0 -682927.48922657815 -1345798.7966789305 0 -1345798.7966789305 3231772.8234703839 0 0 0 0 11659462.251120865 10995902.966827393 0 10995902.966827393 28728811.863845825 0 0 0 0 8271146.8672537357 23565919.448022842 0 23565919.448022842 80387361.594360352 0 0 0 0 -4594385.1869359016 -778766.63107299805 0 -778766.63107299805 138676409.91860962 0 0 0 0 34083258.214606777 -34692536.306777954 0 -34692536.306777954 87298470.658203125 0 0 0 0 12938187.312698424 -50329324.341262817 0 -50329324.341262817 128505196.80123901 0 0 0 0 -10989271.752109408 -7570274.2772369385 0 -7570274.2772369385 135909862.69692993 0 0 0 0 11817795.340110719 10860026.382938385 0 10860026.382938385 100158944.0770874 0 0 0 0 8473487.9421582669 18950011.999126434 0 18950011.999126434 -4875647.660369873 0 0 0 0 30607.989481085562 98212.886406101286 0 98212.886406101286 92123.256781727076 0 0 0 0 1836827.988437891 -11869006.201675415 0 -11869006.201675415 21396852.305282593 0 0 0 0 56472.733112432354 188188.43378774822 0 188188.43378774822 180982.74232687056 0 0 0 0 7561897.8544481993 22419772.447006226 0 22419772.447006226 41578902.253456116 0 0 0 0 4792070.4979711771 -4259355.9429168701 0 -4259355.9429168701 64076843.842002869 0 0 0 0 -3469428.6306236535 -20290991.381958008 0 -20290991.381958008 83130699.528625488 0 0 0 0 6738162.8812663518 -2666895.9434814453 0 -2666895.9434814453 32046925.955123901 0 0 0 0 -10034617.154963993 6092964.4597015381 0 6092964.4597015381 104306256.03997803 0 0 0 0 -13996372.177352399 -618479.79763793945 0 -618479.79763793945 96509029.502593994 0 0 0 0 -17904098.919359505 1424782.0978088379 0 1424782.0978088379 96715208.520202637 0 0 0 0 -18190377.673690259 62356.983428955078 0 62356.983428955078 133786175.00737 0 0 0 0 -4567134.2505740859 -9118805.9654083252 0 -9118805.9654083252 73138677.262821198 0 0 0 0 5191428.5977665978 -17520275.80689621 0 -17520275.80689621 26207656.62387085 0 0 0 0 -2809021.7748044245 -372938.041015625 0 -372938.041015625 69180021.493993759 0 0 0 0 4703923.8841031399 -3876057.319190979 0 -3876057.319190979 68988881.098693848 0 0 0 0 13349076.857260276 14777350.958267212 0 14777350.958267212 104015373.45941162 0 0 0 0 28383369.307702489 -1776622.5566711426 0 -1776622.5566711426 89807367.316757202 0 0 0 0 11320496.608776852 -20589952.016189575 0 -20589952.016189575 74176195.721879959 0 0 0 0 -28879.385060671473 -12098883.2616536 0 -12098883.2616536 113035548.01730347 0 0 0 0 2742374.3146688193 38879826.807067871 0 38879826.807067871 78248926.772506714 0 0 0 0 -180866.38018839044 -300666.39892133325 0 -300666.39892133325 1102369.9895573109 0 0 0 0 -343691.86059682816 17996217.905426025 0 17996217.905426025 9667001.3305664062 0 0 0 0 2651612.0630472545 3553934.3859329224 0 3553934.3859329224 164512330.85540771 0 0 0 0 9171981.4731696919 -11024366.088592529 0 -11024366.088592529 100068488.00497818 0 0 0 0 37450385.634298205 -20002144.040369034 0 -20002144.040369034 70648922.869140625 0 0 0 0 40783779.228332072 -75397486.208374023 0 -75397486.208374023 156756507.49069786 0 0 0 0 -9353187.8200665023 -10316123.597589493 0 -10316123.597589493 15828648.626953125 0 0 0 0 -10068783.595117116 -3839056.6766433716 0 -3839056.6766433716 20672816.727905273 0 0 0 0 -8040032.5705374628 -4257062.4013214111 0 -4257062.4013214111 18811489.086242676 0 0 0 0 4686443.3358616102 231995.00330352783 0 231995.00330352783 20645245.298706055 0 0 0 0 -193340.65994282067 -5958482.4068603516 0 -5958482.4068603516 17896112.442199707 0 0 0 0 -4404359.0536539108 -5071540.5941467285 0 -5071540.5941467285 20357117.165407181 0 0 0 0 20840.294383360015 -9526625.9294128418 0 -9526625.9294128418 24286371.466674805 0 0 0 0 -7007245.7141228318 -3256245.3934020996 0 -3256245.3934020996 52038474.83505249 0 0 0 0 1033394.7543433905 -2000847.7309265137 0 -2000847.7309265137 53263778.882598877 0 0 0 0 -692011.21599125862 -9214462.157119751 0 -9214462.157119751 47003824.160186768 0 0 0 0 -14395350.85802339 -7293656.9638671875 0 -7293656.9638671875 88353304.903381348 0 0 0 0 -13476190.751003563 -5048454.5303726196 0 -5048454.5303726196 90024464.412231445 0 0 0 0 -13407119.066535115 -8152719.522857666 0 -8152719.522857666 99041044.539131165 0 0 0 0 -3916088.7702564374 6721945.6824645996 0 6721945.6824645996 120360116.18695068 0 0 0 0 -5970174.9826903343 -34882934.67956543 0 -34882934.67956543 108121200.96418762 0 0 0 0 -7058489.5982280374 -20039215.522277832 0 -20039215.522277832 70819832.201599121 0 0 0 0 -14712013.809088707 -32197093.796936035 0 -32197093.796936035 61520449.414550781 0 0 0 0 -1598544.3496513665 -10927438.630332947 0 -10927438.630332947 47107989.516418457 0 0 0 0 3586032.4070751518 -39983441.956420898 0 -39983441.956420898 11783633.041046143 0 0 0 0 19804129.475901306 -19750824.259262085 0 -19750824.259262085 44942011.791259766 0 0 0 0 -473986.21996763279 -130104.4713620767 0 -130104.4713620767 2891620.6151040941 0 0 0 0 9461835.567256391 -8050398.6097717285 0 -8050398.6097717285 5085599.2858505249 0 0 0 0 -946993.32824268297 -910292.44848027825 0 -910292.44848027825 3883683.0166683942 0 0 0 0 -18244360.03127718 -49547882.09387207 0 -49547882.09387207 23851734.535400391 0 0 0 0 -29288362.304955155 -8822265.6063232422 0 -8822265.6063232422 83541851.434509277 0 0 0 0 -22690955.529172808 -59499018.825073242 0 -59499018.825073242 49275630.67755127 0 0 0 0 -4010279.8186576962 74795.907623291016 0 74795.907623291016 22755393.904327393 0 0 0 0 -1963200.7143160403 773377.20736694336 0 773377.20736694336 15821883.787963867 0 0 0 0 -70003.057854806029 18598.584686420858 0 18598.584686420858 636412.70930965245 0 0 0 0 323381.90638379077 -211949.12031003833 0 -211949.12031003833 -517016.00202308595 0 0 0 0 -2995139.2627825141 20551071.031402588 0 20551071.031402588 41806432.676086426 0 0 0 0 82628667.048982143 11543979.291503906 0 11543979.291503906 18571670.22265625 0 0 0 0 9163095.1983623505 -14576757.929168701 0 -14576757.929168701 -526261.84469604492 0 0 0 0 -62057601.479820609 -15769349.085205078 0 -15769349.085205078 20429786.481033325 0 0 0 0 -2043340.7945668506 3233685.7281248719 0 3233685.7281248719 3015492.0636594892 0 0 0 0 499510.80766989209 -3396883.1806876957 0 -3396883.1806876957 6048390.8677926511 0 0 0 0 -383345.14049327374 -637857.47302246094 0 -637857.47302246094 4800215.0900878906 0 0 0 0 -2487441.4108421644 3146089.9214497283 0 3146089.9214497283 15131849.750372477 0 0 0 0 3049214.6787581444 -15742720.189208984 0 -15742720.189208984 26399661.993988037 0 0 0 0 1217749.1204257011 -9132494.2489013672 0 -9132494.2489013672 46415714.416870117 0 0 0 0 889249.56476967048 -3672940.6922093779 0 -3672940.6922093779 14137738.859381132 0 0 0 0 -4263208.4986844063 -6235033.6497344971 0 -6235033.6497344971 36020801.489318848 0 0 0 0 1959697.0779632851 -19082422.566314697 0 -19082422.566314697 40553767.04498291 0 0 0 0 -1270504.4747118978 1610745.7732498273 0 1610745.7732498273 12268689.437939711 0 0 0 0 -4077080.4454021454 9410797.8900299072 0 9410797.8900299072 -11965905.745689392 0 0 0 0 2135743.3238247931 -13124309.207199097 0 -13124309.207199097 74308353.54208374 0 0 0 0 -2768670.225138098 13853327.365188599 0 13853327.365188599 -3124951.9535522461 0 0 0 0 1519613.5484234095 -7167065.3145904541 0 -7167065.3145904541 27836020.35282135 0 0 0 0 1443323.1402507336 2150469.87655963 0 2150469.87655963 -2102043.6312138736 0 0 0 0 -614577.13626586564 126607.81030595303 0 126607.81030595303 10106416.329167139 0 0 0 0 -2559970.1084907353 4586609.7083435059 0 4586609.7083435059 10387301.137969971 0 0 0 0 -60770923.792829901 56442259.93788147 0 56442259.93788147 73784211.246166229 0 0 0 0 -8736242.0323268659 37983344.705745697 0 37983344.705745697 75965577.089859009 0 0 0 0 -36804294.504106045 4698605.701385498 0 4698605.701385498 98982603.624481201 0 0 0 0 -9551355.7090755403 -6246888.6090393066 0 -6246888.6090393066 82429091.775970459 0 0 0 0 -22302836.387022406 312695.94000244141 0 312695.94000244141 79240863.160484314 0 0 0 0 -73406626.156424537 15348376.05229187 0 15348376.05229187 126792817.75598145 0 0 0 0 40627590.175710909 -59707805.974685669 0 -59707805.974685669 127952326.43798828 0 0 0 0 53689.835656173185 471749.22426509112 0 471749.22426509112 2890497.5603888258 0 0 0 0 6333152.4897581786 -2723553.5731658936 0 -2723553.5731658936 -1104842.2556762695 0 0 0 0 -1319509.6245957678 3342793.9647216797 0 3342793.9647216797 9853590.0839309692 0 0 0 0 -34489.87722757984 436367.62993683666 0 436367.62993683666 3751473.6639138162 0 0 0 0 -2507373.8941915557 -5961504.2705993652 0 -5961504.2705993652 16443937.920883179 0 0 0 0 22049121.16605439 41130407.869743347 0 41130407.869743347 63684598.345153809 0 0 0 0 -1319509.624595043 225191.9753112793 0 225191.9753112793 7586604.0737228394 0 0 0 0 -344155.26870939659 1137947.7742497772 0 1137947.7742497772 2199927.8025323302 0 0 0 0 10057.502753428478 -914533.77383422852 0 -914533.77383422852 2528551.3906555176 0 0 0 0 -6412.7320968256945 -921162.29125976562 0 -921162.29125976562 2532634.5180206299 0 0 0 0 334746.40515314753 610120.56498979032 0 610120.56498979032 792975.20127078891 0 0 0 0 68528957.542175069 97190010.100296021 0 97190010.100296021 119305769.16720581 0 0 0 0 60876132.509129524 62310756.276735306 0 62310756.276735306 35615728.813140869 0 0 0 0 -9655378.0251436979 -2393665.611907959 0 -2393665.611907959 88733969.557250977 0 0 0 0 23101210.166263431 44059778.937492371 0 44059778.937492371 145849778.31387329 0 0 0 0 186471.60919004853 41361130.987324417 0 41361130.987324417 176889368.77545166 0 0 0 0 33834815.383799061 34151210.225021362 0 34151210.225021362 133640539.28510666 0 0 0 0 -169853.02120611718 143554.87521311641 0 143554.87521311641 3141943.4263610709 0 0 0 0 -44722816.277770817 58502225.355712891 0 58502225.355712891 33665653.330019951 0 0 0 0 -30304974.844227463 24324785.766723633 0 24324785.766723633 70006031.165008545 0 0 0 0 -68885088.74603495 56327456.007553101 0 56327456.007553101 93723034.594238281 0 0 0 0 -43378249.723219454 -16882489.380569458 0 -16882489.380569458 126651861.4225769 0 0 0 0 -61292489.891840279 25814115.354095459 0 25814115.354095459 53715085.0730896 0 0 0 0 -4778233.0178101659 23748451.127807617 0 23748451.127807617 52684597.709625244 0 0 0 0 952484.62883103348 1537384.7393959165 0 1537384.7393959165 5668031.6531677842 0 0 0 0 -23274239.368931592 -20110029.266174316 0 -20110029.266174316 14503701.466003418 0 0 0 0 -3138531.4688174725 26621829.528747559 0 26621829.528747559 37056861.164871216 0 0 0 0 195479248.66994953 142614797.03405762 0 142614797.03405762 -29866152.30865097 0 0 0 0 -35223554.897165552 -68984074.004081726 0 -68984074.004081726 205784922.81463623 0 0 0 0 -27257509.846069098 12324071.278320312 0 12324071.278320312 95575659.054260254 0 0 0 0 -639994.01728818589 885136.92189817876 0 885136.92189817876 10705802.557639157 0 0 0 0 -309764.57445049286 7580452.8677978516 0 7580452.8677978516 92456767.440246582 0 0 0 0 12273559.034751773 2895543.9998779297 0 2895543.9998779297 52228823.86126709 0 0 0 0 940469.37094104313 7961961.8192667142 0 7961961.8192667142 9120664.2932246588 0 0 0 0 -1302854.5268226753 3042003.0760676414 0 3042003.0760676414 15514100.183812544 0 0 0 0 -50644136.111168861 -74796966.848815918 0 -74796966.848815918 5168833.1462249756 0 0 0 0 -245918.85626322031 5010338.9620780945 0 5010338.9620780945 52501702.051635742 0 0 0 0 -2174696.5644123959 -6083503.0302545875 0 -6083503.0302545875 18111986.591898248 0 0 0 0 -6269688.6331341527 -2640947.7238273621 0 -2640947.7238273621 57789560.477020264 0 0 0 0 -7475460.033239603 20945649.488647461 0 20945649.488647461 95224415.316589355 0 0 0 0 -289285.26009755378 -175350.28413831443 0 -175350.28413831443 2211640.2099940255 0 0 0 0 33339556.336583495 42396067.681030273 0 42396067.681030273 78938882.391845703 0 0 0 0 17365001.387206197 39244129.993713379 0 39244129.993713379 79449601.927686691 0 0 0 0 2692341.9803243876 56894787.701965332 0 56894787.701965332 142352062.06923294 0 0 0 0 5060613.4475939274 41546634.327346802 0 41546634.327346802 97016809.80480957 0 0 0 0 -17616537.67375803 57102691.045349121 0 57102691.045349121 95482467.79119873 0 0 0 0 -9665395.6177809238 62849267.70513916 0 62849267.70513916 121930888.99145508 0 0 0 0 -489888.94157385826 54692287.901062012 0 54692287.901062012 76559849.239593506 0 0 0 0 1170163.1328773201 48804240.308273315 0 48804240.308273315 43232282.586608887 0 0 0 0 -12546285.509670138 43908805.823516846 0 43908805.823516846 93021669.688934326 0 0 0 0 -12574796.705893874 45005894.5052948 0 45005894.5052948 107342571.0256958 0 0 0 0 -2288328.0262622833 30858381.923370361 0 30858381.923370361 72457857.012451172 0 0 0 0 -1572545.9292757511 27819332.773223877 0 27819332.773223877 62942849.709472656 0 0 0 0 -833108.36656119581 6010218.6239018738 0 6010218.6239018738 20894515.837540764 0 0 0 0 10272776.149936438 27361190.965270996 0 27361190.965270996 7055154.4501953125 0 0 0 0 -1374005.7302281898 2788941.8051996054 0 2788941.8051996054 7071295.8294782341 0 0 0 0 -4831589.347987175 2875745.2631530762 0 2875745.2631530762 5763562.3457946777 0 0 0 0 -4449015.0733847618 3680216.9469680786 0 3680216.9469680786 5968719.1790771484 0 0 0 0 -2751476.8266352154 4754777.8852252513 0 4754777.8852252513 9142594.9313497245 0 0 0 0 -3867172.4651679993 -1412153.3424682617 0 -1412153.3424682617 12657054.671722412 0 0 0 0 7184358.6592674255 8704945.3569335938 0 8704945.3569335938 20066482.244781494 0 0 0 0 -407191.8130645752 -1538449.609375 0 -1538449.609375 21345848.716308594 0 0 0 0 15458473.385708213 49162495.202880859 0 49162495.202880859 49293624.059997559 0 0 0 0 15682125.844304562 42344953.589416504 0 42344953.589416504 44078164.226791382 0 0 0 0 -21862954.907483339 12640391.740127563 0 12640391.740127563 41107690.237915039 0 0 0 0 -2159913.8857704839 2845454.8363727108 0 2845454.8363727108 3261144.1523344517 0 0 0 0 -4023657.7285336256 22416975.921125412 0 22416975.921125412 49228683.12109375 0 0 0 0 -3466328.7807559539 2048406.3375749588 0 2048406.3375749588 18751051.678222656 0 0 0 0 -3592111.2008383274 3300864.2949829102 0 3300864.2949829102 12511920.978410721 0 0 0 0 -2084902.0460116761 3906454.7945775092 0 3906454.7945775092 16781666.560655415 0 0 0 0 536224.45973630657 6323525.4727930203 0 6323525.4727930203 19246549.899509341 0 0 0 0 -85397.428360309685 151654.81529501453 0 151654.81529501453 165840.59341683984 0 0 0 0 -31939869.083976269 3705627.4622344971 0 3705627.4622344971 73244505.180603027 0 0 0 0 -22869704.493856907 7344443.80859375 0 7344443.80859375 46174117.909301758 0 0 0 0 -5657101.2863873243 1443055.0913085938 0 1443055.0913085938 11165832.311767578 0 0 0 0 -7217327.4299502894 -1417131.3021152467 0 -1417131.3021152467 24077712.23580341 0 0 0 0 -2878851.2179480735 1587896.0632228553 0 1587896.0632228553 14168523.315458566 0 0 0 0 429797.40672141314 -2909896.3160018921 0 -2909896.3160018921 21271182.144256592 0 0 0 0 -2289187.4680404761 8918633.1293045282 0 8918633.1293045282 14814549.937216267 0 0 0 0 1000453.3282611009 6066996.6222689003 0 6066996.6222689003 20843687.486172087 0 0 0 0 -23606064.479401112 26593632.56237793 0 26593632.56237793 34256592.309188843 0 0 0 0 -34226867.141496897 23968795.436447144 0 23968795.436447144 59330890.201416016 0 0 0 0 2535098.7937350012 -4082991.6501502991 0 -4082991.6501502991 13219064.292864747 0 0 0 0 -1726789.2592124939 1038920.4107971191 0 1038920.4107971191 3294075.0090942383 0 0 0 0 629621.99868011475 -2420336.0681152344 0 -2420336.0681152344 5045546.2706298828 0 0 0 0 91036.602903983556 2488632.101318635 0 2488632.101318635 26968318.61502438 0 0 0 0 37139.949354171753 -2558372.802947998 0 -2558372.802947998 12295650.225585938 0 0 0 0 -1151477.1607586225 2582620.9499716014 0 2582620.9499716014 23779950.250164255 0 0 0 0 -12040.952942609787 -2168457.2806587219 0 -2168457.2806587219 10234589.869812012 0 0 0 0 -920205.23659096519 -4949176.2109684572 0 -4949176.2109684572 16963412.451828297 0 0 0 0 -3481288.9175567627 -78432.064422607422 0 -78432.064422607422 9423077.9200134277 0 0 0 0 -2979138.0831451416 2206968.5338134766 0 2206968.5338134766 8112457.1324157715 0 0 0 0 -2420829.0413608551 3035115.9604492188 0 3035115.9604492188 18597306.035583496 0 0 0 0 -2536599.7338566543 7337315.118649872 0 7337315.118649872 6025654.4510593712 0 0 0 0 -2493623.6690119524 8530253.7777324244 0 8530253.7777324244 9819394.1676506251 0 0 0 0 -6368712.249121666 7850861.7944030762 0 7850861.7944030762 5576577.8334960938 0 0 0 0 -5930542.109500885 2587277.7147216797 0 2587277.7147216797 10376600.999267578 0 0 0 0 -4108134.4805502626 5065724.5515904836 0 5065724.5515904836 13113859.225025326 0 0 0 0 -3403389.3429366173 5824529.5605657399 0 5824529.5605657399 14521388.73805204 0 0 0 0 -469724.58431553544 -2853830.9889967442 0 -2853830.9889967442 12631086.228541233 0 0 0 0 -822347.92359703116 -4243388.9492221475 0 -4243388.9492221475 19114281.405718312 0 0 0 0 -3294891.9511098862 4795658.8404846191 0 4795658.8404846191 6700651.0175170898 0 0 0 0 -3946724.3810544014 4058967.2051391602 0 4058967.2051391602 6949345.4785766602 0 0 0 0 -4959601.8515434265 1059773.0675964355 0 1059773.0675964355 7030343.0034790039 0 0 0 0 -2362795.6366766356 -2185713.500217326 0 -2185713.500217326 23827731.009851143 0 0 0 0 -1625366.036387312 7816465.5024101194 0 7816465.5024101194 5225915.7656955719 0 0 0 0 -2622011.844997406 1217493.2429504395 0 1217493.2429504395 6746950.3272705078 0 0 0 0 -8178099.331977129 8033978.172454834 0 8033978.172454834 6866803.474609375 0 0 0 0 -2454654.4773172941 9046104.5270301513 0 9046104.5270301513 10148781.208921105 0 0 0 0 -411493.55353024742 -2078270.5304190367 0 -2078270.5304190367 30668276.588928185 0 0 0 0 1981335.4457142637 -280428.3039143309 0 -280428.3039143309 4693037.365048945 0 0 0 0 -6085912.9321432114 28298292.506256104 0 28298292.506256104 24661866.843109131 0 0 0 0 -2650381.3261111639 9714720.6992111169 0 9714720.6992111169 3036961.362428993 0 0 0 0 -2192742.0180231459 5140612.1588541269 0 5140612.1588541269 10372529.724494994 0 0 0 0 41347108.132888794 36925616.52130127 0 36925616.52130127 3871054.8576660156 0 0 0 0 -13865518.053074777 3896690.9053115845 0 3896690.9053115845 5728695.977722168 0 0 0 0 -2273609.6021353286 3844395.6580719827 0 3844395.6580719827 13692775.378566742 0 0 0 0 -29151347.052001476 84992131.466720581 0 84992131.466720581 48144933.07691431 0 0 0 0 78827.773839100497 -3660017.8082481697 0 -3660017.8082481697 8146158.7273381203 0 0 0 0 -510090.99451719044 3471103.49797187 0 3471103.49797187 10857799.786143616 0 0 0 0 -1489639.3555982113 -3914248.1407775879 0 -3914248.1407775879 14001508.844390869 0 0 0 0 83741.059060311876 -1466887.7393487319 0 -1466887.7393487319 21804581.563372388 0 0 0 0 -1499382.4325852394 -1452909.4286499023 0 -1452909.4286499023 13891371.771697998 0 0 0 0 -6352386.1026096344 1384558.1672363281 0 1384558.1672363281 28456348.328857422 0 0 0 0 -923321.9553578574 -2298047.9314744174 0 -2298047.9314744174 15108322.550564695 0 0 0 0 -1977195.6213447452 -3611635.9328365326 0 -3611635.9328365326 13145279.558654785 0 0 0 0 172785.13850168767 4303151.5931707099 0 4303151.5931707099 14915989.550885975 0 0 0 0 85809.960392265813 -2133054.4815327451 0 -2133054.4815327451 15231296.069337305 0 0 0 0 10768286.728286266 -17118780.74886322 0 -17118780.74886322 31187546.405883789 0 0 0 0 -12754533.06499207 -15569055.267242432 0 -15569055.267242432 -96884470.035705566 0 0 0 0 14236133.541025639 45296580.813964844 0 45296580.813964844 -24376866.295562744 0 0 0 0 -9591.2001997232437 700631.37475585938 0 700631.37475585938 5556899.056640625 0 0 0 0 -134465.29283331346 -624996.05500868708 0 -624996.05500868708 10129328.04387176 0 0 0 0 -417195.98234113469 1275027.206038788 0 1275027.206038788 25621019.865695089 0 0 0 0 -15714791.448068559 32110691.427032471 0 32110691.427032471 -18374156.921478271 0 0 0 0 -203705.1630871594 -2643088.8446044922 0 -2643088.8446044922 28442486.795516968 0 0 0 0 -2292094.0496787955 1581584.9157713801 0 1581584.9157713801 3381803.1298544556 0 0 0 0 49131371.807101309 80220429.299423218 0 80220429.299423218 -72542685.445373535 0 0 0 0 52052808.900956035 -7271929.7570495605 0 -7271929.7570495605 -11911496.210113525 0 0 0 0 18375285.910974093 -124328946.49073792 0 -124328946.49073792 185959062.57894897 0 0 0 0 542060.53033828223 642377.85161224008 0 642377.85161224008 -646902.28733325005 0 0 0 0 -28275868.698520422 -33225266.594421387 0 -33225266.594421387 -19867164.264806747 0 0 0 0 -140365019.30235481 -106658978.87220001 0 -106658978.87220001 334163541.35873413 0 0 0 0 112389665.188519 123691067.62094116 0 123691067.62094116 19375304.717285156 0 0 0 0 7030895.5467128754 149473362.62219238 0 149473362.62219238 173500138.62911987 0 0 0 0 -48617801.033981442 48889074.92540741 0 48889074.92540741 48666463.34576416 0 0 0 0 38164372.254490614 73172152.330749512 0 73172152.330749512 -32282783.305374146 0 0 0 0 12359792.067852974 52423989.062530518 0 52423989.062530518 6199259.0499267578 0 0 0 0 171327823.27154922 110043902.00245667 0 110043902.00245667 249578312.32490158 0 0 0 0 170427736.23466873 168814773.40847397 0 168814773.40847397 211316759.78197861 0 0 0 0 233499737.44546795 78032460.422968864 0 78032460.422968864 163733197.22459412 0 0 0 0 260669571.49484253 43649638.537063599 0 43649638.537063599 246424175.01930237 0 0 0 0 128316754.14510727 13521745.100719452 0 13521745.100719452 241427988.85704231 0 0 0 0 205531380.4418335 15451034.260990143 0 15451034.260990143 163861653.65833282 0 0 0 0 204862222.67073059 -106190340.19886971 0 -106190340.19886971 317262772.15739441 0 0 0 0 348329021.42219925 -28111900.933425903 0 -28111900.933425903 287377135.38615799 0 0 0 0 423905916.022789 -91263875.005290985 0 -91263875.005290985 412530181.21208954 0 0 0 0 270561686.32448006 -33468947.812080383 0 -33468947.812080383 398570170.28335953 0 0 0 0 380421182.75722885 63156526.584423065 0 63156526.584423065 391184040.76566505 0 0 0 0 291199534.26191568 138726759.37341833 0 138726759.37341833 250069862.6109848 0 0 0 0 248192878.51152802 26966754.147642136 0 26966754.147642136 384302294.10340118 0 0 0 0 229224953.1110878 40995941.486862183 0 40995941.486862183 368963876.10480881 0 0 0 0 289782379.97917366 184503197.05117035 0 184503197.05117035 209990475.57345581 0 0 0 0 135034759.95923805 156511339.50133896 0 156511339.50133896 228797136.6400528 0 0 0 0 -72771574.962810516 195843923.83668137 0 195843923.83668137 231591976.05705261 0 0 0 0 -5851435.7008113861 250970108.98545074 0 250970108.98545074 144260137.48203278 0 0 0 0 153825953.19095421 239199103.27974081 0 239199103.27974081 95218328.611679077 0 0 0 0 132809965.92227364 250551385.55043793 0 250551385.55043793 98775612.495929718 0 0 0 0 -27909469.920160294 347051116.63840866 0 347051116.63840866 155823788.6220665 0 0 0 0 -30075110.967847824 383221872.5465107 0 383221872.5465107 325559169.2505188 0 0 0 0 53708084.386529922 224102119.5493145 0 224102119.5493145 184827937.15573502 0 0 0 0 224258105.64937019 179092809.65748596 0 179092809.65748596 190433396.56853485 0 0 0 0 121730104.50672913 264357645.30847931 0 264357645.30847931 177739112.93766785 0 0 0 0 128930978.25815392 123161620.87977028 0 123161620.87977028 161809386.73561096 0 0 0 0 72189989.238470078 257072649.85890961 0 257072649.85890961 236469209.62733459 0 0 0 0 -65203550.776449203 214946417.14944077 0 214946417.14944077 225177134.90271568 0 0 0 0 -77703982.208238363 279946223.11150551 0 279946223.11150551 336701683.83917999 0 0 0 0 -90339285.209960938 -10394299.471029282 0 -10394299.471029282 86020811.615859985 0 0 0 0 29426661.990115643 70884453.965248108 0 70884453.965248108 39039334.237091064 0 0 0 0 -3831360.2283973694 147682689.45809174 0 147682689.45809174 266968821.4434948 0 0 0 0 104859090.11209202 20410565.892870903 0 20410565.892870903 -17507932.955200195 0 0 0 0 14713621.774097443 97115036.625471115 0 97115036.625471115 117478938.3617363 0 0 0 0 150408226.1353302 146526446.93361282 0 146526446.93361282 130525604.51919174 0 0 0 0 59239357.2915802 72455358.537418365 0 72455358.537418365 165087563.79850006 0 0 0 0 61984010.127365112 4909049.7318077087 0 4909049.7318077087 163151076.37042999 0 0 0 0 44944363.818096161 60767360.067745209 0 60767360.067745209 77222913.047471046 0 0 0 0 140426015.06026077 35897523.699960709 0 35897523.699960709 82375421.199073792 0 0 0 0 124218912.43047142 18026280.911521912 0 18026280.911521912 76270635.262657166 0 0 0 0 57278983.340963602 -44242077.013467312 0 -44242077.013467312 44647287.05594635 0 0 0 0 -9595591.6752529144 48199635.429218292 0 48199635.429218292 -23943936.975223541 0 0 0 0 -11682170.311727524 -103873812.04055405 0 -103873812.04055405 -81086840.580965996 0 0 0 0 81366922.634189606 -68146728.726890564 0 -68146728.726890564 -249908167.94712639 0 0 0 0 2275894997.3495474 -3208346826.4714279 0 -3208346826.4714279 -116553749.69165802 0 0 0 0 20595439.555328369 -66041702.265914917 0 -66041702.265914917 43684824.934455872 0 0 0 0 59300224.464076996 25951204.23841095 0 25951204.23841095 -39997394.546585083 0 0 0 0 -3091761.3075256348 25127340.151275635 0 25127340.151275635 -85676265.154846191 0 0 0 0 -71693435.187072754 75684090.913192749 0 75684090.913192749 -98193542.788347244 0 0 0 0 -2995995665.9289255 996801305.5990963 0 996801305.5990963 -2704453629.2903442 0 0 0 0 111227369.13450623 -101858834.73864365 0 -101858834.73864365 -56116312.017108917 0 0 0 0 10721242.853591982 -4017844.8068903033 0 -4017844.8068903033 763522.14051550627 0 0 0 0 25267807.940814972 -164752542.39397621 0 -164752542.39397621 -53131009.168144226 0 0 0 0 3130164.5550744561 -315409.67217172869 0 -315409.67217172869 746038.07153687603 0 0 0 0 -175656497.08407784 -43401579.008098602 0 -43401579.008098602 26671393.096664429 0 0 0 0 -61138252.59995079 -114455089.30186939 0 -114455089.30186939 57243935.112937927 0 0 0 0 6732107.2201423645 -63051559.755531311 0 -63051559.755531311 84381546.288684845 0 0 0 0 3813599.1693115234 -134948414.91836929 0 -134948414.91836929 168311702.14522171 0 0 0 0 22071602.394195557 -29126589.496952057 0 -29126589.496952057 227884768.98262405 0 0 0 0 6237019.0205618888 -173333373.04919949 0 -173333373.04919949 84721957.557434082 0 0 0 0 46697825.842105865 -204194010.22594833 0 -204194010.22594833 331547482.22063065 0 0 0 0 17395842.506133795 -193333526.32719684 0 -193333526.32719684 344741574.47375488 0 0 0 0 2071186.5896699429 -83068958.87888217 0 -83068958.87888217 221680501.52562714 0 0 0 0 103203810.31536102 -192539764.61504364 0 -192539764.61504364 278392034.80465126 0 0 0 0 38156401.884674072 -78192080.603172302 0 -78192080.603172302 181005867.40018272 0 0 0 0 147680953.02786636 -73061104.751300812 0 -73061104.751300812 176499268.79021263 0 0 0 0 24413261.889058352 -6603921.514321804 0 -6603921.514321804 77080624.078681946 0 0 0 0 257435131.24098206 94128263.08506012 0 94128263.08506012 -1645484485.5793343 0 0 0 0 9624649.4623705745 -2095886.0593671203 0 -2095886.0593671203 2921336.7397779515 0 0 0 0 -129580509.29226923 -44027309.441944122 0 -44027309.441944122 -1678733487.1902695 0 0 0 0 405011863.5487051 -952441035.57313538 0 -952441035.57313538 -3515506396.3605385 0 0 0 0 71374141.86876297 -14890469.577140808 0 -14890469.577140808 6996331.073589325 0 0 0 0 -27069504.319971085 -282796267.33982086 0 -282796267.33982086 479970274.8074646 0 0 0 0 83112061.874217987 -417455815.55405426 0 -417455815.55405426 634352500.09019566 0 0 0 0 136809850.00514603 -404000145.95726204 0 -404000145.95726204 558109384.82909393 0 0 0 0 -112068019.36357117 52787868.918884277 0 52787868.918884277 555135724.33779907 0 0 0 0 323165340.75336456 -741541846.2089653 0 -741541846.2089653 1095391009.4315681 0 0 0 0 -12340743.697290421 -228984001.18063641 0 -228984001.18063641 1321420272.2182236 0 0 0 0 855209342.10046768 -777115849.44696236 0 -777115849.44696236 516680939.53877258 0 0 0 0 4474015.0773712434 -847172.36235620826 0 -847172.36235620826 -310859.07235894632 0 0 0 0 429043544.55901814 -341515615.20177555 0 -341515615.20177555 163992976.64226532 0 0 0 0 313412849.00182724 -559765644.81443024 0 -559765644.81443024 517074431.41001987 0 0 0 0 209005311.58269739 -423857046.82290602 0 -423857046.82290602 340167716.5433197 0 0 0 0 211340666.31665945 -410779375.03867292 0 -410779375.03867292 412959071.63844299 0 0 0 0 80525161.834911346 -394149805.70937729 0 -394149805.70937729 505639502.71398354 0 0 0 0 217360096.07069206 -365590028.57036209 0 -365590028.57036209 377186547.08292961 0 0 0 0 219573811.93963814 -370061428.5093956 0 -370061428.5093956 385003326.97989273 0 0 0 0 201280296.5897789 -303242750.76974487 0 -303242750.76974487 274633682.0232563 0 0 0 0 246214731.48576021 -271916448.41078472 0 -271916448.41078472 184759942.11830902 0 0 0 0 223924110.46779633 -178963385.95533371 0 -178963385.95533371 335284153.49081039 0 0 0 0 160565140.91801071 -203648656.98340702 0 -203648656.98340702 326974278.93756866 0 0 0 0 223010664.4119873 -75191301.60200119 0 -75191301.60200119 243148903.40992737 0 0 0 0 105540377.61051559 -85175963.184238434 0 -85175963.184238434 244944815.75984955 0 0 0 0 46743277.645746231 -126134516.22763252 0 -126134516.22763252 292640700.90475464 0 0 0 0 34000772.751710892 -244856596.87295151 0 -244856596.87295151 404669810.37671661 0 0 0 0 125688404.62128067 -269223780.18855286 0 -269223780.18855286 365673214.98230743 0 0 0 0 146093488.08421707 -305266522.47942352 0 -305266522.47942352 397449680.49580383 0 0 0 0 223084643.24172115 -292746183.49211502 0 -292746183.49211502 387502746.17648315 0 0 0 0 184669866.50322723 -385701560.18160629 0 -385701560.18160629 389399706.85533905 0 0 0 0 240952934.43515015 -338596798.52384949 0 -338596798.52384949 409786770.21554184 0 0 0 0 236837771.01815224 -349283155.28723907 0 -349283155.28723907 457784454.43437195 0 0 0 0 333514242.94966125 -313637602.38128281 0 -313637602.38128281 388190189.20740318 0 0 0 0 273350821.39819145 -214585212.81908226 0 -214585212.81908226 427164239.79470444 0 0 0 0 301630713.63010979 -240128070.3241024 0 -240128070.3241024 376564110.80894089 0 0 0 0 366171184.15211105 -69875057.589626312 0 -69875057.589626312 323701044.25623894 0 0 0 0 385445494.33379364 -178563667.63520813 0 -178563667.63520813 573077619.28671265 0 0 0 0 510983434.91629982 -228578809.4037838 0 -228578809.4037838 420000000.84463501 0 0 0 0 586400069.12831497 -215638960.38153458 0 -215638960.38153458 578067819.82697678 0 0 0 0 282731819.55275059 -269888174.93568325 0 -269888174.93568325 443497341.00848389 0 0 0 0 287478901.7765274 -305042128.20375824 0 -305042128.20375824 606586742.13359451 0 0 0 0 178138588.26700974 -202037549.93988991 0 -202037549.93988991 951451126.06604958 0 0 0 0 479274000.37705851 92328436.52127409 0 92328436.52127409 548398334.10085297 0 0 0 0 127102306.35941124 -31660561.161539078 0 -31660561.161539078 476862169.07868385 0 0 0 0 478350065.81691742 -38942689.126747131 0 -38942689.126747131 2040188990.5190353 0 0 0 0 1090994391.4205379 -183896240.2400074 0 -183896240.2400074 750334742.77574158 0 0 0 0 618754471.93860316 -61339234.679779291 0 -61339234.679779291 733608691.09351349 0 0 0 0 581763275.20289612 -335812306.92104721 0 -335812306.92104721 599098130.32448769 0 0 0 0 134935256.5646081 -194803879.58015776 0 -194803879.58015776 291002615.35470963 0 0 0 0 5888311.0920639038 -129044790.66444588 0 -129044790.66444588 294144545.66061401 0 0 0 0 188550141.98026562 -293264244.13001537 0 -293264244.13001537 581733247.02731323 0 0 0 0 132551396.08619118 -185502825.27611732 0 -185502825.27611732 384316069.54408616 0 0 0 0 95402874.752641678 -50396775.406951904 0 -50396775.406951904 468575315.42247009 0 0 0 0 22553337.687757492 56689124.762535095 0 56689124.762535095 311345988.47124457 0 0 0 0 40131275.500171661 98567158.098920822 0 98567158.098920822 182040368.16049194 0 0 0 0 20701393.786074162 135088582.55734253 0 135088582.55734253 191309649.60459518 0 0 0 0 170118266.25512123 261938610.62496662 0 261938610.62496662 387023462.17887878 0 0 0 0 -612068.95038122684 371923.50625107437 0 371923.50625107437 459544.06692495942 0 0 0 0 96068275.837709427 57776321.341718674 0 57776321.341718674 182432903.31396866 0 0 0 0 479550469.11496735 428432412.14395523 0 428432412.14395523 200334615.92099524 0 0 0 0 42792484.323200226 136037682.89114761 0 136037682.89114761 170427682.97361469 0 0 0 0 -1743906.0207915884 1155130.1714101881 0 1155130.1714101881 789116.13970962912 0 0 0 0 778870385.50929642 315709323.14710999 0 315709323.14710999 92920746.267429352 0 0 0 0 426982.66949747934 -191888.47656487208 0 -191888.47656487208 1819007.1054742001 0 0 0 0 1264696311.8837318 885076923.68972588 0 885076923.68972588 716983476.93549728 0 0 0 0 301409952.71294594 467703608.17696571 0 467703608.17696571 908567908.43948174 0 0 0 0 150238126.04960251 89725636.861837387 0 89725636.861837387 151186872.36688995 0 0 0 0 377922129.81425691 264090290.41268134 0 264090290.41268134 181926714.16575241 0 0 0 0 369804639.6455307 237425399.02952957 0 237425399.02952957 155729552.68469429 0 0 0 0 1209504.2527618501 -858871.31807382777 0 -858871.31807382777 4753779.7672099918 0 0 0 0 -103585142.86832643 -81592332.289520979 0 -81592332.289520979 10045982.361686707 0 0 0 0 5286869.8954235688 -1282251.6686434122 0 -1282251.6686434122 3380432.9075121954 0 0 0 0 7424811.1241264343 -18972911.707025528 0 -18972911.707025528 142660703.57378674 0 0 0 0 -111741939.31333923 -50614700.019349098 0 -50614700.019349098 225401084.18636131 0 0 0 0 -21623073.436625481 -197197179.00755835 0 -197197179.00755835 1629517250.1099663 0 0 0 0 -107506692.32273865 12751647.205638885 0 12751647.205638885 1161956074.3272362 0 0 0 0 234716894.08911896 9623120.9858417511 0 9623120.9858417511 146081649.03600311 0 0 0 0 56367844.685267091 -603909781.39656436 0 -603909781.39656436 1162777693.2807655 0 0 0 0 -88507415.612054825 112108931.04984474 0 112108931.04984474 1575133989.530756 0 0 0 0 745943399.90955353 319084586.39609814 0 319084586.39609814 1029449100.0283203 0 0 0 0 58806478.673875809 -224552629.56492424 0 -224552629.56492424 1292209363.008625 0 0 0 0 258229036.12565613 -331113393.52562141 0 -331113393.52562141 914382224.34796143 0 0 0 0 337290202.41659546 -35051405.678390503 0 -35051405.678390503 600016743.90845871 0 0 0 0 272477559.52072811 -14321029.795669556 0 -14321029.795669556 709452692.40186691 0 0 0 0 323235662.22677839 76013749.044435233 0 76013749.044435233 381878998.93476486 0 0 0 0 319128368.1216234 -50411407.142988622 0 -50411407.142988622 592617929.5819397 0 0 0 0 353625989.11555481 39244382.528154373 0 39244382.528154373 909665208.40514183 0 0 0 0 479498648.32773972 -1460790.5819587708 0 -1460790.5819587708 504784970.06136322 0 0 0 0 641575710.78154755 -25626306.793933868 0 -25626306.793933868 507239731.97994995 0 0 0 0 139227374.48451829 48855619.965728283 0 48855619.965728283 365346217.77336121 0 0 0 0 164380053.98225057 156688399.37477112 0 156688399.37477112 182430545.8603363 0 0 0 0 247810240.53844643 126560494.94015121 0 126560494.94015121 419697147.0422287 0 0 0 0 447095034.55044174 -134458251.91851807 0 -134458251.91851807 517383810.21538925 0 0 0 0 670571776.78374958 -284955505.30584908 0 -284955505.30584908 453528499.49782908 0 0 0 0 364141857.81064129 -528364166.80226707 0 -528364166.80226707 1264489193.971859 0 0 0 0 262475052.43348455 219487835.47299957 0 219487835.47299957 519472072.94461441 0 0 0 0 -72825914.38991642 -545797913.63482094 0 -545797913.63482094 945163489.23502731 0 0 0 0 2642049.8102118727 -152192.40605269233 0 -152192.40605269233 522303.71539718565 0 0 0 0 513919585.81450272 -567082767.43761301 0 -567082767.43761301 379009470.02222061 0 0 0 0 253189895.5 -91158383.002929688 0 -91158383.002929688 -164017354.05212975 0 0 0 0 205868035.25844955 -900498379.85313416 0 -900498379.85313416 526374768.85014629 0 0 0 0 18759812.483458519 -1169007570.2080364 0 -1169007570.2080364 91080028.272322834 0 0 0 0 -88370644.52519989 -982704378.8821702 0 -982704378.8821702 1199066040.5412121 0 0 0 0 -247305924.50965929 -69849658.178628683 0 -69849658.178628683 565478.30612564087 0 0 0 0 -2132614.8911592667 -4325728.9301525028 0 -4325728.9301525028 20168703.806602612 0 0 0 0 -1122229363.1679497 -419512514.88028336 0 -419512514.88028336 255195472.48269463 0 0 0 0 -708712.50501778326 -1204363.6794287045 0 -1204363.6794287045 7271354.2159930719 0 0 0 0 1587397171.6950083 1994031281.1597102 0 1994031281.1597102 1420501080.1537838 0 0 0 0 355003847.04025269 342107764.51580048 0 342107764.51580048 370227708.09328651 0 0 0 0 -60202203.237466812 494246837.68855047 0 494246837.68855047 568788230.80204439 0 0 0 0 18015972.859310266 -19556532.565990016 0 -19556532.565990016 18517762.345378425 0 0 0 0 -53862972.661835551 390852127.88807666 0 390852127.88807666 969506577.302001 0 0 0 0 93170657.465904236 470796854.56503868 0 470796854.56503868 546892105.95256329 0 0 0 0 -3126577.4834502069 -8700863.1803035494 0 -8700863.1803035494 29766126.086450644 0 0 0 0 -194099510.12845802 -99392319.199234009 0 -99392319.199234009 265529307.93829727 0 0 0 0 34174396.540393829 -50310042.61017704 0 -50310042.61017704 765917761.43946457 0 0 0 0 -10603594.81657505 112893813.4371767 0 112893813.4371767 302200566.32173157 0 0 0 0 50441878.636772156 -243799478.88687515 0 -243799478.88687515 -1708271.3622455597 0 0 0 0 -772174712.55610061 -126216517.34220219 0 -126216517.34220219 129664246.21238708 0 0 0 0 -590175097.35582638 142546831.18244362 0 142546831.18244362 235805875.47281265 0 0 0 0 -196656114.40860176 197536593.2854805 0 197536593.2854805 395154777.04337788 0 0 0 0 -329612497.66304207 3338793.9246730804 0 3338793.9246730804 169341600.45916748 0 0 0 0 -216944992.44836807 -128527497.48350716 0 -128527497.48350716 353316057.48720169 0 0 0 0 -274232189.40932369 30677625.168832779 0 30677625.168832779 2829858.164393425 0 0 0 0 -470453300.63754272 -493308378.3763237 0 -493308378.3763237 -94377247.149375916 0 0 0 0 -242175380.90225983 -275481365.12194824 0 -275481365.12194824 -21539240.750864029 0 0 0 0 80294914.663406372 -484695122.50644684 0 -484695122.50644684 21974372.046348572 0 0 0 0 -205815792.48334503 -396939108.792099 0 -396939108.792099 363179293.44073486 0 0 0 0 -57621843.885543823 -477088973.4817543 0 -477088973.4817543 37144480.364196777 0 0 0 0 -95476905.84113884 -397910011.0621891 0 -397910011.0621891 83030062.572677612 0 0 0 0 -388446284.14915466 -525106926.32325745 0 -525106926.32325745 103438611.20898819 0 0 0 0 -113118618.50178528 -382365431.40724182 0 -382365431.40724182 75486097.583435059 0 0 0 0 69321894.609737396 -283534987.11487579 0 -283534987.11487579 19920172.667725563 0 0 0 0 74720250.643768311 -465459398.39641571 0 -465459398.39641571 17190074.035316467 0 0 0 0 -19202596.45866394 -358752555.51904678 0 -358752555.51904678 14628912.659896851 0 0 0 0 64543877.250144958 -247690040.77700043 0 -247690040.77700043 -133849678.0188179 0 0 0 0 169322109.05426788 -369512105.56525421 0 -369512105.56525421 -121061995.53808546 0 0 0 0 156995883.18166351 -394240782.98936844 0 -394240782.98936844 -59139291.023368835 0 0 0 0 136662402.55529022 -621915129.20064163 0 -621915129.20064163 355907111.05924225 0 0 0 0 432559090.70014191 -439353671.36001587 0 -439353671.36001587 -115917564.42912674 0 0 0 0 160132777.0626514 -144933753.99958557 0 -144933753.99958557 -364904078.32888031 0 0 0 0 158290789.33557129 -724455926.84305573 0 -724455926.84305573 -197023771.01281166 0 0 0 0 -303598358.84568024 -123663918.74827957 0 -123663918.74827957 -124397341.50195694 0 0 0 0 -333190642.39065933 -377598830.27186203 0 -377598830.27186203 -223294505.11834717 0 0 0 0 457762995.5351181 72299877.66402626 0 72299877.66402626 629677028.9162178 0 0 0 0 692198790.07751846 300562455.27254581 0 300562455.27254581 621008998.2407074 0 0 0 0 223172645.80322075 293858502.42616081 0 293858502.42616081 879709014.70490265 0 0 0 0 288416157.68753815 19485768.715885162 0 19485768.715885162 -72081770.116550446 0 0 0 0 274397762.33083344 -285667945.5817585 0 -285667945.5817585 358994953.29905128 0 0 0 0 -285727098.29588699 89869472.291397095 0 89869472.291397095 -14117193.258338928 0 0 0 0 298887158.85244966 229645252.00886995 0 229645252.00886995 -213118674.45875931 0 0 0 0 3934556.625225577 -3766960.2716428079 0 -3766960.2716428079 -7400748.6840910241 0 0 0 0 -1289879223.1568985 -1966002977.068284 0 -1966002977.068284 -972055457.87729788 0 0 0 0 6581458.4839322977 -6291756.7931931801 0 -6291756.7931931801 5894274.0851386916 0 0 0 0 75851737.117313385 1719709543.7109745 0 1719709543.7109745 3039381038.4495468 0 0 0 0 -3606413809.8146362 -2202396517.3150635 0 -2202396517.3150635 3027961950.785759 0 0 0 0 4939407396.3073425 -576543810.02885437 0 -576543810.02885437 -2245762928.653656 0 0 0 0 159561876.18130493 -805790990.30269814 0 -805790990.30269814 823632464.95936584 0 0 0 0 75308648.119865417 -165019971.02790451 0 -165019971.02790451 2748085406.1807556 0 0 0 0 73314400.788145423 -594980797.74566364 0 -594980797.74566364 784207486.29143524 0 0 0 0 -25518902.811134338 -363732115.82666016 0 -363732115.82666016 488585253.61749649 0 0 0 0 318520809.63311577 972053564.19404793 0 972053564.19404793 1986144887.1701126 0 0 0 0 2354427187.5551758 2974171870.7291527 0 2974171870.7291527 3474793659.3862486 0 0 0 0 832112078.7331543 552220541.24503517 0 552220541.24503517 -350750303.48553085 0 0 0 0 320911.31069302931 -1018896.5739684773 0 -1018896.5739684773 1391712.576767643 0 0 0 0 244644542.76130676 428303186.95858955 0 428303186.95858955 -257159667.30659199 0 0 0 0 550530794.00832367 540650473.33020496 0 540650473.33020496 -335483745.26337481 0 0 0 0 -210611978.67739868 52591109.993984222 0 52591109.993984222 72006084.782009125 0 0 0 0 -244819740.68797684 208267628.85014915 0 208267628.85014915 385877032.78364182 0 0 0 0 -510917732.62164688 52290839.004854202 0 52290839.004854202 423006562.3086586 0 0 0 0 77892918.889961243 325096464.62924957 0 325096464.62924957 282414347.12389374 0 0 0 0 -47623038.141896248 -439593683.18356609 0 -439593683.18356609 370424672.92198944 0 0 0 0 -405321524.63046265 116525444.7746315 0 116525444.7746315 992219047.3689537 0 0 0 0 -553911544.87403679 80646272.852665901 0 80646272.852665901 262858753.51836395 0 0 0 0 -421879734.68625641 7682497.2446479797 0 7682497.2446479797 297854939.05017853 0 0 0 0 5830981.8298149109 -19703721.993124008 0 -19703721.993124008 55489825.184585571 0 0 0 0 3639023.1593933105 -951495.80065536499 0 -951495.80065536499 54591506.203166962 0 0 0 0 88880253.633880615 219699243.96659136 0 219699243.96659136 64453907.425327063 0 0 0 0 28346934.588003635 -57444528.317934215 0 -57444528.317934215 -58973245.971591949 0 0 0 0 -640672.89124679565 -29257130.319036961 0 -29257130.319036961 42559105.916791916 0 0 0 0 6907707.0420761108 11990302.548944473 0 11990302.548944473 -42043951.71515274 0 0 0 0 30367028.615890503 26849672.583729744 0 26849672.583729744 -59716549.266918823 0 0 0 0 -3768789.2252924386 12918182.497413583 0 12918182.497413583 31648538.544284336 0 0 0 0 889482.98829650879 -20105826.066184998 0 -20105826.066184998 69360423.997001648 0 0 0 0 -37276418.065479279 -49517316.177494049 0 -49517316.177494049 92401461.491787076 0 0 0 0 -128004531.41714478 107698002.59900093 0 107698002.59900093 66806015.219867706 0 0 0 0 -904790.16519427672 36657.808801705018 0 36657.808801705018 2557288.9823614908 0 0 0 0 1406828.4305412723 -889232.58851495944 0 -889232.58851495944 10093726.56440852 0 0 0 0 149258037.83699417 128471367.27506638 0 128471367.27506638 -173410640.41053772 0 0 0 0 8130968.0128522944 -14493804.477343693 0 -14493804.477343693 1406005.2003473525 0 0 0 0 11420761.276367188 -16252371.708925724 0 -16252371.708925724 -1986181.4688167572 0 0 0 0 -28509190.895042419 -53833104.43342495 0 -53833104.43342495 -88675946.148200989 0 0 0 0 7689246.5702896118 3530818.5275731087 0 3530818.5275731087 -48244719.069690704 0 0 0 0 52275580.947288513 13354853.287857056 0 13354853.287857056 -47528626.252651811 0 0 0 0 -14181298.009155273 62532634.928882599 0 62532634.928882599 -53673788.957658768 0 0 0 0 -20293808.832889557 -31475623.146362305 0 -31475623.146362305 -59900614.328243256 0 0 0 0 146423607.04585838 -53614191.708688378 0 -53614191.708688378 -64654073.417217255 0 0 0 0 126691710.97119045 90283256.148964226 0 90283256.148964226 -54843395.802698135 0 0 0 0 -463483.72247387376 -1376070.1630609771 0 -1376070.1630609771 4460899.3288476458 0 0 0 0 166556873.15020752 -682728848.74779463 0 -682728848.74779463 853545315.15059471 0 0 0 0 425879776.91045761 -275179866.54708767 0 -275179866.54708767 192454777.26264954 0 0 0 0 -524324579.37769318 -234702850.00552559 0 -234702850.00552559 635619954.33768082 0 0 0 0 -907079253.25999451 -323754108.06094074 0 -323754108.06094074 1326887243.2423134 0 0 0 0 1242369.339557589 2058235.0886514802 0 2058235.0886514802 1875240.9300924595 0 0 0 0 149602406.56845379 347709346.99955833 0 347709346.99955833 -183135404.26599169 0 0 0 0 -605366417.3561821 -71213981.1387043 0 -71213981.1387043 1507019612.0357895 0 0 0 0 704962227.64540863 1920092435.7253761 0 1920092435.7253761 872658450.83431435 0 0 0 0 270324077.33798027 332753519.43299866 0 332753519.43299866 -804219695.35228348 0 0 0 0 -22842620.121589661 278491436.93776512 0 278491436.93776512 640397251.01403189 0 0 0 0 -41129479.995834351 89234365.566425323 0 89234365.566425323 66610764.420547485 0 0 0 0 45922916.175071716 15759449.402799606 0 15759449.402799606 57675027.150979042 0 0 0 0 -5077620.4660284426 1566218.4571836703 0 1566218.4571836703 8347970.5059005655 0 0 0 0 -13433295.613223284 -417980096.33877367 0 -417980096.33877367 -667200138.14138412 0 0 0 0 8136973.1127624512 -10534065.615673065 0 -10534065.615673065 45592789.946990967 0 0 0 0 -1812777.9878733279 -14886725.917226791 0 -14886725.917226791 38412982.277880646 0 0 0 0 -93058.359039306641 -7027745.4878807068 0 -7027745.4878807068 57704839.282798767 0 0 0 0 -3348210.3098021559 -11333615.643752005 0 -11333615.643752005 37816722.909249857 0 0 0 0 12165394.354857445 -134246777.11925328 0 -134246777.11925328 364020084.51651573 0 0 0 0 -3570886.2121429443 -13719512.198185921 0 -13719512.198185921 45553426.422309875 0 0 0 0 1987589.8029606869 -6870051.316075433 0 -6870051.316075433 -1666063.623147238 0 0 0 0 -395964286.16325378 415208683.96316671 0 415208683.96316671 2725073915.1621857 0 0 0 0 -4142589.6190795898 -3101682.9117088318 0 -3101682.9117088318 35359353.983299255 0 0 0 0 -18719631.886972085 -10094960.660448957 0 -10094960.660448957 37389537.834694482 0 0 0 0 16350.516252368689 -455019.58898787107 0 -455019.58898787107 2195010.9419494653 0 0 0 0 -6666357.0852279663 -12842201.246564865 0 -12842201.246564865 45251054.810123444 0 0 0 0 -456067329.35616493 -182276764.67692184 0 -182276764.67692184 -568047192.9896698 0 0 0 0 -547250928.24514437 73666361.672048569 0 73666361.672048569 9637647.6631774902 0 0 0 0 677490601.24098015 -1659730611.7769279 0 -1659730611.7769279 333142494.4299736 0 0 0 0 118483724.11041641 920318341.95998764 0 920318341.95998764 -1194540680.0911293 0 0 0 0 -59581636.221653938 746784773.49195099 0 746784773.49195099 668717928.12879181 0 0 0 0 -61475705.839233398 534799059.4526062 0 534799059.4526062 -107593048.6894474 0 0 0 0 -125343339.70741653 215776329.26036835 0 215776329.26036835 15236371.395623207 0 0 0 0 -125367955.34993418 218199935.69140211 0 218199935.69140211 -121351894.97447968 0 0 0 0 -275367223.75061226 194868956.91818237 0 194868956.91818237 165910306.01781803 0 0 0 0 -1288844.1508140564 257542109.61395264 0 257542109.61395264 11076761.843223572 0 0 0 0 -147189162.69948673 79783009.731407166 0 79783009.731407166 74912970.615882874 0 0 0 0 -482766612.03784275 32421734.102214813 0 32421734.102214813 72564851.750518799 0 0 0 0 -414579087.97601509 55013926.503936768 0 55013926.503936768 179516351.02163982 0 0 0 0 -464913633.11304259 136675845.13319063 0 136675845.13319063 48479600.457138062 0 0 0 0 -3494737.0286628269 -15964349.052517992 0 -15964349.052517992 35509994.788792789 0 0 0 0 -255574051.24352384 121212294.73499966 0 121212294.73499966 -38862958.071857452 0 0 0 0 1883784.9056794047 -19085026.740431577 0 -19085026.740431577 6460963.769024088 0 0 0 0 -118401501.69558334 -185176077.35436821 0 -185176077.35436821 -21766201.334405899 0 0 0 0 40083083.101791382 -31494955.383270264 0 -31494955.383270264 -146929710.36093521 0 0 0 0 -6749846.5012559891 -9165773.5521111488 0 -9165773.5521111488 2287875.6656856537 0 0 0 0 1356260.8826354202 -8099827.5797193944 0 -8099827.5797193944 9271277.9749727584 0 0 0 0 -60021770.082435608 17264174.356960297 0 17264174.356960297 -10629991.212236404 0 0 0 0 -2466101.3698507319 -5387482.5769438576 0 -5387482.5769438576 5306036.8183286591 0 0 0 0 -264573445.16052246 -28966902.084449768 0 -28966902.084449768 180289289.24268341 0 0 0 0 438016883.14495087 -240008817.5802803 0 -240008817.5802803 -859546245.87562943 0 0 0 0 -397564822.37206101 192266130.64736557 0 192266130.64736557 -72592040.740684509 0 0 0 0 -381767524.30484009 -285674048.13463974 0 -285674048.13463974 529658552.18306732 0 0 0 0 -325436531.78744888 333734699.33152199 0 333734699.33152199 220566110.11639595 0 0 0 0 -324159699.66230774 534311394.99976349 0 534311394.99976349 1398897959.2574253 0 0 0 0 -240010218.94010067 48111893.454417706 0 48111893.454417706 417478102.97686768 0 0 0 0 298197481.98953724 450269013.2921114 0 450269013.2921114 217156651.52207184 0 0 0 0 566115472.25691414 839840080.73737669 0 839840080.73737669 713837538.89824867 0 0 0 0 31059815.738634586 185880379.19410324 0 185880379.19410324 403281235.68175507 0 0 0 0 -419192939.09524155 244146000.50126266 0 244146000.50126266 599308746.6882782 0 0 0 0 -423663983.27077866 433909862.86560249 0 433909862.86560249 -252375799.08124065 0 0 0 0 -537362.32268388197 -287143.97461474221 0 -287143.97461474221 1048739.5202124808 0 0 0 0 453053546.56976223 775858123.80517769 0 775858123.80517769 1226356631.0404663 0 0 0 0 -602347.20866538165 540160.39213115443 0 540160.39213115443 4144732.5743745416 0 0 0 0 424461312.59423697 -649307005.6847229 0 -649307005.6847229 858677667.01979065 0 0 0 0 -530518326.86854315 1779188833.5345888 0 1779188833.5345888 1051382532.4293747 0 0 0 0 -585769138.52197075 19198768.441165924 0 19198768.441165924 2500987720.1479626 0 0 0 0 -385150651.84078848 -292781664.0167402 0 -292781664.0167402 2126232410.9796371 0 0 0 0 -259617686.73842525 269876498.11295319 0 269876498.11295319 522152098.51852798 0 0 0 0 -407119406.33579063 352224322.37706375 0 352224322.37706375 612409949.15473461 0 0 0 0 -95332324.622879028 -15743859.335521698 0 -15743859.335521698 488860355.64455605 0 0 0 0 127401742.26073456 -69459201.93682003 0 -69459201.93682003 60697426.827623367 0 0 0 0 -1096000.9534190856 -460967.70128767379 0 -460967.70128767379 5472778.6972476318 0 0 0 0 455390.04482746124 -623725.55096626282 0 -623725.55096626282 7636737.9258460999 0 0 0 0 -3149769.6744918823 -741452.46559524536 0 -741452.46559524536 9889431.3321342468 0 0 0 0 -5639307.6888270471 -5098083.7972523822 0 -5098083.7972523822 13415146.968420271 0 0 0 0 -3844224.2572154999 -662066.89550495148 0 -662066.89550495148 9792478.359703064 0 0 0 0 -302283935.20044613 -128413521.72215128 0 -128413521.72215128 -41565265.716909409 0 0 0 0 -6741463.4521083832 1787580.1021499634 0 1787580.1021499634 8807431.6034960747 0 0 0 0 -3310816.4312638808 329372.5595885152 0 329372.5595885152 13641252.971367126 0 0 0 0 -2238117.0638155891 3520570.8682984505 0 3520570.8682984505 9166667.6278451029 0 0 0 0 -493369302.64889055 77592967.469878376 0 77592967.469878376 252626525.28426361 0 0 0 0 -4203032.1093196869 -1967499.7129383087 0 -1967499.7129383087 8535091.2439041138 0 0 0 0 -74045960.812274933 121190936.71273804 0 121190936.71273804 355839389.64058113 0 0 0 0 -353309787.01943016 -132062881.57064629 0 -132062881.57064629 631767907.69188023 0 0 0 0 -77783558.54818964 -301399855.68273163 0 -301399855.68273163 165632680.7756691 0 0 0 0 -367816339.00504875 -9880694.0328760147 0 -9880694.0328760147 33428357.124616623 0 0 0 0 -64305429.071306348 304153892.78023696 0 304153892.78023696 1514588144.7060184 0 0 0 0 264894121.01811981 -643539085.60155296 0 -643539085.60155296 1118437039.8355446 0 0 0 0 -22371655.473457336 -118463493.32681561 0 -118463493.32681561 359679860.09265327 0 0 0 0 375842085.74840164 -84688833.35040617 0 -84688833.35040617 -225826388.07394981 0 0 0 0 116570900.47180367 -352679845.42936277 0 -352679845.42936277 89116688.60243988 0 0 0 0 -234392619.20117188 -135321042.10142994 0 -135321042.10142994 -29264098.552830696 0 0 0 0 25264257.346069336 13892509.284540653 0 13892509.284540653 -291442564.58250809 0 0 0 0 -161974636.93724823 -297022935.56469154 0 -297022935.56469154 -134815981.63574982 0 0 0 0 -5016649.2951278687 90838707.415030479 0 90838707.415030479 -286075100.55714035 0 0 0 0 188186591.63488007 117590744.52702236 0 117590744.52702236 -452752365.24285126 0 0 0 0 -267897104.32587051 -208403379.80420494 0 -208403379.80420494 134534853.25195026 0 0 0 0 -251019051.03048325 -253396034.36777306 0 -253396034.36777306 157006439.4904604 0 0 0 0 -136415793.88473129 -240019434.66511297 0 -240019434.66511297 -105320076.28013816 0 0 0 0 -230361516.47519112 -237839582.29229093 0 -237839582.29229093 -105308831.14993477 0 0 0 0 51959741.2290802 -180307008.90934181 0 -180307008.90934181 -390223038.53899384 0 0 0 0 -3948438.9192281635 -3677409.9143747897 0 -3677409.9143747897 15040475.161131125 0 0 0 0 -144498673.15063667 -169279770.82209492 0 -169279770.82209492 -113814151.35471058 0 0 0 0 -466825119.49980927 -465247916.3043232 0 -465247916.3043232 -502989550.52284193 0 0 0 0 -148777251.10229492 -311877468.73278379 0 -311877468.73278379 -430201166.51903534 0 0 0 0 -226757175.53302765 -397814369.61104631 0 -397814369.61104631 -660855190.45846939 0 0 0 0 -370219004.73419571 -173224416.90950108 0 -173224416.90950108 -207721670.89420319 0 0 0 0 -302710.3549497202 -507270.94724069815 0 -507270.94724069815 404746.02010475332 0 0 0 0 -385631814.63883591 403149199.18646181 0 403149199.18646181 -522376518.16410226 0 0 0 0 -1659143.595186701 -589171.89124456723 0 -589171.89124456723 2449175.4278546562 0 0 0 0 -242478889.04881287 368850007.73326802 0 368850007.73326802 -566475384.54313803 0 0 0 0 -707921612.90268707 43904422.731250763 0 43904422.731250763 -275380079.32849801 0 0 0 0 -673840010.51729965 -352871043.30602551 0 -352871043.30602551 -313312183.26309299 0 0 0 0 328248270.85965729 299721602.77398074 0 299721602.77398074 -797768036.49198771 0 0 0 0 868011.7464476563 996826.63074669894 0 996826.63074669894 160120.30911531358 0 0 0 0 245811250.31942368 -302643549.22062492 0 -302643549.22062492 89095605.767525762 0 0 0 0 -670065257.4354353 -82421030.681212187 0 -82421030.681212187 204430693.83654022 0 0 0 0 -297559.59594898624 5226507.5193169303 0 5226507.5193169303 7445777.9563183691 0 0 0 0 -12864567.475761414 2356166.0887432098 0 2356166.0887432098 7903732.7959022522 0 0 0 0 -413203471.372715 303998378.27965051 0 303998378.27965051 30121738.457525373 0 0 0 0 -111302422.83844757 -386712621.59383202 0 -386712621.59383202 -155334005.85082245 0 0 0 0 -101638753.58130836 -280504383.98564529 0 -280504383.98564529 -214621282.02707291 0 0 0 0 -505342146.77619934 -212579473.93968391 0 -212579473.93968391 -46850448.236167908 0 0 0 0 -3234516.045798019 2942559.3137441594 0 2942559.3137441594 15194446.494194504 0 0 0 0 -9196477.006269455 3403302.3935546875 0 3403302.3935546875 4817895.06848526 0 0 0 0 -213320646.57051849 219761230.37524402 0 219761230.37524402 572268137.60846591 0 0 0 0 -87239282.670297623 -14582460.108020544 0 -14582460.108020544 389971436.32660294 0 0 0 0 120105144.29174805 341544744.05532241 0 341544744.05532241 517878980.7052989 0 0 0 0 13372151.23365646 -17420440.179817107 0 -17420440.179817107 3301213.9226971162 0 0 0 0 -50664556.943496704 264906712.05342841 0 264906712.05342841 339038105.28461456 0 0 0 0 65736830.714248657 74073311.623414755 0 74073311.623414755 463839293.60895371 0 0 0 0 197203133.52316284 100788892.38606405 0 100788892.38606405 424047433.864398 0 0 0 0 162493283.05665588 423484168.34968281 0 423484168.34968281 389449639.10574937 0 0 0 0 474024342.30250549 325934408.71961498 0 325934408.71961498 74328692.693388939 0 0 0 0 199997942.8433969 32391192.013889551 0 32391192.013889551 -84314410.57530117 0 0 0 0 222438779.89266968 -254386119.51611841 0 -254386119.51611841 270047172.20516825 0 0 0 0 2239093.0735166185 -747939.78544328455 0 -747939.78544328455 5568032.5211173808 0 0 0 0 155026010.30514908 125472149.74710315 0 125472149.74710315 295669345.12498426 0 0 0 0 21860786.764038086 -115827178.67604218 0 -115827178.67604218 483646003.15525389 0 0 0 0 -482372784.92895412 768008399.67757893 0 768008399.67757893 599394606.13008285 0 0 0 0 2536534.6419750219 4147033.414802501 0 4147033.414802501 3346998.4662860744 0 0 0 0 246764049.23691368 -338824733.00411439 0 -338824733.00411439 -262627789.40706444 0 0 0 0 442787520.61713028 182064738.24064088 0 182064738.24064088 -447267233.77121925 0 0 0 0 -684814691.75981426 -818164850.18844938 0 -818164850.18844938 1153214996.2005882 0 0 0 0 869326168.89254761 1258748471.4683876 0 1258748471.4683876 -91759405.492432117 0 0 0 0 1348072694.3000488 -331431705.02216244 0 -331431705.02216244 -21467091.281143188 0 0 0 0 -701116797.01569748 1095670304.6925101 0 1095670304.6925101 202374657.26310444 0 0 0 0 63909911.563745499 -18171862.065925121 0 -18171862.065925121 -316041181.06091309 0 0 0 0 168819180.9066391 142714255.84026527 0 142714255.84026527 -70273102.259024978 0 0 0 0 189043883.9629364 129826466.86964989 0 129826466.86964989 -444924696.42798519 0 0 0 0 370108018.14742279 24151701.877011061 0 24151701.877011061 -635872457.86710179 0 0 0 0 -391798885.84695625 -87440082.561972618 0 -87440082.561972618 127146796.71816337 0 0 0 0 2189697.6184427775 3068081.4852701062 0 3068081.4852701062 1642306.7498054716 0 0 0 0 85296983.801334381 -122276130.30674291 0 -122276130.30674291 42930830.458758712 0 0 0 0 74137319.466201782 -219508351.45775449 0 -219508351.45775449 145348195.11920285 0 0 0 0 32497081.110144615 -153377269.1406166 0 -153377269.1406166 189724499.99680567 0 0 0 0 223357254.66795349 -407421148.15653002 0 -407421148.15653002 -172487645.41499084 0 0 0 0 439482038.29889202 41620157.975622177 0 41620157.975622177 70909661.930889845 0 0 0 0 122517762.48851395 -133514498.27539301 0 -133514498.27539301 36210611.101297855 0 0 0 0 140476444.39166546 -40474525.716030389 0 -40474525.716030389 248528215.83604836 0 0 0 0 -172033116.17267227 -9461687.2742930651 0 -9461687.2742930651 288908005.73969984 0 0 0 0 93230.235040195286 -269400.05872200849 0 -269400.05872200849 -155768.15778485348 0 0 0 0 -21779424.660421371 13773759.024921298 0 13773759.024921298 232780629.28826594 0 0 0 0 -29767944.520343781 59019643.141290545 0 59019643.141290545 173025083.44549942 0 0 0 0 -165635256.44069004 -257481684.43386894 0 -257481684.43386894 -7014471.5773139 0 0 0 0 -141996632.7563324 107643055.35694021 0 107643055.35694021 531420288.37045956 0 0 0 0 -63443459.684394836 -41223745.10643065 0 -41223745.10643065 267874860.85938632 0 0 0 0 182692315.8030777 -238919216.0803318 0 -238919216.0803318 552683.37342739105 0 0 0 0 266242.6941367723 -585209.86689556809 0 -585209.86689556809 -341609.54483384965 0 0 0 0 59055709.151317596 -179524852.48051143 0 -179524852.48051143 197213971.62899286 0 0 0 0 -108722009.44551444 -274971985.50668734 0 -274971985.50668734 335637267.75595856 0 0 0 0 51193801.632701874 -94949273.313122272 0 -94949273.313122272 240496917.58957911 0 0 0 0 43895685.593765736 -128430184.62345046 0 -128430184.62345046 283542200.33273172 0 0 0 0 97167925.807634354 -110467998.75329304 0 -110467998.75329304 139227821.11414123 0 0 0 0 204002013.89455843 -170182237.88098934 0 -170182237.88098934 167287083.86411095 0 0 0 0 566875.83634898253 -521761.59126506839 0 -521761.59126506839 -376010.52659354534 0 0 0 0 223904576.68148351 -11518774.74946636 0 -11518774.74946636 216459718.10928106 0 0 0 0 133112090.07199097 544913443.79422235 0 544913443.79422235 785274591.22037649 0 0 0 0 394904661.0909214 466039171.00819683 0 466039171.00819683 374891062.71638727 0 0 0 0 291543091.1324482 246136943.81922936 0 246136943.81922936 118206562.59968948 0 0 0 0 526425684.22199249 461942907.33585882 0 461942907.33585882 -432004522.65168571 0 0 0 0 317601396.58716583 248948978.17276025 0 248948978.17276025 474412656.4416151 0 0 0 0 253615014.55708694 -115452043.39551616 0 -115452043.39551616 6050275.0608815402 0 0 0 0 -89916860.381912231 -381935084.28103697 0 -381935084.28103697 -183912730.04210448 0 0 0 0 -115500771.52425003 -523648780.91084385 0 -523648780.91084385 -120902955.85598207 0 0 0 0 85032814.762646317 -106786572.3892657 0 -106786572.3892657 -395859886.52817965 0 0 0 0 -502421621.1721077 127783485.24452734 0 127783485.24452734 -94996548.529815197 0 0 0 0 -299689.23981752619 -5282077.4788061306 0 -5282077.4788061306 6383486.2821792075 0 0 0 0 -523570764.43423653 263923207.62199247 0 263923207.62199247 227579108.53683758 0 0 0 0 -191150258.64233589 116629833.6557796 0 116629833.6557796 96857853.070552111 0 0 0 0 -397497779.77751923 -167383047.03022003 0 -167383047.03022003 -267243364.88485479 0 0 0 0 -10413.057748642808 1646206.5031110719 0 1646206.5031110719 -313721.99562387844 0 0 0 0 371274315.57310152 1095162244.4148405 0 1095162244.4148405 2957656373.7153397 0 0 0 0 392406081.42038155 148701818.16056728 0 148701818.16056728 -905108708.60034943 0 0 0 0 441997318.14957237 179273563.57956314 0 179273563.57956314 -262602963.62841415 0 0 0 0 -1683480.1565557104 1211313.7013053764 0 1211313.7013053764 10313483.590006927 0 0 0 0 -21712825.775798082 12126257.013649881 0 12126257.013649881 2105835.6250114441 0 0 0 0 -358746.31406374677 9748055.8288684692 0 9748055.8288684692 8499294.3523921575 0 0 0 0 -1528840443.3163872 -131894108.93615657 0 -131894108.93615657 1186916249.6273232 0 0 0 0 -110686815.27004433 337947420.17839229 0 337947420.17839229 -58467291.19282186 0 0 0 0 -186490227.46953583 -273882262.54847813 0 -273882262.54847813 367390444.47123313 0 0 0 0 -523191879.46575928 -15510166.125595689 0 -15510166.125595689 290338830.32356453 0 0 0 0 72719221.287055969 -23860159.170207739 0 -23860159.170207739 464772820.14527917 0 0 0 0 67641549.423003197 -219453364.91786024 0 -219453364.91786024 269868383.72333956 0 0 0 0 426002.04767422937 -228524.62038038624 0 -228524.62038038624 -208988.7873557019 0 0 0 0 112816213.84466553 -264443319.43057609 0 -264443319.43057609 157009175.75424314 0 0 0 0 320412889.21450615 -205091814.41476202 0 -205091814.41476202 113942933.17199063 0 0 0 0 184811144.04856491 -143863540.75355315 0 -143863540.75355315 64118351.074921846 0 0 0 0 -130295176.58371973 -79618286.991658002 0 -79618286.991658002 1428368975.7901883 0 0 0 0 -113694911.29331589 -56592088.693621635 0 -56592088.693621635 461725723.17466211 0 0 0 0 123451901.4948082 29873341.213020086 0 29873341.213020086 333592075.4441328 0 0 0 0 419741.63405609131 318850586.09504485 0 318850586.09504485 914473211.75826883 0 0 0 0 10755007.730995178 308770678.51232314 0 308770678.51232314 543517276.95476055 0 0 0 0 -110564110.91704559 464204371.02537322 0 464204371.02537322 745198891.05619907 0 0 0 0 -108934294.6648674 570232063.32859516 0 570232063.32859516 1157640035.2377667 0 0 0 0 -349056294.38775635 389251910.16903985 0 389251910.16903985 1021772010.611711 0 0 0 0 353175017.68281174 1656370607.1767969 0 1656370607.1767969 1844544443.6046 0 0 0 0 -383654493.33833933 490577144.51018137 0 490577144.51018137 2972785612.0596499 0 0 0 0 730556212.68434882 -322881912.37993383 0 -322881912.37993383 165938734.27968001 0 0 0 0 137277085.04389381 -388345653.62019491 0 -388345653.62019491 155620705.14968872 0 0 0 0 1283954.9369194526 4962052.1911354139 0 4962052.1911354139 5437478.4948816132 0 0 0 0 -18590319.764073372 -757163665.89315724 0 -757163665.89315724 1955760974.8100982 0 0 0 0 1108458575.3767986 1809463588.7753756 0 1809463588.7753756 842395406.06969094 0 0 0 0 1062117136.1826701 1909078357.036696 0 1909078357.036696 660578399.49998379 0 0 0 0 -419490297.77993393 -1259961815.9571021 0 -1259961815.9571021 2210264671.4879341 0 0 0 0 74934464.240747452 -95006865.983187675 0 -95006865.983187675 65252597.466001511 0 0 0 0 1292314.4035327693 5368629.5329890065 0 5368629.5329890065 12991314.862447452 0 0 0 0 -1227263905.3089666 -290520874.83719784 0 -290520874.83719784 1136660670.2061725 0 0 0 0 189163615.23775196 -40709339.304145813 0 -40709339.304145813 49977573.380889893 0 0 0 0 360249100.75266075 -215685255.01881409 0 -215685255.01881409 67037158.809661865 0 0 0 0 107271802.66300488 -102858818.86800003 0 -102858818.86800003 61525805.373971939 0 0 0 0 211550119.24795914 -172249980.7869606 0 -172249980.7869606 107646714.64653015 0 0 0 0 -241146032.23132896 412758570.03787804 0 412758570.03787804 758394831.13297367 0 0 0 0 86654158.374383926 -354298003.47640419 0 -354298003.47640419 466609538.99162292 0 0 0 0 1438109514.5923462 1969875150.0017891 0 1969875150.0017891 411946881.13503647 0 0 0 0 452142.66961649014 3198625.0644598473 0 3198625.0644598473 5358864.7567856647 0 0 0 0 316310079.54416084 -102208182.73444557 0 -102208182.73444557 40424526.399547338 0 0 0 0 688742424.14919186 -479803757.9832716 0 -479803757.9832716 396870802.87712669 0 0 0 0 -122873533.02570856 206709552.48402548 0 206709552.48402548 117707648.57586288 0 0 0 0 -143703311.14843273 -73897675.679157257 0 -73897675.679157257 342886116.8061409 0 0 0 0 -258779133.12440699 -203583861.79825974 0 -203583861.79825974 224993436.47964668 0 0 0 0 107269099.27618122 -104115537.93779373 0 -104115537.93779373 167092441.35713959 0 0 0 0 -123769205.27614307 -172361656.6213398 0 -172361656.6213398 210692083.44856644 0 0 0 0 -98180622.383992195 -112550882.64920044 0 -112550882.64920044 189479944.47425842 0 0 0 0 -253327505.40188968 258663398.15188599 0 258663398.15188599 241147147.29830551 0 0 0 0 -87691058.341005802 -141360092.13085651 0 -141360092.13085651 49143247.998867035 0 0 0 0 -160092803.58654118 408748915.09083939 0 408748915.09083939 -172920221.16587448 0 0 0 0 -154036215.99451488 -10873991.204342365 0 -10873991.204342365 5677595.8190917969 0 0 0 0 -178045227.19633579 162097314.16664124 0 162097314.16664124 -97956160.489334106 0 0 0 0 -11507481.988099098 102793732.07806015 0 102793732.07806015 -95884163.692111969 0 0 0 0 -48039109.703963757 -143883074.75925827 0 -143883074.75925827 22399268.713249207 0 0 0 0 376283524.12804461 373312814.96010208 0 373312814.96010208 470925110.80329323 0 0 0 0 -507952.27008715819 -1800813.1061060652 0 -1800813.1061060652 -428242.850573231 0 0 0 0 -47406644.467154026 343498734.76270676 0 343498734.76270676 -386376149.34866905 0 0 0 0 727195099.63220716 602859865.30713463 0 602859865.30713463 231695218.81217957 0 0 0 0 -180778079.20540762 844549503.6690464 0 844549503.6690464 1527763688.4292183 0 0 0 0 585086465.06057882 284777658.84131241 0 284777658.84131241 88999249.714515686 0 0 0 0 2796337.7267058874 1427090.1852376517 0 1427090.1852376517 -775209.51855058968 0 0 0 0 -73698445.794696331 -47585222.640302658 0 -47585222.640302658 1771347290.4388123 0 0 0 0 144561397.86866283 826722105.15947723 0 826722105.15947723 2713215152.838007 0 0 0 0 2615300619.421258 449729202.00811577 0 449729202.00811577 124718288.69395065 0 0 0 0 60535396.151605606 367127125.36775494 0 367127125.36775494 249333864.62518311 0 0 0 0 -58016227.623436928 1109241649.7408047 0 1109241649.7408047 1253850962.2002754 0 0 0 0 212489536.38479233 254734489.91236115 0 254734489.91236115 208414694.04531002 0 0 0 0 811943919.79463196 697186653.91274834 0 697186653.91274834 434641721.35516357 0 0 0 0 240793043.44885206 32798892.805950165 0 32798892.805950165 -68495894.481140137 0 0 0 0 85550011.028844833 -4287595.9398908615 0 -4287595.9398908615 415688164.40839767 0 0 0 0 -170308832.60067558 -237418002.71250916 0 -237418002.71250916 -75654739.531573057 0 0 0 0 -87126.212540626526 -182198936.4035759 0 -182198936.4035759 125337032.37199783 0 0 0 0 389842770.00913811 114461852.43273926 0 114461852.43273926 76076239.810779572 0 0 0 0 206162191.57014871 461902181.41698742 0 461902181.41698742 697174577.06791687 0 0 0 0 728616476.65444291 -18212177.133190155 0 -18212177.133190155 1082753059.9224548 0 0 0 0 433053010.84277612 1085813006.8990655 0 1085813006.8990655 1299351818.5058975 0 0 0 0 125006321.06573439 606551270.75342178 0 606551270.75342178 754939133.52993011 0 0 0 0 -62140930.549603939 730741265.05101013 0 730741265.05101013 715124367.10851288 0 0 0 0 422965938.5499506 481715968.7735424 0 481715968.7735424 243822823.28017426 0 0 0 0 59799392.886930704 1157970.1837730408 0 1157970.1837730408 355142774.71537399 0 0 0 0 131785877.56935787 140180582.21773148 0 140180582.21773148 -2626357.835067749 0 0 0 0 21304770.201035261 90139333.821060181 0 90139333.821060181 -365821044.27529144 0 0 0 0 -217613474.41574764 -141443908.09805298 0 -141443908.09805298 -106531646.67838287 0 0 0 0 -65946946.347434998 -81612253.636165619 0 -81612253.636165619 -879201696.34180069 0 0 0 0 -399819519.43491495 123706705.2724762 0 123706705.2724762 199885042.88189983 0 0 0 0 -44586271.98693037 359220226.66165924 0 359220226.66165924 -9667697.8938064575 0 0 0 0 -902693563.02196145 140664401.7568512 0 140664401.7568512 160664383.02745819 0 0 0 0 6740603.2077506967 -7470753.9965648316 0 -7470753.9965648316 7458765.6495599393 0 0 0 0 -162136798.92914581 -370935418.23358154 0 -370935418.23358154 -745132045.36776733 0 0 0 0 43810659.565055847 -18988660.057897568 0 -18988660.057897568 -126572383.46622658 0 0 0 0 -375565983.81232464 -441119972.94423676 0 -441119972.94423676 -631119040.23922729 0 0 0 0 39443.507093711291 -263099.89884828962 0 -263099.89884828962 658355.7027766332 0 0 0 0 25730990.758089066 54280259.686686516 0 54280259.686686516 -7186834.6924285889 0 0 0 0 1147151.5621931423 -150460.44296342134 0 -150460.44296342134 5241893.8437482631 0 0 0 0 -16372353.342054367 30710502.693611145 0 30710502.693611145 39081346.221406929 0 0 0 0 368913.54433441162 -2324141.6448955536 0 -2324141.6448955536 12127881.416936874 0 0 0 0 146869525.91101313 -34536073.083650589 0 -34536073.083650589 -381607973.13182831 0 0 0 0 50203882.216153145 -370755550.30289841 0 -370755550.30289841 -500863149.47458267 0 0 0 0 549337.20404352248 -6845540.3653693125 0 -6845540.3653693125 7561168.7729292959 0 0 0 0 500782628.45428848 405489596.50605011 0 405489596.50605011 -871136929.51691437 0 0 0 0 2257975.673274802 158962.24272237718 0 158962.24272237718 260613.11181965843 0 0 0 0 890380674.91844511 222031251.76478767 0 222031251.76478767 1687409615.8869476 0 0 0 0 -26482763.413925171 108344287.37335587 0 108344287.37335587 2914980244.2840576 0 0 0 0 256807749.11615467 550853282.1581192 0 550853282.1581192 3474292881.4065456 0 0 0 0 369074635.86368942 -423868861.30038452 0 -423868861.30038452 512053214.93549633 0 0 0 0 259106753.28833008 1008320429.6074219 0 1008320429.6074219 3443580461.7046661 0 0 0 0 2110515.8561903737 274697.82447140291 0 274697.82447140291 -496660.02702115476 0 0 0 0 -179455197.27011871 484558372.79558563 0 484558372.79558563 2388986093.7083969 0 0 0 0 652247100.30535698 919223570.64118958 0 919223570.64118958 2170065845.1517792 0 0 0 0 -61980560.71881938 -269285211.88542986 0 -269285211.88542986 1793888323.544632 0 0 0 0 127919529.25462151 -687691189.42088318 0 -687691189.42088318 2000225343.3618581 0 0 0 0 324370046.0925293 -484933318.12993622 0 -484933318.12993622 1802203407.8910904 0 0 0 0 298527533.26087761 -963816646.52877045 0 -963816646.52877045 1599554189.06633 0 0 0 0 388162202.96396112 -593879860.20013809 0 -593879860.20013809 1104565606.9998169 0 0 0 0 344769543.73540974 -14510246.813282013 0 -14510246.813282013 1234830270.530652 0 0 0 0 232692630.81188107 -46387772.325222015 0 -46387772.325222015 -1398884451.5841656 0 0 0 0 11257201.743690953 -6816074.3210947402 0 -6816074.3210947402 3751189.8068223931 0 0 0 0 337172077.61388069 -818993092.02787924 0 -818993092.02787924 531799762.88430786 0 0 0 0 -386037354.4377079 546414166.74093056 0 546414166.74093056 693140197.09349823 0 0 0 0 293482780.9988203 294120085.29743958 0 294120085.29743958 -127599782.93715286 0 0 0 0 281038938.79723644 1078340605.5350189 0 1078340605.5350189 1442320193.9098077 0 0 0 0 599076006.49228144 -133471827.2788868 0 -133471827.2788868 1263123235.7377853 0 0 0 0 177893632.77605629 662588354.13972092 0 662588354.13972092 631133156.09004593 0 0 0 0 201342580.43783855 708740685.48877335 0 708740685.48877335 610226053.83498764 0 0 0 0 168497706.79175138 704932862.51171112 0 704932862.51171112 449563008.72894287 0 0 0 0 87585492.082972288 683486300.95076656 0 683486300.95076656 650995733.3852005 0 0 0 0 9498799.3813877106 332921855.78807831 0 332921855.78807831 866483457.29123116 0 0 0 0 459255679.71275234 460121748.73437119 0 460121748.73437119 201419353.68196106 0 0 0 0 33120287.365167618 199593006.87943649 0 199593006.87943649 337455277.09535027 0 0 0 0 108417973.01900768 171553924.51987457 0 171553924.51987457 179272677.39684296 0 0 0 0 862140512.99732113 949084940.18507004 0 949084940.18507004 -55661248.587814331 0 0 0 0 193262392.27831459 292317321.46651077 0 292317321.46651077 103823823.7531662 0 0 0 0 214435282.29945993 253757379.72195625 0 253757379.72195625 -123275124.10864258 0 0 0 0 -220247357.15460443 295241745.46684265 0 295241745.46684265 -94474398.742378235 0 0 0 0 -97697413.677394867 20011526.68572998 0 20011526.68572998 -274992639.81388092 0 0 0 0 3544558.0819063187 268428153.08977342 0 268428153.08977342 -103768357.43783569 0 0 0 0 -23733694.967971802 110124892.8233223 0 110124892.8233223 108625726.49071121 0 0 0 0 41222295.600055695 80773163.736690521 0 80773163.736690521 89606902.347774506 0 0 0 0 27897868.980566025 75375815.600130081 0 75375815.600130081 120098430.5064621 0 0 0 0 -3755798.9400901794 3822555.9010677338 0 3822555.9010677338 5780742.6944961548 0 0 0 0 9496008.1584310532 4024441.1441984177 0 4024441.1441984177 77175496.767494202 0 0 0 0 -2988288.6076046238 1386196.5758384187 0 1386196.5758384187 1631646.9097999148 0 0 0 0 -2645207.5383603154 3636298.7929071132 0 3636298.7929071132 4636354.400402315 0 0 0 0 -52302916.835048676 45663769.219909668 0 45663769.219909668 190443151.17566276 0 0 0 0 -785486.01253318787 762114.86370658875 0 762114.86370658875 2638779.0379600525 0 0 0 0 41468232.180459976 -12311368.830620766 0 -12311368.830620766 -34919671.103660583 0 0 0 0 -2405191.8369369507 1381089.8050765991 0 1381089.8050765991 3412467.6241035461 0 0 0 0 -1922073.7634620667 530901.2293586731 0 530901.2293586731 4197377.0607643127 0 0 0 0 -2174990.8268197393 4327446.1513415948 0 4327446.1513415948 2256079.9816526324 0 0 0 0 -40210056.913994908 -50629872.860097408 0 -50629872.860097408 362995615.09655762 0 0 0 0 69437235.435152054 143407624.50730896 0 143407624.50730896 232431161.68420029 0 0 0 0 15293871.771774292 148558991.75601578 0 148558991.75601578 240502573.04421234 0 0 0 0 -2001222.7132702405 633842.03551818989 0 633842.03551818989 3569295.7308218889 0 0 0 0 -1093255.7621307373 -806822.07257080078 0 -806822.07257080078 6936865.3178710938 0 0 0 0 61125233.802887917 -48068638.283826828 0 -48068638.283826828 52967062.846918106 0 0 0 0 -594302.72385215759 -27461.084030151367 0 -27461.084030151367 5833040.3771781921 0 0 0 0 -3192896.5824827612 -2151762.9796270831 0 -2151762.9796270831 334820.85760380421 0 0 0 0 -141876085.86123848 -59630198.258464813 0 -59630198.258464813 -26775879.675006866 0 0 0 0 3237701.3396773338 119675354.90538979 0 119675354.90538979 228273122.89881134 0 0 0 0 5080106.9297419321 4570832.5399108259 0 4570832.5399108259 -181348.00400320441 0 0 0 0 12714769.736104012 2911488.7557106018 0 2911488.7557106018 -88827815.859260559 0 0 0 0 -2187700.5263158139 -533733.1584520638 0 -533733.1584520638 2178527.6578014009 0 0 0 0 -21465786.627342224 -10132272.132652283 0 -10132272.132652283 -964496.78170776367 0 0 0 0 -20503270.492762566 33124036.469474792 0 33124036.469474792 -5713546.576795578 0 0 0 0 -8553159.0636196136 -1678977.1694831848 0 -1678977.1694831848 -16375836.143821716 0 0 0 0 -3676354.2738857269 3604721.0229549408 0 3604721.0229549408 -8557468.7549858093 0 0 0 0 -738357.13995634997 45073.030046966858 0 45073.030046966858 270949.86243333574 0 0 0 0 -12239005.05027771 -4303004.5343542099 0 -4303004.5343542099 21986060.052024841 0 0 0 0 838481.90640258789 3604149.3992652893 0 3604149.3992652893 6377948.8233299255 0 0 0 0 -6547021.4727501869 43389.213588237762 0 43389.213588237762 4697331.2179527283 0 0 0 0 -16599150.528557301 20359214.01031208 0 20359214.01031208 -3665428.5680541992 0 0 0 0 -827272.68683526479 -257487.14115988091 0 -257487.14115988091 -3895092.9952996005 0 0 0 0 1383922.5068092346 649558.48542575911 0 649558.48542575911 -3291893.655545244 0 0 0 0 2127490.8344268799 -32277188.343309402 0 -32277188.343309402 43738165.111402512 0 0 0 0 -6681510.4938430786 -28641612.471055031 0 -28641612.471055031 50698171.922546387 0 0 0 0 -25577055.197724342 -38061583.843475342 0 -38061583.843475342 114359291.68557739 0 0 0 0 -58636777.236747742 -24431847.945037842 0 -24431847.945037842 137542945.68125916 0 0 0 0 -36749373.101543427 -19520422.383914948 0 -19520422.383914948 93333946.981269836 0 0 0 0 -148179502.20930958 32097155.326939583 0 32097155.326939583 379148586.09754372 0 0 0 0 -21591918.508932114 33028111.534347534 0 33028111.534347534 51558776.761878967 0 0 0 0 -73803185.258825302 -1086034.6480121613 0 -1086034.6480121613 147007917.63269901 0 0 0 0 -73468406.887698174 -10257918.424249649 0 -10257918.424249649 125995697.99218178 0 0 0 0 -21203326.133993149 85010264.137987137 0 85010264.137987137 124847751.95064163 0 0 0 0 -1270737.4967575073 1613969.9400997162 0 1613969.9400997162 1815718.3177490234 0 0 0 0 -425115.8341293335 3415474.0208473206 0 3415474.0208473206 -3632477.6016712189 0 0 0 0 -93867.012589124963 -74650.8062793836 0 -74650.8062793836 577126.01152151357 0 0 0 0 -49693.554606437683 2001855.2144584656 0 2001855.2144584656 -10895903.757766724 0 0 0 0 353745.72467041016 6521057.2569141388 0 6521057.2569141388 -6106647.4742774963 0 0 0 0 15097879.37929678 -412389.96925926208 0 -412389.96925926208 27725699.423679352 0 0 0 0 691225.67193984985 6627130.3694572449 0 6627130.3694572449 -9449916.8493118286 0 0 0 0 685486.49696244998 171955.54624745855 0 171955.54624745855 -1261847.5757138487 0 0 0 0 28740770.1297369 -75436328.804052353 0 -75436328.804052353 111218305.65528107 0 0 0 0 82013091.827161789 -37567519.927322388 0 -37567519.927322388 22353442.631655931 0 0 0 0 38269341.096474648 18918274.599031448 0 18918274.599031448 -19516498.155921936 0 0 0 0 69441914.339819431 88014010.595488548 0 88014010.595488548 21327883.493602753 0 0 0 0 -20892290.804971695 10729444.790452957 0 10729444.790452957 21671706.353069305 0 0 0 0 -1681395.8796636064 2600047.845457253 0 2600047.845457253 3843762.9394760448 0 0 0 0 114507582.68262863 48244582.535833359 0 48244582.535833359 31326976.77747345 0 0 0 0 273132855.59547806 186071708.83296204 0 186071708.83296204 124751320.98617172 0 0 0 0 -672496.27324691159 1150047.8008261984 0 1150047.8008261984 1457116.8680760451 0 0 0 0 76333093.070109367 -177920579.00311089 0 -177920579.00311089 208205278.64597321 0 0 0 0 169719669.37456417 -88829607.229628563 0 -88829607.229628563 54355119.250598907 0 0 0 0 23035826.672589302 123007039.85645866 0 123007039.85645866 219148857.99735832 0 0 0 0 28585648.228492737 78391330.487020493 0 78391330.487020493 376083529.59386063 0 0 0 0 71897810.800447464 -136803293.64744759 0 -136803293.64744759 259005653.79988861 0 0 0 0 77055594.495782852 20446163.397297859 0 20446163.397297859 29760752.641976357 0 0 0 0 21158154.791084766 -73751451.224681854 0 -73751451.224681854 115475656.00757027 0 0 0 0 -10148109.066926956 -24721760.303162575 0 -24721760.303162575 130258488.39881897 0 0 0 0 242430202.91124678 -72706324.31311512 0 -72706324.31311512 77521014.839391708 0 0 0 0 209429544.57215571 96457601.15550673 0 96457601.15550673 -3331928.3681507111 0 0 0 0 13333191.051081657 107134086.66430044 0 107134086.66430044 62611455.168437481 0 0 0 0 43257810.52866745 76377638.55821979 0 76377638.55821979 93300794.861824036 0 0 0 0 14842366.981832504 22555458.714943886 0 22555458.714943886 37962742.458519459 0 0 0 0 22715549.431838512 -46612396.83701396 0 -46612396.83701396 64094096.35414505 0 0 0 0 -13023512.179850101 -144219976.64437675 0 -144219976.64437675 181625647.70624924 0 0 0 0 109052463.74850297 -304256944.11159754 0 -304256944.11159754 387382798.02577209 0 0 0 0 -945517.37848709605 2625656.1519765742 0 2625656.1519765742 1603874.1196074039 0 0 0 0 22672374.989973068 20185258.387638092 0 20185258.387638092 -1452523.1560592651 0 0 0 0 -53657757.509643555 -198742226.66407681 0 -198742226.66407681 143770056.16176033 0 0 0 0 885087.54880417581 991479.33635127055 0 991479.33635127055 -283173.83042501006 0 0 0 0 1199950.3271279335 -199557822.26267385 0 -199557822.26267385 197423375.30283546 0 0 0 0 1513371.5361375809 159517573.86809349 0 159517573.86809349 -84978373.398828506 0 0 0 0 -47613973.242528915 -24350245.724500656 0 -24350245.724500656 25999377.66972065 0 0 0 0 1495616.8601507558 1751289.1525719767 0 1751289.1525719767 -387187.95250611752 0 0 0 0 -145698654.35290384 88365130.76691246 0 88365130.76691246 38628779.240761757 0 0 0 0 -20807978.06330198 -119822181.02338028 0 -119822181.02338028 203230516.68468285 0 0 0 0 236628818.81162763 24648072.374988556 0 24648072.374988556 -134805239.1577816 0 0 0 0 -211868746.68945241 104361560.98401833 0 104361560.98401833 110535670.22012138 0 0 0 0 -46685546.305503845 -61947226.693555832 0 -61947226.693555832 326111508.01560402 0 0 0 0 -50997744.972868919 -11360359.836755753 0 -11360359.836755753 42518441.848097801 0 0 0 0 -31143574.08541286 -78826228.434539795 0 -78826228.434539795 166809785.21133041 0 0 0 0 -31078010.737093925 -76117573.087623596 0 -76117573.087623596 126583192.48726082 0 0 0 0 -62336215.305452347 -116033365.66975212 0 -116033365.66975212 130102603.10302353 0 0 0 0 -59557793.644498825 -147200649.68139362 0 -147200649.68139362 257033301.39842987 0 0 0 0 -214775203.28312761 138093513.56083488 0 138093513.56083488 100001925.46208954 0 0 0 0 887564.722823772 999175.56647563586 0 999175.56647563586 -368308.73824469559 0 0 0 0 -163674094.15867698 25848521.139998436 0 25848521.139998436 280857582.12555313 0 0 0 0 -21206297.216690719 -51244279.710408926 0 -51244279.710408926 145822746.87927628 0 0 0 0 97374563.559066772 -54460207.750865936 0 -54460207.750865936 90305261.822528839 0 0 0 0 -28969463.409837246 4487965.9209117889 0 4487965.9209117889 86898873.454376221 0 0 0 0 21537389.333518945 -33923187.28881669 0 -33923187.28881669 29314227.98154068 0 0 0 0 30817529.499014974 -71832886.276013851 0 -71832886.276013851 120730728.76488876 0 0 0 0 139161977.5391798 -76051390.06948185 0 -76051390.06948185 45840108.660890579 0 0 0 0 -971755.29610359669 -104662930.23885536 0 -104662930.23885536 54033224.278715611 0 0 0 0 -76090509.947904736 -94866868.685462236 0 -94866868.685462236 -8971159.6393585205 0 0 0 0 -40799571.952441186 42200157.849494934 0 42200157.849494934 -86721239.820638657 0 0 0 0 -43018304.579418451 -22357090.752761841 0 -22357090.752761841 105241564.0751133 0 0 0 0 199221740.99199677 -92952661.796787262 0 -92952661.796787262 -26416933.668283463 0 0 0 0 204897604.0709402 -40284243.159374118 0 -40284243.159374118 101283061.79740524 0 0 0 0 97190101.457705498 -53602338.769834518 0 -53602338.769834518 174144987.56793022 0 0 0 0 73323029.904513836 3243420.3068523407 0 3243420.3068523407 -18981279.159908295 0 0 0 0 175574580.56937599 -135570309.90829277 0 -135570309.90829277 110758976.75442028 0 0 0 0 1515322.317229948 1811253.1879107496 0 1811253.1879107496 -1520373.2846634462 0 0 0 0 -42340029.698959947 -174600495.23160988 0 -174600495.23160988 -385817392.66994858 0 0 0 0 -70466449.635379791 14615609.73064661 0 14615609.73064661 56287861.79076004 0 0 0 0 3038662.211922335 7136801.9691188075 0 7136801.9691188075 16450887.915223457 0 0 0 0 -2153915.5709762573 99276585.346819878 0 99276585.346819878 146130626.24049854 0 0 0 0 4601056.7622581935 10922603.107544232 0 10922603.107544232 9854855.0961389281 0 0 0 0 113759.41282534599 6100796.0832052231 0 6100796.0832052231 3671954.785835743 0 0 0 0 26982448.054912567 48218088.292218208 0 48218088.292218208 -36239242.738830566 0 0 0 0 4335522.8016087748 3737443.7066703304 0 3737443.7066703304 13116729.171369463 0 0 0 0 12423924.338208199 8942719.5023903847 0 8942719.5023903847 -29896597.848727226 0 0 0 0 4688181.4688736331 5728920.1186720282 0 5728920.1186720282 -4804003.4106107261 0 0 0 0 39384.300176620483 6014598.2261447906 0 6014598.2261447906 952153.49842453003 0 0 0 0 4196023.5708303163 2696989.141215777 0 2696989.141215777 10462029.597044043 0 0 0 0 3323217.7863143831 3798363.6658229828 0 3798363.6658229828 8378204.8158655167 0 0 0 0 1726272.419302471 6592810.0613209009 0 6592810.0613209009 5397325.0824375153 0 0 0 0 1846636.7717395127 23636388.498030245 0 23636388.498030245 9493801.7854919434 0 0 0 0 907025.13623934984 3916167.8985688686 0 3916167.8985688686 7652531.743730545 0 0 0 0 -3352423.2254765034 -76687930.026474953 0 -76687930.026474953 122519170.43668747 0 0 0 0 21756894.261982679 -82385023.779596329 0 -82385023.779596329 53927677.768230438 0 0 0 0 -28355873.805739641 -39268844.06528759 0 -39268844.06528759 55561747.881597519 0 0 0 0 53964657.964452267 -72470594.942163467 0 -72470594.942163467 62296369.249786377 0 0 0 0 70396549.384253979 -71341946.844453812 0 -71341946.844453812 55999922.213367462 0 0 0 0 53998391.681876183 -72221304.885147095 0 -72221304.885147095 57943491.058580399 0 0 0 0 54526160.257762432 -54425640.11772728 0 -54425640.11772728 74192939.982946396 0 0 0 0 13762118.7663517 -81911565.024917603 0 -81911565.024917603 63371076.335070252 0 0 0 0 18853311.812494397 -18677404.467685699 0 -18677404.467685699 55503166.292492867 0 0 0 0 4264357.4029757082 1562174.510050751 0 1562174.510050751 1870205.0856233549 0 0 0 0 2435722.9384129047 1304885.3990601897 0 1304885.3990601897 -1659387.4193977118 0 0 0 0 4059777.9561442831 4410268.4058943074 0 4410268.4058943074 1161227.8392781294 0 0 0 0 -18518.28136600717 2438593.2254551356 0 2438593.2254551356 8980230.9001939632 0 0 0 0 -3781.690601348877 23326054.845066071 0 23326054.845066071 20022400.636000633 0 0 0 0 -23645977.83525598 2460569.7321224213 0 2460569.7321224213 254405618.22192812 0 0 0 0 1830799.287351347 2292731.1252119932 0 2292731.1252119932 3004500.2463204125 0 0 0 0 -717931.532074149 -353856.27575939056 0 -353856.27575939056 3662595.2471574121 0 0 0 0 11661579.48553586 -14035455.943875313 0 -14035455.943875313 126029105.65975279 0 0 0 0 2592629.2910308838 5312977.1500854492 0 5312977.1500854492 8077809.7465744019 0 0 0 0 -127684.68381389556 -11960.055572271347 0 -11960.055572271347 425541.8812878523 0 0 0 0 -584062.52683248976 421783.35894947313 0 421783.35894947313 6927197.7222460797 0 0 0 0 -1321655.0813326836 -381495.12751626968 0 -381495.12751626968 3812257.2755279541 0 0 0 0 -4315273.2274131775 10377239.59897995 0 10377239.59897995 7142967.328584671 0 0 0 0 -780867.40104484558 -888916.93003463745 0 -888916.93003463745 4292661.1609475613 0 0 0 0 1557333.9685828383 1169168.8549868658 0 1169168.8549868658 7714488.7324912157 0 0 0 0 -1764917.6681785583 -859186.12236642838 0 -859186.12236642838 4139338.1600875854 0 0 0 0 -1776917.3059986997 -1393128.521123416 0 -1393128.521123416 12078886.909586024 0 0 0 0 -1368648.083656311 -371772.45447397232 0 -371772.45447397232 4135066.0391888618 0 0 0 0 819051.66990528256 3599549.0749661922 0 3599549.0749661922 14475261.201536179 0 0 0 0 1938213.0298405178 1628697.180811496 0 1628697.180811496 4310732.1145752389 0 0 0 0 4378686.7636635303 -7024520.4846618772 0 -7024520.4846618772 -13546182.036771297 0 0 0 0 -665781.13417482376 -4416960.2854213715 0 -4416960.2854213715 759700.3509106636 0 0 0 0 -845006.5225738287 -1363117.4135823846 0 -1363117.4135823846 3563700.7054424286 0 0 0 0 -1332865.098038435 -556956.21773791313 0 -556956.21773791313 2401553.2835025787 0 0 0 0 -66293.860598405765 839915.71983403957 0 839915.71983403957 6324881.0138538023 0 0 0 0 1904997.2559927767 -1882727.8364135628 0 -1882727.8364135628 1410988.2926155627 0 0 0 0 -1094219.0781884193 6494007.4275789261 0 6494007.4275789261 13945378.178050041 0 0 0 0 1249043.3794337858 7001890.5560811982 0 7001890.5560811982 13954109.910116727 0 0 0 0 -24661127.947476387 17370990.808574677 0 17370990.808574677 66523990.961196899 0 0 0 0 2637507.9297063351 4462469.6275615692 0 4462469.6275615692 7568037.0122338533 0 0 0 0 -36286.515056473436 3343275.1128234779 0 3343275.1128234779 11593572.88861838 0 0 0 0 -1392785.4745028003 -2989265.9149903031 0 -2989265.9149903031 42045.819559536874 0 0 0 0 2836796.7272484303 6813695.0728082657 0 6813695.0728082657 10803996.86133194 0 0 0 0 1263506.2692843676 5437446.776391983 0 5437446.776391983 14070057.092517853 0 0 0 0 665923.14750675811 2447376.7405007542 0 2447376.7405007542 11205271.560865605 0 0 0 0 -356621.39465159178 1291918.4478530884 0 1291918.4478530884 15491978.802066803 0 0 0 0 8194991.7938818932 3605191.2600049973 0 3605191.2600049973 -4127227.4809441566 0 0 0 0 7267047.5285434723 -46166359.084851742 0 -46166359.084851742 22415118.749912262 0 0 0 0 -2411759.5198595291 -349440.99257834605 0 -349440.99257834605 14517270.215441253 0 0 0 0 -79279.342832565308 3254228.2814445496 0 3254228.2814445496 15177668.547906876 0 0 0 0 -7644785.9687318802 -25001935.763812542 0 -25001935.763812542 -6859415.881436348 0 0 0 0 -2276581.4816912413 -1534819.8135719299 0 -1534819.8135719299 2074532.5357513428 0 0 0 0 -346304.28866956104 -1128614.0176795018 0 -1128614.0176795018 4821543.3968468886 0 0 0 0 -2213854.7131664413 1443315.4499603787 0 1443315.4499603787 10723142.613910781 0 0 0 0 -2624235.2986827437 3057312.1399703715 0 3057312.1399703715 25523397.24638724 0 0 0 0 -29088607.434918739 -2757082.0602871999 0 -2757082.0602871999 -18051423.894866943 0 0 0 0 -2137380.7137928605 -1474097.5133552551 0 -1474097.5133552551 1858091.7746734619 0 0 0 0 -1854289.4922116545 4739253.3824692033 0 4739253.3824692033 20806698.944686905 0 0 0 0 -119751240.57292557 -26027843.607880116 0 -26027843.607880116 69796067.17142868 0 0 0 0 -1525012.9655660063 7623667.3650259161 0 7623667.3650259161 24373218.904301114 0 0 0 0 -1030815.4715645759 -4104815.400202903 0 -4104815.400202903 -84985.015392745845 0 0 0 0 -55126211.20283471 -12303852.495975934 0 -12303852.495975934 39526302.808609009 0 0 0 0 -86260806.109997749 14584381.591695786 0 14584381.591695786 -30490571.50111866 0 0 0 0 -33619186.68762207 -31725612.000144958 0 -31725612.000144958 56274734.099042892 0 0 0 0 -34033237.586050987 -23401506.321117401 0 -23401506.321117401 36711823.094907284 0 0 0 0 -49632315.131496429 -27844797.506967545 0 -27844797.506967545 138643218.41217422 0 0 0 0 38129450.602411509 -9710386.1536245942 0 -9710386.1536245942 50823111.515748978 0 0 0 0 33130381.818864584 -52538065.513159335 0 -52538065.513159335 18555394.375644684 0 0 0 0 -50109059.4833498 -1767225.0690069199 0 -1767225.0690069199 -32028982.666152954 0 0 0 0 -99807316.643420219 -65226668.535511971 0 -65226668.535511971 49533950.533342361 0 0 0 0 -28941257.465873241 -6308814.7971935272 0 -6308814.7971935272 25556153.060750008 0 0 0 0 -80353775.126361847 29271890.421061367 0 29271890.421061367 45819899.67031157 0 0 0 0 -922088.77606135816 3005525.0831959704 0 3005525.0831959704 3457365.2264513057 0 0 0 0 3155820.6857114858 2701507.0639040386 0 2701507.0639040386 582092.67117893882 0 0 0 0 -28595391.22907877 -14942388.818759501 0 -14942388.818759501 -27589418.540749907 0 0 0 0 -711341.4156041072 3001067.0542374211 0 3001067.0542374211 5370407.1409954047 0 0 0 0 -896549.32892131805 1748282.626926899 0 1748282.626926899 860041.96978759766 0 0 0 0 3130478.1435707062 2042447.4777559154 0 2042447.4777559154 513336.51569445431 0 0 0 0 -18461206.656090498 15172514.331988573 0 15172514.331988573 -2056829.6954784393 0 0 0 0 -678858.9928986507 -1656706.962650171 0 -1656706.962650171 6409535.5877557369 0 0 0 0 62765492.422632217 -14156099.842715263 0 -14156099.842715263 629339.27564382553 0 0 0 0 18664477.186587334 -10332677.315174103 0 -10332677.315174103 6932057.6750736237 0 0 0 0 -561718.93876171112 3021913.0424683094 0 3021913.0424683094 7890293.5839395523 0 0 0 0 -403348.54832114698 -1238878.6441632595 0 -1238878.6441632595 1343880.3517437079 0 0 0 0 124588159.77500534 -70669480.617972374 0 -70669480.617972374 14954143.551772594 0 0 0 0 3380010.2597231865 26643884.622810364 0 26643884.622810364 30392086.640159607 0 0 0 0 46986.093685150146 -10758080.381791353 0 -10758080.381791353 -55222656.975978851 0 0 0 0 82558951.71638298 -2383676.0508441925 0 -2383676.0508441925 -61344434.189739704 0 0 0 0 495803297.90922165 332372310.34268093 0 332372310.34268093 174662445.0452137 0 0 0 0 1621259.8870451073 1479118.5298173078 0 1479118.5298173078 -223177.44176336192 0 0 0 0 364559634.30163288 238813076.5947119 0 238813076.5947119 79204007.209900856 0 0 0 0 -63275824.024866104 -51309767.484550118 0 -51309767.484550118 41897635.965974748 0 0 0 0 143606447.18509293 -22585272.673485756 0 -22585272.673485756 -42440861.299229622 0 0 0 0 105038510.08732605 8151755.6123966575 0 8151755.6123966575 3106209.2886772156 0 0 0 0 54388219.374572754 8392034.7896099091 0 8392034.7896099091 5119739.3837537766 0 0 0 0 77027167.572954655 87626695.676937819 0 87626695.676937819 49043516.286706924 0 0 0 0 -23889396.859586716 3764282.916462779 0 3764282.916462779 18687513.096418142 0 0 0 0 155275785.29265976 145025624.14589214 0 145025624.14589214 88204930.786301449 0 0 0 0 -104956346.06520462 46968100.071816921 0 46968100.071816921 86560923.442297667 0 0 0 0 -36165590.960493088 155340647.82045889 0 155340647.82045889 252529517.6883769 0 0 0 0 -39700568.956768036 289213591.57537055 0 289213591.57537055 130399083.97156906 0 0 0 0 192225369.56469727 227974234.31875134 0 227974234.31875134 144941465.17054272 0 0 0 0 143212820.87989044 162607362.69154644 0 162607362.69154644 349338837.33801746 0 0 0 0 167057491.23686981 197892381.47256768 0 197892381.47256768 117239547.97306442 0 0 0 0 228935838.07401657 -191179527.47041988 0 -191179527.47041988 479448152.0819912 0 0 0 0 238003993.49134827 -216721689.38018417 0 -216721689.38018417 -523248642.1462059 0 0 0 0 558336215.70028687 222054274.29347038 0 222054274.29347038 -108217935.05655766 0 0 0 0 390928916.01043701 861892114.19168282 0 861892114.19168282 -1791494240.5025916 0 0 0 0 -209206181.37023544 950630980.68748391 0 950630980.68748391 -323531176.03214359 0 0 0 0 -155445351.35506821 634174953.15818059 0 634174953.15818059 414259393.38931012 0 0 0 0 -156570933.16443253 566629838.8604002 0 566629838.8604002 136247666.75178564 0 0 0 0 178287162.43806076 435997803.89941025 0 435997803.89941025 -225797284.3888588 0 0 0 0 -221292620.42661929 771933844.27351046 0 771933844.27351046 452266829.40973282 0 0 0 0 223470185.35557938 -199082043.35978627 0 -199082043.35978627 -80961273.740756989 0 0 0 0 -302029.20231735427 -661679.74181723502 0 -661679.74181723502 4424631.7503517661 0 0 0 0 -24407815.318603516 -67717212.867020607 0 -67717212.867020607 133875714.82851219 0 0 0 0 -25303159.945167542 -8695635.6925544739 0 -8695635.6925544739 76174786.885249138 0 0 0 0 -18769297.367889404 -67331213.125103951 0 -67331213.125103951 133175607.84894466 0 0 0 0 -26757501.607254028 -94423773.104351044 0 -94423773.104351044 96112657.922476768 0 0 0 0 -27758796.995910645 -21118347.903912544 0 -21118347.903912544 7647126.922831716 0 0 0 0 -16258453.20624733 -145463301.88660026 0 -145463301.88660026 233378521.19956398 0 0 0 0 -49968668.252990723 -125941968.3809557 0 -125941968.3809557 322376445.64029503 0 0 0 0 -4666397.2650547028 -926700439.36527765 0 -926700439.36527765 -1235825952.6442547 0 0 0 0 -88494214.169570923 -163924292.2960043 0 -163924292.2960043 330152872.76020813 0 0 0 0 -191854328.91376495 -259554735.61659193 0 -259554735.61659193 572579176.36334515 0 0 0 0 -319629536.91570282 518489901.54335022 0 518489901.54335022 1187047595.2543912 0 0 0 0 -396457393.74922943 31456680.571676493 0 31456680.571676493 1583580214.6894619 0 0 0 0 -23214657.074466705 360953512.26661801 0 360953512.26661801 349078056.73259068 0 0 0 0 -304037747.98865509 198686551.29174423 0 198686551.29174423 269335621.56018305 0 0 0 0 -310824109.71556854 290849517.9080286 0 290849517.9080286 884262375.26246119 0 0 0 0 -328127864.30001068 599420618.46763682 0 599420618.46763682 433709833.52930307 0 0 0 0 -389408162.58131027 158382980.28778148 0 158382980.28778148 707163234.40867901 0 0 0 0 115066982.96634722 -74361543.974140882 0 -74361543.974140882 -82312022.355234146 0 0 0 0 6507996.5656729639 -4068100.456128784 0 -4068100.456128784 2784324.8609523308 0 0 0 0 -80843479.657799721 -295386704.70004487 0 -295386704.70004487 -63536887.517521381 0 0 0 0 -285827917.75029755 -503518473.83121872 0 -503518473.83121872 810445949.65485096 0 0 0 0 5584475.8111820221 -41604630.577968597 0 -41604630.577968597 -49304992.901125908 0 0 0 0 532783396.44250298 149277456.62135851 0 149277456.62135851 -401168548.96559763 0 0 0 0 -293871646.0064621 -494135817.22411251 0 -494135817.22411251 1203362526.0835342 0 0 0 0 -837031.16905975342 14473633.905577183 0 14473633.905577183 67679230.012952805 0 0 0 0 -32237864.690755129 -46586990.486910701 0 -46586990.486910701 22139092.222728729 0 0 0 0 -23454826.67954129 5411010.9527378082 0 5411010.9527378082 110248511.18396473 0 0 0 0 61816596.113122463 131977208.38785362 0 131977208.38785362 57446379.893938065 0 0 0 0 -60586268.287561417 18625591.693097115 0 18625591.693097115 318932378.40881014 0 0 0 0 -186277404.77143764 47841013.648176193 0 47841013.648176193 14165979.296357155 0 0 0 0 115930.88422412355 -1253600.5581978071 0 -1253600.5581978071 6914380.1274549961 0 0 0 0 -42077577.724061966 77867356.866753578 0 77867356.866753578 68616570.506556988 0 0 0 0 -63147836.128097534 -10198061.1003685 0 -10198061.1003685 21529960.508806229 0 0 0 0 -73970545.060536623 28656600.615795851 0 28656600.615795851 -7274930.9085998535 0 0 0 0 6739401.7012705803 38874109.053337097 0 38874109.053337097 -81278040.294893742 0 0 0 0 36868061.287787914 74391227.401841402 0 74391227.401841402 -56257220.772462845 0 0 0 0 2691245.8570044124 -3210864.4367094538 0 -3210864.4367094538 4953414.5218733465 0 0 0 0 178967341.8457222 350429705.64577579 0 350429705.64577579 449483764.20560074 0 0 0 0 302269479.57874298 253226830.25468826 0 253226830.25468826 152326019.29400241 0 0 0 0 682770719.51728821 233268161.35096264 0 233268161.35096264 670783.50810623169 0 0 0 0 378471262.15213394 375846117.51403427 0 375846117.51403427 344262135.40863991 0 0 0 0 340586758.81484604 391886552.82959747 0 391886552.82959747 344955874.25667065 0 0 0 0 810390530.05549431 957542336.90117502 0 957542336.90117502 1024590978.170187 0 0 0 0 -16113821.296836853 175067771.93543243 0 175067771.93543243 427656172.5470494 0 0 0 0 154879420.42322731 476350190.22505331 0 476350190.22505331 954157650.4007988 0 0 0 0 -99388591.681995392 -192915250.51077318 0 -192915250.51077318 890335742.46677589 0 0 0 0 -60591776.403493881 -121274712.42743611 0 -121274712.42743611 411861493.67394352 0 0 0 0 230927703.56460953 144938986.78559113 0 144938986.78559113 615232400.18355513 0 0 0 0 -552397159.00119495 -214742738.27589059 0 -214742738.27589059 749974423.63571453 0 0 0 0 561408949.70043373 -437915593.22933102 0 -437915593.22933102 1642116929.7351665 0 0 0 0 95746267.596309662 573990774.5609808 0 573990774.5609808 2222831267.1589422 0 0 0 0 3572670.5227155145 -638371.36128620105 0 -638371.36128620105 -612027.49667021167 0 0 0 0 1158861541.8190417 912728190.44183803 0 912728190.44183803 456133181.68262672 0 0 0 0 62571029.520642757 333985990.13139737 0 333985990.13139737 755641115.12547588 0 0 0 0 -30485949.916961193 109319455.06062317 0 109319455.06062317 109212154.18027115 0 0 0 0 451699846.20793533 -262550479.2975769 0 -262550479.2975769 -73594647.542477131 0 0 0 0 1187511900.5841427 271143294.90771222 0 271143294.90771222 9328842.3682403564 0 0 0 0 396058325.59646606 -53014378.124189377 0 -53014378.124189377 -20097387.724757075 0 0 0 0 87631225.608680725 -76813302.961265564 0 -76813302.961265564 105544057.39294815 0 0 0 0 327836705.7893486 23463579.148944855 0 23463579.148944855 6980504.3547801971 0 0 0 0 -8700997.1988220215 19529827.058891296 0 19529827.058891296 11116649.885421753 0 0 0 0 -10246146.571754456 27857713.677955627 0 27857713.677955627 53621772.12328434 0 0 0 0 16190569.289360046 -38380321.469661713 0 -38380321.469661713 70558476.457336426 0 0 0 0 -35834780.152208686 19369324.115812302 0 19369324.115812302 26792520.808017731 0 0 0 0 -3610782.6332778931 1503366.7464561462 0 1503366.7464561462 -7228663.67628479 0 0 0 0 27167202.94099164 1102502.6883087158 0 1102502.6883087158 -11965806.997383118 0 0 0 0 -1616451.4516584217 2777626.5256246915 0 2777626.5256246915 2197175.999017274 0 0 0 0 -35490785.236920089 15928390.01488173 0 15928390.01488173 3963008.0130958557 0 0 0 0 14805102.030694719 -137723.22403521743 0 -137723.22403521743 -4424829.2964649461 0 0 0 0 -30196165.734398842 33014215.219075203 0 33014215.219075203 -163550.90288162231 0 0 0 0 10697663.544604301 18610001.437292099 0 18610001.437292099 -38419849.470098495 0 0 0 0 39894554.406326294 83756676.395784378 0 83756676.395784378 -153565093.21086264 0 0 0 0 -34594110.50406456 26773699.96009779 0 26773699.96009779 14343630.910667419 0 0 0 0 9626785.5635582972 -429578.31534881308 0 -429578.31534881308 -1996526.702808653 0 0 0 0 30998236.046855927 271835562.70159149 0 271835562.70159149 880718297.42872953 0 0 0 0 23859092.130916595 452364237.92932206 0 452364237.92932206 676723241.90004444 0 0 0 0 27026214.493152618 428184169.15927219 0 428184169.15927219 861329439.81377029 0 0 0 0 93810788.882575989 498290932.69815207 0 498290932.69815207 590402164.98608494 0 0 0 0 156908557.87729645 790473661.12125206 0 790473661.12125206 599750543.56642914 0 0 0 0 66464696.878005981 415440311.73167944 0 415440311.73167944 340273874.52503586 0 0 0 0 51225926.184238434 74456761.999238968 0 74456761.999238968 126634664.12830019 0 0 0 0 -14864366.787712097 114362513.16683435 0 114362513.16683435 459186361.67088604 0 0 0 0 256252234.0675621 411158292.5217638 0 411158292.5217638 -16526906.963908195 0 0 0 0 158448836.89729309 122402572.25174046 0 122402572.25174046 85350901.223060608 0 0 0 0 -21980243.973800659 -21197388.268690109 0 -21197388.268690109 57737438.356748581 0 0 0 0 8737410.9657301605 -894466.77515554428 0 -894466.77515554428 -2495948.3505020142 0 0 0 0 5444407.0736400019 3488247.9461656269 0 3488247.9461656269 -1305625.3046630807 0 0 0 0 -85775126.046966553 -149828482.68757057 0 -149828482.68757057 -218643471.20963335 0 0 0 0 2211936.1949109025 -1588340.9766972659 0 -1588340.9766972659 -1998466.6141083573 0 0 0 0 116084462.89761353 52404877.026914597 0 52404877.026914597 -49336320.183897972 0 0 0 0 77080135.648628235 101169829.88117075 0 101169829.88117075 94678308.57914257 0 0 0 0 1324927250.3419876 1652643212.8716259 0 1652643212.8716259 7503318.8638620377 0 0 0 0 351645678.19509125 587835552.25608683 0 587835552.25608683 240667023.07732677 0 0 0 0 1843894.0479899365 915557.0694683725 0 915557.0694683725 -1210544.5689193686 0 0 0 0 590903727.06524849 76004775.466398001 0 76004775.466398001 -879033820.31501865 0 0 0 0 168122272.7900362 776821610.44061732 0 776821610.44061732 79157793.122460365 0 0 0 0 475582069.93915176 -182525007.62881088 0 -182525007.62881088 -612837645.83332634 0 0 0 0 423366957.46173096 162375443.44207478 0 162375443.44207478 -964906215.60124397 0 0 0 0 1773449327.7322578 -925116937.92301035 0 -925116937.92301035 -90426910.965054512 0 0 0 0 -78705126.1939888 -89331296.12406826 0 -89331296.12406826 7964548.3978939056 0 0 0 0 15165548.903926849 15883367.807327271 0 15883367.807327271 7168518.3087615967 0 0 0 0 12490183.959326996 3441490.4129032376 0 3441490.4129032376 4890115.9683517739 0 0 0 0 -3899618.6734905243 337850693.56390285 0 337850693.56390285 -271113114.93982315 0 0 0 0 11362351.925086021 13330048.924747467 0 13330048.924747467 8343754.9878311157 0 0 0 0 16411315.522930145 14922058.388559341 0 14922058.388559341 7355752.875164032 0 0 0 0 8875418.3132076263 16358325.547451019 0 16358325.547451019 9926214.7287330627 0 0 0 0 16432848.824827194 16845358.972482681 0 16845358.972482681 8716571.5119628906 0 0 0 0 28304422.652273178 18141197.928581238 0 18141197.928581238 2847673.3628997803 0 0 0 0 25237934.763070107 10651438.581455231 0 10651438.581455231 8860787.5759277344 0 0 0 0 407880.19667491689 -1189229.5513679245 0 -1189229.5513679245 -577512.46413995372 0 0 0 0 16403071.678762436 18438247.815246582 0 18438247.815246582 24115941.435270309 0 0 0 0 9350061.4663569927 10436305.143881798 0 10436305.143881798 15528224.683395386 0 0 0 0 11490807.835747182 4291565.451292038 0 4291565.451292038 -332995.2795715332 0 0 0 0 3648620.8123483695 9303726.3286474422 0 9303726.3286474422 1257611.3551170081 0 0 0 0 25979751.011763573 15494727.744220734 0 15494727.744220734 996977.72503662109 0 0 0 0 -203423.02686896088 -74595.705587747507 0 -74595.705587747507 35633.302859611809 0 0 0 0 36417436.518320084 16455661.361381531 0 16455661.361381531 1936088.2887878418 0 0 0 0 33017913.798016548 23125435.351570129 0 23125435.351570129 10147941.560073853 0 0 0 0 25369332.306894302 14164479.751659393 0 14164479.751659393 190303.36172485352 0 0 0 0 30290749.04936409 17543963.310630798 0 17543963.310630798 1690252.2111434937 0 0 0 0 28751495.087341309 18383747.699661255 0 18383747.699661255 1267530.2540206909 0 0 0 0 28824230.19547081 16799608.122953415 0 16799608.122953415 2849360.2435455322 0 0 0 0 30166966.432328224 17756204.993186951 0 17756204.993186951 3447169.134727478 0 0 0 0 28732615.277231693 18997175.15184021 0 18997175.15184021 9467389.2385101318 0 0 0 0 27135837.833076805 12181836.985236645 0 12181836.985236645 9731288.155670166 0 0 0 0 -1235542.4577307263 6203828.9189455435 0 6203828.9189455435 2696684.8122458402 0 0 0 0 28527505.65212822 16620151.620502472 0 16620151.620502472 5545232.8343353271 0 0 0 0 28229335.120362282 18173422.61857605 0 18173422.61857605 5145778.5882720947 0 0 0 0 30397369.275562763 17488422.591468811 0 17488422.591468811 5342920.1343841553 0 0 0 0 26764811.126659036 17502074.292671204 0 17502074.292671204 6515531.2756652832 0 0 0 0 28648453.663693905 17694542.639389038 0 17694542.639389038 2009233.8104019165 0 0 0 0 27829646.840995789 15525367.443180084 0 15525367.443180084 10054378.512924194 0 0 0 0 31966530.81731391 10432663.161239624 0 10432663.161239624 6558206.7853240967 0 0 0 0 33465497.314947605 15511941.818660736 0 15511941.818660736 9987109.6107635498 0 0 0 0 30394597.610378265 14262112.334922791 0 14262112.334922791 14713470.307296753 0 0 0 0 23793413.406414032 17307331.656574249 0 17307331.656574249 23956887.485282011 0 0 0 0 31523217.536128044 17768474.609372139 0 17768474.609372139 9726258.3995361328 0 0 0 0 30014137.219809055 16062731.435932159 0 16062731.435932159 16719203.691772461 0 0 0 0 23858871.749206543 11542488.137657166 0 11542488.137657166 9336839.2932453156 0 0 0 0 23814809.770652831 17831678.697422385 0 17831678.697422385 24066136.932403564 0 0 0 0 21236947.647691727 19480580.091506958 0 19480580.091506958 -9426855.9864234924 0 0 0 0 28566106.182421684 16628987.36095047 0 16628987.36095047 3735013.7320594788 0 0 0 0 23717873.433298111 22327737.507909775 0 22327737.507909775 2282908.9350814819 0 0 0 0 15718348.534667969 26544728.733215332 0 26544728.733215332 58713544.697769165 0 0 0 0 7397127.1158905029 29616096.913978577 0 29616096.913978577 57581680.872989655 0 0 0 0 10145580.658402443 27490423.158340454 0 27490423.158340454 49930358.647941589 0 0 0 0 28877417.236309215 32530852.419151627 0 32530852.419151627 42015019.633911133 0 0 0 0 15937121.566184998 36433234.267364502 0 36433234.267364502 63436923.227241516 0 0 0 0 5253018.4603862762 15015031.845424652 0 15015031.845424652 76787116.242856979 0 0 0 0 977615.57709646225 -12960960.638650894 0 -12960960.638650894 22408718.422813416 0 0 0 0 7950190.6447982788 12566711.062175751 0 12566711.062175751 41817020.025604248 0 0 0 0 24315578.619852066 17935820.659881592 0 17935820.659881592 24075148.092012405 0 0 0 0 24424457.936914444 17406257.66594696 0 17406257.66594696 23956846.994305424 0 0 0 0 28767294.37024498 25973880.443637848 0 25973880.443637848 37399574.512962341 0 0 0 0 28870929.980010033 18908455.520751953 0 18908455.520751953 36556406.830291748 0 0 0 0 38951701.824314833 16351973.076749802 0 16351973.076749802 -694539.70001220703 0 0 0 0 35428222.359649897 27123112.114936829 0 27123112.114936829 23517349.62494278 0 0 0 0 41204529.301297188 21592567.080245972 0 21592567.080245972 7472964.3835830688 0 0 0 0 35803987.034017324 35522838.503116608 0 35522838.503116608 49159960.050834656 0 0 0 0 43377901.156488895 22976182.864543915 0 22976182.864543915 36982511.686553955 0 0 0 0 17749081.140434265 23143586.128562927 0 23143586.128562927 41770641.089553833 0 0 0 0 21824147.577206135 45114288.532873154 0 45114288.532873154 69958126.321422577 0 0 0 0 18872511.908298492 37505073.240493774 0 37505073.240493774 56161768.83808136 0 0 0 0 59232609.537605166 44775633.119714737 0 44775633.119714737 40224885.031013489 0 0 0 0 -2111642.6366729736 22878514.978134155 0 22878514.978134155 55939883.355873108 0 0 0 0 -6695775.557485342 9876574.3766479492 0 9876574.3766479492 55133579.877393723 0 0 0 0 5044470.0791187286 10005363.262870789 0 10005363.262870789 33468772.689468384 0 0 0 0 12886696.880703926 24534456.188926697 0 24534456.188926697 51624446.720748901 0 0 0 0 23223595.982213974 21900129.191017151 0 21900129.191017151 24007683.89402771 0 0 0 0 -1082996.914524639 1289039.6857240759 0 1289039.6857240759 8339825.3432272896 0 0 0 0 4566203.6367355082 14215317.985178962 0 14215317.985178962 44739930.146682739 0 0 0 0 16573933.226100922 7821555.3661117554 0 7821555.3661117554 21635937.268981934 0 0 0 0 -4026005.1773084304 2168903.5157257728 0 2168903.5157257728 11942855.053510197 0 0 0 0 -20177807.369489312 33024846.111753464 0 33024846.111753464 21123534.804161072 0 0 0 0 14242875.187172413 22349492.415153503 0 22349492.415153503 45537020.550033569 0 0 0 0 -15474978.648228576 34879470.799695261 0 34879470.799695261 2453579.1134796143 0 0 0 0 -787782.32633161545 5743327.1500091553 0 5743327.1500091553 13597136.177902222 0 0 0 0 -5794318.2464241982 31214086.85631752 0 31214086.85631752 -33914521.675621033 0 0 0 0 2327317.7530665398 52112753.648880005 0 52112753.648880005 -24115814.803627014 0 0 0 0 -8670376.8474931717 108207332.16666031 0 108207332.16666031 -111601564.80301666 0 0 0 0 -20158177.632700443 96890125.268890381 0 96890125.268890381 -111472608.13662338 0 0 0 0 18130346.77251792 2656431.5314292908 0 2656431.5314292908 -66700259.176721573 0 0 0 0 -17699034.281070709 32677608.639335632 0 32677608.639335632 52029744.669898987 0 0 0 0 -916539.87517902721 -10560.57203435339 0 -10560.57203435339 3171136.2428420931 0 0 0 0 -17034292.344603777 41717519.322322845 0 41717519.322322845 63509835.715164185 0 0 0 0 17740009.653619289 86295283.829295158 0 86295283.829295158 95797079.59815979 0 0 0 0 209469047.02444649 179812544.14863205 0 179812544.14863205 78775150.493003845 0 0 0 0 11590321.594669342 22859362.277160645 0 22859362.277160645 52680021.169075012 0 0 0 0 -20469881.333086014 -53136153.64239502 0 -53136153.64239502 55794136.440922976 0 0 0 0 -1492497.5863372318 1838541.5852997154 0 1838541.5852997154 2382804.6701954678 0 0 0 0 52850406.432629108 177858717.22524214 0 177858717.22524214 209230079.4892807 0 0 0 0 -253182685.79909039 37631453.834815979 0 37631453.834815979 297611764.81488037 0 0 0 0 -1941766.3599335554 167085.92689849623 0 167085.92689849623 4027177.7476342432 0 0 0 0 14957417.163115025 38310793.769353867 0 38310793.769353867 -197175864.36843872 0 0 0 0 11602655.401413918 118094958.37168121 0 118094958.37168121 -171866296.24323845 0 0 0 0 108009240.84923601 107346944.80875254 0 107346944.80875254 -65401552.817359924 0 0 0 0 18180769.24855423 -81475040.206623077 0 -81475040.206623077 -176409763.6051178 0 0 0 0 120171607.35166836 183074867.74372101 0 183074867.74372101 191903309.2247467 0 0 0 0 303206295.45587158 102623074.1520462 0 102623074.1520462 -364106784.06149673 0 0 0 0 -4803199.5866185818 3062237.5640698187 0 3062237.5640698187 2209537.5755479261 0 0 0 0 -15558805.783346653 5273053.5095348358 0 5273053.5095348358 28779227.767566681 0 0 0 0 29795798.135990709 47395809.291182518 0 47395809.291182518 15638211.980937958 0 0 0 0 52251349.299669504 62098120.295240402 0 62098120.295240402 69309531.64868927 0 0 0 0 114371693.79958439 45287457.65297699 0 45287457.65297699 55043190.340904236 0 0 0 0 -1649420.7927782475 226820.44173677452 0 226820.44173677452 1553374.0210792162 0 0 0 0 8597837.3003511429 2216783.2638168335 0 2216783.2638168335 -6470003.2264328003 0 0 0 0 24274733.919823907 32533476.56111145 0 32533476.56111145 8685079.9668655396 0 0 0 0 -2848067.3982361243 6252680.8067915952 0 6252680.8067915952 2331589.3573449422 0 0 0 0 -20302558.038414955 -62721139.67965126 0 -62721139.67965126 16521766.203674316 0 0 0 0 -4090108.4766544793 1667713.5116857132 0 1667713.5116857132 4254930.3504901938 0 0 0 0 19502716.186915636 -14803143.941375732 0 -14803143.941375732 -23549766.558879852 0 0 0 0 -30783067.602861643 2876244.169426918 0 2876244.169426918 42088666.655525208 0 0 0 0 120850977.49862653 15755244.310488075 0 15755244.310488075 29961905.243591309 0 0 0 0 64521010.692472458 40779685.019655228 0 40779685.019655228 -3390137.2155456543 0 0 0 0 235280168.73817062 -4711212.9677734375 0 -4711212.9677734375 -1188803.6503143311 0 0 0 0 122383087.67506027 -20930271.85918808 0 -20930271.85918808 18005360.679962158 0 0 0 0 347439951.38495636 69584139.735690117 0 69584139.735690117 -39773745.568618774 0 0 0 0 263342206.82597542 117236032.41648293 0 117236032.41648293 14766803.070178986 0 0 0 0 168318923.54635429 66143621.163879395 0 66143621.163879395 -6066493.6379985809 0 0 0 0 16998179.655796051 -48630939.520531178 0 -48630939.520531178 -32155092.545707703 0 0 0 0 149387031.36712456 -7224404.1606769562 0 -7224404.1606769562 -26241154.656658173 0 0 0 0 -4196328.3693131227 906247.28856566176 0 906247.28856566176 4351800.9319997448 0 0 0 0 -34986993.223453522 45930664.423202515 0 45930664.423202515 50701005.78245163 0 0 0 0 -4535531.0777941179 2204183.3937326148 0 2204183.3937326148 2549233.5255876146 0 0 0 0 95670830.476585388 113529715.10853958 0 113529715.10853958 -7803930.2901191711 0 0 0 0 58836971.522258759 147962363.50138092 0 147962363.50138092 57938525.793502808 0 0 0 0 71758183.005894661 -24870934.223500013 0 -24870934.223500013 -104856408.60834503 0 0 0 0 247358828.60706902 172967678.89747429 0 172967678.89747429 4346742.9497070312 0 0 0 0 -2320781.3253558753 336116.61715426669 0 336116.61715426669 2405193.5333794281 0 0 0 0 -55706365.533070087 -95590883.456339598 0 -95590883.456339598 -54798721.663169861 0 0 0 0 251152628.52340698 185294108.12654877 0 185294108.12654877 -61378857.145866394 0 0 0 0 42715590.493721008 191178043.14372253 0 191178043.14372253 -56843856.953887939 0 0 0 0 263446344.63716507 171816812.02404594 0 171816812.02404594 -59041767.786911011 0 0 0 0 278351490.81007385 181641469.51854706 0 181641469.51854706 -113316822.46835899 0 0 0 0 285117755.38782883 150169723.6664772 0 150169723.6664772 -48726089.030175209 0 0 0 0 278841964.22024536 167424689.06829453 0 167424689.06829453 -35513280.402266502 0 0 0 0 248569919.17503357 183561945.35392761 0 183561945.35392761 -36496949.724266052 0 0 0 0 362907808.66362762 126913101.7773819 0 126913101.7773819 -43803595.220479965 0 0 0 0 256837946.83724403 136671992.67158127 0 136671992.67158127 -43308359.154018402 0 0 0 0 396132449.30302811 112180339.51886177 0 112180339.51886177 -40494296.09521389 0 0 0 0 310411167.58404922 114386466.76435661 0 114386466.76435661 -19007412.809299469 0 0 0 0 264639570.61387634 253737932.64613724 0 253737932.64613724 152433897.00286865 0 0 0 0 435389217.6079216 234224873.25059032 0 234224873.25059032 417212.46196746826 0 0 0 0 261997152.17163086 237024836.22769928 0 237024836.22769928 74245989.509601593 0 0 0 0 287955957.79276276 185692066.01401043 0 185692066.01401043 73968.24698638916 0 0 0 0 708904230.12496948 -349249320.64815521 0 -349249320.64815521 -161748341.06369781 0 0 0 0 553467565.20123291 -385751037.83437347 0 -385751037.83437347 -14128742.255187988 0 0 0 0 238897777.95002174 23655050.451683044 0 23655050.451683044 -315454479.50991058 0 0 0 0 678461310.88751411 170638667.7531662 0 170638667.7531662 -281158738.14739227 0 0 0 0 374349485.65996933 168615391.77445126 0 168615391.77445126 -25408029.032943726 0 0 0 0 8174170.589828752 -1622435.5468094926 0 -1622435.5468094926 -2226711.2822768986 0 0 0 0 114373496.26478821 388250952.35853314 0 388250952.35853314 -601190650.32706451 0 0 0 0 909455691.19085121 -211605479.15854454 0 -211605479.15854454 -442330027.83734131 0 0 0 0 39093807.907373428 -281727727.49410629 0 -281727727.49410629 20013531.052993774 0 0 0 0 170434911.77458954 156964528.31285095 0 156964528.31285095 609183271.75409698 0 0 0 0 3823100.8305277303 -1484178.9601405207 0 -1484178.9601405207 -1541425.4909891132 0 0 0 0 349726064.50815582 188452041.48889542 0 188452041.48889542 -127935476.70838165 0 0 0 0 693415571.71493304 406462502.28885663 0 406462502.28885663 10266642.973876953 0 0 0 0 306201017.60118532 310332348.72633266 0 310332348.72633266 -58918850.354446411 0 0 0 0 66471563.524497986 327730414.68247986 0 327730414.68247986 7680818.8845596313 0 0 0 0 129391506.98338366 -18917396.723861694 0 -18917396.723861694 -139946997.51594543 0 0 0 0 -52219210.558580399 178428061.73451996 0 178428061.73451996 -41565077.815879822 0 0 0 0 -186726363.59051895 -115026141.29804611 0 -115026141.29804611 265996033.97707748 0 0 0 0 -2406042.355483559 928318.67007947154 0 928318.67007947154 1616243.8493545651 0 0 0 0 -165952806.55763626 158493808.2550087 0 158493808.2550087 64632029.768760681 0 0 0 0 76186928.39947319 -1233461.6108665466 0 -1233461.6108665466 -37134904.46787262 0 0 0 0 30718681.621046066 -92124459.191747665 0 -92124459.191747665 -212342565.2312851 0 0 0 0 76769760.346016407 21720284.926887512 0 21720284.926887512 -7239148.3706207275 0 0 0 0 83112376.530076981 64885018.585479736 0 64885018.585479736 -261243602.21549416 0 0 0 0 9937998.854515519 -92506.856132097542 0 -92506.856132097542 -1240425.498719357 0 0 0 0 -15720312.410264015 38915162.408454895 0 38915162.408454895 155906111.57052612 0 0 0 0 -220214766.79673719 354000059.52242661 0 354000059.52242661 -106543122.64529419 0 0 0 0 435174886.11836243 355410419.14286804 0 355410419.14286804 -124735134.55665588 0 0 0 0 -476191.36437020323 4011008.9895524988 0 4011008.9895524988 8772010.1440934986 0 0 0 0 -238491696.7309311 298135931.60939503 0 298135931.60939503 -179704076.65749359 0 0 0 0 -695546845.74818492 221576932.78131866 0 221576932.78131866 11848372.442504883 0 0 0 0 -331189348.08178079 -967793284.72397232 0 -967793284.72397232 1967544211.6414948 0 0 0 0 5938154.6298009837 112144.91582936049 0 112144.91582936049 646874.11885461584 0 0 0 0 862953556.96679997 820953483.94739532 0 820953483.94739532 -751706519.97642136 0 0 0 0 -382605924.95563018 488726898.19844437 0 488726898.19844437 812012844.76876068 0 0 0 0 2480048.2422244349 40195.697094310075 0 40195.697094310075 132140.00867703371 0 0 0 0 111506516.30351013 -53780311.300170898 0 -53780311.300170898 2327531.9770507812 0 0 0 0 106124913.531106 -37128185.895275116 0 -37128185.895275116 14098979.370677948 0 0 0 0 49904024.338289261 68698210.150331497 0 68698210.150331497 -9337351.7364349365 0 0 0 0 122584.26570018521 3585770.0094461516 0 3585770.0094461516 3212397.9482451975 0 0 0 0 85383361.326583862 -10386778.086559296 0 -10386778.086559296 -5745522.0620994568 0 0 0 0 87010358.878870964 -7887657.3347530365 0 -7887657.3347530365 -130724871.9699173 0 0 0 0 -356527.27771194908 1512322.314331172 0 1512322.314331172 1344030.8352677897 0 0 0 0 100067224.89058781 -4961771.2861938477 0 -4961771.2861938477 -132135624.05164337 0 0 0 0 -34165370.321780324 111689841.93558788 0 111689841.93558788 -105919247.66275024 0 0 0 0 17653694.793691635 66010051.030822754 0 66010051.030822754 -68040371.356086731 0 0 0 0 176190006.31659651 86607084.035884857 0 86607084.035884857 -99436584.663978577 0 0 0 0 105203057.13966295 120760051.65534782 0 120760051.65534782 -179359692.36252594 0 0 0 0 163864265.89295006 8182513.6326446533 0 8182513.6326446533 -15257145.184700012 0 0 0 0 23069264.173425555 129322846.74328232 0 129322846.74328232 -78062207.76791811 0 0 0 0 683376.50565505028 145921899.09422302 0 145921899.09422302 -79316484.4807477 0 0 0 0 38950099.996386707 125444951.59886646 0 125444951.59886646 -109512434.90118408 0 0 0 0 -58810417.197859883 102579959.60382271 0 102579959.60382271 -52799919.350448608 0 0 0 0 -172097933.23761034 175456005.98322487 0 175456005.98322487 -33209534.197151184 0 0 0 0 -3068260.4077240229 172150630.85025978 0 172150630.85025978 -42731994.302238464 0 0 0 0 -668607238.18365192 291914596.42353439 0 291914596.42353439 20264484.497840881 0 0 0 0 37367292.378504872 457471552.49777699 0 457471552.49777699 -146579376.70944214 0 0 0 0 408770674.61538506 -57851468.058433533 0 -57851468.058433533 -96527018.022975922 0 0 0 0 643824064.61165941 366272692.35122418 0 366272692.35122418 -150899592.69958496 0 0 0 0 503741110.34922832 -304730114.79314423 0 -304730114.79314423 149919245.92124557 0 0 0 0 -1303717461.324147 169973395.21857452 0 169973395.21857452 767460235.81897354 0 0 0 0 405137892.87106252 -276488254.10129356 0 -276488254.10129356 -108016654.00273132 0 0 0 0 652165611.81806922 329971604.34348392 0 329971604.34348392 464397401.80577087 0 0 0 0 191649022.64110202 -254968827.76023483 0 -254968827.76023483 -12830627.401882172 0 0 0 0 652936831.94654644 -642388491.97415543 0 -642388491.97415543 226187408.0508194 0 0 0 0 -1202162051.528826 -364610877.77165604 0 -364610877.77165604 272201348.53464699 0 0 0 0 996066071.24957454 -1687071144.0575447 0 -1687071144.0575447 696328168.30040359 0 0 0 0 405639909.14450651 149994610.36874866 0 149994610.36874866 -148453950.78137207 0 0 0 0 -818930099.23514855 -1683335616.4132633 0 -1683335616.4132633 6607478629.5155258 0 0 0 0 786269727.27487683 -2362462842.9155083 0 -2362462842.9155083 3000243551.2780991 0 0 0 0 -976267313.40185452 -203210298.31024742 0 -203210298.31024742 6594588399.8191147 0 0 0 0 -933761278.17924201 -491298192.46513367 0 -491298192.46513367 3333546245.6115952 0 0 0 0 -60107936.672477245 -746821638.29298019 0 -746821638.29298019 1120598990.1463099 0 0 0 0 -305534700.90229362 976577194.91396713 0 976577194.91396713 -906240969.47164154 0 0 0 0 -62676.583574315562 -258908.82463739067 0 -258908.82463739067 9732632.2838041894 0 0 0 0 -462255401.98662806 1067324741.7211227 0 1067324741.7211227 1469360645.2863836 0 0 0 0 -347781116.57932013 -2191953639.4958725 0 -2191953639.4958725 6613906503.6024771 0 0 0 0 -399218896.49972612 -1145728702.2302322 0 -1145728702.2302322 2627325543.3472595 0 0 0 0 -680646798.1044234 333524892.09503937 0 333524892.09503937 567385411.25582886 0 0 0 0 -306959283.77746534 -155443864.47501373 0 -155443864.47501373 289705990.48681068 0 0 0 0 -539215968.20637643 80641248.571380615 0 80641248.571380615 142313141.90044403 0 0 0 0 -397260045.50601596 -244530776.18303299 0 -244530776.18303299 466656449.3223877 0 0 0 0 158266091.9250921 -357766221.73198318 0 -357766221.73198318 352012305.06573868 0 0 0 0 -578767802.91996288 226880858.79451847 0 226880858.79451847 1552303785.7698441 0 0 0 0 -416304559.72196496 -463247368.13787079 0 -463247368.13787079 1168386106.738884 0 0 0 0 -463165328.03226781 -707527834.62614632 0 -707527834.62614632 190032097.19195557 0 0 0 0 -741633.53695939528 102388.84231330082 0 102388.84231330082 5379728.542591989 0 0 0 0 2195883203.7396431 2544138496.1789932 0 2544138496.1789932 111027453.572155 0 0 0 0 -262166711.90532684 434162620.63973236 0 434162620.63973236 -195678354.59410095 0 0 0 0 -252745716.77477384 367241711.84062386 0 367241711.84062386 243246352.80354309 0 0 0 0 181204340.18247414 225644708.34379578 0 225644708.34379578 51368134.849754333 0 0 0 0 231447097.65889168 130769284.68686676 0 130769284.68686676 926864418.11955261 0 0 0 0 334204970.87018967 618173625.0370369 0 618173625.0370369 989968054.50085449 0 0 0 0 -523369315.88235855 -422445347.15966797 0 -422445347.15966797 -406360360.81715012 0 0 0 0 -467651279.82029247 19433255.767700195 0 19433255.767700195 1109392322.1385193 0 0 0 0 -1267046047.1329794 -587403701.11540222 0 -587403701.11540222 1706213996.2841949 0 0 0 0 -770243958.91566086 -516260469.3943634 0 -516260469.3943634 680414020.30702209 0 0 0 0 -477454154.83476162 240054530.23259735 0 240054530.23259735 2284559407.0609131 0 0 0 0 -715449708.00303841 -1043256703.5240021 0 -1043256703.5240021 1665470791.6781311 0 0 0 0 -823447600.05745983 -673150606.52442932 0 -673150606.52442932 450182018.68597412 0 0 0 0 1178472086.7111254 1404742142.0955353 0 1404742142.0955353 970803301.31317139 0 0 0 0 -1335057465.3172827 -962690614.04702759 0 -962690614.04702759 879840193.34568787 0 0 0 0 -1345250.3129486579 -571378.43988329917 0 -571378.43988329917 14645091.139804177 0 0 0 0 -1235310.543228772 1965816.2795475665 0 1965816.2795475665 5327141.4659639448 0 0 0 0 -619554699.15995216 539601732.04576874 0 539601732.04576874 2610664115.0589371 0 0 0 0 -606002115.86865473 -10143749.384269714 0 -10143749.384269714 71977961.833747864 0 0 0 0 -599954351.63146257 412227225.89357853 0 412227225.89357853 -123444732.90355682 0 0 0 0 487720.28809181682 783382.5110014081 0 783382.5110014081 12617467.060272489 0 0 0 0 517553542.6087895 1691598136.4850731 0 1691598136.4850731 4471735007.68367 0 0 0 0 781743460.91143751 1513341027.7630463 0 1513341027.7630463 2150936212.7001953 0 0 0 0 -483592911.86647516 261906557.22120667 0 261906557.22120667 6602324284.0742264 0 0 0 0 2079071844.2206209 -4816185587.1468115 0 -4816185587.1468115 3416861068.7388153 0 0 0 0 1721155.6024038862 2158385.8088331148 0 2158385.8088331148 10264361.673304908 0 0 0 0 2488711662.6828203 -2007282638.9761086 0 -2007282638.9761086 1063942347.1389465 0 0 0 0 -798410171.21073437 2705870681.6081238 0 2705870681.6081238 -1666197880.9855804 0 0 0 0 3457334.6052500769 299726.92687689885 0 299726.92687689885 7508675.5401967242 0 0 0 0 1469694402.5663347 1533167957.3118286 0 1533167957.3118286 487493786.73384023 0 0 0 0 -2019224664.9598641 -683910176.57873154 0 -683910176.57873154 5882434148.7600555 0 0 0 0 4529270820.9063187 1508509324.7172012 0 1508509324.7172012 -3365020582.8931732 0 0 0 0 1540934043.2520273 -2423644936.8686981 0 -2423644936.8686981 4069910416.7312088 0 0 0 0 3855144466.924962 -2788455786.9475594 0 -2788455786.9475594 5437066576.9677887 0 0 0 0 1277640843.0535161 -2407031902.3578339 0 -2407031902.3578339 6600460097.5071831 0 0 0 0 960425132.84146965 -1350116935.9427643 0 -1350116935.9427643 5398405784.6720428 0 0 0 0 -4001803.062913835 -1566953619.6224899 0 -1566953619.6224899 4628108896.7923737 0 0 0 0 607517809.21941566 -2086610002.8483582 0 -2086610002.8483582 5007487997.8971024 0 0 0 0 905008415.72892725 -1371058337.9277344 0 -1371058337.9277344 4831530488.1641083 0 0 0 0 1422009432.1025915 -1868759227.5173569 0 -1868759227.5173569 1552442265.2310638 0 0 0 0 727939219.58783054 -350446030.72027588 0 -350446030.72027588 214464814.26977539 0 0 0 0 4446847308.4178638 381739317.95278168 0 381739317.95278168 -1593807982.0083008 0 0 0 0 4041656.5576627031 4240747.7371133026 0 4240747.7371133026 7650307.9799025133 0 0 0 0 3650729.1821118998 825824.30980115756 0 825824.30980115756 2105077.3649437577 0 0 0 0 -441821484.66836071 -372717121.67142105 0 -372717121.67142105 3283207519.3669891 0 0 0 0 3752176365.1523552 2441100211.690506 0 2441100211.690506 -3044673492.4627533 0 0 0 0 1224508171.4871674 1499256060.3839874 0 1499256060.3839874 2769545970.3032532 0 0 0 0 1540211687.811676 1335961522.443573 0 1335961522.443573 2143157638.8443604 0 0 0 0 1701866866.3288765 -2389602114.8781967 0 -2389602114.8781967 445699480.52254868 0 0 0 0 3687014133.5569544 447713960.90402985 0 447713960.90402985 323848024.24417114 0 0 0 0 852588172.51399994 -217950440.01455688 0 -217950440.01455688 203757563.81169319 0 0 0 0 1391720387.8676052 196792066.13230515 0 196792066.13230515 -24747359.507781982 0 0 0 0 1052723491.8288441 -371536262.42707825 0 -371536262.42707825 -23384022.647460938 0 0 0 0 -106981817.94781446 103071164.17050171 0 103071164.17050171 869013673.52340698 0 0 0 0 120808355.95505524 -340585750.27111816 0 -340585750.27111816 669068636.9772644 0 0 0 0 9195037.5364452712 10500839.207095902 0 10500839.207095902 20227111.568522424 0 0 0 0 -858918919.23066854 -800105008.67311215 0 -800105008.67311215 -246494574.38902473 0 0 0 0 -682523431.40120697 -655414525.58178425 0 -655414525.58178425 -465830632.81526566 0 0 0 0 -987539.37623627763 -3532002.0826372607 0 -3532002.0826372607 10925982.419905126 0 0 0 0 -407784748.3863911 -309270432.3471725 0 -309270432.3471725 -32457656.703842163 0 0 0 0 -405306100.69275665 -55823524.301929474 0 -55823524.301929474 102687.14821624756 0 0 0 0 -597255250.67137146 -562825503.81034327 0 -562825503.81034327 -866552460.30156231 0 0 0 0 -187470609.81784821 -109204478.58326912 0 -109204478.58326912 58982655.81716156 0 0 0 0 -266575138.87833405 -146806789.120121 0 -146806789.120121 1332103.9436950684 0 0 0 0 -69465194.952495575 -65612041.171604156 0 -65612041.171604156 -16902954.677864075 0 0 0 0 -139804853.78368092 27872260.57756424 0 27872260.57756424 136257964.99890137 0 0 0 0 -69775669.097896576 -17971009.694875717 0 -17971009.694875717 10817357.782665253 0 0 0 0 -41146127.55676651 199451155.26284337 0 199451155.26284337 122919712.29445648 0 0 0 0 -58514865.753363609 67592934.741010666 0 67592934.741010666 -25666721.74348259 0 0 0 0 -169205286.7830286 46603913.205814362 0 46603913.205814362 -4227193.1888122559 0 0 0 0 -289087560.228302 -49170245.277389526 0 -49170245.277389526 17144216.260481834 0 0 0 0 -242579029.93251228 -126663779.52783775 0 -126663779.52783775 -199635372.61532593 0 0 0 0 -272536979.94494057 -120233941.50088882 0 -120233941.50088882 -111443296.19976425 0 0 0 0 -508071112.44835854 -201377507.68956184 0 -201377507.68956184 -22733536.668426514 0 0 0 0 -236778196.39795744 85665033.759052515 0 85665033.759052515 35409340.917446136 0 0 0 0 -313554193.20114899 -20158091.361633301 0 -20158091.361633301 -19946965.466547012 0 0 0 0 -191178490.06958961 -170427652.60985547 0 -170427652.60985547 215855991.6917643 0 0 0 0 -705822509.40502167 3066426.044445008 0 3066426.044445008 770311566.35328591 0 0 0 0 -1426574.7826479757 -5879099.8222897043 0 -5879099.8222897043 17017474.512955196 0 0 0 0 -268776951.97567558 -36735478.055185318 0 -36735478.055185318 -164452929.27216339 0 0 0 0 -930048764.0477562 -175756089.99925768 0 -175756089.99925768 -485960619.12091351 0 0 0 0 348735588.460495 29330321.437424183 0 29330321.437424183 -958072553.350034 0 0 0 0 55974.682617526501 -270570.76939150831 0 -270570.76939150831 250662.74420730272 0 0 0 0 -105464480.30840302 711579588.19978642 0 711579588.19978642 446252873.19703007 0 0 0 0 506223480.68469238 550025139.58178711 0 550025139.58178711 999061183.63672757 0 0 0 0 -67727392.032371521 98335359.415805817 0 98335359.415805817 765309436.65894842 0 0 0 0 137077073.99659348 -92111732.361564517 0 -92111732.361564517 367796862.37529421 0 0 0 0 -87093591.313762665 267920102.08253509 0 267920102.08253509 739274412.12549412 0 0 0 0 -3813948.7027961966 1843883.3445343412 0 1843883.3445343412 523093.62224259134 0 0 0 0 116821445.24706268 43580568.608739376 0 43580568.608739376 222289235.19125414 0 0 0 0 -29908237.871505737 32505342.891544461 0 32505342.891544461 646232609.30588818 0 0 0 0 12364280.763059616 15284479.634882778 0 15284479.634882778 360405769.00562787 0 0 0 0 26723945.058074951 99614113.842459917 0 99614113.842459917 425285474.99326748 0 0 0 0 6966425.0423278809 11910384.726733923 0 11910384.726733923 457587125.70910311 0 0 0 0 2496930.3475952148 30070169.387972116 0 30070169.387972116 178398504.11372638 0 0 0 0 39868476.6277771 113659958.04687327 0 113659958.04687327 176002070.18241942 0 0 0 0 26939206.777587891 90753023.996627331 0 90753023.996627331 333391186.04155767 0 0 0 0 -5113890.7890472412 351046201.83651352 0 351046201.83651352 572093852.21084356 0 0 0 0 38893439.9503479 24918316.041346192 0 24918316.041346192 646638462.39633405 0 0 0 0 -177952342.59700394 32334145.130295545 0 32334145.130295545 298102274.66485184 0 0 0 0 -58271819.615966797 185352430.25823489 0 185352430.25823489 367977058.4092086 0 0 0 0 72583699.602035522 46702327.071259379 0 46702327.071259379 -42416209.84147054 0 0 0 0 10909440.518157959 240876803.65571815 0 240876803.65571815 85896291.72551769 0 0 0 0 162632840.23250198 310917596.57013482 0 310917596.57013482 299099112.77675164 0 0 0 0 146763553.31119943 -7366078.7358877715 0 -7366078.7358877715 293721045.13661331 0 0 0 0 -13407723.49596405 -4755293.6238822937 0 -4755293.6238822937 4278689.1760368347 0 0 0 0 -3316156.6996612549 23877656.65580678 0 23877656.65580678 -21514882.558555603 0 0 0 0 -18599925.308311462 186975.59225559235 0 186975.59225559235 17745788.60042429 0 0 0 0 -14446384.539329529 2291435.7065243721 0 2291435.7065243721 8269308.389995575 0 0 0 0 709067.52385084331 -3493263.9461336238 0 -3493263.9461336238 5296350.1318702921 0 0 0 0 -337763819.87637329 -1439004392.7237158 0 -1439004392.7237158 395068408.52297211 0 0 0 0 -1733619255.329155 477795020.77401304 0 477795020.77401304 -718520117.65149069 0 0 0 0 -881054.89579072036 -692701.70998107549 0 -692701.70998107549 3942101.6910439339 0 0 0 0 -11075381.864704132 -2209837.0028984547 0 -2209837.0028984547 -12716820.632529259 0 0 0 0 -64442353.106433868 -14035920.9205513 0 -14035920.9205513 -11581779.348413795 0 0 0 0 -16133301.975852966 38749255.753790379 0 38749255.753790379 -12978016.276615858 0 0 0 0 -46686460.045082092 29618191.666469574 0 29618191.666469574 4600153.0670938492 0 0 0 0 -57051357.368442535 35090604.815535545 0 35090604.815535545 21553774.479082108 0 0 0 0 -26576532.135452271 46178747.423126876 0 46178747.423126876 17346515.134878159 0 0 0 0 -55062811.630622864 42729512.457158089 0 42729512.457158089 46509608.959103346 0 0 0 0 -88130126.854736328 23364621.612422943 0 23364621.612422943 44604019.009965897 0 0 0 0 -57333223.86359787 31907972.233073354 0 31907972.233073354 18968283.522239685 0 0 0 0 -62904334.951553345 44281372.640458107 0 44281372.640458107 7563260.2974969503 0 0 0 0 -109399145.84563065 48529365.660603762 0 48529365.660603762 45990394.733711243 0 0 0 0 -29525104.659614563 12348115.05657196 0 12348115.05657196 36243440.450738907 0 0 0 0 -68132537.70980072 45810190.010151386 0 45810190.010151386 43241941.333955765 0 0 0 0 -36364585.34147644 24441751.903738022 0 24441751.903738022 39989881.30175972 0 0 0 0 -39524811.665157318 -2684136.0931055546 0 -2684136.0931055546 85463342.193527222 0 0 0 0 -33039362.013198853 33336845.396687031 0 33336845.396687031 58390478.799201965 0 0 0 0 -123829681.85341644 776878.45671129227 0 776878.45671129227 40913126.124160767 0 0 0 0 -69877712.875629663 278161042.35543501 0 278161042.35543501 938692743.66503143 0 0 0 0 -1040052961.4777222 -1178924493.544508 0 -1178924493.544508 1803147358.5435181 0 0 0 0 372620.68237925787 -3041935.7162371632 0 -3041935.7162371632 7567458.2344761025 0 0 0 0 1171088935.6406021 -1585066605.7999592 0 -1585066605.7999592 -2240500358.948853 0 0 0 0 385017058.07000732 -1294378080.4412584 0 -1294378080.4412584 1249165884.0950661 0 0 0 0 -220179839.18595123 -112444410.43117905 0 -112444410.43117905 1657271491.9487095 0 0 0 0 -115777262.65952682 8294215.9648952484 0 8294215.9648952484 717863204.50994587 0 0 0 0 -69062698.489189148 114187034.99003315 0 114187034.99003315 809159279.90644264 0 0 0 0 99005377.016155243 274755185.70915794 0 274755185.70915794 422436895.40369034 0 0 0 0 -88093999.187918425 85229542.279173136 0 85229542.279173136 787056076.18484497 0 0 0 0 -188454010.30141068 192655026.80346107 0 192655026.80346107 697325211.98949623 0 0 0 0 -220204931.19258118 151213767.98111343 0 151213767.98111343 1036026070.1538544 0 0 0 0 -228588306.15729856 -28854826.724474192 0 -28854826.724474192 826780781.57569504 0 0 0 0 -70114046.930919647 294636635.36716866 0 294636635.36716866 361676781.82410431 0 0 0 0 -79840629.985542297 319566729.6240387 0 319566729.6240387 291291861.80885315 0 0 0 0 -104223903.91334915 45606356.903541565 0 45606356.903541565 543889629.42204094 0 0 0 0 36015549.872783661 30214700.467763901 0 30214700.467763901 -38678084.097969055 0 0 0 0 -74147591.582489014 -23813966.954269409 0 -23813966.954269409 98426610.495285034 0 0 0 0 -10150505.841995239 250930763.46767235 0 250930763.46767235 -129377115.40563965 0 0 0 0 -75057187.717727661 -278682532.84624481 0 -278682532.84624481 -314252566.19458771 0 0 0 0 88304235.589645386 72455056.073745728 0 72455056.073745728 -373272715.65343761 0 0 0 0 96907005.432803154 133307128.87300491 0 133307128.87300491 145264572.578022 0 0 0 0 73224958.982516527 247708755.12185216 0 247708755.12185216 429634190.90010071 0 0 0 0 132471216.66100883 77080958.918546677 0 77080958.918546677 121589117.59425116 0 0 0 0 -39708463.727653503 19178902.599754333 0 19178902.599754333 332093618.00789642 0 0 0 0 21439897.563456535 202289670.75330448 0 202289670.75330448 431835691.10525513 0 0 0 0 453211026.57458973 286075089.15603447 0 286075089.15603447 421895034.16595078 0 0 0 0 -18951386.719868183 -7821522.5056996346 0 -7821522.5056996346 759602681.37338829 0 0 0 0 257920403.84519005 -63888766.638394356 0 -63888766.638394356 691348286.47424698 0 0 0 0 -86894930.561036825 120257308.16253057 0 120257308.16253057 1055532382.106123 0 0 0 0 175619480.40038872 472841004.37202263 0 472841004.37202263 891956453.33650017 0 0 0 0 74102201.401149273 231552055.01948166 0 231552055.01948166 666526747.87759972 0 0 0 0 -7378856.6376085281 269042213.09908772 0 269042213.09908772 649966034.12302971 0 0 0 0 54306119.767832756 435428381.37229156 0 435428381.37229156 937645425.665308 0 0 0 0 66804109.539730072 -121006057.94372082 0 -121006057.94372082 158748154.99091721 0 0 0 0 -587898.76045989222 1392136.4702784426 0 1392136.4702784426 1528411.457191715 0 0 0 0 111784141.23012364 340859199.75999641 0 340859199.75999641 255122476.17067719 0 0 0 0 223575199.85567021 308735814.7761116 0 308735814.7761116 215484670.10861588 0 0 0 0 169515329.46471071 357979919.75528622 0 357979919.75528622 259605430.55524063 0 0 0 0 117905635.39538288 182764915.48947525 0 182764915.48947525 530221476.22121239 0 0 0 0 106328231.01792872 325958211.65974993 0 325958211.65974993 198977342.93720627 0 0 0 0 -150489757.26816845 45792913.823665619 0 45792913.823665619 113255267.62067223 0 0 0 0 -848141.33413194469 7549892.5784209687 0 7549892.5784209687 24364738.684703127 0 0 0 0 -77986810.905193329 710810.23209142685 0 710810.23209142685 105838933.00412178 0 0 0 0 1252175.9787905216 99876898.478601456 0 99876898.478601456 486220784.23762321 0 0 0 0 3022194.2728521824 40442268.536480904 0 40442268.536480904 72117118.474665642 0 0 0 0 147220453.94490099 212771079.48017883 0 212771079.48017883 96215038.04427582 0 0 0 0 245219854.26806521 169873111.28173637 0 169873111.28173637 31291355.317972183 0 0 0 0 -479872.29255972942 7092066.6020068768 0 7092066.6020068768 23915515.359923497 0 0 0 0 86148819.974866509 176350201.76880637 0 176350201.76880637 86764498.24143219 0 0 0 0 91923704.898691356 273744411.8516798 0 273744411.8516798 68795750.863391876 0 0 0 0 304813716.20835614 322537545.60344052 0 322537545.60344052 77043622.144256592 0 0 0 0 554985301.63358831 170171552.35338211 0 170171552.35338211 -69246290.6563797 0 0 0 0 -56763.561518033952 5680561.8332712632 0 5680561.8332712632 22177814.258031033 0 0 0 0 -134140349.84327602 279704864.93883514 0 279704864.93883514 111415546.18914413 0 0 0 0 117847885.67896461 220182246.28556633 0 220182246.28556633 93214292.467819214 0 0 0 0 72277383.776814342 373083176.31673241 0 373083176.31673241 148531103.86011887 0 0 0 0 153645006.97652823 278973662.95113945 0 278973662.95113945 205382549.88913536 0 0 0 0 57398615.275087357 306399007.8090744 0 306399007.8090744 90105398.052570343 0 0 0 0 173600244.19230413 432557462.81236076 0 432557462.81236076 21259189.434677124 0 0 0 0 188695357.63826895 361234137.46873856 0 361234137.46873856 36052160.955574512 0 0 0 0 -298267666.9391098 279219959.6263237 0 279219959.6263237 77691922.885940552 0 0 0 0 66191931.061688423 313295543.93189049 0 313295543.93189049 54808613.705482483 0 0 0 0 -214568997.0642302 214551855.55131531 0 214551855.55131531 100746141.96100616 0 0 0 0 -615436841.11399269 75712470.066568375 0 75712470.066568375 97877648.192192078 0 0 0 0 115647692.16736197 464358600.8948555 0 464358600.8948555 18416571.757259369 0 0 0 0 -368150546.07840872 503393395.94106483 0 503393395.94106483 151358605.45718384 0 0 0 0 -395010440.75897694 350621769.33329391 0 350621769.33329391 118047367.98038149 0 0 0 0 345466949.31093687 906948922.11063385 0 906948922.11063385 41785105.264358521 0 0 0 0 -2119479662.0327187 435145715.30522919 0 435145715.30522919 312255035.78749466 0 0 0 0 -1036201616.9272404 -195828428.07313585 0 -195828428.07313585 71013909.414649963 0 0 0 0 -2047780446.0275159 -1077884486.2507157 0 -1077884486.2507157 -461070779.98312378 0 0 0 0 -686580018.7980299 566134970.45014763 0 566134970.45014763 213257143.35128784 0 0 0 0 734397414.9745028 57526630.954719543 0 57526630.954719543 -1015570.8806438446 0 0 0 0 615126694.4663353 517898302.55892181 0 517898302.55892181 -139174840.89936447 0 0 0 0 597699795.3893609 311915821.31217003 0 311915821.31217003 130711683.32349396 0 0 0 0 729567.00799354434 3751089.2142231241 0 3751089.2142231241 18063029.630459987 0 0 0 0 854158790.48129749 169789820.55659294 0 169789820.55659294 101153090.95214462 0 0 0 0 1473840226.0026057 4190461.20728302 0 4190461.20728302 -52598427.486465454 0 0 0 0 1424553519.0944736 1105105865.0831671 0 1105105865.0831671 881156795.40180969 0 0 0 0 140161707.21513128 263717387.27659988 0 263717387.27659988 2878377947.8925629 0 0 0 0 -576150141.33169699 101242275.02164459 0 101242275.02164459 2842730847.4097366 0 0 0 0 3401592447.0159383 2366420973.1581898 0 2366420973.1581898 2162567339.3176193 0 0 0 0 221423594.00936806 1851452205.7755241 0 1851452205.7755241 6603276424.5907478 0 0 0 0 1751763.9659240958 2226520.7063909625 0 2226520.7063909625 7663744.9731398821 0 0 0 0 -2506994170.2303114 -114054517.23112869 0 -114054517.23112869 498637389.12928772 0 0 0 0 -976954987.98503113 -833485936.98024368 0 -833485936.98024368 -326262124.17842865 0 0 0 0 -6859543.1366423341 2435870.588604603 0 2435870.588604603 13219907.626950115 0 0 0 0 -769934009.11145484 151554063.99233627 0 151554063.99233627 1742803487.6843691 0 0 0 0 -2486935723.6048203 104873560.19460797 0 104873560.19460797 30773727.158843994 0 0 0 0 -1762689.9442583607 -376566.7924480103 0 -376566.7924480103 2378565.9064161759 0 0 0 0 -628550107.50951242 398110054.18424988 0 398110054.18424988 -504348072.45265579 0 0 0 0 -613438215.54001713 226168272.91677475 0 226168272.91677475 1154853200.3481064 0 0 0 0 191369675.14334345 95868860.6014328 0 95868860.6014328 927823220.03357697 0 0 0 0 -1672146993.6173356 -502360281.55807495 0 -502360281.55807495 6606146905.3187141 0 0 0 0 -1615877540.2400043 -2816437378.6184235 0 -2816437378.6184235 3195695932.1567144 0 0 0 0 -1029480638.2552104 -464102666.83056545 0 -464102666.83056545 3101662421.5484695 0 0 0 0 -4758216.82699065 1788363.8685425073 0 1788363.8685425073 7312071.2430042047 0 0 0 0 -5641163.47798937 2587930971.1734753 0 2587930971.1734753 6608160505.4648666 0 0 0 0 -1501859725.6503944 -2987311593.3043432 0 -2987311593.3043432 1091696012.6465912 0 0 0 0 -460902679.90300745 144862337.74879646 0 144862337.74879646 1733671358.218132 0 0 0 0 -408635398.43285775 349619387.27126789 0 349619387.27126789 1702704792.7480927 0 0 0 0 -473754288.16442859 -991523999.34671974 0 -991523999.34671974 6600343664.5443192 0 0 0 0 982984237.03287125 -1340272443.9555931 0 -1340272443.9555931 910073951.27882004 0 0 0 0 -19094703.820673108 182456779.39100742 0 182456779.39100742 892305914.36642075 0 0 0 0 617529303.70531213 -499537807.9549799 0 -499537807.9549799 -150738376.68027496 0 0 0 0 -646129983.69202483 328758918.73902702 0 328758918.73902702 1705893516.8266766 0 0 0 0 -97600034.665813446 62382643.239308 0 62382643.239308 4364481.9624738693 0 0 0 0 -13753750.834569991 9429833.3153576478 0 9429833.3153576478 3345191.7425694619 0 0 0 0 -803643908.55583382 -265252781.25783253 0 -265252781.25783253 12082054.773342133 0 0 0 0 -3905859.82761335 -6845084.9259261722 0 -6845084.9259261722 22096110.803247944 0 0 0 0 27099936.658568382 -54259490.877139136 0 -54259490.877139136 -32465604.414577961 0 0 0 0 9591688.4853920937 45388678.158265054 0 45388678.158265054 -70957723.977550507 0 0 0 0 23788310.432731628 -29981143.322382584 0 -29981143.322382584 27365264.268929243 0 0 0 0 20555978.647468567 -65646332.296992183 0 -65646332.296992183 202329362.68045661 0 0 0 0 -407378775.96973515 -24679500.506139755 0 -24679500.506139755 -15003509.60446167 0 0 0 0 -472206527.29812813 -761636.46793174744 0 -761636.46793174744 36497945.14881134 0 0 0 0 -16397402.383740425 1255269.8057422191 0 1255269.8057422191 -8573412.5808279514 0 0 0 0 -221897036.9340992 -30445145.326492131 0 -30445145.326492131 47877800.798527241 0 0 0 0 -1418369.0695668682 892517.82131211087 0 892517.82131211087 166111.530086471 0 0 0 0 92090370.119491577 -57646710.831242681 0 -57646710.831242681 90202680.296677947 0 0 0 0 85977494.629127502 -43526832.740144968 0 -43526832.740144968 -47234225.78394419 0 0 0 0 -15339399.910723431 10571544.788980845 0 10571544.788980845 2578452.105585509 0 0 0 0 24572923.577884674 50719275.703835964 0 50719275.703835964 -5438113.9616166353 0 0 0 0 128745120.66676331 -3757939.7768998146 0 -3757939.7768998146 24801014.648502827 0 0 0 0 -129875953.13465929 136034425.49236774 0 136034425.49236774 -133183433.94227219 0 0 0 0 -6935553.8141225502 -4690675.7444306519 0 -4690675.7444306519 19249887.394025967 0 0 0 0 -18621825.956352472 -8036949.2898455262 0 -8036949.2898455262 17048879.903762817 0 0 0 0 -10829178.733951569 -6351631.4309718609 0 -6351631.4309718609 12421561.711970806 0 0 0 0 -20187774.884607315 -259505.14720606804 0 -259505.14720606804 22691189.631213307 0 0 0 0 -4241461.4103862187 -5686532.2555008894 0 -5686532.2555008894 14280802.163184684 0 0 0 0 -490240185.72180939 -320663229.96537209 0 -320663229.96537209 768699480.67254543 0 0 0 0 54884558.121192455 187010455.22378922 0 187010455.22378922 -144263510.37705421 0 0 0 0 488712998.38636112 -119384957.39047265 0 -119384957.39047265 -683461913.39330292 0 0 0 0 -6963459.7185462974 -1770898.2373581077 0 -1770898.2373581077 -122489.0437375484 0 0 0 0 1050965.5530322501 -873806.38958126213 0 -873806.38958126213 12119370.076999534 0 0 0 0 -1281105.6294179189 -2389030.3741149902 0 -2389030.3741149902 6605890087.1062508 0 0 0 0 -13621038.744224548 -3683170.8319704533 0 -3683170.8319704533 22716889.780770779 0 0 0 0 -7921307.8070590068 -143628.34553607076 0 -143628.34553607076 11406713.294802064 0 0 0 0 735269809.55680311 2082100212.9221401 0 2082100212.9221401 5878427817.4961958 0 0 0 0 18924201.795438595 1186300789.5037947 0 1186300789.5037947 6605144726.3900928 0 0 0 0 -7855254.5623967731 -276621.06147775194 0 -276621.06147775194 9951154.4229019247 0 0 0 0 -2639745.8258602358 543304394.45006227 0 543304394.45006227 4629048934.2155581 0 0 0 0 466861224.85092747 2341460395.0756264 0 2341460395.0756264 6613975801.28757 0 0 0 0 -761730.60661738121 -391812.23634746624 0 -391812.23634746624 6542612.2766529005 0 0 0 0 714473416.53458536 912198313.66304398 0 912198313.66304398 3652904276.6422939 0 0 0 0 -2962483.7383861542 4818541.1284651756 0 4818541.1284651756 30089136.520731449 0 0 0 0 -8558227.0811576843 2742061.9645056725 0 2742061.9645056725 32716012.812337637 0 0 0 0 -5825163.8222413063 4563793.3860545158 0 4563793.3860545158 21397415.255067348 0 0 0 0 -13126057.566041946 -5459993.5550885201 0 -5459993.5550885201 27516437.048971176 0 0 0 0 -1253403014.4757218 525154377.82502556 0 525154377.82502556 6612047898.2509079 0 0 0 0 -1217504322.0491922 -246899726.47139454 0 -246899726.47139454 5978700146.2899399 0 0 0 0 -979331591.56498814 2094263004.1186295 0 2094263004.1186295 6927096272.6715469 0 0 0 0 376311592.13370085 1968037487.5679617 0 1968037487.5679617 6651942532.05966 0 0 0 0 -376178.00798520178 -471643.93771621864 0 -471643.93771621864 3342301.9169907412 0 0 0 0 -360142488.09580255 -49492112.192150116 0 -49492112.192150116 4437874589.2628422 0 0 0 0 -66079455.481484294 1312591270.3341427 0 1312591270.3341427 4645363109.1839294 0 0 0 0 -11801260.829293251 -4669792.0079851151 0 -4669792.0079851151 43053519.941892624 0 0 0 0 -8259697.3588585816 -2268302.1256582439 0 -2268302.1256582439 11151462.438564744 0 0 0 0 537564.58822631836 -3443729.6984558105 0 -3443729.6984558105 38494569.223050833 0 0 0 0 -11160189.356659889 3581799.5770936608 0 3581799.5770936608 35694536.019179821 0 0 0 0 1133638711.4679539 -599609048.96392059 0 -599609048.96392059 2942929197.6623955 0 0 0 0 -9630861.2568102498 -4292167.5032759868 0 -4292167.5032759868 14055417.122716693 0 0 0 0 -7611957.832695961 -2724626.3004038334 0 -2724626.3004038334 24428530.553647995 0 0 0 0 -2166577.8564529419 11138367.9963727 0 11138367.9963727 7290506.880282402 0 0 0 0 -9050774.8896694183 15015902.927037239 0 15015902.927037239 28900997.551918983 0 0 0 0 -996965.28414843744 364326.11406021006 0 364326.11406021006 252989.10607427079 0 0 0 0 -11213720.05774498 2495387.0506067276 0 2495387.0506067276 4230603.6295337677 0 0 0 0 -3055250.1250354326 890232.76465046871 0 890232.76465046871 649563.17636429705 0 0 0 0 -9900777.9107198715 -4163836.4608488083 0 -4163836.4608488083 2680598.2134971619 0 0 0 0 -29609765.811788559 10801073.62487793 0 10801073.62487793 9533286.9133625031 0 0 0 0 -6563677.9766082168 -3335005.5299198348 0 -3335005.5299198348 7332995.456433502 0 0 0 0 -30729496.908501238 -55457071.816800334 0 -55457071.816800334 100301997.6931324 0 0 0 0 -8042231.6796722412 -8272877.0019664764 0 -8272877.0019664764 14426491.687589645 0 0 0 0 -9330404.9285621643 -9262532.7203044891 0 -9262532.7203044891 41402972.291340828 0 0 0 0 3278659.9760551453 -16732141.699780345 0 -16732141.699780345 8621015.410194397 0 0 0 0 -3120931.9092721939 -6086893.4652612209 0 -6086893.4652612209 1221950.2633686066 0 0 0 0 -7280944.3027801514 -2341074.0205440521 0 -2341074.0205440521 3051924.6997702122 0 0 0 0 -10188128.38395977 -8450180.7453269958 0 -8450180.7453269958 14687929.895647287 0 0 0 0 -10135715.806905746 -7840849.1792485714 0 -7840849.1792485714 8941210.1459422112 0 0 0 0 -9217246.0554230623 -2149033.2979313219 0 -2149033.2979313219 9428387.6994920783 0 0 0 0 68771368.797744751 15407875.147562206 0 15407875.147562206 -6821449.296416834 0 0 0 0 -52450891.711797714 65877619.061096616 0 65877619.061096616 291954899.10847348 0 0 0 0 -2805267.6003958508 1266748.1958737313 0 1266748.1958737313 223997.60311336361 0 0 0 0 -5669682.4550037384 31479765.0049119 0 31479765.0049119 -38667858.837572098 0 0 0 0 133317851.07938004 165096151.03575826 0 165096151.03575826 238312297.51113677 0 0 0 0 -49520525.185054779 153691215.14304745 0 153691215.14304745 610089310.02493644 0 0 0 0 -95534473.974464417 130107789.77531791 0 130107789.77531791 502058531.81965494 0 0 0 0 -69109053.357463837 185463623.01176739 0 185463623.01176739 345387317.80907953 0 0 0 0 7004399.6550827026 118149065.21965259 0 118149065.21965259 161039828.21229899 0 0 0 0 114555739.09964275 -3452098.8609406054 0 -3452098.8609406054 288064211.94101954 0 0 0 0 -69207964.241859436 81343325.919481754 0 81343325.919481754 357074818.81432915 0 0 0 0 -77885991.230628967 17933891.432298422 0 17933891.432298422 274637732.81052387 0 0 0 0 -23015030.310909271 -20962734.921152472 0 -20962734.921152472 116766065.94861794 0 0 0 0 -23235262.227050781 30181683.222434044 0 30181683.222434044 60379026.653237104 0 0 0 0 -8203294.0491771698 -5475151.7377223969 0 -5475151.7377223969 2163307.1538505554 0 0 0 0 16906269.564163208 -57969035.483322889 0 -57969035.483322889 106457809.47556555 0 0 0 0 -8465674.7551206276 -1382627.6532316324 0 -1382627.6532316324 7569241.1035169419 0 0 0 0 -4988044.0876312256 7441871.7318663001 0 7441871.7318663001 21263863.879391491 0 0 0 0 -916765.71861198545 -101539.22479551192 0 -101539.22479551192 856878.92599216639 0 0 0 0 -9543686.3873844147 -2053711.3983631134 0 -2053711.3983631134 681455.23278045654 0 0 0 0 -3534546.7945556641 -1387770.6120905876 0 -1387770.6120905876 2516184.53145504 0 0 0 0 -27576111.713240623 -24295660.556664467 0 -24295660.556664467 33672321.681962967 0 0 0 0 -3753891.6044892613 -3400381.6065960247 0 -3400381.6065960247 2420266.0744905793 0 0 0 0 -4025905.5730986288 -3953488.9171774089 0 -3953488.9171774089 3697635.5326777105 0 0 0 0 20879466.427001953 -26828215.224972248 0 -26828215.224972248 77422374.962407589 0 0 0 0 -5505676.9486014694 -2247848.7034464316 0 -2247848.7034464316 5212916.4411125807 0 0 0 0 86257754.160369873 -41376150.325194359 0 -41376150.325194359 -28961832.562479973 0 0 0 0 73822466.009340286 -130062568.39706063 0 -130062568.39706063 20615516.429203033 0 0 0 0 95478318.100193024 -65962738.020567894 0 -65962738.020567894 43776718.084042549 0 0 0 0 141617618.48385048 -89990363.790584803 0 -89990363.790584803 19170593.260953903 0 0 0 0 -1328284.9530420583 -1249348.528908086 0 -1249348.528908086 1468751.3596916604 0 0 0 0 123913429.79867935 -54272294.284728527 0 -54272294.284728527 -8726284.7363243103 0 0 0 0 -2535309.9397135209 -1658826.071547756 0 -1658826.071547756 4209457.666734986 0 0 0 0 222750094.16060352 293023642.76905513 0 293023642.76905513 117027804.04292011 0 0 0 0 47444386.62714386 22592876.517008305 0 22592876.517008305 97475801.017269135 0 0 0 0 172072393.95328522 143151620.62558126 0 143151620.62558126 210644102.56383896 0 0 0 0 34010366.151329041 86195928.211173296 0 86195928.211173296 237759421.6516428 0 0 0 0 -84024845.555870056 236926149.40596437 0 236926149.40596437 205888874.89860487 0 0 0 0 615896982.42103195 343190885.14428651 0 343190885.14428651 204833543.50231075 0 0 0 0 24312058.919765472 398720704.02154589 0 398720704.02154589 121683306.14805317 0 0 0 0 213668938.87238693 -210912663.46389818 0 -210912663.46389818 -201445842.82622695 0 0 0 0 -133830298.57258606 349170905.44215465 0 349170905.44215465 310991016.73848915 0 0 0 0 -642875.75474516023 -540471.17008833122 0 -540471.17008833122 1232295.908429767 0 0 0 0 574170974.70517731 -70664298.413862228 0 -70664298.413862228 -41678337.604619026 0 0 0 0 236768856.00904152 -162148773.38294601 0 -162148773.38294601 -15060216.649343491 0 0 0 0 235931002.10642242 -20177917.373534203 0 -20177917.373534203 -93831.747288703918 0 0 0 0 174393640.31406021 271216681.13796282 0 271216681.13796282 689741369.42587042 0 0 0 0 337649169.36600113 -305075587.30095291 0 -305075587.30095291 150253131.98469925 0 0 0 0 -79587179.408294678 -17846650.776138306 0 -17846650.776138306 434255279.10706615 0 0 0 0 121314275.32323074 -145093466.94590235 0 -145093466.94590235 822960013.11181402 0 0 0 0 73334908.263225555 16133066.797059059 0 16133066.797059059 353251423.99588251 0 0 0 0 -85509852.244544983 -10136757.143442154 0 -10136757.143442154 364745477.59505892 0 0 0 0 -94059386.33106041 115379539.70840555 0 115379539.70840555 233055719.70905876 0 0 0 0 -68270658.552902222 81111748.428830624 0 81111748.428830624 175245349.49996567 0 0 0 0 -81486191.012504578 138337911.67046738 0 138337911.67046738 116664765.21424007 0 0 0 0 -57398970.682189941 20655554.324872971 0 20655554.324872971 186197212.42470074 0 0 0 0 -81321957.787841797 39037725.795036316 0 39037725.795036316 227152793.67511177 0 0 0 0 -65668840.464744568 63183320.877911568 0 63183320.877911568 132220411.3279624 0 0 0 0 -30718462.107902527 -22114547.701415062 0 -22114547.701415062 197643405.1631546 0 0 0 0 -41670554.163566589 23552540.134106636 0 23552540.134106636 111135738.87726974 0 0 0 0 -24704732.242948532 9357699.3186842203 0 9357699.3186842203 89809241.450517654 0 0 0 0 -20690942.977722168 54483304.706307411 0 54483304.706307411 55172549.791809082 0 0 0 0 -27581931.659440041 40835333.308007836 0 40835333.308007836 44730871.284475327 0 0 0 0 -22232296.742446899 67364984.021606445 0 67364984.021606445 61360315.614693165 0 0 0 0 -21408482.751842618 31860308.131620184 0 31860308.131620184 77080524.94899559 0 0 0 0 -9249607.9273414612 87583291.195780039 0 87583291.195780039 -64663022.209035873 0 0 0 0 -10433434.67842865 69255974.609118462 0 69255974.609118462 -5442890.0636577606 0 0 0 0 -15960878.583607197 39397120.63256532 0 39397120.63256532 -17325105.467179298 0 0 0 0 -16706045.750389099 45349258.928521156 0 45349258.928521156 -25643943.081339836 0 0 0 0 -32273350.268419266 16595714.603363514 0 16595714.603363514 -45683518.028921127 0 0 0 0 77583930.513824463 34730192.131725788 0 34730192.131725788 -401007964.99119949 0 0 0 0 -1145104.9952559453 312836.46736996248 0 312836.46736996248 180964.00554976531 0 0 0 0 -15255757.514671326 347568668.72465277 0 347568668.72465277 -151070315.9197979 0 0 0 0 -53082722.236192703 -43100218.206809044 0 -43100218.206809044 14650106.603467941 0 0 0 0 -106255008.3882246 -17093113.579070568 0 -17093113.579070568 66072243.109294891 0 0 0 0 -77162500.671278 -55390068.696796894 0 -55390068.696796894 68878012.218571693 0 0 0 0 -150269794.85493088 -81377062.19524765 0 -81377062.19524765 67401377.672652513 0 0 0 0 -44890617.034344435 -149378735.6400035 0 -149378735.6400035 95658264.239384651 0 0 0 0 -551465.46322897356 -1057416.2257484449 0 -1057416.2257484449 2071754.9559209999 0 0 0 0 -109304490.27548218 -25395163.444417477 0 -25395163.444417477 20811923.490801811 0 0 0 0 -16781048.570274353 -37048475.667011261 0 -37048475.667011261 2455883.7013034821 0 0 0 0 104098237.03458214 31727228.762629032 0 31727228.762629032 -124848394.521348 0 0 0 0 -440448042.26933098 -35599457.152462482 0 -35599457.152462482 297914764.64051962 0 0 0 0 32049878.776459098 -41246161.100743204 0 -41246161.100743204 -41021897.938137054 0 0 0 0 25605733.185810089 -123685642.05290699 0 -123685642.05290699 106581550.77524567 0 0 0 0 -576329.30971785355 -1269688.7175181499 0 -1269688.7175181499 1732723.0523137869 0 0 0 0 -159970225.1706984 851535.68055415154 0 851535.68055415154 41692174.048411369 0 0 0 0 68847540.519107819 -161167334.69523811 0 -161167334.69523811 -33728204.059446692 0 0 0 0 -72471564.538208008 -116499097.41250181 0 -116499097.41250181 42897389.64563942 0 0 0 0 72681715.513542175 -130596811.64317989 0 -130596811.64317989 8555199.4755125046 0 0 0 0 82446926.43838501 -95107462.174293518 0 -95107462.174293518 38272516.533793926 0 0 0 0 64257433.853364944 -130901663.29694319 0 -130901663.29694319 37217840.206472397 0 0 0 0 -285869.09391758498 -718096.00770296995 0 -718096.00770296995 708150.95825068839 0 0 0 0 242087145.84819221 -202761159.23122549 0 -202761159.23122549 86861600.354013443 0 0 0 0 -156153900.3637619 71580163.92727375 0 71580163.92727375 44413561.53133297 0 0 0 0 -112597152.30486298 11872189.13699913 0 11872189.13699913 11485539.899639606 0 0 0 0 -7218096.401662942 -6717641.5832012314 0 -6717641.5832012314 11132764.844677262 0 0 0 0 -114372280.52458858 11006909.605877161 0 11006909.605877161 42105626.26379776 0 0 0 0 -148503397.93112183 -458108.2461771965 0 -458108.2461771965 39112875.07837677 0 0 0 0 -5566731.8004283905 48726496.907114983 0 48726496.907114983 98052609.35865593 0 0 0 0 -4048699.2918613125 3546241.6336108297 0 3546241.6336108297 9443712.226806622 0 0 0 0 -152902305.63884354 11132302.911622286 0 11132302.911622286 168598125.46030998 0 0 0 0 -25693711.171955109 -110714377.06393623 0 -110714377.06393623 138308951.03228211 0 0 0 0 -12082234.540221455 -6986088.749757519 0 -6986088.749757519 18440796.349504322 0 0 0 0 -78119857.231266975 -46873832.280864716 0 -46873832.280864716 65405649.051717758 0 0 0 0 -20335657.474575043 13256520.785118103 0 13256520.785118103 77940470.977450371 0 0 0 0 10118253.744491577 -46931010.383992195 0 -46931010.383992195 23720304.49256897 0 0 0 0 110675.21500015259 -111366860.6995182 0 -111366860.6995182 249373698.66114712 0 0 0 0 73760373.372390747 39042387.915056229 0 39042387.915056229 45075820.025497437 0 0 0 0 916332.32527899742 -43410717.875532255 0 -43410717.875532255 -33929305.495088577 0 0 0 0 -11401541.609457545 -2069352.0157546503 0 -2069352.0157546503 14861655.663584212 0 0 0 0 -3977731.4039115906 76050058.078683853 0 76050058.078683853 1014937.4160141945 0 0 0 0 603401145.99101698 -1808135089.4393654 0 -1808135089.4393654 3896812858.1117496 0 0 0 0 1247393451.2353773 -668327624.40688705 0 -668327624.40688705 -681113251.61590576 0 0 0 0 -18118787.884609651 -6442775.333417818 0 -6442775.333417818 18298205.809129126 0 0 0 0 -4220411.6349963918 3359354.8743626885 0 3359354.8743626885 12668241.694777941 0 0 0 0 2177518248.7290411 857270400.64293575 0 857270400.64293575 8222725943.2539787 0 0 0 0 1720950000.0432231 994034832.22315216 0 994034832.22315216 400578828.56454849 0 0 0 0 561118405.87179935 -1988672583.6450729 0 -1988672583.6450729 6534644557.6294174 0 0 0 0 36089166.05288741 -1186471800.3108978 0 -1186471800.3108978 6616902986.7936707 0 0 0 0 -838997639.10832214 -73273013.934890747 0 -73273013.934890747 5428725332.557003 0 0 0 0 -901202114.20431268 617730410.14076996 0 617730410.14076996 4340111405.1180191 0 0 0 0 297111167.67850864 978170627.06629181 0 978170627.06629181 882617367.63771439 0 0 0 0 -500150518.49443394 826524694.5402298 0 826524694.5402298 2518885186.9331055 0 0 0 0 3046969039.4600744 838754639.81320953 0 838754639.81320953 6616188712.1760254 0 0 0 0 -1182018991.4310548 2378111285.1970558 0 2378111285.1970558 7025307333.0481148 0 0 0 0 1746805143.2627046 3350648378.7722588 0 3350648378.7722588 3645918938.4807205 0 0 0 0 -1069387391.4723736 1326533369.9726791 0 1326533369.9726791 4204890703.6677475 0 0 0 0 -1221099525.0447607 989396963.61444664 0 989396963.61444664 6613456378.9833031 0 0 0 0 -670559996.67834008 75731812.686294556 0 75731812.686294556 4891965523.7514496 0 0 0 0 -750780945.34018636 1028521020.5363111 0 1028521020.5363111 4378040132.0553131 0 0 0 0 363532440.24236327 -644326334.37853622 0 -644326334.37853622 1029076467.0869865 0 0 0 0 686887258.23855138 824645473.74683762 0 824645473.74683762 774667574.84928131 0 0 0 0 -442377.03843491955 1258824.6826463193 0 1258824.6826463193 6080378.2109955661 0 0 0 0 381413630.57843637 -1197552632.4015617 0 -1197552632.4015617 4998009529.7356205 0 0 0 0 -489816666.67837536 522142246.42921638 0 522142246.42921638 5757385142.5189819 0 0 0 0 -239989319.17656761 -1283511622.115509 0 -1283511622.115509 5639040806.7684174 0 0 0 0 521970457.1851874 -418432557.36139679 0 -418432557.36139679 6613139171.4574966 0 0 0 0 -872482928.60997581 -1296081857.4787598 0 -1296081857.4787598 5670791747.1301613 0 0 0 0 -1075451018.3419766 -1245224536.8848686 0 -1245224536.8848686 6615375900.2035904 0 0 0 0 -868701750.52194548 -385764928.30871129 0 -385764928.30871129 4784551412.4021301 0 0 0 0 -721148.01331287576 -235369.03069481626 0 -235369.03069481626 5288466.2356450092 0 0 0 0 -99510218.266825438 -59683945.253425598 0 -59683945.253425598 1465269.5385894775 0 0 0 0 -278513469.80730212 -838485669.26186371 0 -838485669.26186371 1774890695.0719604 0 0 0 0 -42471201.957520247 -761776827.17039108 0 -761776827.17039108 921689677.95019531 0 0 0 0 -291806967.72753763 52920593.2188797 0 52920593.2188797 106606605.78945923 0 0 0 0 -789359505.55164409 833552352.15910339 0 833552352.15910339 4468457480.6566467 0 0 0 0 -684890.25376705558 12515163.010596041 0 12515163.010596041 26588634.64219135 0 0 0 0 -102223187.43540573 -379005694.50292587 0 -379005694.50292587 -17089286.827537537 0 0 0 0 330893833.61053133 -249841011.61765289 0 -249841011.61765289 -666557725.02568817 0 0 0 0 -44892104.131159306 325624343.69068909 0 325624343.69068909 1587817743.7565479 0 0 0 0 978368315.64906859 367735238.99464417 0 367735238.99464417 -266067899.67648315 0 0 0 0 -505489701.68637848 297906369.24320221 0 297906369.24320221 -121604933.59543324 0 0 0 0 -329136.89190234593 390495.47592088208 0 390495.47592088208 2017501.3740453525 0 0 0 0 139301366.25225973 169752976.14816284 0 169752976.14816284 -233755499.79125977 0 0 0 0 -184058902.24509239 632646727.66190338 0 632646727.66190338 57242661.006969452 0 0 0 0 -2167517.3056319244 11261695.318103533 0 11261695.318103533 22751490.496042456 0 0 0 0 101425453.85486698 -15271259.426864624 0 -15271259.426864624 -98337930.11605835 0 0 0 0 -65456709.750915527 62119215.177513123 0 62119215.177513123 73610324.765396118 0 0 0 0 15762715.690383673 76798863.483531952 0 76798863.483531952 72496613.605194092 0 0 0 0 44039649.800309181 6568608.2721481323 0 6568608.2721481323 -14832364.333694458 0 0 0 0 1653246.577597488 423440.1708882302 0 423440.1708882302 -2585188.1036187857 0 0 0 0 -30277631.9373703 39931311.683609009 0 39931311.683609009 105128556.3210144 0 0 0 0 -31603068.926781416 45574759.115070343 0 45574759.115070343 88987595.01260376 0 0 0 0 -24329455.453219414 42905437.10786438 0 42905437.10786438 68118696.447559357 0 0 0 0 -51336173.689118385 25251747.725204468 0 25251747.725204468 69636531.600974083 0 0 0 0 -3725030.0712833405 38038525.944675446 0 38038525.944675446 41448410.646447182 0 0 0 0 -26062666.220234394 8040343.4522857666 0 8040343.4522857666 74577147.641983032 0 0 0 0 -8830590.5824239776 14360889.224089533 0 14360889.224089533 56370692.610134564 0 0 0 0 -28148336.678575516 10856459.698417664 0 10856459.698417664 82676832.923136711 0 0 0 0 -9165495.3334494997 -4248741.3125804532 0 -4248741.3125804532 24149450.482523914 0 0 0 0 -19431954.137164116 11309339.704674006 0 11309339.704674006 81496424.664880753 0 0 0 0 -8146828.1137757581 16842245.055219963 0 16842245.055219963 53698819.852065317 0 0 0 0 -4010173.3909795107 13325261.029859189 0 13325261.029859189 30841623.956410192 0 0 0 0 -12914116.189498901 39351501.379852295 0 39351501.379852295 23945393.589279175 0 0 0 0 -1992974.4070147763 -1097787.6214645952 0 -1097787.6214645952 1652724.4080344797 0 0 0 0 1203195479.9594891 420221039.871521 0 420221039.871521 -175552791.79846191 0 0 0 0 -290809763.3222332 -278593801.62876892 0 -278593801.62876892 369520715.36987495 0 0 0 0 1847502756.283335 903278539.91253293 0 903278539.91253293 94628397.868591309 0 0 0 0 4175874.9204826429 2556076.5290568396 0 2556076.5290568396 2117187.2262109667 0 0 0 0 182520764.28657198 48162347.288352966 0 48162347.288352966 -7516291.3660888672 0 0 0 0 -144277960.43516704 -18839796.120834351 0 -18839796.120834351 6586232148.5568638 0 0 0 0 -347959492.05690765 -120538675.71621704 0 -120538675.71621704 -27082982.621734619 0 0 0 0 -315354700.76669312 -101845263.69397736 0 -101845263.69397736 -22065869.641876221 0 0 0 0 -342880818.5650897 -126111601.00656128 0 -126111601.00656128 -24930434.332244873 0 0 0 0 5314808.4299476268 7704592.732341215 0 7704592.732341215 7800687.8210268393 0 0 0 0 -1650796.5711197853 6955066.9686203003 0 6955066.9686203003 129901.49673461914 0 0 0 0 -1646087.3281223774 7185597.0207977295 0 7185597.0207977295 8194385.4209384918 0 0 0 0 1394712597.441828 -3693427675.8849068 0 -3693427675.8849068 6609122491.4996643 0 0 0 0 -949199.27427095245 1463910.6122387573 0 1463910.6122387573 4435592.6628377959 0 0 0 0 158268773.66680202 -1772283658.9568901 0 -1772283658.9568901 3874758843.8384247 0 0 0 0 -169096421.59008592 -1868801076.8437958 0 -1868801076.8437958 5616067538.8895264 0 0 0 0 243678300.59793788 -955845897.76364899 0 -955845897.76364899 3902519200.9477839 0 0 0 0 241278695.89834952 -932290101.33313751 0 -932290101.33313751 3746296484.7205734 0 0 0 0 2774411.2037999071 5037890.8730166592 0 5037890.8730166592 3699404.6514750719 0 0 0 0 -312248.83721351041 5367305.6945834905 0 5367305.6945834905 15962975.235790312 0 0 0 0 -310209.14539246133 8782735.0743741468 0 8782735.0743741468 10145556.394251168 0 0 0 0 13392662.922902644 29513811.444335938 0 29513811.444335938 11980454.829879761 0 0 0 0 -5627688.4881689548 3347749.4937896729 0 3347749.4937896729 44125917.224121094 0 0 0 0 4970078.9599833488 -2186471.1195831299 0 -2186471.1195831299 40009507.201805115 0 0 0 0 -529633.10153460503 788951.98874664307 0 788951.98874664307 9828989.0312347412 0 0 0 0 -225410.53345053556 4851445.0117702708 0 4851445.0117702708 11847426.687745765 0 0 0 0 1250729.8117195279 -1826186.5804891735 0 -1826186.5804891735 11632810.392787751 0 0 0 0 7310750.0153076649 1114458.4662857056 0 1114458.4662857056 52945210.582832336 0 0 0 0 3430929.4017555793 -3560576.0461117439 0 -3560576.0461117439 6599125.5766751487 0 0 0 0 52500545.612116337 -19271706.912986755 0 -19271706.912986755 -34829948.189710617 0 0 0 0 -1996056.7873870134 13421983.996170044 0 13421983.996170044 80155081.387695312 0 0 0 0 170808.71615970135 10175269.981277466 0 10175269.981277466 73996489.548309326 0 0 0 0 531829.59678161144 10174031.599639893 0 10174031.599639893 77777025.379760742 0 0 0 0 5127113.8044277318 17009869.939953744 0 17009869.939953744 69650237.548492432 0 0 0 0 1592053.1016714573 4736373.5773010254 0 4736373.5773010254 75923885.177330017 0 0 0 0 1218106.1149947906 375630.25336228684 0 375630.25336228684 -2405236.7821593583 0 0 0 0 10751041.537187219 3121501.5134887695 0 3121501.5134887695 -10060934.493896484 0 0 0 0 -10808483.975867337 1473606.4935712442 0 1473606.4935712442 20230943.647417858 0 0 0 0 323253027.70227051 110413490.59960938 0 110413490.59960938 46450867.361572266 0 0 0 0 10498047.73636508 18988156.375030518 0 18988156.375030518 74573503.854400635 0 0 0 0 -1389607.6402281448 -260432.26850491017 0 -260432.26850491017 6878821.3328023367 0 0 0 0 -4692177.6627606153 -6801648.8834991455 0 -6801648.8834991455 37905573.13079071 0 0 0 0 -5898805.0015376806 16390666.940483093 0 16390666.940483093 94800033.202514648 0 0 0 0 -9487160.13005054 4038511.5101623535 0 4038511.5101623535 97132630.255371094 0 0 0 0 -7177848.8623188464 80279.014931067824 0 80279.014931067824 6386762.4814243373 0 0 0 0 -5161244.9042162895 -7396523.9124908447 0 -7396523.9124908447 76122479.607055664 0 0 0 0 -7925197.7663573027 -4575959.7039604187 0 -4575959.7039604187 92488126.729812622 0 0 0 0 5234888.3817767678 -4603867.6956024319 0 -4603867.6956024319 4516223.972570058 0 0 0 0 32860412.615117669 9745956.9080162048 0 9745956.9080162048 49523850.988014221 0 0 0 0 -8604926.0139302015 8570385.4899549484 0 8570385.4899549484 44842377.138595581 0 0 0 0 -43821491.158866167 11468097.09457016 0 11468097.09457016 247037439.35281372 0 0 0 0 -59323334.677955627 43836329.229370117 0 43836329.229370117 235025607.8678894 0 0 0 0 -73367527.05414772 48041550.567886353 0 48041550.567886353 221013052.41030884 0 0 0 0 -16618268.27737236 2445138.5205154419 0 2445138.5205154419 42782682.279449463 0 0 0 0 -40392000.935912371 -21940886.480705261 0 -21940886.480705261 258893493.70362854 0 0 0 0 -8936290.3292603493 69492270.84438324 0 69492270.84438324 223032999.58495331 0 0 0 0 7181094.2966561317 56288211.989505768 0 56288211.989505768 230143050.21075439 0 0 0 0 68722382.537251472 226624041.82955933 0 226624041.82955933 432882467.43108559 0 0 0 0 -6904514.2535424232 -94671583.541847229 0 -94671583.541847229 362932143.48299408 0 0 0 0 151208823.16663647 99056741.410015106 0 99056741.410015106 -6799005.4433555603 0 0 0 0 1031873.3653951052 -704434.43347293884 0 -704434.43347293884 -1547285.0210241228 0 0 0 0 89433486.49527514 -111049743.39345551 0 -111049743.39345551 41044419.828826904 0 0 0 0 59712315.856504202 -46592635.157369614 0 -46592635.157369614 -32474943.023162842 0 0 0 0 6648338.4261043072 -13825117.374889374 0 -13825117.374889374 30009474.549423218 0 0 0 0 28329362.642235279 -5856690.2523117065 0 -5856690.2523117065 -16461793.269897461 0 0 0 0 -7832942.8779684333 -8441767.3150189929 0 -8441767.3150189929 18004544.406454191 0 0 0 0 -5617049.8196687698 -7845797.9949302673 0 -7845797.9949302673 10450078.768106461 0 0 0 0 -4266225.1505231857 -5510409.4621276855 0 -5510409.4621276855 5977896.9645462036 0 0 0 0 18245440.772774458 -6100723.6270828247 0 -6100723.6270828247 -45334347.962272644 0 0 0 0 -22643911.068936348 -999191.96983337402 0 -999191.96983337402 -15616657.581985474 0 0 0 0 -8151060.4024781231 -9839995.5858505033 0 -9839995.5858505033 13838967.523037888 0 0 0 0 -10203536.959565282 -12237698.69248867 0 -12237698.69248867 9244519.0360412598 0 0 0 0 -12567013.081085205 5569505.7087364197 0 5569505.7087364197 -22400868.554107666 0 0 0 0 -11380595.007303238 -8014989.6337814331 0 -8014989.6337814331 23411214.833862305 0 0 0 0 -14537847.87663269 -4561930.7679748535 0 -4561930.7679748535 -11973399.619430542 0 0 0 0 -37108197.481789589 -3744286.8374938965 0 -3744286.8374938965 -11432022.607639313 0 0 0 0 -23092104.224686623 11435362.419029236 0 11435362.419029236 -5604574.7336273193 0 0 0 0 18725176.573346615 47648850.636501312 0 47648850.636501312 224724906.20079041 0 0 0 0 -19426238.852493286 -21893811.355079651 0 -21893811.355079651 -18032961.914489746 0 0 0 0 1717617.3894386292 78063093.016075134 0 78063093.016075134 237322765.89666939 0 0 0 0 2364772.1253923792 -2650791.8026502728 0 -2650791.8026502728 -4804156.9132612869 0 0 0 0 -2788910.1762076779 -1358139.554951448 0 -1358139.554951448 17718645.952329051 0 0 0 0 -7998513.2369121704 -7834747.9643251849 0 -7834747.9643251849 16477556.204180181 0 0 0 0 -9167788.8095240593 -10977550.923498154 0 -10977550.923498154 -20240167.629714966 0 0 0 0 -8448886.6036338806 -8164026.8450775146 0 -8164026.8450775146 45153006.34262085 0 0 0 0 3582307.6312427521 -1096895.8963661194 0 -1096895.8963661194 -8432053.6913604736 0 0 0 0 11835.49885212956 -1378305.3083969727 0 -1378305.3083969727 -327196.22472903132 0 0 0 0 -93011.556273290422 -439992.97101592273 0 -439992.97101592273 209146.29815040901 0 0 0 0 -1524540.5203204155 -2280418.4139099121 0 -2280418.4139099121 3087511.0799312592 0 0 0 0 -615249.5677728653 108036.67315864563 0 108036.67315864563 1230574.4496917725 0 0 0 0 -399562.16989416163 -485067.40090148523 0 -485067.40090148523 1367100.7575676963 0 0 0 0 -30209569.063739777 2137137.0975494385 0 2137137.0975494385 231156083.65637207 0 0 0 0 -2353719.601687246 -3282323.8959557936 0 -3282323.8959557936 5584196.1840503812 0 0 0 0 -9875077.7715511322 15835097.24445343 0 15835097.24445343 195686290.61036682 0 0 0 0 -51337488.948143959 48986841.444351196 0 48986841.444351196 -26356000.003240585 0 0 0 0 -26619482.621122837 -7533424.7348022461 0 -7533424.7348022461 85583305.331115723 0 0 0 0 4882178.6760401726 -102086591.3348999 0 -102086591.3348999 -44176183.324244499 0 0 0 0 -976725.80840301514 -51367865.028139114 0 -51367865.028139114 36147787.967180252 0 0 0 0 -108026236.18334246 3799443.0877304077 0 3799443.0877304077 77162666.383865356 0 0 0 0 -54627054.885966301 1106895.7533493042 0 1106895.7533493042 72899302.689289093 0 0 0 0 -4871880.9371068655 -12259537.643345878 0 -12259537.643345878 44594386.987276025 0 0 0 0 -19968187.643418312 19478605.317733765 0 19478605.317733765 63703561.50440979 0 0 0 0 -80661194.645250916 36822473.04757309 0 36822473.04757309 100910241.47843933 0 0 0 0 -23171505.063363075 5192291.614364624 0 5192291.614364624 160507506.32908249 0 0 0 0 -1895775.8758642375 79490066.114814758 0 79490066.114814758 139764609.18353271 0 0 0 0 -20348838.921465643 23996781.532548428 0 23996781.532548428 115473219.57513428 0 0 0 0 38956095.929562211 98702037.100036621 0 98702037.100036621 68924368.719854355 0 0 0 0 43455864.6500853 165166723.2888031 0 165166723.2888031 237756518.78259277 0 0 0 0 -49603934.681447446 5242316.5362319946 0 5242316.5362319946 425838378.75517273 0 0 0 0 20469365.155186176 -158811247.29016113 0 -158811247.29016113 243277189.62853241 0 0 0 0 -48591667.616394363 -9297818.1579642296 0 -9297818.1579642296 155636380.03125 0 0 0 0 -12503211.69738698 -12286262.253860474 0 -12286262.253860474 50885102.530197144 0 0 0 0 -6632210.875658989 -36170479.807678223 0 -36170479.807678223 110522186.69437885 0 0 0 0 -25322902.706367016 -41257169.300109863 0 -41257169.300109863 197088878.52784729 0 0 0 0 -38871248.401404619 -109734779.83093262 0 -109734779.83093262 204462476.54919434 0 0 0 0 -34454475.254558086 -118077625.66416931 0 -118077625.66416931 220140862.72068787 0 0 0 0 11737200.3157897 -135316332.66784668 0 -135316332.66784668 111964144.39105988 0 0 0 0 1183666.5833503297 -2271189.0882721543 0 -2271189.0882721543 -5906562.4084413126 0 0 0 0 -49365630.171001852 -7596311.0464668274 0 -7596311.0464668274 89942249.535217285 0 0 0 0 -42757470.673557997 -44646307.979724884 0 -44646307.979724884 220551272.12550354 0 0 0 0 -202395097.81919003 122038209.33070374 0 122038209.33070374 -265058805.25933838 0 0 0 0 174094.5938436985 -52190314.939682007 0 -52190314.939682007 82508405.469772339 0 0 0 0 -10335865.937020659 -59618209.902603149 0 -59618209.902603149 79597329.582778931 0 0 0 0 -8109861.6456667185 -107376231.90977478 0 -107376231.90977478 175737667.69366455 0 0 0 0 5008764.6086266041 -21701021.262123108 0 -21701021.262123108 -30610911.813064575 0 0 0 0 43783402.237816811 -26828583.381484985 0 -26828583.381484985 -10166064.57194519 0 0 0 0 -21583318.607591629 -17169524.914474487 0 -17169524.914474487 -10403059.272874832 0 0 0 0 4736220.6452695243 -7244385.4217110053 0 -7244385.4217110053 -20232609.034220308 0 0 0 0 -3999875.8170912266 -66636376.388618469 0 -66636376.388618469 -33342950.552410126 0 0 0 0 -81035014.47670126 -50112405.945529938 0 -50112405.945529938 -69589537.319152832 0 0 0 0 -10907764.128306355 -10530811.217463713 0 -10530811.217463713 45713303.386357129 0 0 0 0 -3672571.7355575562 -4578566.449836731 0 -4578566.449836731 9406161.4004230499 0 0 0 0 939131.22038141824 -4535099.8735225406 0 -4535099.8735225406 4584261.6679024035 0 0 0 0 3811652.6459732056 -1264797.1501541138 0 -1264797.1501541138 -7308400.9339694977 0 0 0 0 1674674.8430337301 -5635160.8598645739 0 -5635160.8598645739 -10934056.129174646 0 0 0 0 8719190.2283287048 -16624249.217065811 0 -16624249.217065811 53038756.1978302 0 0 0 0 6055783.5611953735 -8457197.9083757401 0 -8457197.9083757401 101170632.11663008 0 0 0 0 -5712660.3235629136 -16577537.030531872 0 -16577537.030531872 33172543.017583098 0 0 0 0 -19118536.081798315 -145963341.31049347 0 -145963341.31049347 -91184351.999160767 0 0 0 0 -8139549.4697399139 4758196.4793491364 0 4758196.4793491364 77302848.110940933 0 0 0 0 5985609.0956115723 29673620.473585129 0 29673620.473585129 30250419.404743195 0 0 0 0 -1036293.2151474319 -59577.398447716609 0 -59577.398447716609 3282522.6687112362 0 0 0 0 438155.16339262389 7591089.5578670586 0 7591089.5578670586 31990452.85576053 0 0 0 0 2054410.3597297668 -17489033.076150417 0 -17489033.076150417 61894024.198966026 0 0 0 0 -9016980.638343811 -20882828.863474846 0 -20882828.863474846 93286288.80814743 0 0 0 0 -2529889.9014355671 1807859.2678231392 0 1807859.2678231392 15540542.291863682 0 0 0 0 6409485.7544994354 579113.23089122772 0 579113.23089122772 38399016.742851257 0 0 0 0 -21486476.584667206 -13910887.800721645 0 -13910887.800721645 34847082.054205894 0 0 0 0 -47269831.430557251 -309247190.9957428 0 -309247190.9957428 281788604.86254883 0 0 0 0 -4586737.5551156439 -14652953.354582006 0 -14652953.354582006 38433294.537496954 0 0 0 0 -27637411.399271011 -24143134.780517101 0 -24143134.780517101 48214180.507370472 0 0 0 0 -139433602.75193405 10583890.361881733 0 10583890.361881733 103760733.75009203 0 0 0 0 -15242772.015233994 5474310.7462339401 0 5474310.7462339401 70184389.704571724 0 0 0 0 -19471373.110492706 -40185666.741102695 0 -40185666.741102695 13764230.233177185 0 0 0 0 -721223.02012500912 286654.03131150128 0 286654.03131150128 4257898.8842473757 0 0 0 0 -52175543.014522552 32427469.631281972 0 32427469.631281972 221951168.69420624 0 0 0 0 -72955346.3845644 -26764624.733065367 0 -26764624.733065367 158173296.63013554 0 0 0 0 5287044.1873779297 -3190058.9552197456 0 -3190058.9552197456 94093445.465642929 0 0 0 0 -5131152.6058959961 -21596365.172058105 0 -21596365.172058105 146338460.8304882 0 0 0 0 -2830389.1341094971 -22057293.643944263 0 -22057293.643944263 110085572.51961327 0 0 0 0 -13559255.5206604 -15465339.980114937 0 -15465339.980114937 89815348.702776194 0 0 0 0 12597401.820352554 -9864466.7991538048 0 -9864466.7991538048 34957149.686985016 0 0 0 0 -6425997.0781021118 -1750083.0026779175 0 -1750083.0026779175 72088772.157110214 0 0 0 0 -11408579.558257103 -23866745.686264277 0 -23866745.686264277 43967765.166584015 0 0 0 0 13273636.911308289 -6644181.5018367767 0 -6644181.5018367767 71287328.514817953 0 0 0 0 1716895.4392371178 -507873.25741195679 0 -507873.25741195679 -1796533.6963195801 0 0 0 0 -2891458.6039387267 -5307580.9351720959 0 -5307580.9351720959 10924327.851208366 0 0 0 0 2375773.3134072665 -2372403.1880145734 0 -2372403.1880145734 -5996696.6001729248 0 0 0 0 3001190.4414749146 -24312649.42970562 0 -24312649.42970562 -2553464.9970054626 0 0 0 0 -6558647.060295105 9950923.6483516693 0 9950923.6483516693 42222610.169735909 0 0 0 0 -25062455.675678253 -6523779.5189590454 0 -6523779.5189590454 92943178.858459473 0 0 0 0 -5079791.3421020508 -6587859.3621702194 0 -6587859.3621702194 92710281.619711876 0 0 0 0 -10827180.713802338 -18727321.542744637 0 -18727321.542744637 103198640.22733498 0 0 0 0 6558986.0254592896 -31096420.932561874 0 -31096420.932561874 106385263.29751778 0 0 0 0 -5990933.7984104156 -3809351.2319805324 0 -3809351.2319805324 97724481.878822327 0 0 0 0 12906965.98286438 -11144407.135649681 0 -11144407.135649681 105586928.21059752 0 0 0 0 6797668.8867702484 5281610.4542608261 0 5281610.4542608261 72504549.286331177 0 0 0 0 -281459.52445030212 -5974319.5771360397 0 -5974319.5771360397 110013999.08277702 0 0 0 0 -4235134.6116008759 -10414074.239896774 0 -10414074.239896774 112083559.47832489 0 0 0 0 -12388392.983890533 11710183.423647404 0 11710183.423647404 143438167.15555954 0 0 0 0 -9468152.888999939 7629656.034488678 0 7629656.034488678 120251196.08151388 0 0 0 0 5879634.6529159546 -17471428.757310867 0 -17471428.757310867 110028582.23204041 0 0 0 0 -5378400.968421936 -17011633.468229294 0 -17011633.468229294 105993419.45204163 0 0 0 0 -9747443.4228477478 -2288013.5598363876 0 -2288013.5598363876 106045932.0969696 0 0 0 0 -3987920.2743225098 -212180.00753498077 0 -212180.00753498077 138030010.9167012 0 0 0 0 -9526174.5345306396 -13783660.622076035 0 -13783660.622076035 136116615.99518108 0 0 0 0 -1809765.7383842468 254226.67122554779 0 254226.67122554779 140423155.68242073 0 0 0 0 31222.09513092041 -19646553.646112442 0 -19646553.646112442 171259237.7838707 0 0 0 0 3146820.048135519 15064017.945674926 0 15064017.945674926 198667461.44150734 0 0 0 0 -26949692.525794983 11981624.55258894 0 11981624.55258894 226732123.93976879 0 0 0 0 -24297103.101337433 19207585.432912827 0 19207585.432912827 140446562.58214951 0 0 0 0 -9971247.8066654205 -8826486.8536906242 0 -8826486.8536906242 148884587.56973267 0 0 0 0 -23634808.900032043 14448453.371461868 0 14448453.371461868 171798599.38791084 0 0 0 0 -26807834.13640213 12134383.667896271 0 12134383.667896271 175096131.25001812 0 0 0 0 -27552803.328102112 30083459.979484081 0 30083459.979484081 198199195.52619267 0 0 0 0 -39714991.417823792 34228798.914731026 0 34228798.914731026 198790817.58995104 0 0 0 0 -15531543.363688469 24923129.540375113 0 24923129.540375113 342335759.28504181 0 0 0 0 -16015595.417583466 39160680.499164104 0 39160680.499164104 203698441.82755566 0 0 0 0 2899652.2622413635 -39430230.975312948 0 -39430230.975312948 239671627.27855682 0 0 0 0 67860029.184577942 178632158.64966869 0 178632158.64966869 257975194.20703983 0 0 0 0 -3120329.5511853481 7570966.5187215181 0 7570966.5187215181 3629871.6369114141 0 0 0 0 -27947314.579992294 68126670.803912401 0 68126670.803912401 283904973.71798992 0 0 0 0 -38770922.63073349 69077398.264171839 0 69077398.264171839 317152216.33623767 0 0 0 0 -50038659.05025959 79693978.448690087 0 79693978.448690087 280415007.94945908 0 0 0 0 -40618894.519368887 21586921.775940537 0 21586921.775940537 218964364.909132 0 0 0 0 48838374.653530121 88168570.753921032 0 88168570.753921032 264408018.47934914 0 0 0 0 62381605.173244476 -14858828.318507195 0 -14858828.318507195 213431054.10800266 0 0 0 0 16136882.157485962 38181870.301566124 0 38181870.301566124 184374165.09045768 0 0 0 0 -16521947.152982712 -22966000.173179626 0 -22966000.173179626 35135945.485206604 0 0 0 0 -20254995.68373847 -15991631.151453018 0 -15991631.151453018 56869772.075698853 0 0 0 0 -10337156.817215919 12803461.345603943 0 12803461.345603943 59849740.280769348 0 0 0 0 7638408.354306221 741762.4376373291 0 741762.4376373291 51009972.093849182 0 0 0 0 -9677928.6961777806 4474965.4229631424 0 4474965.4229631424 58084803.460800171 0 0 0 0 -7421051.1450234652 -7564154.1322870255 0 -7564154.1322870255 34455522.243499756 0 0 0 0 -2258818.5959200859 -9785372.5371551514 0 -9785372.5371551514 12172060.056396484 0 0 0 0 -7195523.1522569656 -3818990.9264755249 0 -3818990.9264755249 43362067.695007324 0 0 0 0 -3345563.5526199341 20699063.236465454 0 20699063.236465454 45421743.291809082 0 0 0 0 4552655.9361953735 16093253.880989075 0 16093253.880989075 24770093.760314941 0 0 0 0 -10342639.48541224 -17533149.319367409 0 -17533149.319367409 -5179301.3631286621 0 0 0 0 -22490200.139855385 -18539027.927177429 0 -18539027.927177429 35371393.570243835 0 0 0 0 -8128634.3680994129 -14704036.983780976 0 -14704036.983780976 16635334.154221028 0 0 0 0 -16115702.581934929 -9838948.4941864014 0 -9838948.4941864014 45056546.799789429 0 0 0 0 71032964.799240112 21094405.627262115 0 21094405.627262115 -41040382.271620274 0 0 0 0 32710895.211761475 -8884969.3584947586 0 -8884969.3584947586 99296644.916163445 0 0 0 0 -5702484.4776039124 7845268.514878273 0 7845268.514878273 107654074.69786263 0 0 0 0 -4102209.7991256714 -150802370.35322571 0 -150802370.35322571 -73160926.634629726 0 0 0 0 3207599.6013936996 14573597.050281525 0 14573597.050281525 57633831.070056915 0 0 0 0 1643780.3217863105 -1656844.5645048805 0 -1656844.5645048805 -5653810.7506018654 0 0 0 0 -6134005.0773413489 -7035772.0447519915 0 -7035772.0447519915 27629719.593095463 0 0 0 0 -8477196.8167562485 -11235281.075843811 0 -11235281.075843811 7939844.9388046265 0 0 0 0 -7130860.2800813913 -16100855.759598255 0 -16100855.759598255 -3215498.6311187744 0 0 0 0 -2724312.9370013075 -4066061.7140795542 0 -4066061.7140795542 17135578.902441304 0 0 0 0 -1600662.8517503962 -7281229.568809595 0 -7281229.568809595 -2628397.9608964007 0 0 0 0 11871901.964706421 -87235772.363023758 0 -87235772.363023758 -36625225.221731186 0 0 0 0 -6905827.2966384888 -13095642.983337402 0 -13095642.983337402 5615603.2209014893 0 0 0 0 6335945.9631881714 -1519612.1583786011 0 -1519612.1583786011 -14405554.585647583 0 0 0 0 -1750213.283654701 -7911714.1957515702 0 -7911714.1957515702 -1371441.3737954348 0 0 0 0 -9101011.3798675537 45877106.774917603 0 45877106.774917603 16406707.305134296 0 0 0 0 47688144.585235596 -19779977.111714363 0 -19779977.111714363 80536734.453126907 0 0 0 0 -20077429.638446808 11034342.458406448 0 11034342.458406448 107043692.86890888 0 0 0 0 -19324359.487823486 -21646940.917616844 0 -21646940.917616844 49271883.25365448 0 0 0 0 -8664452.7473220825 10700646.113115311 0 10700646.113115311 75583644.510989189 0 0 0 0 -57655909.577148438 3247171.9045772552 0 3247171.9045772552 84062286.413000107 0 0 0 0 -24045440.585834503 7684961.6921243668 0 7684961.6921243668 102242397.27172279 0 0 0 0 -9470486.6860466003 10895613.819629669 0 10895613.819629669 100457328.92670345 0 0 0 0 -8814722.4753875732 16045543.701558113 0 16045543.701558113 104079352.85680771 0 0 0 0 -8876845.1811180115 34286243.347446442 0 34286243.347446442 130817660.46801364 0 0 0 0 -18717655.561210632 21405123.689300537 0 21405123.689300537 132545302.61828804 0 0 0 0 -11725540.496387482 28827598.630434036 0 28827598.630434036 121320972.69794464 0 0 0 0 -24002731.140106201 33774475.955960751 0 33774475.955960751 172108214.11510086 0 0 0 0 -28585057.678003311 58200273.096397161 0 58200273.096397161 193171725.93457127 0 0 0 0 -41313984.378877163 41359685.049288034 0 41359685.049288034 170918587.14376736 0 0 0 0 153454843.9466095 97725080.953089237 0 97725080.953089237 94269543.905977726 0 0 0 0 27504169.635231018 35622073.33658123 0 35622073.33658123 71292592.247042656 0 0 0 0 29716554.906475067 41919490.751394749 0 41919490.751394749 85466528.815767288 0 0 0 0 14888727.193695068 27666061.965337753 0 27666061.965337753 111243128.3971138 0 0 0 0 23097177.862625122 70399713.060816765 0 70399713.060816765 142991453.21444893 0 0 0 0 6641312.5100212097 27505574.324543953 0 27505574.324543953 116100597.4568491 0 0 0 0 4945925.0677902699 7918755.6373749375 0 7918755.6373749375 89665312.289146423 0 0 0 0 6265334.6075725555 30908751.845108509 0 30908751.845108509 76415751.220088959 0 0 0 0 -3880607.4713106491 -18274624.903175801 0 -18274624.903175801 8423865.0632291082 0 0 0 0 -9600718.1469852924 -41860808.577133894 0 -41860808.577133894 3823964.5431976318 0 0 0 0 -8609782.9983787239 -6522856.1649008673 0 -6522856.1649008673 34610169.613670863 0 0 0 0 13949277.680882454 22234027.57862854 0 22234027.57862854 85008090.993005753 0 0 0 0 -1133038.5234386865 -4970704.8497988107 0 -4970704.8497988107 3095533.2937298696 0 0 0 0 57312135.080156326 -50474762.698577881 0 -50474762.698577881 22945148.815294322 0 0 0 0 -42600545.693449974 -133774161.79126549 0 -133774161.79126549 107002480.77456093 0 0 0 0 -24041044.720216751 -37746675.034009933 0 -37746675.034009933 22892867.343030728 0 0 0 0 -26686036.551626861 -27601208.492331743 0 -27601208.492331743 63651114.191638947 0 0 0 0 1302237.3204979897 4814438.665348053 0 4814438.665348053 17829650.594726562 0 0 0 0 -39997931.116980553 42135101.537498474 0 42135101.537498474 -92562759.55859375 0 0 0 0 -1452929.2425763886 28202766.987036105 0 28202766.987036105 40738127.849163882 0 0 0 0 -17297180.298201561 19114300.806877136 0 19114300.806877136 -101489075.3465271 0 0 0 0 7301054.1485708375 6561849.5457542762 0 6561849.5457542762 -23731637.481749967 0 0 0 0 18363247.27613556 15631310.823625866 0 15631310.823625866 -21089469.393928058 0 0 0 0 -434516314.15523219 -188858013.75455046 0 -188858013.75455046 1207853698.3272438 0 0 0 0 -438646956.82051086 306819859.37823009 0 306819859.37823009 133854189.385355 0 0 0 0 -1259430.0403463282 31328090.63087979 0 31328090.63087979 27432627.166068226 0 0 0 0 -7100781.6875853539 18888856.695133209 0 18888856.695133209 7041923.0631332397 0 0 0 0 335530477.81793594 329770030.31699586 0 329770030.31699586 206939393.23324203 0 0 0 0 258085210.01016808 -161376489.79414177 0 -161376489.79414177 -20277866.156291962 0 0 0 0 -233812982.68605042 -631156120.21925163 0 -631156120.21925163 1804790214.5044632 0 0 0 0 -9899662.1095600128 26717226.446723938 0 26717226.446723938 28701480.548406601 0 0 0 0 -18060680.46972084 14244960.711410522 0 14244960.711410522 59418276.606987 0 0 0 0 -196134.61038053222 3271529.9763242081 0 3271529.9763242081 6394778.3407862233 0 0 0 0 -783022.46182654798 27797390.468966492 0 27797390.468966492 40752532.68631418 0 0 0 0 997685637.36228943 1532736834.1619539 0 1532736834.1619539 -2380342055.5870275 0 0 0 0 1639563.3221969604 2770634.5100784302 0 2770634.5100784302 -5536295.1424560547 0 0 0 0 2740309.2207280798 29415591.669332895 0 29415591.669332895 22404129.224449221 0 0 0 0 -2498939.3563094828 3544002.0029703304 0 3544002.0029703304 37157431.561405256 0 0 0 0 65137388.148040771 30377158.916381836 0 30377158.916381836 34765330.030410767 0 0 0 0 -17367627.101005554 9382740.2579956055 0 9382740.2579956055 76278958.914189339 0 0 0 0 -246838.52326629497 27170244.320532404 0 27170244.320532404 26691869.394179825 0 0 0 0 -62605.115916911513 999745.59620152041 0 999745.59620152041 1995315.9218747064 0 0 0 0 -14813610.608158112 12419150.318305969 0 12419150.318305969 122123655.7588501 0 0 0 0 -7824152.7369651794 18790879.863204956 0 18790879.863204956 60134725.579696655 0 0 0 0 2137765.1141281128 -265211.45733642578 0 -265211.45733642578 67395665.01379776 0 0 0 0 -35240793.020463943 146394425.81059313 0 146394425.81059313 283792623.23094654 0 0 0 0 92018682.838575363 -230891312.79799891 0 -230891312.79799891 -162065770.63149548 0 0 0 0 -38292229.015275955 38513131.129608154 0 38513131.129608154 103144467.21255493 0 0 0 0 -33520342.877826691 31567339.393045664 0 31567339.393045664 146599283.19663382 0 0 0 0 -92618642.01128006 41633849.258057117 0 41633849.258057117 189389487.59093428 0 0 0 0 -496185.21123839356 26374400.698010255 0 26374400.698010255 11435803.659948613 0 0 0 0 -1883139.9058456421 30838387.946365356 0 30838387.946365356 72896719.069366455 0 0 0 0 -5686007.8404788971 19972404.064785004 0 19972404.064785004 67146987.36151123 0 0 0 0 -4414854.369843483 12554177.675441742 0 12554177.675441742 41071376.167037964 0 0 0 0 890971.87061309814 10196379.826385498 0 10196379.826385498 57549752.875061035 0 0 0 0 -2174783.5066316128 26898211.484375477 0 26898211.484375477 40134380.697479248 0 0 0 0 -9764974.4627488591 9521087.4595464692 0 9521087.4595464692 36447122.433187641 0 0 0 0 -7114539.0842266083 22338093.114685059 0 22338093.114685059 26373387.478881836 0 0 0 0 -7045224.9340782166 18419912.978343964 0 18419912.978343964 31683860.773612976 0 0 0 0 -7732856.9378026482 20784006.640365724 0 20784006.640365724 53783861.543253779 0 0 0 0 -628708289.74384689 310567168.30757141 0 310567168.30757141 38439260.858276367 0 0 0 0 -658989647.74139404 170843652.51873779 0 170843652.51873779 -120906389.3369751 0 0 0 0 -317618793.5124588 348210519.93984985 0 348210519.93984985 -322848274.66783905 0 0 0 0 -1031217.0724822991 1420034.2952590287 0 1420034.2952590287 5556036.7284036651 0 0 0 0 -13573831.05997324 38339862.114798546 0 38339862.114798546 27752302.926116943 0 0 0 0 -189971.51812553406 14779262.753349304 0 14779262.753349304 29488416.510192871 0 0 0 0 -4209388.5867462158 26448526.049461365 0 26448526.049461365 60473961.907772064 0 0 0 0 305856193.6192131 466909068.19824219 0 466909068.19824219 -389356161.86090088 0 0 0 0 409240615.98128939 368713584.55199051 0 368713584.55199051 49267435.402648926 0 0 0 0 503217709.31093979 -79848388.203796387 0 -79848388.203796387 -47479385.006225586 0 0 0 0 -697365651.39725494 -68512341.561920166 0 -68512341.561920166 493113702.51269531 0 0 0 0 -698565996.75397873 236571679.68701172 0 236571679.68701172 294379698.7154541 0 0 0 0 -297056171.41971588 -589794736.11633301 0 -589794736.11633301 653557808.19949341 0 0 0 0 -33758693.626976013 48199344.217010498 0 48199344.217010498 -28032750.457763672 0 0 0 0 -41403877.860015869 215291656.0592041 0 215291656.0592041 -158848696.86029053 0 0 0 0 -208548159.64215088 149916263.95147705 0 149916263.95147705 -29086976.77935791 0 0 0 0 -203144941.18682861 219801670.78720093 0 219801670.78720093 -151158893.76092529 0 0 0 0 -395518999.46193314 332881806.83673096 0 332881806.83673096 -213294053.4440918 0 0 0 0 -152112990.9357338 173491403.06715393 0 173491403.06715393 -93074088.452941895 0 0 0 0 -191058589.42761993 72541105.447265625 0 72541105.447265625 -307881194.82839203 0 0 0 0 61076232.541740417 184469169.11355591 0 184469169.11355591 -101122144.38641357 0 0 0 0 9882533.0046348572 87301611.444458008 0 87301611.444458008 -181687896.98577118 0 0 0 0 120579902.44248438 229464702.61233902 0 229464702.61233902 -53987771.758117676 0 0 0 0 141116053.39133453 137712733.11373901 0 137712733.11373901 -147837674.25256348 0 0 0 0 -30152197.408621311 101425401.16149521 0 101425401.16149521 -32340896.885620117 0 0 0 0 149901874.6151886 212527269.86074829 0 212527269.86074829 -44675473.88394165 0 0 0 0 164073599.38428497 285273940.56713867 0 285273940.56713867 43922704.708587646 0 0 0 0 175582219.05343246 224342805.59637451 0 224342805.59637451 -114618413.54064941 0 0 0 0 127009385.4710331 207726696.74911499 0 207726696.74911499 -23749030.072631836 0 0 0 0 150011732.32385445 189085286.41963196 0 189085286.41963196 -83507753.564117432 0 0 0 0 109825353.62316704 153968447.08532715 0 153968447.08532715 -108233456.27990723 0 0 0 0 175960147.20710564 142437247.28431702 0 142437247.28431702 -48247704.458431005 0 0 0 0 92994684.437529087 162411075.42169952 0 162411075.42169952 -48411282.893493652 0 0 0 0 75810805.118635178 126169130.62921143 0 126169130.62921143 34284408.625823975 0 0 0 0 -25954715.417888641 46847829.31729126 0 46847829.31729126 -26546154.863525391 0 0 0 0 18622701.236724854 70342680.431152344 0 70342680.431152344 -91178363.318450928 0 0 0 0 -41861133.090198517 143462229.5524292 0 143462229.5524292 132069058.56638336 0 0 0 0 35722137.893253326 244468665.18881226 0 244468665.18881226 241232114.19377136 0 0 0 0 1465149.8703297805 2439055.227184847 0 2439055.227184847 -6448080.6654068828 0 0 0 0 -47053195.707183838 -5528541.437253952 0 -5528541.437253952 19297702.587938309 0 0 0 0 -40761250.779098511 -1679902.597445488 0 -1679902.597445488 16200135.602958679 0 0 0 0 -18050554.363324262 10357637.4089917 0 10357637.4089917 15276594.197662162 0 0 0 0 -40419202.787036896 6685114.9580721855 0 6685114.9580721855 30089659.456665039 0 0 0 0 -16599707.118901372 14007110.189823691 0 14007110.189823691 40571674.568342008 0 0 0 0 -784695.08725823089 26695387.226629972 0 26695387.226629972 7547765.0185642308 0 0 0 0 29904678.537038803 80711437.257104635 0 80711437.257104635 125849449.56328201 0 0 0 0 -15583893.269233704 24392671.023200989 0 24392671.023200989 75510038.067237854 0 0 0 0 -10534709.606086731 65567887.62097311 0 65567887.62097311 196760699.905038 0 0 0 0 9600561.0608348846 32925473.226325989 0 32925473.226325989 58817897.226501465 0 0 0 0 -2945868.9099578857 43270449.724853516 0 43270449.724853516 89589127.279190063 0 0 0 0 -10624094.192077637 10579223.777679443 0 10579223.777679443 47083980.246395111 0 0 0 0 -2944397.6781158447 11448976.297317505 0 11448976.297317505 46944630.725975037 0 0 0 0 -36309376.581096649 5295844.4957695007 0 5295844.4957695007 50280218.523654938 0 0 0 0 -17257809.343004227 18698807.483669281 0 18698807.483669281 37290434.737495422 0 0 0 0 -11382157.185381083 11374570.143013477 0 11374570.143013477 34887125.136618845 0 0 0 0 -14656558.363755226 6668480.9268379211 0 6668480.9268379211 24391571.399551392 0 0 0 0 -8779299.8548851013 20743409.771087646 0 20743409.771087646 31885535.647094727 0 0 0 0 -8583.3602447509766 28683864.759376526 0 28683864.759376526 54460873.614479065 0 0 0 0 -14464010.640392303 9880001.0863800049 0 9880001.0863800049 25573454.177597046 0 0 0 0 -18726216.874383926 14259342.761383057 0 14259342.761383057 21075490.641342163 0 0 0 0 -11216850.39393314 15827978.134826794 0 15827978.134826794 32388824.069897555 0 0 0 0 -109135132.83377838 13940706.921232224 0 13940706.921232224 101357128.73425674 0 0 0 0 -34061395.128929138 4870969.386138916 0 4870969.386138916 27363081.628620148 0 0 0 0 -81666779.670631409 -8709417.7427196503 0 -8709417.7427196503 23824034.215255737 0 0 0 0 -71938897.302654266 -47483677.540985107 0 -47483677.540985107 168962348.14030457 0 0 0 0 -86133482.022733688 -24090967.10282135 0 -24090967.10282135 35357357.994400024 0 0 0 0 -36085310.031204224 -12709939.244215965 0 -12709939.244215965 -6667372.6406669617 0 0 0 0 -49108415.167837143 -50451003.004312992 0 -50451003.004312992 8730972.7800998688 0 0 0 0 -2329165.0989552364 311927.88726932555 0 311927.88726932555 2429871.644793449 0 0 0 0 -56395977.766178131 254603953.30704403 0 254603953.30704403 264555598.16361237 0 0 0 0 -110484465.93030167 -4042900.9989376068 0 -4042900.9989376068 132743542.04569244 0 0 0 0 -16064757.266525269 -64697161.061660767 0 -64697161.061660767 109849222.86637306 0 0 0 0 13417591.669128418 -127889089.86646652 0 -127889089.86646652 92213267.503620148 0 0 0 0 -154481801.83808088 -113180447.2275672 0 -113180447.2275672 153543132.18218613 0 0 0 0 5908543.5606994629 -84520497.595432281 0 -84520497.595432281 93422462.496720791 0 0 0 0 -42471676.52721405 -62768870.752868652 0 -62768870.752868652 88725242.330696106 0 0 0 0 -137150635.23954916 -22372601.920359969 0 -22372601.920359969 122318777.06538773 0 0 0 0 -5074069.6216174886 -110675.69397229888 0 -110675.69397229888 5051493.0152226202 0 0 0 0 -45163064.088918686 -16220664.223278046 0 -16220664.223278046 5344054.8399009705 0 0 0 0 -81134213.855293274 -10495810.657526016 0 -10495810.657526016 121049060.66998899 0 0 0 0 -80389502.809841156 -17524389.822734356 0 -17524389.822734356 35010535.475681305 0 0 0 0 -9656279.8561325073 -39807273.401328087 0 -39807273.401328087 -21930813.956455231 0 0 0 0 -48026337.831539154 -55104229.335694313 0 -55104229.335694313 -16691491.704993725 0 0 0 0 -8338514.7210567668 -1094319.9545994699 0 -1094319.9545994699 7028945.3852273868 0 0 0 0 -27170156.3543396 -5991724.9987072945 0 -5991724.9987072945 17719758.06937027 0 0 0 0 -15807311.67842865 -6062144.2070446014 0 -6062144.2070446014 2618799.3088972569 0 0 0 0 -21579840.269065857 -17830808.675889015 0 -17830808.675889015 -19820828.362481594 0 0 0 0 32447126.930521011 14874152.772687912 0 14874152.772687912 -6401042.6467514038 0 0 0 0 364763.68978881836 -29352882.749315262 0 -29352882.749315262 -16517344.29083252 0 0 0 0 -15680354.50377655 -9980562.6346693039 0 -9980562.6346693039 -33670038.767679691 0 0 0 0 36270835.880426407 -3108321.4474983215 0 -3108321.4474983215 -2169235.8000545502 0 0 0 0 -13849446.151882172 -47797942.223944664 0 -47797942.223944664 15468483.453834534 0 0 0 0 18037947.017883301 -29834640.774730682 0 -29834640.774730682 20263826.14448452 0 0 0 0 53973390.055831909 -15198772.552547455 0 -15198772.552547455 6023799.621553421 0 0 0 0 28598244.154121399 8424439.9388713837 0 8424439.9388713837 6146443.3152561188 0 0 0 0 37935931.783149719 22945309.201648712 0 22945309.201648712 10892621.346493721 0 0 0 0 43996242.257720947 31282535.866167068 0 31282535.866167068 22232885.424106598 0 0 0 0 27622378.309524536 39687796.648075104 0 39687796.648075104 48753142.567459106 0 0 0 0 -10753341.681903839 386831.44650268555 0 386831.44650268555 17250657.021575928 0 0 0 0 63644648.787719727 32524210.305328369 0 32524210.305328369 20776548.170730591 0 0 0 0 60606526.389038086 65929660.283653259 0 65929660.283653259 53481133.718315125 0 0 0 0 106139575.50362396 54637019.525371552 0 54637019.525371552 24838938.584617615 0 0 0 0 112555027.11663818 -13744208.367650867 0 -13744208.367650867 18849783.293563843 0 0 0 0 202771122.32777405 77389065.962814331 0 77389065.962814331 53521947.605706558 0 0 0 0 68940773.580429077 -70546559.763626099 0 -70546559.763626099 51836664.579971313 0 0 0 0 86577591.21370697 887928.62531471252 0 887928.62531471252 13923551.992311478 0 0 0 0 262095156.55813217 427903.01979446411 0 427903.01979446411 19925499.223003864 0 0 0 0 5152763.7530975342 -69520032.886749268 0 -69520032.886749268 71131905.814926147 0 0 0 0 13375319.250640869 -114703005.12642288 0 -114703005.12642288 216696227.77183914 0 0 0 0 204295674.1151123 -166025434.38152695 0 -166025434.38152695 92896315.138824463 0 0 0 0 278595230.3934021 -109525402.00315857 0 -109525402.00315857 -7001699.7992935181 0 0 0 0 216586963.00019073 -14619554.915115356 0 -14619554.915115356 131257786.54341507 0 0 0 0 162193284.45101166 -129696245.01737595 0 -129696245.01737595 114760785.06251526 0 0 0 0 105290173.00570679 81330877.217329025 0 81330877.217329025 81062342.123336792 0 0 0 0 -1788650.9403030202 1197120.0953947734 0 1197120.0953947734 2052474.5956087112 0 0 0 0 -1816073.2899670321 117483.94581231847 0 117483.94581231847 2289562.4747975022 0 0 0 0 224587244.36566925 41256265.215278625 0 41256265.215278625 91803181.870742798 0 0 0 0 239878953.80778348 101714826.7463007 0 101714826.7463007 56113645.31785965 0 0 0 0 234649377.74084473 152301750.44218826 0 152301750.44218826 38399991.268829346 0 0 0 0 172387444.91429138 120740378.91078186 0 120740378.91078186 23738796.944778442 0 0 0 0 128456670.57113075 175762058.66576958 0 175762058.66576958 59964000.305229187 0 0 0 0 205122519.81685638 127723659.88625336 0 127723659.88625336 37630961.320949554 0 0 0 0 361319421.16986084 43954838.828414917 0 43954838.828414917 50425301.138309956 0 0 0 0 866078.10753607145 2726585.9621316819 0 2726585.9621316819 673020.71035461314 0 0 0 0 -545121496.08189297 70259372.449282646 0 70259372.449282646 296131410.4924202 0 0 0 0 1035284826.7513123 194643056.6264925 0 194643056.6264925 -203215462.17080879 0 0 0 0 10504819.199537277 3029939.0401778221 0 3029939.0401778221 -7506134.2624225616 0 0 0 0 -2949468.9595666025 2190221.9701734334 0 2190221.9701734334 3595556.5423476491 0 0 0 0 -150697124.81793213 42451448.257469177 0 42451448.257469177 152402454.23868179 0 0 0 0 -3237718.9143803772 110920.36921581812 0 110920.36921581812 4602032.5612142906 0 0 0 0 29895435.920425415 35022236.654800892 0 35022236.654800892 36245835.604930878 0 0 0 0 267693810.77051544 180427352.22192001 0 180427352.22192001 10997173.717565536 0 0 0 0 -72944359.367950439 -16417545.554325104 0 -16417545.554325104 -53965303.743709564 0 0 0 0 8497193.1010704041 122860571.35378647 0 122860571.35378647 121113911.94291449 0 0 0 0 -7293520.923412323 -37676555.092526436 0 -37676555.092526436 80576055.842193604 0 0 0 0 -346230606.31369019 137545208.96697426 0 137545208.96697426 -19289176.796950132 0 0 0 0 -210825458.26765633 -69960217.503810883 0 -69960217.503810883 -15762235.952357739 0 0 0 0 -441324366.05882263 -91142235.12184906 0 -91142235.12184906 169526442.50979996 0 0 0 0 -174391379.33940315 17001336.625948906 0 17001336.625948906 185690296.52742195 0 0 0 0 -86334336.340625763 -80564587.047336578 0 -80564587.047336578 157189513.06944513 0 0 0 0 -82913147.136425018 -15871655.814922333 0 -15871655.814922333 170716235.05124426 0 0 0 0 -200134370.79930973 22234378.264930248 0 22234378.264930248 222609733.43965912 0 0 0 0 -217403076.13980293 -12043173.606265068 0 -12043173.606265068 177638153.83704185 0 0 0 0 -308953498.84081078 87777948.74564743 0 87777948.74564743 206765366.70425034 0 0 0 0 -138301600.29289436 128429443.24590081 0 128429443.24590081 214989955.91550827 0 0 0 0 5492429.4775161743 200352272.28706837 0 200352272.28706837 16713648.945665359 0 0 0 0 -130743401.85105956 50676790.352059603 0 50676790.352059603 94185826.66740036 0 0 0 0 -6745581.4445559978 -26297844.00929451 0 -26297844.00929451 35657457.475631714 0 0 0 0 -39985131.276754379 13366941.262857437 0 13366941.262857437 15865800.880958557 0 0 0 0 -32706204.789684296 -10230211.479510307 0 -10230211.479510307 73067954.669112206 0 0 0 0 -61403438.978618622 -945444.7882976532 0 -945444.7882976532 70588208.551395416 0 0 0 0 -2868380.5778604317 1634554.2281343583 0 1634554.2281343583 3177137.1341185132 0 0 0 0 23216914.500610352 20706820.633394241 0 20706820.633394241 23046538.346669197 0 0 0 0 31973637.174758911 35746808.562437057 0 35746808.562437057 35467503.59249115 0 0 0 0 257186125.6832819 744936437.59425497 0 744936437.59425497 33642584.709499359 0 0 0 0 54056501.57559967 -150665219.04182148 0 -150665219.04182148 166426817.60382462 0 0 0 0 872846165.2048645 -365644709.93404388 0 -365644709.93404388 183166759.25054812 0 0 0 0 -210753631.93073273 265739817.95226288 0 265739817.95226288 404679346.37342453 0 0 0 0 -2619298.3549759872 1019660.8836120907 0 1019660.8836120907 4528328.2664447995 0 0 0 0 -5546881.7045669556 -2219255.5326490402 0 -2219255.5326490402 2567972.2017745972 0 0 0 0 -9070001.4099769592 -846995.76557350159 0 -846995.76557350159 2055882.0365796089 0 0 0 0 63629803.244430542 9927999.8346319199 0 9927999.8346319199 -23069495.022201538 0 0 0 0 42445590.35972023 39616148.705122471 0 39616148.705122471 14125770.460399628 0 0 0 0 16824136.704406738 23977611.811609268 0 23977611.811609268 -36760460.886052132 0 0 0 0 17380879.612892151 336988.00599384308 0 336988.00599384308 24342974.377160311 0 0 0 0 32465647.092664719 -22036159.480655193 0 -22036159.480655193 -80537052.944997787 0 0 0 0 -462330.59765603021 -1306494.15054534 0 -1306494.15054534 1362572.6217261127 0 0 0 0 -21627491.999420166 -17841000.147479534 0 -17841000.147479534 -8654460.2946023941 0 0 0 0 56678085.559392691 69185854.36255759 0 69185854.36255759 -5383441.4511890411 0 0 0 0 -1570243.1042032363 929143.96014433634 0 929143.96014433634 1659340.0285956999 0 0 0 0 -44469026.914154053 63029603.062924385 0 63029603.062924385 46588016.063811302 0 0 0 0 -21100439.292186737 -58329520.421225786 0 -58329520.421225786 259423634.73868799 0 0 0 0 84428839.102058411 -35359637.204777956 0 -35359637.204777956 -11067506.908992052 0 0 0 0 26491764.546947479 58163400.552964687 0 58163400.552964687 131606849.60049582 0 0 0 0 -13708738.036634445 -6180956.1338863373 0 -6180956.1338863373 6125709.7177195549 0 0 0 0 -13983238.134906769 -4121713.9983024597 0 -4121713.9983024597 26254488.49684 0 0 0 0 -36594.290114366449 2273001.440561655 0 2273001.440561655 1882866.4254695391 0 0 0 0 -14507950.33398819 10118377.246977806 0 10118377.246977806 -65626960.107383609 0 0 0 0 44982837.08098793 16860712.867002964 0 16860712.867002964 -37983608.01109457 0 0 0 0 -9070622.0987058729 -762149.66585036926 0 -762149.66585036926 -9542173.6333174706 0 0 0 0 5258156.4329192843 -1785771.9478293131 0 -1785771.9478293131 10306.930115597672 0 0 0 0 1894057.5627593994 42058750.816688299 0 42058750.816688299 216669037.87994766 0 0 0 0 38349628.444824219 -49215806.089625835 0 -49215806.089625835 53654144.773391962 0 0 0 0 8929564.1075028814 -3323685.746130967 0 -3323685.746130967 1405113.867461923 0 0 0 0 1209546.8724997602 1656261.2905726517 0 1656261.2905726517 -1079639.0274740225 0 0 0 0 -988562107.66695976 -412700400.21336126 0 -412700400.21336126 1506772050.6425781 0 0 0 0 -56913809.217315674 145219653.1284194 0 145219653.1284194 640437482.79233551 0 0 0 0 8467656.597278595 86180504.914944887 0 86180504.914944887 499467155.29094219 0 0 0 0 -43439990.006961823 -53614593.681361198 0 -53614593.681361198 403344180.01171398 0 0 0 0 -91941785.382766724 -70053395.363442183 0 -70053395.363442183 641404533.28320408 0 0 0 0 -205191641.81639099 -110603097.2207799 0 -110603097.2207799 768994180.26237822 0 0 0 0 -59315638.35234642 -84390561.12778306 0 -84390561.12778306 378116216.33045292 0 0 0 0 -9593381.51927948 -75336411.854924679 0 -75336411.854924679 409498487.08291388 0 0 0 0 -39797728.219675064 -46736184.892029643 0 -46736184.892029643 314646591.28621483 0 0 0 0 -73335225.500896454 -34365557.601888657 0 -34365557.601888657 360496346.37055016 0 0 0 0 -56691576.07384491 -56161546.737827778 0 -56161546.737827778 298363027.12884569 0 0 0 0 -55096176.411647797 -114071392.02557826 0 -114071392.02557826 381910276.52821159 0 0 0 0 -50556758.409366608 -94209256.263242722 0 -94209256.263242722 297795350.08173943 0 0 0 0 -69748458.630561829 -84285033.600829124 0 -84285033.600829124 380731315.94535542 0 0 0 0 -48742195.757873535 -73700654.166326046 0 -73700654.166326046 302952595.34273815 0 0 0 0 -60035679.224911928 -13886703.310603529 0 -13886703.310603529 208685942.34278202 0 0 0 0 -20641964.131329536 -45986699.004405975 0 -45986699.004405975 162246910.24850655 0 0 0 0 -33120930.716323853 -42440590.513856888 0 -42440590.513856888 167970450.62062311 0 0 0 0 -29495672.707787514 -99021792.919089794 0 -99021792.919089794 264925849.97564125 0 0 0 0 -34046149.182628632 -122136212.66708899 0 -122136212.66708899 257229970.78325081 0 0 0 0 -62035197.770729065 -119498905.47809315 0 -119498905.47809315 414833185.1608479 0 0 0 0 116529307.94892502 151797541.96796155 0 151797541.96796155 387600871.34103203 0 0 0 0 3872444.8337211609 -51849858.267858982 0 -51849858.267858982 355626438.28411818 0 0 0 0 -25040720.080267429 -9454190.8703150153 0 -9454190.8703150153 310822367.8493557 0 0 0 0 185519033.00286102 -121678556.20544052 0 -121678556.20544052 358275290.28905821 0 0 0 0 -51269679.123344421 -55061510.791221142 0 -55061510.791221142 476195136.50561333 0 0 0 0 118694078.15649319 111216410.35809243 0 111216410.35809243 282961630.49785805 0 0 0 0 727915199.15779877 774597.34070086479 0 774597.34070086479 302143752.21335125 0 0 0 0 -243462.92867015488 -461221.30381043721 0 -461221.30381043721 1031728.2606416633 0 0 0 0 -85429852.345592499 418307530.85978651 0 418307530.85978651 399474365.26945448 0 0 0 0 85638453.045660973 212744556.97385895 0 212744556.97385895 627544630.29550552 0 0 0 0 304802339.63087463 17719146.123764038 0 17719146.123764038 455438178.9711132 0 0 0 0 256027336.6204443 356487404.33673543 0 356487404.33673543 585476841.8182745 0 0 0 0 59782892.475762367 122015850.55539286 0 122015850.55539286 412969332.83853817 0 0 0 0 186774812.40704346 398911486.78797364 0 398911486.78797364 632633856.14807224 0 0 0 0 -23549175.477912903 73881789.261499405 0 73881789.261499405 749291730.26058435 0 0 0 0 -21349723.894801825 -42760469.43735943 0 -42760469.43735943 420154440.0890274 0 0 0 0 11049854.440688133 -182594418.58626091 0 -182594418.58626091 413180691.58930588 0 0 0 0 98986266.012844086 -177877440.37162042 0 -177877440.37162042 96971799.754224777 0 0 0 0 -49790528.44852829 -30505209.738156796 0 -30505209.738156796 72757860.710561752 0 0 0 0 -50595351.272491455 24665739.82679987 0 24665739.82679987 343200347.45211554 0 0 0 0 -212201635.10516357 -96149400.951194286 0 -96149400.951194286 150655053.38555288 0 0 0 0 -198370108.83577907 76538419.087279722 0 76538419.087279722 291412152.10389614 0 0 0 0 -37798508.992904663 106165417.01638031 0 106165417.01638031 269575697.00794244 0 0 0 0 -49829649.510578156 213961827.26631927 0 213961827.26631927 497962018.05531299 0 0 0 0 38921842.092899323 134861621.18072104 0 134861621.18072104 265132501.248734 0 0 0 0 -106507006.36400986 28840203.595937252 0 28840203.595937252 235561104.79376221 0 0 0 0 -107702782.09907532 117735348.88232994 0 117735348.88232994 311697192.0093112 0 0 0 0 -14184377.797560923 4729916.4348534998 0 4729916.4348534998 8517455.1357290745 0 0 0 0 -33978840.226326942 85761745.902103841 0 85761745.902103841 232350572.67636585 0 0 0 0 6630515.6776809692 -29551870.904410362 0 -29551870.904410362 -62907121.143511295 0 0 0 0 -30355913.832614899 18880250.374819279 0 18880250.374819279 -4687576.5775015354 0 0 0 0 -6685300.9438889977 -514855.64792843256 0 -514855.64792843256 3300772.1487397379 0 0 0 0 -5647067.7696978552 1256697.5307247117 0 1256697.5307247117 4434743.505580686 0 0 0 0 -22684849.102878571 42723967.442863464 0 42723967.442863464 117294857.47393799 0 0 0 0 -22802135.775686264 27951568.825136065 0 27951568.825136065 4313143.0238447189 0 0 0 0 -61217607.647100925 -87759757.961553037 0 -87759757.961553037 56424614.088162422 0 0 0 0 -61188122.860980988 -79552494.468144894 0 -79552494.468144894 170452950.06302643 0 0 0 0 177917118.9730835 212357976.13704705 0 212357976.13704705 279746570.88471699 0 0 0 0 -1172603.5017479733 180973.65843141079 0 180973.65843141079 860101.1135363928 0 0 0 0 44855452.888473034 156141623.01281911 0 156141623.01281911 257573733.06490707 0 0 0 0 163341131.0188812 229993595.74707794 0 229993595.74707794 570379003.13049316 0 0 0 0 -118777402.04754497 -43529091.73248291 0 -43529091.73248291 186598374.07800293 0 0 0 0 -52149.683008096617 18458.067577153444 0 18458.067577153444 541466.71088077128 0 0 0 0 163109620.82232082 -64032117.225296021 0 -64032117.225296021 -102223735.00543213 0 0 0 0 214769904.96882397 242579504.27655029 0 242579504.27655029 81718489.618988037 0 0 0 0 162466.51861822861 75368718.585365295 0 75368718.585365295 175096055.35494995 0 0 0 0 35216899.094576582 292664137.12220764 0 292664137.12220764 617033956.8024292 0 0 0 0 80976774.216856435 -52970639.701416016 0 -52970639.701416016 -715004.45526123047 0 0 0 0 -66220.112775229354 62855.002317272127 0 62855.002317272127 867613.87896871567 0 0 0 0 94263463.788306311 24267830.533815384 0 24267830.533815384 -1327204.6740112305 0 0 0 0 7155986.7769837193 -37024880.103363037 0 -37024880.103363037 24048887.956665039 0 0 0 0 11891394.668348076 40629844.809875488 0 40629844.809875488 21204004.855194092 0 0 0 0 68982181.546382159 102065976.76777267 0 102065976.76777267 50029804.956665039 0 0 0 0 66553616.98451817 82680356.077091217 0 82680356.077091217 63122880.14239502 0 0 0 0 87001999.903687418 96706005.473907471 0 96706005.473907471 45293013.526062012 0 0 0 0 78220497.394577444 106204780.01481628 0 106204780.01481628 35989502.652404785 0 0 0 0 74137939.599211961 94439949.75567627 0 94439949.75567627 61255137.718566895 0 0 0 0 47869360.623822391 77361221.387481689 0 77361221.387481689 74580888.819580078 0 0 0 0 95717724.539274007 51033035.244720459 0 51033035.244720459 84874269.771209717 0 0 0 0 -7477192.3729009032 34343796.074371338 0 34343796.074371338 65518554.798217773 0 0 0 0 -5879519.9896737337 14248053.78302002 0 14248053.78302002 112362994.32552338 0 0 0 0 30401604.613436699 34137275.683578491 0 34137275.683578491 117415584.05601501 0 0 0 0 20483396.178053856 69652908.238143921 0 69652908.238143921 181811882.53631592 0 0 0 0 -19889919.017555714 15767273.344703674 0 15767273.344703674 182673226.12536621 0 0 0 0 78838536.422428727 121879027.17015076 0 121879027.17015076 219942471.67838466 0 0 0 0 45393206.923424661 136091194.51263428 0 136091194.51263428 370300856.64019775 0 0 0 0 83338267.624868751 30331141.524902344 0 30331141.524902344 75479050.514038086 0 0 0 0 94603601.356692076 -46366654.174957275 0 -46366654.174957275 282689308.27642822 0 0 0 0 40660678.971182704 -266022.31356811523 0 -266022.31356811523 220563623.4543457 0 0 0 0 10244928.254049912 -335699688.93450928 0 -335699688.93450928 300984764.03973389 0 0 0 0 -27199.447342193307 304777.43928772211 0 304777.43928772211 1127051.0694717765 0 0 0 0 275888155.40706432 373973013.19377136 0 373973013.19377136 149172108.52575684 0 0 0 0 75923781.219082713 90907030.942825317 0 90907030.942825317 132483309.54852295 0 0 0 0 65554464.792392671 61716256.370685577 0 61716256.370685577 135042255.02307129 0 0 0 0 -8530616.1177605391 45786951.718002319 0 45786951.718002319 163356725.10192871 0 0 0 0 43017723.787867785 43933301.557601929 0 43933301.557601929 122262061.93908691 0 0 0 0 74180434.857414305 244513178.04386139 0 244513178.04386139 954016735.64437866 0 0 0 0 -249048.97936041025 1538987.7639921382 0 1538987.7639921382 3044537.9192414582 0 0 0 0 224268894.37730503 574629114.48045349 0 574629114.48045349 930231718.64422607 0 0 0 0 166634154.82550132 286721377.4158783 0 286721377.4158783 1162735497.7736664 0 0 0 0 105286852.5404979 555968330.14057922 0 555968330.14057922 1197295362.6501541 0 0 0 0 -34511203.033292681 559157523.54658508 0 559157523.54658508 945354078.08996582 0 0 0 0 206583082.87168574 177957519.75970459 0 177957519.75970459 1037197136.830719 0 0 0 0 230189858.64876807 88168255.055023193 0 88168255.055023193 682060323.64929199 0 0 0 0 -39312.713140070497 99251957.459281921 0 99251957.459281921 716226858.55367661 0 0 0 0 56053791.511993639 335511798.38549042 0 335511798.38549042 1304810906.9179688 0 0 0 0 335443140.6669932 631551888.48365784 0 631551888.48365784 1368650199.9008598 0 0 0 0 1722050.8249988237 306458673.87693787 0 306458673.87693787 2199332575.0906982 0 0 0 0 276540576.64091104 203187399.52656937 0 203187399.52656937 1615817753.2074585 0 0 0 0 787999061.68950391 675797470.73900986 0 675797470.73900986 1834034520.6395874 0 0 0 0 -320981.04773159383 649250.13331140578 0 649250.13331140578 4469253.1765538156 0 0 0 0 311267728.50149763 1359313149.2902527 0 1359313149.2902527 3191305476.197113 0 0 0 0 -574719400.47905946 1778050874.5337868 0 1778050874.5337868 6598128897.5040817 0 0 0 0 3180706.2607106348 299496123.59812111 0 299496123.59812111 2932600058.8414154 0 0 0 0 1324816806.6238158 2646994343.6514702 0 2646994343.6514702 300068310.0112915 0 0 0 0 2351835.303889852 3695224.8302648738 0 3695224.8302648738 2471231.4090340137 0 0 0 0 1198442553.2590733 3251016872.6486664 0 3251016872.6486664 1982443409.9464111 0 0 0 0 -632719.83860890823 -70670.040254622698 0 -70670.040254622698 2845288.3553563952 0 0 0 0 453509499.91194224 1629312044.3385773 0 1629312044.3385773 2402705888.1131134 0 0 0 0 -1428857633.0246983 -648165209.98825073 0 -648165209.98825073 1307032993.1685638 0 0 0 0 678208774.20217156 990838879.93284225 0 990838879.93284225 -1259525377.0367126 0 0 0 0 -290825998.39314437 382651175.01503754 0 382651175.01503754 2002927771.2176208 0 0 0 0 -173380896.873418 548523143.50265884 0 548523143.50265884 1963814354.8130493 0 0 0 0 -1102464392.7251272 553847933.07839966 0 553847933.07839966 2112780435.9355469 0 0 0 0 238697945.46166712 352520604.99572754 0 352520604.99572754 2000847514.0999451 0 0 0 0 11807517.396166719 296191921.020401 0 296191921.020401 1913774767.7168045 0 0 0 0 89377476.908568293 672203702.59428406 0 672203702.59428406 2005204667.3315735 0 0 0 0 -27751997.578006744 447639306.39102173 0 447639306.39102173 1707089103.5519409 0 0 0 0 -211635965.38266158 512975520.00784302 0 512975520.00784302 1705464447.5584106 0 0 0 0 523274845.40914059 998182115.41261292 0 998182115.41261292 1513217276.743042 0 0 0 0 -158876617.04711741 753036957.6855526 0 753036957.6855526 2072015155.7320251 0 0 0 0 -613257.40946181351 3680592.8041090742 0 3680592.8041090742 5449390.8263133615 0 0 0 0 495968640.62028503 1112552921.9818573 0 1112552921.9818573 1068228542.8659039 0 0 0 0 2333029037.0050883 2606490795.1838684 0 2606490795.1838684 1215249681.8403931 0 0 0 0 45724664.287379086 91338508.872913361 0 91338508.872913361 74574568.811248779 0 0 0 0 -36254952.747374535 567498.80320739746 0 567498.80320739746 72601283.350580215 0 0 0 0 729098069.66593504 820968263.69718933 0 820968263.69718933 1058285194.5722961 0 0 0 0 -3921378.1332958685 7821959.9747976139 0 7821959.9747976139 10856288.523833275 0 0 0 0 -19629907.766646385 42709135.048034668 0 42709135.048034668 71433784.463530064 0 0 0 0 510508724.83202934 853845143.83105469 0 853845143.83105469 4574066236.7404785 0 0 0 0 644177709.33756614 2862020500.8222961 0 2862020500.8222961 1194266695.9733582 0 0 0 0 2017864089.9579232 1625908524.832314 0 1625908524.832314 829924966.33425903 0 0 0 0 626428927.82800555 3480492617.6307068 0 3480492617.6307068 131272802.96551514 0 0 0 0 -1819859924.7117233 625306548.81526184 0 625306548.81526184 2781918336.6679001 0 0 0 0 2341454.1921663354 3401937.7200726159 0 3401937.7200726159 2818229.5345002562 0 0 0 0 -590962640.11519814 1782692362.9347839 0 1782692362.9347839 3423444424.8821564 0 0 0 0 1460595622.7370543 653073407.89147949 0 653073407.89147949 -1253922580.6437225 0 0 0 0 1361107951.0335631 3241706520.754776 0 3241706520.754776 -622012116.74667358 0 0 0 0 1928884105.5986471 2713600623.8744659 0 2713600623.8744659 -138779872.7401123 0 0 0 0 3074188797.061439 1296321257.7448273 0 1296321257.7448273 566593538.46850586 0 0 0 0 2244693345.3673282 2825098829.1883507 0 2825098829.1883507 2410878262.562561 0 0 0 0 1568658006.0019569 3242266862.2534714 0 3242266862.2534714 6608366389.2417908 0 0 0 0 -1228790685.3037353 144149369.9569397 0 144149369.9569397 3227303991.2912598 0 0 0 0 -2706064504.7586942 -1010381116.2974472 0 -1010381116.2974472 4418881678.8083496 0 0 0 0 -1679917552.6249204 1240023931.8627167 0 1240023931.8627167 6603735239.7790222 0 0 0 0 -1362287560.017796 362013263.42518616 0 362013263.42518616 6591219182.2766571 0 0 0 0 780951679.62208438 -932742581.38069153 0 -932742581.38069153 1197797197.9486389 0 0 0 0 1747202.8325407205 6721065.7495732009 0 6721065.7495732009 6815785.3666568547 0 0 0 0 7356485918.6745214 3855629964.2306671 0 3855629964.2306671 2056737855.0581512 0 0 0 0 749073183.4507097 -1908029832.7864838 0 -1908029832.7864838 2577154829.5678558 0 0 0 0 290221.0520407228 8291174.6131020747 0 8291174.6131020747 16870570.135059625 0 0 0 0 2429107736.0749283 1545341167.5788116 0 1545341167.5788116 470470404.5162735 0 0 0 0 -36424732.327248693 62002204.253173828 0 62002204.253173828 -23070891.795562744 0 0 0 0 -3962061.1270006984 4101136.9257350639 0 4101136.9257350639 9083408.3629141152 0 0 0 0 33071263.719639361 505901696.87207031 0 505901696.87207031 437225403.01693726 0 0 0 0 147499740.11706597 328842365.66885376 0 328842365.66885376 153994852.77752686 0 0 0 0 -945315.40391680645 1258641.6719166338 0 1258641.6719166338 2653829.2891005129 0 0 0 0 54609841.242224813 -10407901.286956787 0 -10407901.286956787 -26088010.115234375 0 0 0 0 87475864.118398309 -42998501.584579468 0 -42998501.584579468 3651351.2927856445 0 0 0 0 105464615.59743349 -16223393.891174316 0 -16223393.891174316 -64041430.066253662 0 0 0 0 126465286.33571458 -39842016.500946045 0 -39842016.500946045 -42991438.713653564 0 0 0 0 146846010.43340665 54351499.12896347 0 54351499.12896347 16090005.605529785 0 0 0 0 47419122.997992516 -28758504.189056396 0 -28758504.189056396 15351135.588592529 0 0 0 0 47812346.177919202 -34862801.882899761 0 -34862801.882899761 42232395.964294434 0 0 0 0 -21095679.073529866 -103728541.69117737 0 -103728541.69117737 -20871910.690124512 0 0 0 0 -5658517.5086789131 34013975.595291138 0 34013975.595291138 53085340.687927246 0 0 0 0 31887093.968100071 -19671455.5522995 0 -19671455.5522995 20684825.937286377 0 0 0 0 -3793641.7233834453 3135884.0181633309 0 3135884.0181633309 25552586.170659512 0 0 0 0 52394602.765468121 -15979680.817596436 0 -15979680.817596436 -14787504.483459473 0 0 0 0 48781925.302435875 -32418314.449234009 0 -32418314.449234009 29930874.120513916 0 0 0 0 -2444889.7304706573 11991434.568634033 0 11991434.568634033 39794300.875171661 0 0 0 0 -23404335.426664829 -7240028.8648681641 0 -7240028.8648681641 22349415.968963623 0 0 0 0 9353256.4423310757 -38992365.748847961 0 -38992365.748847961 42986615.088806152 0 0 0 0 65839438.304085255 -2392295.9281311035 0 -2392295.9281311035 34220073.282897949 0 0 0 0 34393607.884612322 3288357.9520874023 0 3288357.9520874023 77203339.900024414 0 0 0 0 47164016.995774269 -47391783.607254028 0 -47391783.607254028 -16151158.815185547 0 0 0 0 970248.6260812704 -223941.78154761996 0 -223941.78154761996 133864.07994531095 0 0 0 0 7134289.2442212105 -56528952.329452515 0 -56528952.329452515 70407397.391052246 0 0 0 0 -19167166.048885286 -44075839.873809814 0 -44075839.873809814 51613664.594085693 0 0 0 0 15282534.567101479 -44174426.676010132 0 -44174426.676010132 -5766638.268371582 0 0 0 0 -792321.44140247174 -743645.22845710814 0 -743645.22845710814 2568227.2800951898 0 0 0 0 29576195.375255108 -1911781.0113372803 0 -1911781.0113372803 25689667.304718018 0 0 0 0 1833259.5739855766 -23822539.913208008 0 -23822539.913208008 -7006215.7195034027 0 0 0 0 6250254.3886036016 -6675669.0314559937 0 -6675669.0314559937 7978049.044921875 0 0 0 0 977643.9046036962 394877.0420031324 0 394877.0420031324 41285760.973133855 0 0 0 0 15020182.573933721 7273402.3747749329 0 7273402.3747749329 15483008.234313965 0 0 0 0 -52338860.12166965 54931758.544723511 0 54931758.544723511 27987178.247680664 0 0 0 0 -2284782.5162989842 5757350.3898290908 0 5757350.3898290908 32452433.958687171 0 0 0 0 -17985105.23783654 -1893642.8193054199 0 -1893642.8193054199 15207235.302154541 0 0 0 0 -14519626.367701888 1959933.574798584 0 1959933.574798584 19488002.718040466 0 0 0 0 -6007879.3193647563 -6117078.4990844727 0 -6117078.4990844727 11036192.72644043 0 0 0 0 2512162.99700821 -3811378.5654618945 0 -3811378.5654618945 6205772.1758662611 0 0 0 0 -20511170.392204255 -6913979.5049133301 0 -6913979.5049133301 13978359.521209717 0 0 0 0 -19572329.274311602 -189765.57241821289 0 -189765.57241821289 14652758.305725098 0 0 0 0 -22684608.527103901 60471166.690917969 0 60471166.690917969 17609516.5496521 0 0 0 0 -47977700.639145315 -7300052.655456543 0 -7300052.655456543 8789654.8670043945 0 0 0 0 -174226440.72654772 44109320.954925537 0 44109320.954925537 132619754.08459473 0 0 0 0 -3894253.9025716027 -5457314.9114360437 0 -5457314.9114360437 34946440.362694919 0 0 0 0 -42871134.681080818 -27931353.7866745 0 -27931353.7866745 18108839.538208008 0 0 0 0 -119977.42710112105 -213171.63151217997 0 -213171.63151217997 439499.32436909899 0 0 0 0 -65636133.630135238 -26346717.51675415 0 -26346717.51675415 12978095.745117188 0 0 0 0 15791501.220639944 165011675.77908325 0 165011675.77908325 118212306.76342773 0 0 0 0 67808128.2908535 53096541.168365479 0 53096541.168365479 -2255347.3327636719 0 0 0 0 -28831839.463421822 86615840.736221313 0 86615840.736221313 -6693792.383605957 0 0 0 0 148099.24570530915 6884642.4656566959 0 6884642.4656566959 775937.4108313024 0 0 0 0 -3832387.4906691858 -468371.60751869343 0 -468371.60751869343 24561341.282954335 0 0 0 0 -10210743.803930998 1324989.4449806213 0 1324989.4449806213 25490343.224853516 0 0 0 0 -37943488.455760419 -14258300.507167816 0 -14258300.507167816 44192342.753601074 0 0 0 0 -15604072.022584677 31830550.717514038 0 31830550.717514038 17262242.60369873 0 0 0 0 581920.52588716988 7688016.563407585 0 7688016.563407585 28668200.972553726 0 0 0 0 5863263.8399944305 -2697578.1663818359 0 -2697578.1663818359 4691532.607170105 0 0 0 0 -113195942.5035587 56108157.613800049 0 56108157.613800049 87094099.471679688 0 0 0 0 1817893.6072850227 -17348410.596786499 0 -17348410.596786499 12214704.788146973 0 0 0 0 -22324379.032908708 63409214.786265373 0 63409214.786265373 -48181536.620056152 0 0 0 0 -31048.637695954647 1167343.6028147936 0 1167343.6028147936 5454215.5741024464 0 0 0 0 82755249.540123343 19606015.824325562 0 19606015.824325562 2899923.7771453857 0 0 0 0 -69753470.659441233 -49650956.059539795 0 -49650956.059539795 115790251.50636292 0 0 0 0 -9322057.8995141983 4867926.9782714844 0 4867926.9782714844 156483669.47216797 0 0 0 0 -99285067.14577198 15766115.542816162 0 15766115.542816162 125911099.71520996 0 0 0 0 27745419.481511593 103071823.87161255 0 103071823.87161255 -20795342.912139893 0 0 0 0 159196808.55191803 7391580.9344024658 0 7391580.9344024658 26263556.535186768 0 0 0 0 28335909.333780766 -86787225.385955811 0 -86787225.385955811 195527078.13449097 0 0 0 0 -76360285.957873821 -5907408.0483093262 0 -5907408.0483093262 274042348.911026 0 0 0 0 -73391276.958521754 11299931.777567863 0 11299931.777567863 173470380.29827881 0 0 0 0 -56751790.039448738 13581571.911178589 0 13581571.911178589 172919054.40336609 0 0 0 0 -41016596.927861452 -29417180.085617065 0 -29417180.085617065 -2673187.5110626221 0 0 0 0 -51944275.658547163 15563856.598754883 0 15563856.598754883 108097329.91301727 0 0 0 0 -25512192.607405424 39431547.564125061 0 39431547.564125061 111572516.35025024 0 0 0 0 -53714850.116573095 69424862.67880249 0 69424862.67880249 174223382.88996887 0 0 0 0 -32768838.3233459 56824608.770355225 0 56824608.770355225 62363706.499954224 0 0 0 0 -504068.53971400217 -632905.16432262771 0 -632905.16432262771 443003.31015694141 0 0 0 0 10888702.371080875 4199434.0419311523 0 4199434.0419311523 -11605353.166622162 0 0 0 0 127942496.17493904 -72384932.24344635 0 -72384932.24344635 26324508.301391602 0 0 0 0 -1401925.1464181978 -903266.47309050895 0 -903266.47309050895 31230673.044732958 0 0 0 0 -3904252.9958651052 8724192.9087967314 0 8724192.9087967314 34683621.822390512 0 0 0 0 -29558225.075630665 5679684.6386032104 0 5679684.6386032104 15574625.347610474 0 0 0 0 -147379698.6837709 -84919307.836250305 0 -84919307.836250305 139128087.60522461 0 0 0 0 -166352567.63361692 -59137008.892073631 0 -59137008.892073631 67640282.967697144 0 0 0 0 -52977253.101944804 15430538.848907471 0 15430538.848907471 21291275.91973114 0 0 0 0 -6603823.3043261636 18864359.479846433 0 18864359.479846433 38697381.085775539 0 0 0 0 -71865443.134749413 -54981466.937469482 0 -54981466.937469482 330801335.61073303 0 0 0 0 -79534796.463463068 -4903372.7725067139 0 -4903372.7725067139 24134046.328414917 0 0 0 0 -4133745.2646408081 49050119.681640625 0 49050119.681640625 231224432.08511353 0 0 0 0 -2659332.5691188574 15935073.305297852 0 15935073.305297852 159090185.27529907 0 0 0 0 -10169871.197953701 -31329275.720252991 0 -31329275.720252991 162250048.02359772 0 0 0 0 16288610.761128902 -44921479.260055542 0 -44921479.260055542 48541230.183761597 0 0 0 0 -3727574.6917327391 -9703298.149991937 0 -9703298.149991937 6546056.5576059595 0 0 0 0 -26595675.026490688 7637787.0631103516 0 7637787.0631103516 72669996.606140137 0 0 0 0 15966392.756955624 -55269335.336448669 0 -55269335.336448669 21064133.376289368 0 0 0 0 -712624.84573841095 17770618.909332275 0 17770618.909332275 87808999.099746704 0 0 0 0 -32318394.755589485 5426104.2732696533 0 5426104.2732696533 124166059.37104034 0 0 0 0 128866572.51984787 73459227.383537292 0 73459227.383537292 101276987.95346069 0 0 0 0 522854632.7660923 289752022.34416199 0 289752022.34416199 -55809463.066314697 0 0 0 0 -821453.57989000808 -1742675.0521515384 0 -1742675.0521515384 1818497.7695865333 0 0 0 0 206939874.49495983 -125329364.83336639 0 -125329364.83336639 -42162881.925392151 0 0 0 0 -401262377.93682957 85920796.186798096 0 85920796.186798096 230589153.45591354 0 0 0 0 -119699802.97902203 -40923089.901809692 0 -40923089.901809692 -164857012.07411957 0 0 0 0 18902943.727952957 202511978.57376862 0 202511978.57376862 170166844.6663208 0 0 0 0 -142353006.03153563 123426180.32049561 0 123426180.32049561 194118422.89343262 0 0 0 0 -115894966.56387271 -3075516.8970775604 0 -3075516.8970775604 324824706.09399414 0 0 0 0 -131532893.51067173 203682040.32435608 0 203682040.32435608 88247978.694976807 0 0 0 0 -317235982.60432506 14695193.543338776 0 14695193.543338776 586253463.2504425 0 0 0 0 -1768727.0406224469 -545636.24949099123 0 -545636.24949099123 4527191.5952647626 0 0 0 0 60163325.097771645 237913604.71929169 0 237913604.71929169 -59519146.443119049 0 0 0 0 677017089.83074379 -101685471.6658783 0 -101685471.6658783 -478251703.25531769 0 0 0 0 -236365955.11531937 -228163404.05250835 0 -228163404.05250835 170041146.62988281 0 0 0 0 -204967163.24894905 387473749.19837952 0 387473749.19837952 158035052.65211487 0 0 0 0 60166271.826573372 355341850.25442505 0 355341850.25442505 102817457.98913574 0 0 0 0 466801634.83470345 499571960.27928162 0 499571960.27928162 147263015.4216156 0 0 0 0 -19725784.250312924 420803763.38691711 0 420803763.38691711 674599925.8765564 0 0 0 0 16103741.355775237 -345718002.49620056 0 -345718002.49620056 541526024.40850067 0 0 0 0 68033575.41224277 -47351487.515823364 0 -47351487.515823364 212077904.58964539 0 0 0 0 96735399.120860517 567304523.94481945 0 567304523.94481945 38380066.248291016 0 0 0 0 1079636.0023807466 -583528.39709196612 0 -583528.39709196612 2123551.0014961213 0 0 0 0 -206032858.26111102 6851343.0371551514 0 6851343.0371551514 -59596375.323051453 0 0 0 0 -197748125.54237437 -200336124.63603592 0 -200336124.63603592 -44092488.230506897 0 0 0 0 -3538487.850787119 -5083565.8785931543 0 -5083565.8785931543 13941475.527631702 0 0 0 0 -247687680.17832422 -241571101.55154419 0 -241571101.55154419 490952253.79751205 0 0 0 0 591512449.1141715 -26114547.227916718 0 -26114547.227916718 -353981013.68990326 0 0 0 0 2496902.0376754543 -5555106.1680589169 0 -5555106.1680589169 7653505.4432394262 0 0 0 0 10983322.817180812 32800957.567523956 0 32800957.567523956 10060653.482650757 0 0 0 0 -34548834.268138647 -8254861.5666656494 0 -8254861.5666656494 42247894.945919037 0 0 0 0 -7950206.9004868837 29207020.094564438 0 29207020.094564438 57841917.315246582 0 0 0 0 -9476453.3071632385 -16364070.873100281 0 -16364070.873100281 19153834.37902832 0 0 0 0 3425242.0558269024 -5888649.0601882935 0 -5888649.0601882935 27563112.947982788 0 0 0 0 -5402264.4846961387 -7445723.6500753267 0 -7445723.6500753267 16562752.929325014 0 0 0 0 -432002.60143160843 -527830.73165700585 0 -527830.73165700585 5260994.7482167631 0 0 0 0 -252263625.00451136 -16084522.703586578 0 -16084522.703586578 56778667.870483398 0 0 0 0 -17049201.802278996 380817.19873046875 0 380817.19873046875 45554445.150123596 0 0 0 0 -765462.41921938933 -5180799.7068608552 0 -5180799.7068608552 725365.29178319871 0 0 0 0 -1508244.5458382862 -1657209.6042544916 0 -1657209.6042544916 11655581.402793624 0 0 0 0 -5066508.999843359 -6309634.630531311 0 -6309634.630531311 13617054.266910553 0 0 0 0 -2249450.2480864353 -8204723.7585970964 0 -8204723.7585970964 6962168.4751122594 0 0 0 0 -5203314.5173482895 -6235102.3633346558 0 -6235102.3633346558 3770143.03125 0 0 0 0 -4227870.9813822834 -423895.18310588598 0 -423895.18310588598 31147214.238813154 0 0 0 0 16544985.953343391 -21974081.756446838 0 -21974081.756446838 -29642207.843200684 0 0 0 0 -1982253.0266745379 -3732568.3460423425 0 -3732568.3460423425 19075447.810245369 0 0 0 0 -3187665.6397930132 -8527713.5801171437 0 -8527713.5801171437 18224581.728507161 0 0 0 0 -6869991.9083707333 -7140088.4647521973 0 -7140088.4647521973 13740357.545593262 0 0 0 0 810417.00385750458 -1515150.9437866211 0 -1515150.9437866211 11254473.260620117 0 0 0 0 -4303574.4065503329 -7104817.2017957941 0 -7104817.2017957941 22689424.687042013 0 0 0 0 -7838979.4723815918 -4043992.7045288086 0 -4043992.7045288086 9670545.6264648438 0 0 0 0 128834.96233885721 -7044042.1005659299 0 -7044042.1005659299 9956384.9766047597 0 0 0 0 -6983392.7516269684 -6696009.3488464355 0 -6696009.3488464355 15754923.69519043 0 0 0 0 -3061591.3183123702 1594275.0970698744 0 1594275.0970698744 25822628.128879443 0 0 0 0 -3725835.4908579513 -6376952.0475921631 0 -6376952.0475921631 7797357.5789489746 0 0 0 0 1646792.9820278343 1025030.1149148643 0 1025030.1149148643 25539801.092875563 0 0 0 0 -4622968.9343185425 -1097166.1566162109 0 -1097166.1566162109 11447092.879852295 0 0 0 0 88867.027581213042 -7419437.752886802 0 -7419437.752886802 7603342.3680598438 0 0 0 0 -3139929.7223372012 -3090119.3839111328 0 -3090119.3839111328 10955211.930114746 0 0 0 0 -33445631.150510281 -22545998.491027832 0 -22545998.491027832 25014614.952514648 0 0 0 0 -524082.57326034718 -5237546.4387670625 0 -5237546.4387670625 1226472.4853683561 0 0 0 0 -36748208.871877104 -57889150.593017578 0 -57889150.593017578 45523417.084075928 0 0 0 0 -933292.43967393669 -153148.84595644474 0 -153148.84595644474 15136927.966022968 0 0 0 0 -4734980.338467598 667163.79619598389 0 667163.79619598389 6438254.5876731873 0 0 0 0 46004.035638765199 688245.81838420592 0 688245.81838420592 17342520.228910461 0 0 0 0 -5970251.9062447548 6210239.3260879517 0 6210239.3260879517 35164057.961975098 0 0 0 0 -9949900.4165596962 5252358.7939834595 0 5252358.7939834595 37647959.914260864 0 0 0 0 -8958619.1438100338 7191507.8190689087 0 7191507.8190689087 39241070.224105835 0 0 0 0 -7200550.6157402992 4040822.1439285278 0 4040822.1439285278 32272745.553771973 0 0 0 0 4924672.9206190109 -22583875.998077393 0 -22583875.998077393 38189324.568603516 0 0 0 0 -13510703.250536442 -12696336.713371277 0 -12696336.713371277 80221558.635437012 0 0 0 0 831379.7294572267 -914644.28957726154 0 -914644.28957726154 27063272.77585721 0 0 0 0 -37678962.837106943 16573492.241996765 0 16573492.241996765 90456019.344940186 0 0 0 0 -270927983.7733438 -96707489.389389038 0 -96707489.389389038 18138416.13760376 0 0 0 0 -37609371.483033396 214265.48408508301 0 214265.48408508301 -16968905.311004639 0 0 0 0 -2674279.9434736874 4456588.1034999583 0 4456588.1034999583 3701304.3705551177 0 0 0 0 -27935345.141302943 -199859955.04830551 0 -199859955.04830551 -232948068.51278687 0 0 0 0 -9461059.7070446014 -17509630.318908691 0 -17509630.318908691 26927249.624359131 0 0 0 0 206383096.78328827 215629633.15306091 0 215629633.15306091 -270829393.36630249 0 0 0 0 23294466.816957235 5245931.7573013306 0 5245931.7573013306 -598493.89433288574 0 0 0 0 7914766.4315872192 6020552.7103118896 0 6020552.7103118896 71372562.562229156 0 0 0 0 6372919.5385121107 -7084015.1425323486 0 -7084015.1425323486 27836176.815200806 0 0 0 0 6113817.7901531458 -11155910.696941376 0 -11155910.696941376 28182567.312591553 0 0 0 0 56183862.707195811 586512936.60598755 0 586512936.60598755 5830066318.6053162 0 0 0 0 6647202.8575862646 -11782940.856548309 0 -11782940.856548309 24588822.594833374 0 0 0 0 2588568.9028641651 -5054725.261292845 0 -5054725.261292845 12742698.674024124 0 0 0 0 -91908831.555292755 -864191907.51541138 0 -864191907.51541138 6607751776.2345467 0 0 0 0 -180727092.29997891 328015888.54007339 0 328015888.54007339 1344464502.5228271 0 0 0 0 870799.29941272247 -2949042.3248251369 0 -2949042.3248251369 24475581.530891538 0 0 0 0 1959858610.2686806 2997380038.256897 0 2997380038.256897 558199896.52514648 0 0 0 0 4750103.443994198 -21539625.271103628 0 -21539625.271103628 6717181.2150004059 0 0 0 0 -1078332158.4783394 742718219.74560547 0 742718219.74560547 2486693963.2593079 0 0 0 0 4131544.9145878777 -7827569.1938095093 0 -7827569.1938095093 2235357.0853750259 0 0 0 0 17451955.090966038 -18298830.650741577 0 -18298830.650741577 29497602.498535156 0 0 0 0 1627047657.1658199 -3367803308.4052429 0 -3367803308.4052429 3844860451.8811951 0 0 0 0 2975148508.4027081 -661236558.90367889 0 -661236558.90367889 153292206.32094955 0 0 0 0 -4622079.7603787044 16714434.797009423 0 16714434.797009423 -4974573.251444947 0 0 0 0 2252805.5468189763 257147.10822603106 0 257147.10822603106 8599533.69105196 0 0 0 0 14615965.236553907 -10678500.621017456 0 -10678500.621017456 10868870.201705933 0 0 0 0 63310296.756025046 680812975.58430099 0 680812975.58430099 6663352063.0029755 0 0 0 0 6759731.3061423302 -19670539.595413208 0 -19670539.595413208 61413681.054092407 0 0 0 0 7778694.5390777588 -18707359.961128235 0 -18707359.961128235 29527225.440513611 0 0 0 0 38036579.824232131 -65158093.817991257 0 -65158093.817991257 77133468.499313354 0 0 0 0 30245236.185960889 -40525324.889213562 0 -40525324.889213562 50682052.987731934 0 0 0 0 -10824766.559854299 -20934281.354701996 0 -20934281.354701996 66258256.733978271 0 0 0 0 -29910341.897219181 -6972815.8598480225 0 -6972815.8598480225 57164555.690498352 0 0 0 0 -24123245.062845945 -26565317.67816925 0 -26565317.67816925 73169492.63514328 0 0 0 0 4616985.2679540813 -38514594.888542175 0 -38514594.888542175 67626947.372879028 0 0 0 0 7917812.0397796333 -32073697.489625931 0 -32073697.489625931 68157658.932388306 0 0 0 0 439263.01614740153 -917338.09020324051 0 -917338.09020324051 1227436.429711625 0 0 0 0 113930818.21934247 -158487481.1231842 0 -158487481.1231842 187442247.56429672 0 0 0 0 -66672554.067733526 129129324.75808716 0 129129324.75808716 22613381.521263123 0 0 0 0 276816051.86022854 37701518.909751892 0 37701518.909751892 41815362.089050293 0 0 0 0 -170911465.48840854 368257736.4479332 0 368257736.4479332 230005318.91374207 0 0 0 0 254573061.32883418 -409623128.23548889 0 -409623128.23548889 138422360.32981777 0 0 0 0 1778403.3329288741 -3320774.0648400411 0 -3320774.0648400411 2939606.1247574091 0 0 0 0 1163855604.7788973 -1782915302.3420258 0 -1782915302.3420258 685643321.53184128 0 0 0 0 -249180472.17347705 119499543.63427734 0 119499543.63427734 901645868.63453674 0 0 0 0 -74447154.81622982 198348360.31142044 0 198348360.31142044 2475151935.0708008 0 0 0 0 -1480226655.1798162 288594239.10974884 0 288594239.10974884 6616538695.3437586 0 0 0 0 -862698532.54996467 -999375094.69473648 0 -999375094.69473648 2894576372.0266418 0 0 0 0 -809758853.69456017 -1344246693.7727757 0 -1344246693.7727757 4379307017.5288391 0 0 0 0 -650361587.95888376 -2638177503.4336243 0 -2638177503.4336243 6603590875.9097652 0 0 0 0 1833224246.9521794 2938018766.2820921 0 2938018766.2820921 2817186894.4290924 0 0 0 0 -1037770097.9421499 2209933045.5164108 0 2209933045.5164108 6602495040.1616364 0 0 0 0 -1317574410.3963299 797623160.16982651 0 797623160.16982651 3403304969.1107941 0 0 0 0 -419346647.6301254 1543881812.7589493 0 1543881812.7589493 2880289261.8856239 0 0 0 0 80812810.946646035 -106427257.34882355 0 -106427257.34882355 707287872.08154297 0 0 0 0 -388767624.80881798 179489346.3888092 0 179489346.3888092 1244881238.7263641 0 0 0 0 -8927412.545678854 -15340960.893989563 0 -15340960.893989563 19423085.726272583 0 0 0 0 -54237811.576315641 139604845.50282288 0 139604845.50282288 472346746.30871582 0 0 0 0 68352282.285410404 -158582847.1435318 0 -158582847.1435318 130064385.41488647 0 0 0 0 -16232039.34002614 -152804676.10121155 0 -152804676.10121155 130517906.86882401 0 0 0 0 -309376.92510963546 51013.422934494913 0 51013.422934494913 1766841.4501438066 0 0 0 0 53416743.891536355 -83506432.497180939 0 -83506432.497180939 -100158093.42718506 0 0 0 0 -76859969.631813765 19906490.372802734 0 19906490.372802734 205849988.6517334 0 0 0 0 -69765282.990764141 24370457.278896332 0 24370457.278896332 310102908.00215149 0 0 0 0 -131150453.20078182 -34917725.26202774 0 -34917725.26202774 264882072.46471405 0 0 0 0 -64256972.216700554 -226676926.36342621 0 -226676926.36342621 765979594.46729851 0 0 0 0 -102333451.56856155 497101569.95301056 0 497101569.95301056 580933853.17533875 0 0 0 0 6663681.1944220746 -5303589.529573597 0 -5303589.529573597 4001644.1800838243 0 0 0 0 31891312.854969025 223964273.28725433 0 223964273.28725433 -269538461.95576477 0 0 0 0 217560709.40503144 -24078041.540817261 0 -24078041.540817261 -173409150.32024384 0 0 0 0 476177495.04715538 -552091936.43469238 0 -552091936.43469238 -255114150.65151596 0 0 0 0 6133708.4139321232 -5760565.271977488 0 -5760565.271977488 4900396.6784612909 0 0 0 0 -117832407.62014341 32429323.064804077 0 32429323.064804077 222217619.02066994 0 0 0 0 -329812858.72464132 50872143.153610229 0 50872143.153610229 873292557.58738708 0 0 0 0 -103646.73250133358 -1023500.9958904311 0 -1023500.9958904311 1126138.538738586 0 0 0 0 86833980.010511398 503152620.7502594 0 503152620.7502594 563057967.40407181 0 0 0 0 175377042.67407894 -79619923.379878998 0 -79619923.379878998 34684224.640762329 0 0 0 0 -9154422.7115271688 -9375346.3840494156 0 -9375346.3840494156 7975635.223815918 0 0 0 0 -5177375.924722055 -3796211.3573551476 0 -3796211.3573551476 5794992.5693297554 0 0 0 0 157479845.25800085 10792431.65940094 0 10792431.65940094 -7129826.9840698242 0 0 0 0 -6320571.2312778886 -2080275.6447381042 0 -2080275.6447381042 12120784.363965124 0 0 0 0 1814568.5459942222 400185.16416693479 0 400185.16416693479 1356815.8723280448 0 0 0 0 8417703.2190818787 -59150416.944869995 0 -59150416.944869995 66885012.213783264 0 0 0 0 -11559848.672463894 -13278239.505508423 0 -13278239.505508423 -2367369.1980757713 0 0 0 0 -8623554.8239061832 -8715946.7632102966 0 -8715946.7632102966 -2641143.7126159668 0 0 0 0 -2234422.4461078644 -5381335.3136672974 0 -5381335.3136672974 -2342587.4746347666 0 0 0 0 -3158179.741689682 -3637687.7502441406 0 -3637687.7502441406 -2349462.5279762745 0 0 0 0 -2990046.6824765205 -4390762.9957275391 0 -4390762.9957275391 -948686.78179121017 0 0 0 0 -204731.49205517769 -4589663.3205375671 0 -4589663.3205375671 -3888594.3235321045 0 0 0 0 -1803469.2160515785 -6258159.8782730103 0 -6258159.8782730103 -997402.03286623955 0 0 0 0 -1491310.6212954521 -1651490.3230361938 0 -1651490.3230361938 31023.513206481934 0 0 0 0 -3576697.437414553 -3817442.2820771188 0 -3817442.2820771188 4529153.8727385569 0 0 0 0 -41137948.367327332 -63056836.31580019 0 -63056836.31580019 257769540.49302673 0 0 0 0 -3012137.7859168053 -6011856.1046447754 0 -6011856.1046447754 6669567.068939209 0 0 0 0 21936661.219877481 35965352.107513428 0 35965352.107513428 79183957.832214355 0 0 0 0 50633427.542658091 -4594518.4615936279 0 -4594518.4615936279 52304450.905471802 0 0 0 0 -7090728.5291147232 -7757427.3286132812 0 -7757427.3286132812 67725256.34286499 0 0 0 0 255873.87778425217 -16881578.310157776 0 -16881578.310157776 21970635.687988281 0 0 0 0 -11143455.084787846 -27466740.675064087 0 -27466740.675064087 95220016.408630371 0 0 0 0 -194179.15324866818 -166351.96177180111 0 -166351.96177180111 425596.46131840348 0 0 0 0 468317.59494590759 35243822.397342682 0 35243822.397342682 118167646.84044456 0 0 0 0 -98780.211115686223 -631039.81658689305 0 -631039.81658689305 459546.00836852193 0 0 0 0 16864345.859468937 -9171326.1537017822 0 -9171326.1537017822 4936252.3856048584 0 0 0 0 -45071.677209372399 -303244.79990530387 0 -303244.79990530387 173796.93925151788 0 0 0 0 -3556529.8431937695 -10703444.949737549 0 -10703444.949737549 -18359637.204032898 0 0 0 0 -15065040.753531694 -17903541.692554474 0 -17903541.692554474 112940255.43984985 0 0 0 0 -11946310.37045145 -10853990.084442139 0 -10853990.084442139 94287996.643161774 0 0 0 0 -10149282.898499012 -17711959.605857849 0 -17711959.605857849 88604444.849319458 0 0 0 0 7586766.5785303116 -17308004.227325439 0 -17308004.227325439 49680298.168746948 0 0 0 0 -11192503.932507515 5604333.4742126465 0 5604333.4742126465 54681324.457611084 0 0 0 0 -2922307.6634874344 -1826324.1465530396 0 -1826324.1465530396 67786728.190460205 0 0 0 0 -6145450.0750637054 15831527.644577026 0 15831527.644577026 55616137.896549225 0 0 0 0 -4961737.917552948 10437446.771240234 0 10437446.771240234 53701237.352233887 0 0 0 0 -7514167.4948301315 16829733.21421814 0 16829733.21421814 45435409.316421509 0 0 0 0 -5539696.0064108372 8131666.9330844879 0 8131666.9330844879 48389199.393798828 0 0 0 0 -10222217.643920422 12330598.265579224 0 12330598.265579224 51369763.987731934 0 0 0 0 -8951227.3878788948 11373965.293502808 0 11373965.293502808 44651626.725280762 0 0 0 0 -7902449.1421957016 17166311.953186035 0 17166311.953186035 116892211.10798264 0 0 0 0 -10345755.112048149 5021347.1974639893 0 5021347.1974639893 76745246.029319763 0 0 0 0 -9749336.6650481224 5295867.7413024902 0 5295867.7413024902 74008621.879089355 0 0 0 0 -5451378.9760637283 9228284.3037605286 0 9228284.3037605286 76038049.48815918 0 0 0 0 3723978.4576854706 21259992.396591187 0 21259992.396591187 58341878.092727661 0 0 0 0 6448305.2031874657 10407567.917068481 0 10407567.917068481 50348028.300323486 0 0 0 0 9910292.6338634491 19373290.397727966 0 19373290.397727966 41481943.464164734 0 0 0 0 -5556421.9579014778 18146555.372756958 0 18146555.372756958 42680713.343780518 0 0 0 0 405119.14128303528 12114483.798812866 0 12114483.798812866 44520759.962249756 0 0 0 0 -10588500.613415718 9525494.8942947388 0 9525494.8942947388 27479943.494827271 0 0 0 0 7611272.8213658333 10193718.776622772 0 10193718.776622772 27435742.289840698 0 0 0 0 -10215741.004159927 15777266.835464478 0 15777266.835464478 32972914.988250732 0 0 0 0 -11794645.359089375 16555417.962371826 0 16555417.962371826 39840895.332519531 0 0 0 0 -6295963.6087007523 16098998.413391113 0 16098998.413391113 38771953.920028687 0 0 0 0 -11174821.883625984 20177954.036132812 0 20177954.036132812 34609043.127227783 0 0 0 0 -9661401.8846788406 14120333.271652222 0 14120333.271652222 41120765.641139984 0 0 0 0 -4901095.8814229965 11866181.732017517 0 11866181.732017517 40694076.995483398 0 0 0 0 -15114630.539585114 13514324.404693604 0 13514324.404693604 30796062.306367874 0 0 0 0 -528038.79474043846 18304341.140548706 0 18304341.140548706 31798070.5597229 0 0 0 0 -8682088.8732709885 19168078.371231079 0 19168078.371231079 30209276.473358154 0 0 0 0 -11138187.189138472 22718919.513286591 0 22718919.513286591 28197208.281585693 0 0 0 0 1466486.5358562469 38362239.252349854 0 38362239.252349854 18317936.329727173 0 0 0 0 -36509279.660616875 3061535.4009475708 0 3061535.4009475708 47355737.178009033 0 0 0 0 -47893562.514511585 58692423.018770218 0 58692423.018770218 11707530.064056396 0 0 0 0 -4583828.4607706368 11095492.176590823 0 11095492.176590823 24304954.940862179 0 0 0 0 1693974.0591635704 12400224.727050781 0 12400224.727050781 18407126.03817749 0 0 0 0 -14280968.86379528 17540151.785484314 0 17540151.785484314 17668486.961021423 0 0 0 0 -5465275.2922461843 11955194.005339913 0 11955194.005339913 24364275.484344013 0 0 0 0 -6199620.4574473957 10735454.335827332 0 10735454.335827332 29499895.179853015 0 0 0 0 -6551457.290753603 5800460.21434021 0 5800460.21434021 18902060.664611816 0 0 0 0 -10345746.282961845 14671961.991081238 0 14671961.991081238 27400756.368385315 0 0 0 0 -11499499.31879127 -1297416.1768550873 0 -1297416.1768550873 29118688.693328857 0 0 0 0 -895035.23672676086 8539540.2559661865 0 8539540.2559661865 21726445.019927979 0 0 0 0 -6815230.8395805266 12066213.70721098 0 12066213.70721098 30306252.739790536 0 0 0 0 -4682227.884021759 8653472.6061172485 0 8653472.6061172485 20514859.273406982 0 0 0 0 -23239670.346101284 -700027.21481323242 0 -700027.21481323242 30025214.34677124 0 0 0 0 -18942838.065942764 8332168.9682312012 0 8332168.9682312012 49902914.376972198 0 0 0 0 6609268.2059715986 -6404641.0801978111 0 -6404641.0801978111 27188076.312362671 0 0 0 0 -4258336.7478685379 -30247931.412902832 0 -30247931.412902832 17055945.908370972 0 0 0 0 -3411624.7107258728 -10672758.53394315 0 -10672758.53394315 37530471.067726195 0 0 0 0 -6080680.5196703672 -36947551.208862305 0 -36947551.208862305 25038444.285125732 0 0 0 0 -9651599.9577646255 -13602266.735221863 0 -13602266.735221863 11039932.647018433 0 0 0 0 -3726869.7131026918 -2084193.0790596008 0 -2084193.0790596008 4556583.5420847163 0 0 0 0 -13940341.19018022 18850525.314760804 0 18850525.314760804 41652415.877743565 0 0 0 0 -13827369.838670731 23265562.471626282 0 23265562.471626282 12801214.25920105 0 0 0 0 -126386072.50456327 -22325612.058113098 0 -22325612.058113098 71565090.946033478 0 0 0 0 -2844101.1133403778 14151825.97454834 0 14151825.97454834 12312396.99536562 0 0 0 0 -19591337.361931086 15119966.367584229 0 15119966.367584229 78799624.587112427 0 0 0 0 -3206801.6366300583 11970261.204620361 0 11970261.204620361 12767168.149894714 0 0 0 0 -1201044.3355169296 10644224.129577637 0 10644224.129577637 13641771.52947998 0 0 0 0 499371.44222730398 15421909.748717047 0 15421909.748717047 8154094.0424171761 0 0 0 0 25040427.952014923 13313338.43762207 0 13313338.43762207 -61203315.356872559 0 0 0 0 -74567.206966449739 2137312.3265319616 0 2137312.3265319616 5020819.5871958639 0 0 0 0 23839734.560138941 46851304.252822876 0 46851304.252822876 -4331137.314157486 0 0 0 0 -8787695.757511735 14742957.813537598 0 14742957.813537598 38730503.681922913 0 0 0 0 -2729011.5341096609 16004591.626315229 0 16004591.626315229 16916523.186643805 0 0 0 0 -421323.98479462881 6892240.310411457 0 6892240.310411457 28794646.827502057 0 0 0 0 2213175.6660547256 5755874.9740142822 0 5755874.9740142822 17264611.936378479 0 0 0 0 1876469.7751942137 17619179.661914594 0 17619179.661914594 -15302024.322486684 0 0 0 0 577846.89016485214 26335204.926368713 0 26335204.926368713 -35514601.688751221 0 0 0 0 84686637.130311966 16143610.375976562 0 16143610.375976562 -35480510.747085571 0 0 0 0 -8189566.4134602547 11202504.251800537 0 11202504.251800537 -19064674.690689087 0 0 0 0 -1546401.8922184214 2560128.5103942156 0 2560128.5103942156 -12024.732391238213 0 0 0 0 30765775.029063225 3035026.2879943848 0 3035026.2879943848 -17461733.440105438 0 0 0 0 26482497.061451912 14808818.92540741 0 14808818.92540741 -2901368.9934082031 0 0 0 0 76064806.828356981 -23409394.143859863 0 -23409394.143859863 -45842501.782546997 0 0 0 0 2207551.3493797779 617786.83852386475 0 617786.83852386475 -38802306.748519897 0 0 0 0 3115406.717839947 4815004.781516321 0 4815004.781516321 -8497985.7162673622 0 0 0 0 6428221.4819083214 33700507.384666443 0 33700507.384666443 -64885424.999923706 0 0 0 0 -40241124.540750027 63270936.19405365 0 63270936.19405365 59688605.543716431 0 0 0 0 -22776211.561249971 21504811.537353516 0 21504811.537353516 108539319.94177246 0 0 0 0 645598.59834749019 14811782.768892094 0 14811782.768892094 8354384.3352303207 0 0 0 0 11740812.982225358 9076455.351641655 0 9076455.351641655 313603.01445007324 0 0 0 0 21496932.233604908 46173489.344177246 0 46173489.344177246 5066931.4160766602 0 0 0 0 1930379.855391603 14110915.396144852 0 14110915.396144852 5101114.9882360771 0 0 0 0 -1876587.4294123838 490890.39761669934 0 490890.39761669934 7323861.9143232405 0 0 0 0 7464115.9518437386 118454240.60877991 0 118454240.60877991 75075482.065071106 0 0 0 0 115901248.39495456 91501489.771781921 0 91501489.771781921 -58529049.981750488 0 0 0 0 20273083.28786061 22980647.877983093 0 22980647.877983093 24097322.32699585 0 0 0 0 268049.05093770474 5917907.8464439586 0 5917907.8464439586 16101160.884119645 0 0 0 0 -37535687.274356842 -134538862.85955811 0 -134538862.85955811 129785985.67485809 0 0 0 0 18625499.271494031 83337367.51612854 0 83337367.51612854 47192157.55821228 0 0 0 0 -28543041.00867939 45191060.865921021 0 45191060.865921021 34642050.549743652 0 0 0 0 -2226935.6324581504 -70849645.658360481 0 -70849645.658360481 155362646.57017517 0 0 0 0 4018390.1551340586 1936039.7794421166 0 1936039.7794421166 -6967698.8542402685 0 0 0 0 57749978.478607893 13462150.418510437 0 13462150.418510437 -32570016.611404419 0 0 0 0 26862136.859380722 1866325.2490692139 0 1866325.2490692139 -33554360.772186279 0 0 0 0 6049458.3574748766 14109484.414434142 0 14109484.414434142 3877531.9365803674 0 0 0 0 4533935.6920623779 -851828.23035430908 0 -851828.23035430908 -4380246.3393707275 0 0 0 0 -10921713.360374451 84966124.569763184 0 84966124.569763184 -113224305.69046021 0 0 0 0 73819382.388237 33360378.853713989 0 33360378.853713989 -82280896.180221558 0 0 0 0 8675406.8571370691 3540234.8527325168 0 3540234.8527325168 2696963.6242253035 0 0 0 0 63798298.028923035 205785379.0933075 0 205785379.0933075 -14706836.553985596 0 0 0 0 -42206884.538467407 120550511.38194275 0 120550511.38194275 -68995538.143447876 0 0 0 0 9780055.4897439517 11826609.457720697 0 11826609.457720697 7582025.1319128126 0 0 0 0 -16404151.096193314 38471061.548400879 0 38471061.548400879 28920043.06363678 0 0 0 0 13781037.206389427 -7862529.3699417114 0 -7862529.3699417114 -14246410.03477478 0 0 0 0 31102421.640558243 4297087.0656890869 0 4297087.0656890869 47439529.822631836 0 0 0 0 11369451.907527477 11309616.095469229 0 11309616.095469229 9404784.4437297881 0 0 0 0 -9587419.9778671265 2235829.5172271729 0 2235829.5172271729 5303816.1865539551 0 0 0 0 1299887.5398764368 2978321.9052151367 0 2978321.9052151367 20168293.913696483 0 0 0 0 -67490203.444505095 -15649863.140815735 0 -15649863.140815735 45316577.058227539 0 0 0 0 -294796.1167011261 2187296.0866394043 0 2187296.0866394043 4598821.9192504883 0 0 0 0 3768961.6580729978 11922267.444192514 0 11922267.444192514 13742054.365918562 0 0 0 0 45723059.138055801 24875629.07850647 0 24875629.07850647 -132562470.31341553 0 0 0 0 47846440.326553345 -2864265.8262786865 0 -2864265.8262786865 -273579632.01794434 0 0 0 0 11037062.525791602 2581530.849095054 0 2581530.849095054 11197531.88775399 0 0 0 0 1471074.4731878377 699221.77002204582 0 699221.77002204582 106361.06153604388 0 0 0 0 -40311744.470271111 -16677532.96270752 0 -16677532.96270752 14510019.680603027 0 0 0 0 -51442428.784771919 -38796950.601470947 0 -38796950.601470947 78432347.241851807 0 0 0 0 5265591.3887021067 1782295.3183099404 0 1782295.3183099404 15429047.889641419 0 0 0 0 -250545034.84461546 50208482.655456543 0 50208482.655456543 40412365.375976562 0 0 0 0 -3384822.4135257937 -2278970.5199689344 0 -2278970.5199689344 4623313.6199558377 0 0 0 0 2577715.265704833 6153761.4917586744 0 6153761.4917586744 23746868.544094339 0 0 0 0 -23801860.858145714 31107318.580215454 0 31107318.580215454 35423566.775848389 0 0 0 0 6667644.065410614 15431351.641738892 0 15431351.641738892 25041248.425300598 0 0 0 0 11939539.133548737 17484670.367801666 0 17484670.367801666 23460158.835586548 0 0 0 0 19544368.428725243 17610103.501808167 0 17610103.501808167 23968679.692451477 0 0 0 0 5088802.5404525464 10636360.927231012 0 10636360.927231012 34336080.455275819 0 0 0 0 -647906.09786224365 19891549.764770508 0 19891549.764770508 29767276.799942017 0 0 0 0 -254295538.50180817 164717.55505371094 0 164717.55505371094 62503590.844970703 0 0 0 0 9008246.9452438354 23539192.595085144 0 23539192.595085144 27794123.705001831 0 0 0 0 -23673104.545232773 29870003.364578247 0 29870003.364578247 36831020.606056213 0 0 0 0 2172461.0787765919 13308340.454917904 0 13308340.454917904 39923272.368879423 0 0 0 0 7635472.7578792572 40575766.658258438 0 40575766.658258438 33483710.357177734 0 0 0 0 -18102998.55305481 11435245.214416504 0 11435245.214416504 36358647.13381958 0 0 0 0 32169755.836161613 21443935.612586975 0 21443935.612586975 19706542.627563477 0 0 0 0 35147296.955299377 27753764.765548706 0 27753764.765548706 27903726.659301758 0 0 0 0 38647244.884788513 59992171.51914978 0 59992171.51914978 77731614.993286133 0 0 0 0 67911156.007419586 23895903.961914062 0 23895903.961914062 21713733.947021484 0 0 0 0 26250383.049503326 38552555.293426514 0 38552555.293426514 40931347.610305786 0 0 0 0 7026500.6408691406 39950570.126022339 0 39950570.126022339 41591447.481639862 0 0 0 0 19052026.888782978 22516174.997215271 0 22516174.997215271 20373770.743255615 0 0 0 0 9840910.6419715881 20221910.772918701 0 20221910.772918701 26091208.290603638 0 0 0 0 13942239.105443001 9924848.033782959 0 9924848.033782959 19811979.538650513 0 0 0 0 21833983.806622028 18194874.076927185 0 18194874.076927185 24376851.701678753 0 0 0 0 -4920110.1542160567 10040191.51570756 0 10040191.51570756 16701865.343407124 0 0 0 0 -1962818.904270649 4186605.8520584106 0 4186605.8520584106 -52099365.625156403 0 0 0 0 -175068.42013669014 26606123.039451599 0 26606123.039451599 18497902.65083313 0 0 0 0 -7842214.0415956974 10997555.370399475 0 10997555.370399475 27233668.557922363 0 0 0 0 -21327331.913860321 17461429.277862549 0 17461429.277862549 30012716.862884521 0 0 0 0 -1514633.3853938328 825609.22092632949 0 825609.22092632949 2272230.6731019467 0 0 0 0 -12084751.196362495 17107029.392311096 0 17107029.392311096 38388610.487457275 0 0 0 0 2925283.9722547852 12789229.950451046 0 12789229.950451046 5690179.7969816253 0 0 0 0 15535315.792328835 15779057.692970276 0 15779057.692970276 18802311.184211731 0 0 0 0 20891400.086477518 -12472733.050743103 0 -12472733.050743103 8282392.2758178711 0 0 0 0 -18225470.690466881 -568685.77325439453 0 -568685.77325439453 28127671.723045349 0 0 0 0 139514792.71168911 -4191991.8312606812 0 -4191991.8312606812 27773208.958862305 0 0 0 0 72332063.936898202 95188949.667694569 0 95188949.667694569 130551310.55197144 0 0 0 0 -4528120.577702458 -6986691.5411738455 0 -6986691.5411738455 22012284.471574977 0 0 0 0 -1846325.3858711934 933397.98451497406 0 933397.98451497406 2761755.4417947456 0 0 0 0 -687687.12920624949 -22407.950821600854 0 -22407.950821600854 1696218.032923311 0 0 0 0 123722624.452281 53322152.961830139 0 53322152.961830139 93563690.312561035 0 0 0 0 72947521.526364326 83695468.049530029 0 83695468.049530029 166211596.66847229 0 0 0 0 -15400862.781710982 7342424.9458770752 0 7342424.9458770752 38787050.209991455 0 0 0 0 -10038744.424970269 14964027.079057693 0 14964027.079057693 35082651.272186279 0 0 0 0 -10329192.644630909 3377262.9575958252 0 3377262.9575958252 39987096.228561401 0 0 0 0 -16567295.036372036 -34951689.089658737 0 -34951689.089658737 25600375.820281982 0 0 0 0 -3723018.192915678 263249.7068939209 0 263249.7068939209 22803251.164306641 0 0 0 0 135501180.54656219 112300264.16210175 0 112300264.16210175 146592116.10292816 0 0 0 0 -5552685.1818207577 -4311601.2646373659 0 -4311601.2646373659 17191019.836548053 0 0 0 0 71977857.502721786 52114733.400268555 0 52114733.400268555 93461465.996368408 0 0 0 0 42477311.13246727 37927563.488555908 0 37927563.488555908 100749103.34759521 0 0 0 0 21758024.081633091 85177086.092010498 0 85177086.092010498 151221512.02359009 0 0 0 0 5314066.5871920586 54469205.811981201 0 54469205.811981201 145564002.49243164 0 0 0 0 -8063940.0856800079 9805285.4538822174 0 9805285.4538822174 107311265.75167847 0 0 0 0 36545971.724596977 1447507.7486190796 0 1447507.7486190796 47883086.933776855 0 0 0 0 -4330304.1750205923 1277235.8020339683 0 1277235.8020339683 13451451.509241089 0 0 0 0 59908491.627311707 20429106.606750488 0 20429106.606750488 68705619.897888184 0 0 0 0 1882884.1673088074 26844581.414215088 0 26844581.414215088 71096128.240737915 0 0 0 0 -1260604.5689506531 18905189.681060791 0 18905189.681060791 83555049.471277237 0 0 0 0 -36730414.347549438 -3499338.6117858887 0 -3499338.6117858887 81377965.047264099 0 0 0 0 -7172971.4413362164 6463860.6696397737 0 6463860.6696397737 26040165.481097192 0 0 0 0 970670929.67354965 -76582664.927932739 0 -76582664.927932739 -193365961.18000031 0 0 0 0 -21752817.733268738 -11406807.547309875 0 -11406807.547309875 41059683.446670532 0 0 0 0 -432953209.85658216 -48387504.434738159 0 -48387504.434738159 316589670.27140808 0 0 0 0 -139315415.83907461 738638950.38211441 0 738638950.38211441 301330214.48757935 0 0 0 0 -14307538.061138153 -4025969.143371582 0 -4025969.143371582 64035170.751937866 0 0 0 0 -31867922.811335564 -19991171.025737762 0 -19991171.025737762 70063204.311828613 0 0 0 0 -29770851.120006531 13808977.251828194 0 13808977.251828194 89485205.637878418 0 0 0 0 -47825206.048948288 13277229.856956482 0 13277229.856956482 70367082.816497803 0 0 0 0 -29772465.736459106 13535142.243480921 0 13535142.243480921 50404665.444458008 0 0 0 0 -3986717.0355272293 37785380.655578613 0 37785380.655578613 82473481.740875244 0 0 0 0 -798384.07725143433 19774343.515869141 0 19774343.515869141 69166558.470916748 0 0 0 0 1913863.1942520142 35010863.873306274 0 35010863.873306274 121264708.94540405 0 0 0 0 41359923.435253143 41209389.516174316 0 41209389.516174316 74751870.049526215 0 0 0 0 143568474.66671324 83076321.036159515 0 83076321.036159515 64854825.868469238 0 0 0 0 50024142.738746643 69338282.294189453 0 69338282.294189453 160542053.80636597 0 0 0 0 41895187.560097694 30590850.519058228 0 30590850.519058228 92238149.518493652 0 0 0 0 54440894.6783638 5303218.2548828125 0 5303218.2548828125 140357056.44863129 0 0 0 0 2079862.7663803101 11689091.985855103 0 11689091.985855103 98970014.455963135 0 0 0 0 107913.55008390648 7994685.0509797744 0 7994685.0509797744 9153836.2211998701 0 0 0 0 -21479933.383034229 36618358.915428162 0 36618358.915428162 35543731.355812073 0 0 0 0 -1179423.4707589997 15011876.305094527 0 15011876.305094527 45441402.19738014 0 0 0 0 -16008713.718879223 -424682.81861877441 0 -424682.81861877441 18009347.029289246 0 0 0 0 -12161960.160077572 2688937.4249992371 0 2688937.4249992371 19840834.273498535 0 0 0 0 -517034.34862964251 12511810.10152182 0 12511810.10152182 33650879.832397826 0 0 0 0 971882.03415154805 11336490.875422979 0 11336490.875422979 31472400.730244428 0 0 0 0 -27901695.093224764 -36390103.479232788 0 -36390103.479232788 -4769720.326921463 0 0 0 0 -1823882.167803668 1992469.6944386326 0 1992469.6944386326 24826776.960571349 0 0 0 0 -74128246.46284318 -43360287.119689941 0 -43360287.119689941 16195572.708274841 0 0 0 0 4381828.080010891 -13545092.123260498 0 -13545092.123260498 -2860370.3724365234 0 0 0 0 -1318954.113641066 -3374868.2555220574 0 -3374868.2555220574 586820.89107963443 0 0 0 0 -65325014.479364872 -79126905.446815491 0 -79126905.446815491 -69722126.996566772 0 0 0 0 -458318.87448097428 643162.39993689209 0 643162.39993689209 2425300.9647373706 0 0 0 0 -10083964.585370839 19471211.348175049 0 19471211.348175049 28057335.691329956 0 0 0 0 -433189.18955794041 5515583.8303998038 0 5515583.8303998038 20326031.876903884 0 0 0 0 42357959.220274165 43966773.678554535 0 43966773.678554535 4626186.2438964844 0 0 0 0 -122508.0959655616 3673410.5102473199 0 3673410.5102473199 2319551.6515498012 0 0 0 0 -62989339.407086685 -18472130.656455994 0 -18472130.656455994 68697719.685394287 0 0 0 0 -9588525.9150603712 24100144.897554398 0 24100144.897554398 -18694545.313735962 0 0 0 0 -54981630.260867417 41620805.770751953 0 41620805.770751953 13438001.565132141 0 0 0 0 17884751.045136645 -81426727.218452454 0 -81426727.218452454 113646076.07681274 0 0 0 0 120007.61729646868 741740.99663972482 0 741740.99663972482 542244.74442969263 0 0 0 0 -32169037.66876471 -52580773.901245117 0 -52580773.901245117 228575495.65380096 0 0 0 0 91827699.777288914 62777579.504013062 0 62777579.504013062 36429048.598403931 0 0 0 0 155205196.15396154 118805623.11739349 0 118805623.11739349 -117118385.84893799 0 0 0 0 1027410.7689396893 2552273.7517760694 0 2552273.7517760694 4077722.9469874203 0 0 0 0 84686928.043962002 38582959.405395508 0 38582959.405395508 57678545.151016235 0 0 0 0 76857426.253342867 77114742.726150513 0 77114742.726150513 69301249.858581543 0 0 0 0 4569394.2863845825 46592221.517150879 0 46592221.517150879 59347294.325134277 0 0 0 0 24229466.185791701 46319642.835296631 0 46319642.835296631 17449711.758972168 0 0 0 0 79292128.561023712 38570045.640151978 0 38570045.640151978 3169147.7131652832 0 0 0 0 24085720.568013906 46650837.586860657 0 46650837.586860657 21685745.754699707 0 0 0 0 -128165951.31544256 51849595.260986328 0 51849595.260986328 51143945.720916748 0 0 0 0 3214116.5448093414 95533602.426391602 0 95533602.426391602 21167335.678115845 0 0 0 0 -255493315.18445492 7083696.8511390686 0 7083696.8511390686 164538855.58929443 0 0 0 0 -25630541.828217506 -1383665.3395385742 0 -1383665.3395385742 3041421.5491447449 0 0 0 0 22789231.663140774 60765883.930114746 0 60765883.930114746 80915005.677001953 0 0 0 0 104767213.37345386 -30070404.28024292 0 -30070404.28024292 74571331.77722168 0 0 0 0 -90982602.557639599 111674837.34317017 0 111674837.34317017 178987859.39544678 0 0 0 0 29425452.583346844 22185558.732421875 0 22185558.732421875 171301021.20217896 0 0 0 0 -39470872.609736204 10209494.161132812 0 10209494.161132812 169367658.57775879 0 0 0 0 8740910.3178548813 -48371918.637008667 0 -48371918.637008667 240532338.8633728 0 0 0 0 -14619006.745437592 111248993.88698959 0 111248993.88698959 380270000.02087402 0 0 0 0 -36249276.598865032 -23341644.857711792 0 -23341644.857711792 179262703.55633545 0 0 0 0 2379492.7921984196 -82444265.919464111 0 -82444265.919464111 266700202.36462402 0 0 0 0 -44717107.53784585 -73067163.526641846 0 -73067163.526641846 102073596.68341064 0 0 0 0 -208851102.88098764 -86360885.396484375 0 -86360885.396484375 250434821.76525879 0 0 0 0 -153266031.22424889 51203687.518737793 0 51203687.518737793 -39945118.560974121 0 0 0 0 23663708.080023289 -124071705.60383606 0 -124071705.60383606 -9760838.8262329102 0 0 0 0 -255556656.26809883 -30025933.551422119 0 -30025933.551422119 184687254.94067383 0 0 0 0 253700397.04474354 -39593051.962265015 0 -39593051.962265015 -40808110.833129883 0 0 0 0 2053055.0766443186 -1810739.6396382973 0 -1810739.6396382973 -841403.36512322724 0 0 0 0 90459326.303603172 -201626992.94515991 0 -201626992.94515991 83603989.662162781 0 0 0 0 -147012599.31443405 -98636721.691345215 0 -98636721.691345215 70120369.680541992 0 0 0 0 92423139.100710869 -3495217.642578125 0 -3495217.642578125 -3370557.6694927216 0 0 0 0 111941735.909078 -131926089.8418808 0 -131926089.8418808 42746149.731506348 0 0 0 0 -54803629.518157959 -55128449.547058105 0 -55128449.547058105 26672536.510375977 0 0 0 0 16215522.139637016 1019833.5102176517 0 1019833.5102176517 16471533.210786916 0 0 0 0 6431901.5191993713 -23072382.701812744 0 -23072382.701812744 1334146.7938842773 0 0 0 0 18593921.855742455 -22518745.26852417 0 -22518745.26852417 1354908.0301704407 0 0 0 0 30576541.371740341 4547738.5537414551 0 4547738.5537414551 -189100134.97251892 0 0 0 0 22685145.506961823 -55561797.758605957 0 -55561797.758605957 25805803.426879883 0 0 0 0 32251325.748569965 -22392091.198547363 0 -22392091.198547363 -3168393.5825500488 0 0 0 0 34600846.337614059 -11193696.212036133 0 -11193696.212036133 -3730374.3342247009 0 0 0 0 25752258.861394882 -27876157.185882568 0 -27876157.185882568 -4891430.7548217773 0 0 0 0 69692430.80477953 -31866800.450500488 0 -31866800.450500488 -4697818.288269043 0 0 0 0 22133897.069084406 -18245632.019424438 0 -18245632.019424438 2444044.008605957 0 0 0 0 981112.90829706192 -214238397.34268188 0 -214238397.34268188 73647597.282653809 0 0 0 0 31301290.297448635 -146270960.74389648 0 -146270960.74389648 -156050402.22817993 0 0 0 0 7691884.7726229709 -7502608.9683291577 0 -7502608.9683291577 -4115300.9089118838 0 0 0 0 -3068412.5414865017 -147116599.52954102 0 -147116599.52954102 -54910887.797668457 0 0 0 0 -22217065.633194923 -136851412.91215515 0 -136851412.91215515 29712667.114074707 0 0 0 0 -44900197.05550313 -192575192.5138855 0 -192575192.5138855 -17069218.933837891 0 0 0 0 -28497353.457561493 -206768131.61911011 0 -206768131.61911011 -39793066.965942383 0 0 0 0 -23317619.960474178 29242906.329847336 0 29242906.329847336 -39654589.931762695 0 0 0 0 5327815.4266069867 -260617.4146835953 0 -260617.4146835953 -5398102.8291595727 0 0 0 0 -149411488.51972198 -229076580.22325134 0 -229076580.22325134 -64634921.377807617 0 0 0 0 100585417.58195877 -43108574.61505127 0 -43108574.61505127 -26979339.30871582 0 0 0 0 11150988.124583524 -3640100.1877067164 0 -3640100.1877067164 -9266666.3672222346 0 0 0 0 18329069.103739034 -11287833.652741417 0 -11287833.652741417 12230980.772832591 0 0 0 0 857064.8557510376 563797.8327331543 0 563797.8327331543 -6969826.7598266602 0 0 0 0 78840411.810974121 -15672421.286514282 0 -15672421.286514282 -119308882.29824829 0 0 0 0 127463450.44484806 -60730948.246513367 0 -60730948.246513367 -185392940.72868347 0 0 0 0 5307835.5788047807 -4685220.2179466486 0 -4685220.2179466486 4066108.7355817296 0 0 0 0 64706702.072697699 21454150.728225708 0 21454150.728225708 -154222064.58798218 0 0 0 0 2646203.8260383606 -4268522.2548370361 0 -4268522.2548370361 1308475.03515625 0 0 0 0 3553295.3052168596 -6116433.5981527716 0 -6116433.5981527716 8989891.6065503508 0 0 0 0 4935704.303189503 -7122001.614664875 0 -7122001.614664875 6764924.3559589386 0 0 0 0 2406396.3721122742 -3468045.8266296387 0 -3468045.8266296387 801691.65939712524 0 0 0 0 9514482.8142579682 -8636784.3018651456 0 -8636784.3018651456 10291437.782366991 0 0 0 0 22169035.683265686 -64498752.027433395 0 -64498752.027433395 -25938666.586761475 0 0 0 0 94676683.140588164 -75424081.29196167 0 -75424081.29196167 -213132866.62102509 0 0 0 0 -37428296.975433379 -35679625.981562614 0 -35679625.981562614 -68642644.318115234 0 0 0 0 181034621.88444579 -125310785.73059082 0 -125310785.73059082 -32081673.423400879 0 0 0 0 159211655.97052884 12081556.545806885 0 12081556.545806885 -70686039.110282898 0 0 0 0 -22943557.578627765 11470225.233543396 0 11470225.233543396 -66284112.322357178 0 0 0 0 8089144.621753335 74096174.875595093 0 74096174.875595093 101884466.9493103 0 0 0 0 50804898.226967961 10272844.263015747 0 10272844.263015747 95117109.149719238 0 0 0 0 135106203.5666464 159711694.12568665 0 159711694.12568665 359911132.38531494 0 0 0 0 12996257.999708802 -105041324.98904037 0 -105041324.98904037 209719172.17236328 0 0 0 0 83006783.436321199 10616747.301803589 0 10616747.301803589 60777074.538208008 0 0 0 0 400169616.44750619 -55234844.053436279 0 -55234844.053436279 73896428.786071777 0 0 0 0 100984662.39834905 -163121078.97569275 0 -163121078.97569275 568586562.84561157 0 0 0 0 60585418.08720088 -26435220.279266357 0 -26435220.279266357 162397853.41456604 0 0 0 0 210588985.44883022 261518133.94648743 0 261518133.94648743 363663619.28839111 0 0 0 0 49974779.10837391 -203207041.14588928 0 -203207041.14588928 248383427.80163574 0 0 0 0 401661.82923280686 623526.79888865352 0 623526.79888865352 1323551.9396869242 0 0 0 0 156625407.15006912 107357430.25717163 0 107357430.25717163 120085131.66464233 0 0 0 0 19378899.746226549 -78888718.645828247 0 -78888718.645828247 238275065.54714966 0 0 0 0 65310978.116827458 -158772186.39570618 0 -158772186.39570618 377057828.40890121 0 0 0 0 -58376508.105412424 -164154042.2566452 0 -164154042.2566452 154154205.98950195 0 0 0 0 50796.378631760308 -88776.068835638463 0 -88776.068835638463 93470.682982600294 0 0 0 0 -13077369.510825634 -67944412.750701904 0 -67944412.750701904 -94026658.090984344 0 0 0 0 -60528631.861520231 -63009436.504730225 0 -63009436.504730225 448171252.94822121 0 0 0 0 -18085009.056213379 -5823202.1428527832 0 -5823202.1428527832 14320422.408569336 0 0 0 0 -53797037.466778368 12285210.120227814 0 12285210.120227814 7078202.6993713379 0 0 0 0 -54145657.75137338 4499291.5984268188 0 4499291.5984268188 63686420.098876953 0 0 0 0 -7467328.6548367143 60649291.562561035 0 60649291.562561035 123160311.5632515 0 0 0 0 22367393.558264837 66576852.335689545 0 66576852.335689545 -31947236.994995117 0 0 0 0 -30604930.988111436 51791681.341796875 0 51791681.341796875 -33943368.305149078 0 0 0 0 2129292.9876724752 -3008449.8052959889 0 -3008449.8052959889 4719494.7134191245 0 0 0 0 1380295.0428075187 -1724982.8308344111 0 -1724982.8308344111 2813872.2025688887 0 0 0 0 2287323.7085349439 -9155467.2661628723 0 -9155467.2661628723 12266445.208190918 0 0 0 0 2019097.4400884954 -9445163.8966751099 0 -9445163.8966751099 16644773.913574219 0 0 0 0 -725541.26223905117 -1998684.800820753 0 -1998684.800820753 2466539.2904895209 0 0 0 0 -8413833.5684630722 -4391569.2188110352 0 -4391569.2188110352 42947077.98248291 0 0 0 0 -8751623.506249344 2714610.049407959 0 2714610.049407959 22774441.365722656 0 0 0 0 63318.673010456143 1043154.1902542114 0 1043154.1902542114 18071288.425231934 0 0 0 0 -8545316.9463787023 -4477068.1952209473 0 -4477068.1952209473 33021608.346923828 0 0 0 0 -434599.08339946112 -3738614.5302581787 0 -3738614.5302581787 14379660.358398438 0 0 0 0 -1219399.3795140067 -3016996.738571167 0 -3016996.738571167 14682217.716140747 0 0 0 0 -21227.262079476226 83588.408897399902 0 83588.408897399902 7143200.9416809082 0 0 0 0 117.42722875694744 -2975158.1931381226 0 -2975158.1931381226 7062458.4359741211 0 0 0 0 286562.51192102861 318679.87551879883 0 318679.87551879883 6939328.9194545746 0 0 0 0 882981.40111778269 -1229737.3647601455 0 -1229737.3647601455 2140159.0045292974 0 0 0 0 225637.51462948113 -248269.06232939661 0 -248269.06232939661 218096.81469006836 0 0 0 0 15245521.815428019 -60842453.493682861 0 -60842453.493682861 211568414.96030426 0 0 0 0 -12097923.433338195 -6874640.4967575073 0 -6874640.4967575073 -2580135.2760009766 0 0 0 0 -64383.607460415122 -584723.16106383502 0 -584723.16106383502 1449155.7024040557 0 0 0 0 272081.57119600481 -1643016.220123291 0 -1643016.220123291 1918148.4390869141 0 0 0 0 19813439.934792727 -64455519.322067261 0 -64455519.322067261 149340455.22491455 0 0 0 0 1568.1083201054939 -601263.34313964844 0 -601263.34313964844 1196389.2737140656 0 0 0 0 590163.40775165719 -683344.15630401671 0 -683344.15630401671 737411.03323918581 0 0 0 0 17933394.868092567 -80108415.471328735 0 -80108415.471328735 165965019.45614624 0 0 0 0 -68737.606853996971 -94661022.926864624 0 -94661022.926864624 156638769.8050766 0 0 0 0 53416792.837893248 -48917348.341659546 0 -48917348.341659546 181286759.43478394 0 0 0 0 669906.27456674119 -63538127.730316162 0 -63538127.730316162 213670791.38105774 0 0 0 0 34809284.697858989 -86322474.798934937 0 -86322474.798934937 112799824.62817383 0 0 0 0 37056358.129623353 -32878733.619857788 0 -32878733.619857788 153506194.26902771 0 0 0 0 18685930.126627743 -87919569.639068604 0 -87919569.639068604 181551557.64562988 0 0 0 0 20524117.812754244 -89461848.723121643 0 -89461848.723121643 170988632.35116577 0 0 0 0 1619643.7856652737 -146811851.24562073 0 -146811851.24562073 182972472.54940796 0 0 0 0 -150564421.01146179 -74089894.601730347 0 -74089894.601730347 189331519.08684444 0 0 0 0 -4446659.2640921175 -154192795.1473999 0 -154192795.1473999 43755942.745452881 0 0 0 0 -2370031.5286400914 -95307029.063171387 0 -95307029.063171387 170003501.89078522 0 0 0 0 32197099.430581748 51326602.946807861 0 51326602.946807861 37989509.053833008 0 0 0 0 -91707805.236333013 75230896.496200562 0 75230896.496200562 41742628.377578735 0 0 0 0 37249858.977225006 -23359334.331802368 0 -23359334.331802368 -48514699.582214355 0 0 0 0 -153587232.11985171 -31027674.268287659 0 -31027674.268287659 72644619.035888672 0 0 0 0 -58851547.775764823 -15104114.192596436 0 -15104114.192596436 40896429.65045166 0 0 0 0 29355135.667398453 63889158.04296875 0 63889158.04296875 69988618.367126465 0 0 0 0 -15957374.058265314 81620156.563694 0 81620156.563694 70767568.723754883 0 0 0 0 155353900.99377066 93008294.157165527 0 93008294.157165527 69067877.511138916 0 0 0 0 71484216.437740296 106388885.92184448 0 106388885.92184448 88835695.359283447 0 0 0 0 97697466.396917894 96755855.119110107 0 96755855.119110107 61482105.080101013 0 0 0 0 25236950.405666336 50983047.141136169 0 50983047.141136169 89936546.663330078 0 0 0 0 89713021.403424248 73527072.368846893 0 73527072.368846893 66299501.032531738 0 0 0 0 211661047.85346386 201931276.15196228 0 201931276.15196228 207170701.76144409 0 0 0 0 7068.3777246499731 7984760.5923233032 0 7984760.5923233032 -12076823.523300171 0 0 0 0 -65889.345421986625 224397.90072439611 0 224397.90072439611 503876.86258073151 0 0 0 0 62891490.997878715 60799545.969680786 0 60799545.969680786 325022228.12091064 0 0 0 0 51128482.492697313 -8549330.3363800049 0 -8549330.3363800049 116618074.69171143 0 0 0 0 65241831.511115834 107417325.09335327 0 107417325.09335327 169457452.72415161 0 0 0 0 -3962258.0812831819 -14050504.072753906 0 -14050504.072753906 40464837.503173828 0 0 0 0 -2433199.7568511069 -13895867.654876709 0 -13895867.654876709 39298415.335876465 0 0 0 0 -5001034.8027192727 -15602217.143615723 0 -15602217.143615723 41933310.288085938 0 0 0 0 -1725466.6954408437 -17393785.676422119 0 -17393785.676422119 40794356.552429199 0 0 0 0 -2048228.5257185027 -16170591.09387207 0 -16170591.09387207 36862552.259094238 0 0 0 0 -1931371.3647016 -13045120.778362274 0 -13045120.778362274 40300719.366394043 0 0 0 0 -566.62739189400418 -12660807.961212158 0 -12660807.961212158 37096070.5440979 0 0 0 0 -2836566.693764098 -13633809.37008667 0 -13633809.37008667 40613300.737930298 0 0 0 0 -4238612.5214269813 -11153808.471817017 0 -11153808.471817017 42815301.51739502 0 0 0 0 -2783259.4899111614 -13546197.859283447 0 -13546197.859283447 40680303.221618652 0 0 0 0 -5784781.0232909098 -11736490.155700684 0 -11736490.155700684 43718030.906005859 0 0 0 0 -2518051.587644197 -13524903.705734253 0 -13524903.705734253 44170809.797538757 0 0 0 0 -7107412.0335957259 -12156849.064712524 0 -12156849.064712524 43667111.447174072 0 0 0 0 -10881510.751264811 -4488855.2618408203 0 -4488855.2618408203 38579661.204528809 0 0 0 0 -10806720.563780673 -14127938.654388428 0 -14127938.654388428 43489784.772033691 0 0 0 0 -6744107.7907159477 -11463963.625595093 0 -11463963.625595093 32095908.866516113 0 0 0 0 -9653394.0054313317 -3041621.6972503662 0 -3041621.6972503662 47994546.553375244 0 0 0 0 -11145707.750517758 134656.93272961676 0 134656.93272961676 16569213.721158758 0 0 0 0 -9901056.8200759701 5351485.7213821411 0 5351485.7213821411 24939831.326477051 0 0 0 0 -3039575.1699905396 -6044033.1179046631 0 -6044033.1179046631 14537810.257385254 0 0 0 0 -8339893.0623054504 -9380456.9704589844 0 -9380456.9704589844 24875232.803253174 0 0 0 0 -13253138.669594908 -10059163.631277002 0 -10059163.631277002 22243813.911758572 0 0 0 0 -3563171.4530709302 -645756.0593490079 0 -645756.0593490079 3830057.0363530219 0 0 0 0 -18341069.651510134 -5226770.3580322266 0 -5226770.3580322266 42454775.137115479 0 0 0 0 -2034323.4048499949 -20534191.629516602 0 -20534191.629516602 31772833.789474487 0 0 0 0 7224962.1840820312 -4419104.5718078613 0 -4419104.5718078613 -31421109.455749512 0 0 0 0 -6230531.3497468326 -11871369.713332735 0 -11871369.713332735 9621894.5229755044 0 0 0 0 -21900264.522880554 -21764714.143341064 0 -21764714.143341064 3229931.5444641113 0 0 0 0 323416700.31019974 533180589.74669647 0 533180589.74669647 161598419.27984619 0 0 0 0 -400097.44001706503 -4277350.8210345656 0 -4277350.8210345656 -255951.38268701686 0 0 0 0 8818373.6924667358 -23737809.423980713 0 -23737809.423980713 -8904582.5275268555 0 0 0 0 -8504712.1976013184 -7683572.3466186523 0 -7683572.3466186523 -18733876.423217773 0 0 0 0 -28402371.067714691 -47661142.861167908 0 -47661142.861167908 -31651142.140228271 0 0 0 0 -108304075.38386154 -44579960.348297119 0 -44579960.348297119 110845694.43215942 0 0 0 0 69813043.786605835 -15308798.611694336 0 -15308798.611694336 -29157144.268215179 0 0 0 0 -16888435.955174763 -3302024.1746350974 0 -3302024.1746350974 21551875.275493398 0 0 0 0 708235830.7355659 45583349.763858438 0 45583349.763858438 20433733.840911865 0 0 0 0 448062.61613995582 3072545.7735767514 0 3072545.7735767514 8047506.9159345776 0 0 0 0 165347397.26818085 -619174742.04785156 0 -619174742.04785156 2246106923.2759399 0 0 0 0 726304624.11946297 1233651413.2874985 0 1233651413.2874985 1298668456.556488 0 0 0 0 -425535467.09554291 525839845.0280304 0 525839845.0280304 1825490866.2424188 0 0 0 0 -225947716.1652832 1473813435.7925262 0 1473813435.7925262 2504085831.0126648 0 0 0 0 -455791872.66262436 996424103.28675842 0 996424103.28675842 1834649841.1286163 0 0 0 0 -128908620.20051384 861147867.2454834 0 861147867.2454834 1285424441.2624207 0 0 0 0 91475232.501197815 1238590431.9466858 0 1238590431.9466858 1931841254.7772369 0 0 0 0 -429537850.70813751 528387975.87251282 0 528387975.87251282 2402470515.3807831 0 0 0 0 -1851237.1159245763 -7361952.8868323565 0 -7361952.8868323565 -718783.26077233441 0 0 0 0 -10278499.773656964 10746427.216285706 0 10746427.216285706 11068705.563995361 0 0 0 0 -73242580.964254379 -5842831.4022521973 0 -5842831.4022521973 1156158746.9854126 0 0 0 0 -73943.801153030246 -13506394.110733032 0 -13506394.110733032 34537541.731185913 0 0 0 0 1281840.2348969269 -7340100.8043494895 0 -7340100.8043494895 6873326.5727410391 0 0 0 0 23464394.499265671 -18533017.018630981 0 -18533017.018630981 -29601453.407470703 0 0 0 0 -142980.74172332615 -13630071.865745544 0 -13630071.865745544 35360504.20111084 0 0 0 0 3407488.3893103683 -5247980.636617817 0 -5247980.636617817 2321305.2377673835 0 0 0 0 39949.969374439497 -8936136.0208129883 0 -8936136.0208129883 4229604.2202110291 0 0 0 0 163252.49245823605 -5338688.3321176842 0 -5338688.3321176842 3174592.9621173078 0 0 0 0 3775896571.1616316 1116325668.9619751 0 1116325668.9619751 801686099.76544189 0 0 0 0 -2300869.3943659193 -472413094.29113007 0 -472413094.29113007 3033181529.8655167 0 0 0 0 -198267028.80086899 1942720620.7398834 0 1942720620.7398834 3836502478.7985916 0 0 0 0 156365.62828192557 -3159394.1828639507 0 -3159394.1828639507 6445990.1407325119 0 0 0 0 -1156957192.6607671 -623713362.86242676 0 -623713362.86242676 4391208149.8426819 0 0 0 0 237028763.80558923 -217585532.55755424 0 -217585532.55755424 -55222118.423309326 0 0 0 0 -83209732.908967942 -2715246.5219116211 0 -2715246.5219116211 113639764.14510345 0 0 0 0 3858809.0502490746 -9291866.7553887889 0 -9291866.7553887889 13922163.84589757 0 0 0 0 -95908828.917123467 -73391778.283214569 0 -73391778.283214569 -3297169.9679870605 0 0 0 0 911058.76260018884 26557280.927818298 0 26557280.927818298 30516510.248962402 0 0 0 0 -10409585.561410544 12472770.004196167 0 12472770.004196167 22670844.529174805 0 0 0 0 -35469364.347515106 10250335.11618042 0 10250335.11618042 24380501.354537964 0 0 0 0 -26393199.234984025 -10172447.525726318 0 -10172447.525726318 15730016.488220215 0 0 0 0 -4707772.5186597332 795038.30065917969 0 795038.30065917969 27455128.520294189 0 0 0 0 -20175269.814004656 -5706564.7494125366 0 -5706564.7494125366 24733018.059936523 0 0 0 0 -261660.50965757304 5929574.4443817139 0 5929574.4443817139 23773785.147857666 0 0 0 0 -5823984.8615046144 -18399187.034357071 0 -18399187.034357071 15758514.070892334 0 0 0 0 -3317978.8136199191 -11670475.600891113 0 -11670475.600891113 17361491.277893066 0 0 0 0 -737448.02130129561 -11225055.582756042 0 -11225055.582756042 16415026.336120605 0 0 0 0 -14430721.149046697 -18291134.567703247 0 -18291134.567703247 27257469.024902344 0 0 0 0 -21625218.843348481 -1983210.2673950195 0 -1983210.2673950195 21313203.809524536 0 0 0 0 -15742780.934343513 -24536595.065282822 0 -24536595.065282822 4999855.5189208984 0 0 0 0 -38864154.532460675 -34576459.482009888 0 -34576459.482009888 8082927.4540214539 0 0 0 0 -158067420.38324881 382690880.78019857 0 382690880.78019857 344885138.50457764 0 0 0 0 -79650260.506295562 -1307968527.4790514 0 -1307968527.4790514 -973622588.29196167 0 0 0 0 9117541.8043448403 -13045588.050497994 0 -13045588.050497994 15052169.778906256 0 0 0 0 -37177627.611943997 -9993564.1647186279 0 -9993564.1647186279 19476061.011886597 0 0 0 0 -940209697.80801773 -1193894287.4465485 0 -1193894287.4465485 873997243.08908081 0 0 0 0 -1209046161.4038982 -598446033.86398315 0 -598446033.86398315 3365361645.230011 0 0 0 0 166210031.95174789 1225283522.4200706 0 1225283522.4200706 3540119269.3777161 0 0 0 0 1654255385.1962471 213471798.07165527 0 213471798.07165527 -862409414.00930309 0 0 0 0 -251500919.39536667 623092533.18276215 0 623092533.18276215 2138419465.6543579 0 0 0 0 -7735068.249874115 466804094.20173645 0 466804094.20173645 1172638848.4511566 0 0 0 0 -240077470.73443222 680334497.72605896 0 680334497.72605896 2395805649.790329 0 0 0 0 -123483145.37887955 1228038007.331192 0 1228038007.331192 3380239312.0940933 0 0 0 0 1565962.6872948185 -2011414.2760282233 0 -2011414.2760282233 2654661.9923357069 0 0 0 0 -68982107.698104858 851053564.60656738 0 851053564.60656738 2098769154.2838287 0 0 0 0 -105341733.87607765 -129772717.97519493 0 -129772717.97519493 1227703286.3424377 0 0 0 0 -163670205.51249313 99081271.895921707 0 99081271.895921707 3055615705.4811401 0 0 0 0 467880763.69809341 -229813509.72786713 0 -229813509.72786713 -269129188.36834717 0 0 0 0 223006927.84741974 -538322406.0401535 0 -538322406.0401535 1484752412.8323669 0 0 0 0 -191853149.27684021 -45655461.372955322 0 -45655461.372955322 961948863.93554688 0 0 0 0 39343529.42363739 -39202792.062545776 0 -39202792.062545776 1172133682.7400055 0 0 0 0 123362728.94659424 -108996236.45675659 0 -108996236.45675659 190120361.45343018 0 0 0 0 13071503.357507544 -14224451.646752924 0 -14224451.646752924 12871602.913072273 0 0 0 0 -86069421.051643372 -385077252.44841003 0 -385077252.44841003 -532313143.73944092 0 0 0 0 182940914.89147186 347514864.58320618 0 347514864.58320618 -280341992.24996948 0 0 0 0 208919636.54459381 -275782228.60844421 0 -275782228.60844421 -643856579.45991516 0 0 0 0 396588884.26322174 114854365.51867676 0 114854365.51867676 -460194813.60430908 0 0 0 0 713733.88809967041 -62630725.990325928 0 -62630725.990325928 -497167160.078125 0 0 0 0 184431373.38578033 231897052.15444946 0 231897052.15444946 -364323687.34603119 0 0 0 0 48205717.505241394 189457845.28933716 0 189457845.28933716 -333382763.03015137 0 0 0 0 -7706950.5481510162 -14466851.262485504 0 -14466851.262485504 -66244779.696655273 0 0 0 0 -51804992.3125 -160670090.64349365 0 -160670090.64349365 -96516487.849105835 0 0 0 0 12679571.166412354 148417785.82521439 0 148417785.82521439 -93101385.534545898 0 0 0 0 94764065.559005737 109092825.70397186 0 109092825.70397186 -207198268.59408569 0 0 0 0 19288183.816013336 -65857934.675468445 0 -65857934.675468445 15106795.398803711 0 0 0 0 -80514090.731887102 -11111604.844608784 0 -11111604.844608784 -378070530.54492188 0 0 0 0 728051.85116750188 -878553.92057523131 0 -878553.92057523131 970353.40770550072 0 0 0 0 257683863.85055923 -87774644.201904297 0 -87774644.201904297 -96362970.750183105 0 0 0 0 165828757.53544521 -13239948.673923492 0 -13239948.673923492 91682090.728363037 0 0 0 0 241297630.57516575 -177762149.12763596 0 -177762149.12763596 -115439376.78790283 0 0 0 0 2935758.0968579166 -609922.42646470666 0 -609922.42646470666 -2586470.3309607208 0 0 0 0 72506747.029697418 -266268827.97447205 0 -266268827.97447205 363827740.17326355 0 0 0 0 -399452629.67431259 -17628463.50604248 0 -17628463.50604248 257965750.02069092 0 0 0 0 657734415.17435265 179693413.31570435 0 179693413.31570435 68484593.424072266 0 0 0 0 -392906413.30828571 1261372590.4865341 0 1261372590.4865341 502470331.3286438 0 0 0 0 164920214.35798645 651301546.39770508 0 651301546.39770508 301118212.92070007 0 0 0 0 860365175.19639587 1088738369.7590714 0 1088738369.7590714 555114702.18061829 0 0 0 0 -215216227.81925583 339843850.46195984 0 339843850.46195984 2189222896.8492126 0 0 0 0 -209090656.79487514 73397907.944602966 0 73397907.944602966 -189973265.46530151 0 0 0 0 -86812778.283637047 -469582524.540061 0 -469582524.540061 441838674.86434937 0 0 0 0 -90641157.90151 -439100770.62144947 0 -439100770.62144947 372042570.08947754 0 0 0 0 -147859559.4705162 -140336950.96272278 0 -140336950.96272278 250970413.91913509 0 0 0 0 254651106.56237793 -370092947.27842712 0 -370092947.27842712 229812392.51587296 0 0 0 0 809240684.64517403 -553620978.88397217 0 -553620978.88397217 50348488.734222412 0 0 0 0 426899527.67142487 -1060743307.4553986 0 -1060743307.4553986 1050571670.7691345 0 0 0 0 56127779.563762665 -142322476.36655426 0 -142322476.36655426 166282950.57467651 0 0 0 0 573310981.75321198 -136804427.80447388 0 -136804427.80447388 -189197838.33627319 0 0 0 0 -204556219.62068912 30676403.989941001 0 30676403.989941001 102207522.28384399 0 0 0 0 -76529407.825675964 790319123.73023987 0 790319123.73023987 1936861576.8467102 0 0 0 0 187313623.94314575 -506159002.4276886 0 -506159002.4276886 1168534155.4451218 0 0 0 0 1119425.9162631333 -6227323.9688567445 0 -6227323.9688567445 9895739.4554037005 0 0 0 0 -206313358.72907192 -160463024.70575857 0 -160463024.70575857 73249976.68182373 0 0 0 0 -12261250.721801758 -7049209.3145141602 0 -7049209.3145141602 15691879.225738525 0 0 0 0 -11477842.940979004 339697.37657165527 0 339697.37657165527 16024033.417175293 0 0 0 0 -7552950.5618564002 -6451142.6467672288 0 -6451142.6467672288 19547115.303967997 0 0 0 0 -25557056.450119019 38547451.414329529 0 38547451.414329529 -807740.16773223877 0 0 0 0 -2635453.2815047288 1749199.780604329 0 1749199.780604329 -244963.1853338629 0 0 0 0 -217184289.82122421 -2330912.2205276489 0 -2330912.2205276489 176351537.46605682 0 0 0 0 154979337.02387238 -614298.61763000488 0 -614298.61763000488 32329626.067321777 0 0 0 0 -5757857.7093811035 312238.14555358887 0 312238.14555358887 14944571.350128174 0 0 0 0 -8293860.4222489782 -2238369.8968779743 0 -2238369.8968779743 21334128.917602636 0 0 0 0 -7056137.4381122589 -4433493.1927337646 0 -4433493.1927337646 18730964.870529175 0 0 0 0 -16223229.522489864 6382552.624420166 0 6382552.624420166 33983926.486297607 0 0 0 0 5125631.4999432564 -32426956.803835869 0 -32426956.803835869 -69333231.689971924 0 0 0 0 -946271.28439533338 -2713544.9056704417 0 -2713544.9056704417 4645888.6602745205 0 0 0 0 -11585203.251817327 1462570.1470864937 0 1462570.1470864937 16029794.92092663 0 0 0 0 -269690133.88249969 161371566.39109802 0 161371566.39109802 38440488.146209717 0 0 0 0 -192075352.50873566 34747702.552688599 0 34747702.552688599 72514718.817493439 0 0 0 0 -79815074.779031754 55502461.495574951 0 55502461.495574951 69322832.347396851 0 0 0 0 -247956451.6995163 47953031.490509033 0 47953031.490509033 326352709.91171265 0 0 0 0 -170600683.4968586 -160421679.34091949 0 -160421679.34091949 665517904.7407074 0 0 0 0 -108459428.02373695 -167792337.21658707 0 -167792337.21658707 212422745.33575439 0 0 0 0 -22414702.004171371 -70069716.442359924 0 -70069716.442359924 -10597608.182540894 0 0 0 0 290009464.87751579 306030708.82305908 0 306030708.82305908 414066602.86806488 0 0 0 0 -111405761.97502899 27877782.545143127 0 27877782.545143127 1205633521.3604126 0 0 0 0 -110532457.16107559 -87197948.315811157 0 -87197948.315811157 350005101.35718918 0 0 0 0 -80846547.835086823 104795764.07557678 0 104795764.07557678 416131867.80270004 0 0 0 0 82321849.642877579 103247788.3874588 0 103247788.3874588 354105040.82167816 0 0 0 0 162621492.2987957 -94521080.212615967 0 -94521080.212615967 156823807.45001221 0 0 0 0 85277080.616015434 159831636.71237183 0 159831636.71237183 378156058.28102875 0 0 0 0 151287679.62402511 50381360.30412674 0 50381360.30412674 77532670.794616699 0 0 0 0 279406815.91253853 -122328046.7206955 0 -122328046.7206955 675128022.72187805 0 0 0 0 -401849635.01395988 772881394.10245895 0 772881394.10245895 354245524.11503601 0 0 0 0 -105203886.93212581 313480799.03176498 0 313480799.03176498 807419295.01620483 0 0 0 0 -56817936.725427628 371305716.89712524 0 371305716.89712524 821290368.22775269 0 0 0 0 104478006.36269033 212236146.15333939 0 212236146.15333939 864758092.39147949 0 0 0 0 57650195.659506798 8146937.8072967529 0 8146937.8072967529 33425934.216445923 0 0 0 0 182560664.71525002 -678396872.1289711 0 -678396872.1289711 976162243.7056427 0 0 0 0 -2074320.9335022653 -572487.44517105818 0 -572487.44517105818 3623001.0365565866 0 0 0 0 -34238553.707208633 -327947424.68691254 0 -327947424.68691254 414964467.55838013 0 0 0 0 -180367620.2031517 -482522401.69552612 0 -482522401.69552612 505108031.41405487 0 0 0 0 -513255276.03303719 -477820492.18279266 0 -477820492.18279266 768077063.07272339 0 0 0 0 -675154591.28334427 34581141.376373291 0 34581141.376373291 334397887.14477539 0 0 0 0 -3564993.3472413272 -682283.47827264667 0 -682283.47827264667 6830181.1243390441 0 0 0 0 -446774292.54608107 -195729378.69120026 0 -195729378.69120026 622032354.90148926 0 0 0 0 -569165023.3018198 173838333.92977905 0 173838333.92977905 312526487.93637085 0 0 0 0 -152080288.07253456 -217866773.15441132 0 -217866773.15441132 385979491.12872124 0 0 0 0 -214073940.83053017 -306839193.36352921 0 -306839193.36352921 580352234.6519165 0 0 0 0 -1986876.6277949801 -397596.0024715513 0 -397596.0024715513 3722593.9810333401 0 0 0 0 -77812883.630413055 -471267756.24025726 0 -471267756.24025726 1131710023.9295502 0 0 0 0 155928687.08162308 488863639.60098267 0 488863639.60098267 960688493.4581337 0 0 0 0 -32125735.66619873 5315971.3511047363 0 5315971.3511047363 115857960.33779907 0 0 0 0 -21537174.235367775 78005257.310592651 0 78005257.310592651 482006405.33026123 0 0 0 0 291734578.03644562 175636933.29043579 0 175636933.29043579 5951115.2853546143 0 0 0 0 10175189.158703089 -31332000.272785187 0 -31332000.272785187 26947511.28678894 0 0 0 0 -116404561.87554502 86444316.669467926 0 86444316.669467926 276346723.95962524 0 0 0 0 902015.31032557739 1192789.843142353 0 1192789.843142353 7162052.559753269 0 0 0 0 3556909.3993358612 -18007073.776557922 0 -18007073.776557922 708514.22650527954 0 0 0 0 -17397915.57790947 -361770312.0735321 0 -361770312.0735321 574831537.89907837 0 0 0 0 -65834073.135440826 -270784925.54075623 0 -270784925.54075623 565172334.36290741 0 0 0 0 -28205264.819291234 -11714151.856803894 0 -11714151.856803894 24723042.399200439 0 0 0 0 -1411463.0369809987 169977.51341596991 0 169977.51341596991 6522603.6208240092 0 0 0 0 8354666.5719156265 -239093474.67424011 0 -239093474.67424011 538239585.04116821 0 0 0 0 -19717296.915084839 -311766024.46376038 0 -311766024.46376038 394022419.07344055 0 0 0 0 352409568.85112524 -717776846.80237579 0 -717776846.80237579 1166995155.6083679 0 0 0 0 201421011.58506268 -27925651.233093262 0 -27925651.233093262 991140394.64481354 0 0 0 0 62919389.02555716 328287163.3480835 0 328287163.3480835 824511220.62757874 0 0 0 0 309560787.53527021 299202706.99209595 0 299202706.99209595 102219778.58946228 0 0 0 0 -1121523.3787808963 -192769.27988197282 0 -192769.27988197282 2971024.0825309008 0 0 0 0 48094283.097990036 -96327890.904815674 0 -96327890.904815674 118398873.80445337 0 0 0 0 185818534.62418413 164697636.30361366 0 164697636.30361366 212332977.33618164 0 0 0 0 -17356660.722947955 105287681.03991318 0 105287681.03991318 -73064611.415283203 0 0 0 0 4292370.2810964584 -67600831.272293091 0 -67600831.272293091 24034526.104774475 0 0 0 0 202712712.38894606 -33525411.614022732 0 -33525411.614022732 -13126610.468322754 0 0 0 0 394839736.17362976 -10966825.115341187 0 -10966825.115341187 -10732218.928512573 0 0 0 0 -1228772.769232051 859005.17411990464 0 859005.17411990464 1051557.6222150475 0 0 0 0 -66353364.893442392 265775468.00751019 0 265775468.00751019 276222976.16807556 0 0 0 0 195620424.08989525 263343940.55827332 0 263343940.55827332 270727315.03260803 0 0 0 0 -30074489.513562202 54918955.351867676 0 54918955.351867676 800391203.24526978 0 0 0 0 1229008.3838590309 1296335.6410067677 0 1296335.6410067677 -718441.20219475403 0 0 0 0 139007297.31020257 233064455.05647421 0 233064455.05647421 254836562.55010986 0 0 0 0 159182650.51239586 -31282386.336380005 0 -31282386.336380005 352565895.67850494 0 0 0 0 87822347.325919569 125702311.44012451 0 125702311.44012451 842301727.90129089 0 0 0 0 -71241296.916294336 -18144557.315368652 0 -18144557.315368652 815818651.57452393 0 0 0 0 -88365620.784135625 179886.03771209717 0 179886.03771209717 928305453.77038574 0 0 0 0 385894012.33153754 -501477601.45143127 0 -501477601.45143127 770472734.0442152 0 0 0 0 251879113.34721732 118561261.63830566 0 118561261.63830566 819283732.53570557 0 0 0 0 592035077.57556391 -84922201.155281067 0 -84922201.155281067 809634547.08730316 0 0 0 0 609629510.99397707 -54328746.379547119 0 -54328746.379547119 690933333.93663025 0 0 0 0 -1652598.5809221237 -647886.5771926567 0 -647886.5771926567 2784465.5759744197 0 0 0 0 94772640.290477812 433192544.4251976 0 433192544.4251976 352899413.15402222 0 0 0 0 22118588.015992165 -62832076.090667725 0 -62832076.090667725 80600420.838493347 0 0 0 0 -33657088.468930244 -25090031.788146973 0 -25090031.788146973 152080913.22875214 0 0 0 0 -112941632.96487093 -63774980.243011475 0 -63774980.243011475 112014956.15517426 0 0 0 0 -135168168.30776197 -19007589.503925323 0 -19007589.503925323 22807714.922302246 0 0 0 0 -129097976.58836347 17146380.435455322 0 17146380.435455322 6940163.5493774414 0 0 0 0 -2729006.0130263637 -266494.86593258381 0 -266494.86593258381 5089368.2135495543 0 0 0 0 163093039.28117394 -308852024.13273621 0 -308852024.13273621 531893124.96557617 0 0 0 0 148265341.14185214 -237581125.80857086 0 -237581125.80857086 294842218.29134107 0 0 0 0 258709390.65125632 -340201741.86304474 0 -340201741.86304474 170594582.59335327 0 0 0 0 29310079.276759148 -210641330.79412842 0 -210641330.79412842 523600322.89932251 0 0 0 0 234273582.191113 -176648201.573349 0 -176648201.573349 98308719.89201355 0 0 0 0 241131710.25869608 -215895556.70137787 0 -215895556.70137787 294121633.46566772 0 0 0 0 -35948467.293907166 -24521695.512756348 0 -24521695.512756348 -8251259.5674438477 0 0 0 0 -18201084.052511692 -43996173.732143402 0 -43996173.732143402 10531315.418762207 0 0 0 0 9710820.5828390121 -33087317.620218277 0 -33087317.620218277 -6028222.2542419434 0 0 0 0 -30990102.847448349 -35918425.957115173 0 -35918425.957115173 25488186.128921509 0 0 0 0 -12219110.713665009 -34043091.419525146 0 -34043091.419525146 -36809939.868469238 0 0 0 0 291959.60433597863 707851.05996485054 0 707851.05996485054 1405848.3733956516 0 0 0 0 -11745437.72461319 -33815335.084320068 0 -33815335.084320068 -50471359.690429688 0 0 0 0 -33605285.907058716 -32969548.740386963 0 -32969548.740386963 22163594.657043457 0 0 0 0 -9580774.4697140343 -9957291.35874868 0 -9957291.35874868 3096981.5365302861 0 0 0 0 -276175504.20735931 13585739.093086243 0 13585739.093086243 109211778.8209343 0 0 0 0 182576063.25247359 -181106059.89157104 0 -181106059.89157104 -19379295.054794312 0 0 0 0 144230794.29758596 -533483654.84325027 0 -533483654.84325027 331546857.50714111 0 0 0 0 -115682222.0831604 -385237876.33940887 0 -385237876.33940887 253660493.00067139 0 0 0 0 326470296.0620079 -270895731.63307571 0 -270895731.63307571 22809704.888427734 0 0 0 0 -46461.269619509578 175373.96600056812 0 175373.96600056812 1268292.001263231 0 0 0 0 -35699767.195214331 7424051.1851577759 0 7424051.1851577759 -10565741.157623291 0 0 0 0 -17127743.181739807 11719357.469116211 0 11719357.469116211 56736450.295410156 0 0 0 0 -1347136.3577432446 6814403.2279223949 0 6814403.2279223949 21691358.914764956 0 0 0 0 -51209744.189603806 -87088964.154777527 0 -87088964.154777527 -68571757.087478638 0 0 0 0 -88894183.3206563 -35955037.379684448 0 -35955037.379684448 20840882.687469482 0 0 0 0 -75179384.8400774 -79031333.902549744 0 -79031333.902549744 6094371.7107124329 0 0 0 0 -4030383.1065998077 -61221696.787063599 0 -61221696.787063599 -3923514.0972900391 0 0 0 0 -12983629.708610535 1179140.528465271 0 1179140.528465271 -128138233.92623901 0 0 0 0 -36173822.965093613 -56552227.764305115 0 -56552227.764305115 12323894.819610596 0 0 0 0 -18904260.754645586 16433369.802474976 0 16433369.802474976 91663475.934867859 0 0 0 0 1629038.9468260386 14169368.823256992 0 14169368.823256992 1624962.2432495505 0 0 0 0 -7557149.2405563947 -6618531.3145327829 0 -6618531.3145327829 31770498.295046635 0 0 0 0 -25885096.64774704 -32354318.589561462 0 -32354318.589561462 1452546.5211181641 0 0 0 0 -54097040.330509186 -29512863.541595459 0 -29512863.541595459 46563297.312805176 0 0 0 0 -52702705.460372925 -22573792.503860474 0 -22573792.503860474 43105345.827850342 0 0 0 0 -22941960.38134861 -39861052.065032959 0 -39861052.065032959 49267636.985500336 0 0 0 0 -6013815.9258071473 -8408651.8287301362 0 -8408651.8287301362 37088258.299286693 0 0 0 0 44108380.614459276 38426456.479568481 0 38426456.479568481 41859680.814147949 0 0 0 0 -39833389.71159029 -47923613.65045166 0 -47923613.65045166 60339289.627838135 0 0 0 0 -31078620.007957458 -30980267.981567383 0 -30980267.981567383 14300235.038085938 0 0 0 0 -50906762.959204674 -34288362.762363434 0 -34288362.762363434 41367217.229309082 0 0 0 0 -47424905.569015503 -25255361.731281281 0 -25255361.731281281 51422237.922485352 0 0 0 0 -47272658.546492577 -20212612.292068481 0 -20212612.292068481 31781104.826690674 0 0 0 0 -160279.62561023212 -988625.68924245052 0 -988625.68924245052 123662.74886895716 0 0 0 0 -38965885.785007477 -33109435.129119873 0 -33109435.129119873 57787307.416564941 0 0 0 0 -43326922.369441986 -24649977.382354736 0 -24649977.382354736 43561197.612518311 0 0 0 0 -47068741.235431671 -33574927.010269165 0 -33574927.010269165 48115838.725250244 0 0 0 0 -44997703.573446274 -22729081.595565796 0 -22729081.595565796 54333639.478881836 0 0 0 0 -46197162.690794945 -22052254.614261627 0 -22052254.614261627 54431216.290527344 0 0 0 0 -43029473.977947235 -15000429.627853394 0 -15000429.627853394 67876345.04990387 0 0 0 0 -28513499.364749908 -18021061.193405151 0 -18021061.193405151 55776901.30241394 0 0 0 0 -5549916.7224998474 -34609691.131080627 0 -34609691.131080627 67521720.75302124 0 0 0 0 -25290237.072444916 -46753643.022781372 0 -46753643.022781372 47540663.767326355 0 0 0 0 4515345.137928009 -24979542.610042572 0 -24979542.610042572 25093010.74130249 0 0 0 0 -4513467.4216138525 -4599515.5827339143 0 -4599515.5827339143 774342.98101069033 0 0 0 0 43270996.392010689 -65011582.89264679 0 -65011582.89264679 59720166.322006226 0 0 0 0 -5256057.2374169827 -32125931.697351456 0 -32125931.697351456 88061070.095947266 0 0 0 0 3079769.6061954498 -33816168.318996429 0 -33816168.318996429 87962982.500022888 0 0 0 0 -26510567.829239845 -17799992.68850708 0 -17799992.68850708 147930213.32713318 0 0 0 0 -30037390.446714401 -2918327.5280151367 0 -2918327.5280151367 85754243.660568237 0 0 0 0 -35923320.779950142 -6901558.1827049255 0 -6901558.1827049255 89377051.643157959 0 0 0 0 -35132280.368310452 -14814738.465978622 0 -14814738.465978622 95626576.120422363 0 0 0 0 -29082172.314619064 42694398.894088745 0 42694398.894088745 143717610.75680542 0 0 0 0 -29206637.993788116 24950303.257904768 0 24950303.257904768 92289868.652618408 0 0 0 0 -54437362.842533112 20060654.720413208 0 20060654.720413208 123886299.85432434 0 0 0 0 -63536134.597592831 33188301.862735748 0 33188301.862735748 246647043.84292603 0 0 0 0 -63976146.189982414 89807875.378604889 0 89807875.378604889 -52258675.206893921 0 0 0 0 -3637885.0854057558 -168573.1065351963 0 -168573.1065351963 7850219.1783339307 0 0 0 0 35083285.382144928 97025757.598953247 0 97025757.598953247 120859711.94385147 0 0 0 0 -4685390.5855045998 7002161.6155718341 0 7002161.6155718341 6192645.504036814 0 0 0 0 -25333013.82995224 42377126.985527039 0 42377126.985527039 109127905.76246643 0 0 0 0 -1184420.3354463577 52740042.655620575 0 52740042.655620575 66783977.288024902 0 0 0 0 -178997501.9158783 3709393.429397583 0 3709393.429397583 128333753.70870972 0 0 0 0 -22334560.659316584 24310292.336427972 0 24310292.336427972 12687994.267433114 0 0 0 0 -330025040.62392139 -634959599.18089104 0 -634959599.18089104 1316606438.6993103 0 0 0 0 -317141952.7430954 116233527.49291992 0 116233527.49291992 39829684.203155518 0 0 0 0 -10834514.96545857 -8687695.3845560476 0 -8687695.3845560476 50662916.600629359 0 0 0 0 882600990.23999596 233737400.4016037 0 233737400.4016037 -966036521.4355011 0 0 0 0 2480475399.1079025 21575652.90423584 0 21575652.90423584 887140433.09213257 0 0 0 0 -14102343.106758118 1274235499.7136688 0 1274235499.7136688 437509471.83349609 0 0 0 0 21540512.38433075 54685422.779846191 0 54685422.779846191 21118108.743457794 0 0 0 0 -19090987.213282954 28931403.501504302 0 28931403.501504302 13801980.354469121 0 0 0 0 35143842.428022861 79884513.689507484 0 79884513.689507484 -78756592.162475586 0 0 0 0 35529786.224334717 69092999.491012573 0 69092999.491012573 -80493931.88873291 0 0 0 0 -39022277.47149086 23208589.238296509 0 23208589.238296509 80983298.555976868 0 0 0 0 -22348717.084939957 35580584.015371323 0 35580584.015371323 79248519.155792236 0 0 0 0 -47430168.464353561 28822408.990810394 0 28822408.990810394 81759004.117752075 0 0 0 0 -11526417.833384126 11982997.286555639 0 11982997.286555639 48874751.890536189 0 0 0 0 -37073048.509521484 15483666.058280945 0 15483666.058280945 53995710.209136963 0 0 0 0 -55126046.30853653 -10778504.460586548 0 -10778504.460586548 70303527.468139648 0 0 0 0 -40424451.504785538 15411341.818336487 0 15411341.818336487 93413389.090507507 0 0 0 0 -32372143.866240501 23718531.389259338 0 23718531.389259338 97911733.179351807 0 0 0 0 -41412737.575914383 -982767.41686248779 0 -982767.41686248779 82998870.483551025 0 0 0 0 -41741884.567915916 -8232384.9036078453 0 -8232384.9036078453 64724607.165435791 0 0 0 0 -51358760.466833115 -11791054.059814453 0 -11791054.059814453 70911585.876800537 0 0 0 0 -35514358.597849369 -18108349.520624161 0 -18108349.520624161 68046018.75680542 0 0 0 0 -7943538.7041896796 1663498.955073273 0 1663498.955073273 46651077.450518519 0 0 0 0 -57956184.870733261 -6545413.7421150208 0 -6545413.7421150208 64292579.711395264 0 0 0 0 -51304999.777765274 -7590023.8509979248 0 -7590023.8509979248 50200682.208815575 0 0 0 0 -51936123.455604553 -9681333.8324432373 0 -9681333.8324432373 44326344.193618774 0 0 0 0 -42073368.990060925 21762543.243412971 0 21762543.243412971 75558685.883209229 0 0 0 0 -8251849.8000132795 7757246.2429034486 0 7757246.2429034486 15516857.316720352 0 0 0 0 -50453366.549098969 147806280.83782959 0 147806280.83782959 14514912.273483276 0 0 0 0 -73151172.368899345 48597167.940383911 0 48597167.940383911 19354401.571487427 0 0 0 0 -205178589.43841743 7179737.2485351562 0 7179737.2485351562 6695111.2753295898 0 0 0 0 -583134470.98529053 -105381650.72241211 0 -105381650.72241211 95565973.869537354 0 0 0 0 -260614404.61896324 228807417.2082901 0 228807417.2082901 54865774.261657715 0 0 0 0 -375624191.6489048 276840172.64138031 0 276840172.64138031 192552198.09710693 0 0 0 0 9897072.6825962067 174095044.56771851 0 174095044.56771851 45857641.950134277 0 0 0 0 -2157033.0149629586 2330995.0776580572 0 2330995.0776580572 4250108.8203594238 0 0 0 0 -349453582.90284538 291199664.57247925 0 291199664.57247925 47288612.141570091 0 0 0 0 -311569878.83993781 -52682163.310756683 0 -52682163.310756683 36719172.358276367 0 0 0 0 5317261.8598718643 31821750.973693848 0 31821750.973693848 44403475.863098145 0 0 0 0 -209048881.92333317 54225570.707809448 0 54225570.707809448 46573225.913277626 0 0 0 0 -69317644.334603667 -15817385.382569313 0 -15817385.382569313 20689699.372924805 0 0 0 0 -553720032.16939068 -17485217.941665649 0 -17485217.941665649 198889983.9839344 0 0 0 0 -196429952.50039029 128266514.99738503 0 128266514.99738503 220704186.88595581 0 0 0 0 -69231086.444402695 -322980701.22679138 0 -322980701.22679138 -207562712.9808197 0 0 0 0 -377213313.88960528 660535044.31047821 0 660535044.31047821 122801108.58117676 0 0 0 0 -294786902.83773041 211082499.84712219 0 211082499.84712219 -53945761.928524017 0 0 0 0 -613783.93282977026 5567618.2548286542 0 5567618.2548286542 5342299.9740691911 0 0 0 0 -250350477.81568241 -151185268.68197632 0 -151185268.68197632 -67510762.225082397 0 0 0 0 233048938.73695564 157390219.26635742 0 157390219.26635742 89002409.452697754 0 0 0 0 133304315.59245968 -62748091.144805908 0 -62748091.144805908 -53582760.592224121 0 0 0 0 -20722.465204347391 671945.71377602965 0 671945.71377602965 1259975.5034593344 0 0 0 0 1263379104.2600136 415415189.67047119 0 415415189.67047119 -387409352.58227539 0 0 0 0 -130279.63345600461 469184.6809997689 0 469184.6809997689 1364164.7819640487 0 0 0 0 -206562780.26525593 91836482.219406128 0 91836482.219406128 260963515.5116272 0 0 0 0 252684550.93990135 274697630.4850769 0 274697630.4850769 99378305.300674438 0 0 0 0 315651235.31886005 -28378568.108436584 0 -28378568.108436584 287105684.81741333 0 0 0 0 6911429.2788877487 -18653214.453514099 0 -18653214.453514099 -65968562.673950195 0 0 0 0 -13141598.80281353 15142947.989814758 0 15142947.989814758 3463623.0577392578 0 0 0 0 -3603436.8901405334 26505993.512207031 0 26505993.512207031 -15512659.541503906 0 0 0 0 2904791.9037043555 4783615.4889702573 0 4783615.4889702573 -1501057.5425723046 0 0 0 0 58777356.593551636 -29879760.517486572 0 -29879760.517486572 -158507802.5123291 0 0 0 0 -792964.33313454385 2373264.2406512573 0 2373264.2406512573 4583011.4651025832 0 0 0 0 539370687.56447506 102400874.32034302 0 102400874.32034302 -162421949.55148315 0 0 0 0 395235.13767719362 188955.68541719019 0 188955.68541719019 -9819.1866818740964 0 0 0 0 303320184.82707214 57279408.550216675 0 57279408.550216675 -206664018.51483154 0 0 0 0 351910717.70944214 213999442.25411987 0 213999442.25411987 258413909.2119751 0 0 0 0 123873745.84180069 70951358.014022827 0 70951358.014022827 -33077541.438293457 0 0 0 0 -371679395.72397149 -184112731.40522575 0 -184112731.40522575 184739460.72705078 0 0 0 0 1721123.5764072423 3638311.3160598259 0 3638311.3160598259 -2096815.9991329014 0 0 0 0 356266119.71942139 -81472195.898468018 0 -81472195.898468018 -50300969.74911499 0 0 0 0 151733149.02647018 323254372.05377197 0 323254372.05377197 62368915.323120117 0 0 0 0 317799657.31709671 -665360623.38656616 0 -665360623.38656616 249492729.74768066 0 0 0 0 41353327.086685181 154514208.89959717 0 154514208.89959717 14804896.044311523 0 0 0 0 72730045.136985779 58895852.874969482 0 58895852.874969482 -3896551.7835083008 0 0 0 0 27996674.775619507 84737672.950057983 0 84737672.950057983 85140531.628112793 0 0 0 0 31415316.498953819 80468721.246437073 0 80468721.246437073 31512214.00668335 0 0 0 0 48431221.703220367 50357775.159759521 0 50357775.159759521 -108400521.41752625 0 0 0 0 108866491.89080811 8261740.1593017578 0 8261740.1593017578 -79525715.726989746 0 0 0 0 84120725.839050293 149540673.39794922 0 149540673.39794922 144392819.17791748 0 0 0 0 282556153.12696457 143152345.70193481 0 143152345.70193481 6904067.0252990723 0 0 0 0 -8241390.8089771271 20037920.11567688 0 20037920.11567688 155193188.42018414 0 0 0 0 189354055.42833877 -67484992.659861565 0 -67484992.659861565 -20693912.054046631 0 0 0 0 107971145.47521973 150224782.0975914 0 150224782.0975914 87046330.68182373 0 0 0 0 -2977743.4341391195 3093920.0060387626 0 3093920.0060387626 1595167.8030937165 0 0 0 0 -47753246.530845642 62888719.51625061 0 62888719.51625061 -22808522.991287231 0 0 0 0 -22945984.885371991 18760392.187707625 0 18760392.187707625 7405113.882387504 0 0 0 0 -16761211.02085495 85628998.471702576 0 85628998.471702576 -13396689.996734619 0 0 0 0 -221796264.33566713 -216142730.30187988 0 -216142730.30187988 186856877.30670166 0 0 0 0 55464806.428791046 -22049801.646957397 0 -22049801.646957397 -227364304.85394287 0 0 0 0 -51726421.90098381 36657752.334403992 0 36657752.334403992 -78740896.211242676 0 0 0 0 -268769442.65816307 58878356.92098999 0 58878356.92098999 -4920013.814453125 0 0 0 0 -69638412.478178024 137610197.45277405 0 137610197.45277405 -31558443.045715332 0 0 0 0 -167816027.26278299 112350645.13430119 0 112350645.13430119 15386541.985839844 0 0 0 0 501456.01502497727 1336447.1566599263 0 1336447.1566599263 -438707.64315350354 0 0 0 0 162068846.69406128 160146459.57737732 0 160146459.57737732 -362085839.26147461 0 0 0 0 309077073.53282166 430523174.29055786 0 430523174.29055786 -213812063.87752533 0 0 0 0 -21947189.517147064 58184403.148834229 0 58184403.148834229 -3865603.8435049057 0 0 0 0 -64010473.833824635 45323302.744659424 0 45323302.744659424 77493175.117034912 0 0 0 0 2972854.1508083344 40727073.416854858 0 40727073.416854858 10725184.495413303 0 0 0 0 -144525711.57266712 81273191.512001038 0 81273191.512001038 10263683.323364258 0 0 0 0 -55187989.645246267 -37323397.655777931 0 -37323397.655777931 7738305.2241516113 0 0 0 0 -94230314.211855888 -29047627.940994263 0 -29047627.940994263 7550281.5579528809 0 0 0 0 -55068805.118785381 -4970415.7933998108 0 -4970415.7933998108 77073631.956481934 0 0 0 0 5070873.663315773 -12776634.774139404 0 -12776634.774139404 1063622.9621620178 0 0 0 0 -30794793.813066483 -17360422.044517517 0 -17360422.044517517 147880116.92999268 0 0 0 0 -36176395.386233807 52279027.401672363 0 52279027.401672363 185298696.25302124 0 0 0 0 7087877.5028281212 6499973.2436447144 0 6499973.2436447144 70743674.870147705 0 0 0 0 -13972239.985213906 18125961.845776558 0 18125961.845776558 -783235.87349016219 0 0 0 0 107888194.32560253 60201486.883804321 0 60201486.883804321 78780909.127288818 0 0 0 0 -128830506.7318306 105755133.07080078 0 105755133.07080078 317523252.85380554 0 0 0 0 120813472.18822861 61034577.780670166 0 61034577.780670166 -205836890.92295837 0 0 0 0 -109210941.05294323 -13332586.449203491 0 -13332586.449203491 -92159188.324264526 0 0 0 0 -6260648.7393486854 15529328.052391648 0 15529328.052391648 -1659309.1682202779 0 0 0 0 73997805.987695694 -114607083.80160522 0 -114607083.80160522 -254855311.45839691 0 0 0 0 44217510.815956116 -100724209.64331818 0 -100724209.64331818 -2626510.1094512939 0 0 0 0 50528621.66033113 33773691.564580202 0 33773691.564580202 40048457.848876953 0 0 0 0 270207626.75716496 87845810.911388397 0 87845810.911388397 31204690.997375488 0 0 0 0 162978794.38783646 -30421778.813400269 0 -30421778.813400269 -93932392.898029327 0 0 0 0 28260146.914175987 65877933.204231262 0 65877933.204231262 32047772.343505859 0 0 0 0 14250841.78484726 148658928.77319336 0 148658928.77319336 56396315.234100342 0 0 0 0 123624457.19923592 97048020.413974762 0 97048020.413974762 41393959.80682373 0 0 0 0 -854751.04224205017 108065239.90213013 0 108065239.90213013 -32730463.421127319 0 0 0 0 -66470767.382019043 117240324.74906921 0 117240324.74906921 -28908982.950912476 0 0 0 0 -2565625.1639862061 131460532.02044678 0 131460532.02044678 -41455252.15234375 0 0 0 0 2488704.7741737366 64819063.681488037 0 64819063.681488037 -87593125.780258179 0 0 0 0 62286397.344713211 88998381.295959473 0 88998381.295959473 -92354429.72454834 0 0 0 0 138775774.80290604 93256205.721237183 0 93256205.721237183 -93994823.986038208 0 0 0 0 -79328325.587089539 -41768523.158805847 0 -41768523.158805847 70564267.315887451 0 0 0 0 -200253884.31343842 25149214.173057556 0 25149214.173057556 88731618.272079468 0 0 0 0 -10915055.767368317 13322809.407730103 0 13322809.407730103 45669418.2940979 0 0 0 0 -23482084.288127899 -30779438.327209473 0 -30779438.327209473 67789012.408935547 0 0 0 0 -20160720.177207947 30262150.456970215 0 30262150.456970215 37551887.165237427 0 0 0 0 -197964168.54085541 150690811.06600189 0 150690811.06600189 23669709.737190247 0 0 0 0 -56401753.838005066 87338948.73777771 0 87338948.73777771 51661021.698303223 0 0 0 0 -30864345.069440842 187375094.81427383 0 187375094.81427383 -85064845.289581299 0 0 0 0 -257669583.92513275 10097181.82723999 0 10097181.82723999 71973763.555603027 0 0 0 0 -288525519.61350632 219386512.63105774 0 219386512.63105774 26706066.479110718 0 0 0 0 -311414.3997294791 -2572743.3775566891 0 -2572743.3775566891 8022516.8754292578 0 0 0 0 -204655272.43760681 234635106.6177063 0 234635106.6177063 -22060333.790061951 0 0 0 0 -17009713.172828674 -40287791.905136108 0 -40287791.905136108 70028220.552032471 0 0 0 0 23251253.290267944 -19904743.080101013 0 -19904743.080101013 41553523.252944946 0 0 0 0 -14285208.235839941 -14203301.698829651 0 -14203301.698829651 60535160.014480591 0 0 0 0 -17779118.935984369 -998670.64913164638 0 -998670.64913164638 37088876.409378678 0 0 0 0 -936509.90153709427 -7319891.7579345703 0 -7319891.7579345703 37303022.455474854 0 0 0 0 -18898141.061710842 8937634.4426116943 0 8937634.4426116943 42782564.432037354 0 0 0 0 -16128019.853273107 1597583.713470459 0 1597583.713470459 61506062.887512207 0 0 0 0 -664154.12037575396 -1771991.8809959441 0 -1771991.8809959441 5830743.7492741942 0 0 0 0 -15886178.082461886 7816019.7685317993 0 7816019.7685317993 25124250.392486572 0 0 0 0 -2314640.5246793628 -6718843.4776000977 0 -6718843.4776000977 27980283.718742371 0 0 0 0 -113418.73688636732 3287016.5844558906 0 3287016.5844558906 -581072.9110455066 0 0 0 0 -15843950.796715528 -9180314.1925964355 0 -9180314.1925964355 28780985.978591919 0 0 0 0 9066732.9973255545 33568105.071094513 0 33568105.071094513 -5683164.2334899902 0 0 0 0 -37112.203559969465 15758.330207675695 0 15758.330207675695 37822.058799549937 0 0 0 0 928604.8921726346 40038600.011077881 0 40038600.011077881 -5339923.8094615936 0 0 0 0 -11427597.780787451 25996516.731212616 0 25996516.731212616 36860667.861480713 0 0 0 0 -16410841.642594241 -10172720.943359375 0 -10172720.943359375 41063987.299249649 0 0 0 0 -4281810.242294848 12431462.116882324 0 12431462.116882324 37620920.777557373 0 0 0 0 -14937750.799591035 12983542.402954102 0 12983542.402954102 41700064.495117188 0 0 0 0 -24001658.263819724 14178209.177246094 0 14178209.177246094 45482521.843719482 0 0 0 0 16677794.801509589 -23800663.13293457 0 -23800663.13293457 50232782.486755371 0 0 0 0 3161806.0364382714 -42484746.398574829 0 -42484746.398574829 70194337.623046875 0 0 0 0 -45746713.516826987 -179007.32836914062 0 -179007.32836914062 50197357.173461914 0 0 0 0 -19719825.066644549 -1310109.3150024414 0 -1310109.3150024414 42993051.129760742 0 0 0 0 -1692284.0030567944 -23842041.45880127 0 -23842041.45880127 46440162.353637695 0 0 0 0 -3502667.7521076705 4784469.8157062531 0 4784469.8157062531 35487987.19128418 0 0 0 0 -25240760.156299233 -22785103.80947876 0 -22785103.80947876 32723233.50012207 0 0 0 0 -20404026.235441834 -11492183.868270874 0 -11492183.868270874 55425050.8359375 0 0 0 0 -3302501.861632783 -2789210.359295845 0 -2789210.359295845 14788204.221679688 0 0 0 0 -820322.93911735062 -271811.41486494243 0 -271811.41486494243 1062840.8267132193 0 0 0 0 -116897971.45240128 36075439.622741699 0 36075439.622741699 31109597.135116577 0 0 0 0 -54990572.419209003 -21224303.328979492 0 -21224303.328979492 7245174.1231079102 0 0 0 0 -18570.425493872608 147129.77400089055 0 147129.77400089055 663171.47093425691 0 0 0 0 -35612806.554348052 6869781.3143615723 0 6869781.3143615723 35570369.782104492 0 0 0 0 -50380746.424633399 37989964.438949585 0 37989964.438949585 25542204.647583008 0 0 0 0 -51073259.765440166 64921791.279205322 0 64921791.279205322 -37775879.886657715 0 0 0 0 -20622674.868710995 28667085.945404053 0 28667085.945404053 4854344.2678222656 0 0 0 0 -2015779.4765490592 -6664248.4261016846 0 -6664248.4261016846 67484435.9034729 0 0 0 0 1887012.5685963184 -18647047.001068115 0 -18647047.001068115 67725170.113830566 0 0 0 0 -10393583.307022095 9352634.188293457 0 9352634.188293457 9221735.6557312012 0 0 0 0 -5486032.2527285153 -2326533.339757368 0 -2326533.339757368 7289825.1404755339 0 0 0 0 -9397316.9417949617 -34655263.19152832 0 -34655263.19152832 97096041.537780762 0 0 0 0 -6783064.9548081756 14726497.114318848 0 14726497.114318848 91653817.419952393 0 0 0 0 -6896618.9094331264 -18253966.409851074 0 -18253966.409851074 74924909.585372925 0 0 0 0 -12197741.445482254 -1210399.6419830322 0 -1210399.6419830322 17809350.781768799 0 0 0 0 -4206849.5355509166 13973953.945491791 0 13973953.945491791 36497190.772155762 0 0 0 0 -8139146.2885269588 -4784191.0377366617 0 -4784191.0377366617 12095743.773583122 0 0 0 0 -13451580.071674347 3310789.2974243164 0 3310789.2974243164 22151017.652069092 0 0 0 0 -10701164.651223222 -5991375.1216049194 0 -5991375.1216049194 39296825.035858154 0 0 0 0 -34334230.923004247 24487353.344146729 0 24487353.344146729 21400888.269256592 0 0 0 0 -17553646.750520173 11016336.5744837 0 11016336.5744837 27801304.368385553 0 0 0 0 -3331946.7585920524 8555743.3442993164 0 8555743.3442993164 26974047.1668396 0 0 0 0 -24940503.446201324 21554097.057312012 0 21554097.057312012 47729044.885120392 0 0 0 0 -102519882.10284042 62925557.840194702 0 62925557.840194702 38907294.305541992 0 0 0 0 -18810342.072594158 16310574.603696473 0 16310574.603696473 24537400.091616496 0 0 0 0 -15807549.525374413 -1354246.7079315186 0 -1354246.7079315186 25747572.590789795 0 0 0 0 -16324216.979143143 -5181788.8759460449 0 -5181788.8759460449 95554920.287353516 0 0 0 0 -16702843.237333298 1825701.5009155273 0 1825701.5009155273 33663132.498718262 0 0 0 0 -8078637.3749523163 31209924.020874023 0 31209924.020874023 43719359.530387878 0 0 0 0 -9479953.822634697 20496568.410301208 0 20496568.410301208 -3457014.5627441406 0 0 0 0 -8854826.3304271698 5892864.6748504639 0 5892864.6748504639 16789778.297546387 0 0 0 0 -13783299.907026291 12862715.557678223 0 12862715.557678223 19071191.211151123 0 0 0 0 3327176.2777115852 7532552.7627470046 0 7532552.7627470046 5610962.6774271727 0 0 0 0 3087165.0973318815 26495372.768842101 0 26495372.768842101 -2142147.28125 0 0 0 0 7467674.0493249893 39719561.606208801 0 39719561.606208801 -10915349.545623779 0 0 0 0 3321918.0412425995 15852442.558395386 0 15852442.558395386 -32017299.033828735 0 0 0 0 4568326.9108471405 5541507.8239304423 0 5541507.8239304423 -971735.23698034883 0 0 0 0 -690890.68846797943 -456650.65502929688 0 -456650.65502929688 -4114045.218963623 0 0 0 0 1834964.7751359739 1783972.9291208088 0 1783972.9291208088 632795.86555442214 0 0 0 0 2098188.918250517 2152424.7159372419 0 2152424.7159372419 1588080.7289763317 0 0 0 0 -26047719.863876462 3838545.8065948486 0 3838545.8065948486 6985157.8537597656 0 0 0 0 -91594218.287412345 46784524.383071899 0 46784524.383071899 148936918.56765747 0 0 0 0 261574170.82900634 -394237996.17115974 0 -394237996.17115974 -300023955.10546875 0 0 0 0 -23433200.426174402 570410990.44892502 0 570410990.44892502 -148400400.21951294 0 0 0 0 -247093332.80370951 -351318818.29924011 0 -351318818.29924011 58338440.211364746 0 0 0 0 747323.23096725333 459324.04226920009 0 459324.04226920009 571368.68926911056 0 0 0 0 70737001.726654619 -6801677.4159240723 0 -6801677.4159240723 -37411951.32434082 0 0 0 0 -100333578.91788605 -374321000.373703 0 -374321000.373703 489060329.71017456 0 0 0 0 -26207271.469780445 750130.22384643555 0 750130.22384643555 55333374.010879517 0 0 0 0 130433567.40570489 -102287327.38238525 0 -102287327.38238525 61020991.188568115 0 0 0 0 1281222.9654941931 -2206147.7737121582 0 -2206147.7737121582 62405532.006622314 0 0 0 0 5607254.1470973939 3372268.0254974365 0 3372268.0254974365 35018849.356719971 0 0 0 0 9616040.6127112508 2907820.2638206482 0 2907820.2638206482 8562870.5797119141 0 0 0 0 -22796585.724226773 44979034.171661377 0 44979034.171661377 -5822591.1191101074 0 0 0 0 -13691296.249629974 14676229.47354126 0 14676229.47354126 12810286.011016846 0 0 0 0 -32063552.715007842 44878688.052764893 0 44878688.052764893 -3895440.1718139648 0 0 0 0 1972531.4013480938 7325659.660361357 0 7325659.660361357 6255033.6308234483 0 0 0 0 8103841.0702670813 5261374.8679504395 0 5261374.8679504395 -6423464.6983032227 0 0 0 0 -15566646.099866614 -8227151.8499755859 0 -8227151.8499755859 30121952.90814209 0 0 0 0 -2673084.9483935535 23788977.241127014 0 23788977.241127014 -2011635.6928710938 0 0 0 0 -65748807.669301331 36408369.534851074 0 36408369.534851074 8421839.0775756836 0 0 0 0 -31391911.459394515 48536214.143627167 0 48536214.143627167 -62807500.89855957 0 0 0 0 -35587400.514982671 -8847563.4769134521 0 -8847563.4769134521 -46982813.473022461 0 0 0 0 -26907735.40839994 12464638.542694092 0 12464638.542694092 4924623.6932983398 0 0 0 0 3703484.9826409817 11881802.453308105 0 11881802.453308105 -22127928.717224121 0 0 0 0 1771803.8076860309 8030840.8615722656 0 8030840.8615722656 17039409.954864502 0 0 0 0 18464310.306406736 -648113.34417724609 0 -648113.34417724609 3388065.9854125977 0 0 0 0 963506.65425130725 -5603534.9647521973 0 -5603534.9647521973 30850925.31628418 0 0 0 0 19786058.42208159 -6421213.0503082275 0 -6421213.0503082275 26951042.501953125 0 0 0 0 13764107.972383553 -14372800.027112961 0 -14372800.027112961 47847304.838562012 0 0 0 0 20289964.879627049 -50625995.325511932 0 -50625995.325511932 88226350.350860596 0 0 0 0 33532024.815955728 -32340820.516281128 0 -32340820.516281128 47865455.954608649 0 0 0 0 38730598.755905285 -70170995.994552612 0 -70170995.994552612 89223616.401145935 0 0 0 0 36802360.095713422 -22901228.915130615 0 -22901228.915130615 22356198.61681366 0 0 0 0 20020793.116826035 -31855606.819290161 0 -31855606.819290161 73139145.585235596 0 0 0 0 56480475.219316289 -25772210.542449951 0 -25772210.542449951 40441238.36057663 0 0 0 0 25577707.043477722 -52313525.817886353 0 -52313525.817886353 112705923.22071838 0 0 0 0 59231189.441446967 -165257857.06972504 0 -165257857.06972504 240274764.12329102 0 0 0 0 13104912.143792508 -84793223.438018799 0 -84793223.438018799 181780560.1987915 0 0 0 0 -26258149.916477054 -62206719.156303406 0 -62206719.156303406 273142084.66455078 0 0 0 0 -5048354.5100987814 -43723992.7003479 0 -43723992.7003479 203442452.39819336 0 0 0 0 -28917044.976948231 -58902343.785614014 0 -58902343.785614014 390473870.52059937 0 0 0 0 -17611102.240918688 -30552759.760231018 0 -30552759.760231018 261756682.54319763 0 0 0 0 -17504219.820687439 -33235654.533935547 0 -33235654.533935547 188828835.27730083 0 0 0 0 -67848.85178645674 827497.77407836914 0 827497.77407836914 250310211.97885132 0 0 0 0 -2558120.4482171312 -48706249.375488281 0 -48706249.375488281 190646174.68055725 0 0 0 0 46221.287345591802 -13436165.766143799 0 -13436165.766143799 106835626.49642944 0 0 0 0 -1166074.2335055098 -30741234.275299072 0 -30741234.275299072 114644290.22471619 0 0 0 0 16439512.941101678 -15545368.024715424 0 -15545368.024715424 46859768.292602539 0 0 0 0 11903270.02902006 -21682962.721633911 0 -21682962.721633911 73478173.996337891 0 0 0 0 6806200.7327979729 -33902543.061050415 0 -33902543.061050415 96132543.855880737 0 0 0 0 -6933.3037112470611 -9266401.4180447534 0 -9266401.4180447534 54944946.227203369 0 0 0 0 9081978.4824954718 -13880027.126571655 0 -13880027.126571655 41904230.567260742 0 0 0 0 -995269.04179280065 -2358115.4778900146 0 -2358115.4778900146 22415278.808135986 0 0 0 0 -495.77221090928742 -1654.1557748541236 0 -1654.1557748541236 25439.81774328649 0 0 0 0 -2234334.9307106789 3968322.8167877197 0 3968322.8167877197 33972655.327667236 0 0 0 0 2543172.3765364448 -11077706.242797852 0 -11077706.242797852 49153156.900695801 0 0 0 0 2891021.6034639627 7536048.8327331543 0 7536048.8327331543 25812868.37689209 0 0 0 0 3182553.4665968418 3236908.1125488281 0 3236908.1125488281 29884147.366607666 0 0 0 0 -451648.70197452605 5915969.0989074707 0 5915969.0989074707 25467131.066986084 0 0 0 0 13062089.730579503 -721582.60684967041 0 -721582.60684967041 24471726.107177734 0 0 0 0 -2889352.5059753656 846527.9211730957 0 846527.9211730957 24553621.112886429 0 0 0 0 -3730394.8643101752 20848511.526092529 0 20848511.526092529 15397483.215484619 0 0 0 0 -18024088.829280116 35371210.559555054 0 35371210.559555054 1713848.7829589844 0 0 0 0 -672857.58109849691 22629710.844390869 0 22629710.844390869 6060061.1976623535 0 0 0 0 8797862.0390177518 8347237.3628234863 0 8347237.3628234863 23102938.032470703 0 0 0 0 -7203717.0919751525 17543927.278320312 0 17543927.278320312 18766726.652023315 0 0 0 0 -11624083.382627353 17030192.727508545 0 17030192.727508545 31088012.530944824 0 0 0 0 -21922119.514115661 28478905.721452713 0 28478905.721452713 25618902.778625488 0 0 0 0 -12194644.254019499 17595950.207519531 0 17595950.207519531 35159553.701660156 0 0 0 0 -10236204.248815976 -3980335.422744751 0 -3980335.422744751 46375891.703613281 0 0 0 0 -76613.486781216663 46229.917789407074 0 46229.917789407074 84086.835660949349 0 0 0 0 -13788106.160097778 3528065.5784606934 0 3528065.5784606934 40610262.377464294 0 0 0 0 -11154544.986759543 13749459.911483765 0 13749459.911483765 28961186.866210938 0 0 0 0 -11932884.460555553 14040134.475067139 0 14040134.475067139 33135414.409057617 0 0 0 0 -11566653.876912057 10021545.087799072 0 10021545.087799072 32696461.832427979 0 0 0 0 -11064501.847763702 10008605.51473999 0 10008605.51473999 18719153.040771484 0 0 0 0 -8020307.2318169773 -2627749.1155395508 0 -2627749.1155395508 23872210.02835083 0 0 0 0 -14913546.585734829 10743796.485290527 0 10743796.485290527 19677684.668212891 0 0 0 0 -7238944.7309292555 -4719603.0078735352 0 -4719603.0078735352 4641904.900390625 0 0 0 0 9765485.156784907 4451528.5047302246 0 4451528.5047302246 11690075.32711792 0 0 0 0 2982.3587886103196 5981.8519911691546 0 5981.8519911691546 8302.6254834905267 0 0 0 0 -16390277.837546118 20723841.663024902 0 20723841.663024902 16356399.369766235 0 0 0 0 1887800.7000567764 -2871349.3151550293 0 -2871349.3151550293 9052864.9902496338 0 0 0 0 -15106554.28492086 4493981.4303436279 0 4493981.4303436279 21869741.767883301 0 0 0 0 -917720.26454681903 8290776.6839294434 0 8290776.6839294434 22515223.375183105 0 0 0 0 11316904.654319495 -14927865.322265625 0 -14927865.322265625 -10319324.508270264 0 0 0 0 -21287812.839595109 5230846.5349731445 0 5230846.5349731445 22287357.624694824 0 0 0 0 -2636795.5041756704 24820273.589477539 0 24820273.589477539 -14473124.286365509 0 0 0 0 -34345.064685732221 24653.386803418398 0 24653.386803418398 44102.354864627123 0 0 0 0 -6506994.8113949746 -27033658.12878418 0 -27033658.12878418 93123241.707611084 0 0 0 0 -13183300.35565855 -2627013.4378662109 0 -2627013.4378662109 66752237.931625366 0 0 0 0 -2442485.351417888 2269814.550201416 0 2269814.550201416 44090328.22088623 0 0 0 0 10439487.227036867 -20371269.555343628 0 -20371269.555343628 64566402.44442749 0 0 0 0 1779021.7559484299 -3199138.4188079834 0 -3199138.4188079834 50484650.194213867 0 0 0 0 -16161334.279445238 -5286100.2640075684 0 -5286100.2640075684 68092160.573921204 0 0 0 0 -8417526.6849087216 -10151415.359039307 0 -10151415.359039307 51519013.208099365 0 0 0 0 -9269988.4519886263 -3647081.5971374512 0 -3647081.5971374512 80927066.058929443 0 0 0 0 -241827.76129866764 -14005753.615371704 0 -14005753.615371704 55170730.815826416 0 0 0 0 -7163888.5314224884 -4762642.7473144531 0 -4762642.7473144531 63784506.581721306 0 0 0 0 -6877683.2904168069 -7839643.1011352539 0 -7839643.1011352539 52942053.829742432 0 0 0 0 -5333562.2728433795 -12616852.662200928 0 -12616852.662200928 51263307.742004395 0 0 0 0 -5440212.4600557461 -411301.03770446777 0 -411301.03770446777 48884805.557312012 0 0 0 0 -8363.6998639876183 -8666727.848949736 0 -8666727.848949736 40989860.534606934 0 0 0 0 -4607907.1521103643 -3337753.9042663574 0 -3337753.9042663574 37330586.236862183 0 0 0 0 -1942.399921419953 -5773550.0170382699 0 -5773550.0170382699 30127996.967163086 0 0 0 0 -13777395.477232954 28338712.738739014 0 28338712.738739014 5082404.391204834 0 0 0 0 -7576685.9810538627 -2115473.1870727539 0 -2115473.1870727539 33497175.046722412 0 0 0 0 -3947381.5340544861 -5491994.675075531 0 -5491994.675075531 35651117.182006836 0 0 0 0 -59524810.098247528 -797707544.36014938 0 -797707544.36014938 -291812349.89997864 0 0 0 0 -162683109.47047424 -63492625.989768982 0 -63492625.989768982 144010167.80387115 0 0 0 0 -3499418.9244721942 1892635.7311543301 0 1892635.7311543301 9443614.2323461883 0 0 0 0 235673016.09964752 143217473.51294708 0 143217473.51294708 352651581.76590729 0 0 0 0 828974815.25567627 -259171010.22018433 0 -259171010.22018433 -514502682.82668495 0 0 0 0 950177551.71040058 184570280.25216484 0 184570280.25216484 -419631902.36851501 0 0 0 0 990823124.16641808 59406053.856668472 0 59406053.856668472 -268705124.48160553 0 0 0 0 1234645323.187645 -36157769.840076447 0 -36157769.840076447 -326739783.04233932 0 0 0 0 902941120.07597351 -23053047.26738739 0 -23053047.26738739 -260138081.82954502 0 0 0 0 -156683634.78909302 -45516013.351341248 0 -45516013.351341248 196834514.18161774 0 0 0 0 -58079635.840332031 -67429936.267120361 0 -67429936.267120361 111599156.54354858 0 0 0 0 20243433.81085968 -268549337.60623169 0 -268549337.60623169 320589293.33542252 0 0 0 0 -227803873.25655365 11393520.223812103 0 11393520.223812103 90936796.999862671 0 0 0 0 31089284.844764948 -1126232.1227293015 0 -1126232.1227293015 82321177.484085083 0 0 0 0 -302975701.15666199 35917017.754684448 0 35917017.754684448 -5909252.1559276581 0 0 0 0 -32906187.5858078 19985466.573085785 0 19985466.573085785 -13516019.211410522 0 0 0 0 -99518452.55091095 -108304093.29202271 0 -108304093.29202271 146242383.54043961 0 0 0 0 -144010415.6258812 -17024498.94984436 0 -17024498.94984436 18512629.955062866 0 0 0 0 -64787696.808154106 -87154632.977059364 0 -87154632.977059364 -50317719.826690674 0 0 0 0 -61233211.700122833 -69794064.813461304 0 -69794064.813461304 25193805.290618896 0 0 0 0 -4519136.0221184846 2723199.0995890126 0 2723199.0995890126 11240183.021770686 0 0 0 0 -322251455.42119265 215636493.98304272 0 215636493.98304272 -138293028.11250305 0 0 0 0 -362387397.04566956 -120823046.88251877 0 -120823046.88251877 333456190.84188843 0 0 0 0 -721600602.92799568 92652070.971107483 0 92652070.971107483 1033254486.0251617 0 0 0 0 -791190973.98313379 -327525114.34093142 0 -327525114.34093142 239425553.65510559 0 0 0 0 903669220.11268616 -63168234.183609009 0 -63168234.183609009 -199365996.03349304 0 0 0 0 944791500.37887192 -819579253.48822784 0 -819579253.48822784 3857256562.7009583 0 0 0 0 735110470.98765373 478196558.83405876 0 478196558.83405876 -839870546.28034973 0 0 0 0 -1201242066.9014282 -1098626976.5055122 0 -1098626976.5055122 1133982924.0871086 0 0 0 0 764707650.33201027 215550419.2749176 0 215550419.2749176 547309812.01385498 0 0 0 0 834906096.68867493 306806601.59456253 0 306806601.59456253 658542414.04161072 0 0 0 0 1186450585.4018936 406812861.9773407 0 406812861.9773407 -376425627.37448311 0 0 0 0 1249808500.4048424 29548524.318267822 0 29548524.318267822 591401211.27098083 0 0 0 0 1582364103.9238873 883315551.53904629 0 883315551.53904629 702456053.08302307 0 0 0 0 3376589697.9576187 1301133056.1825104 0 1301133056.1825104 1191782450.6850014 0 0 0 0 617247198.30483627 1851422604.2660713 0 1851422604.2660713 5183299932.4615784 0 0 0 0 106652261.50465012 580582190.68709564 0 580582190.68709564 2143573168.1040955 0 0 0 0 -312284884.08861959 -40087897.645892859 0 -40087897.645892859 1804178677.9486694 0 0 0 0 -319817605.55482864 150946860.37944031 0 150946860.37944031 3257557861.1331329 0 0 0 0 227987361.50456238 842998667.9887619 0 842998667.9887619 2317790077.5900192 0 0 0 0 -267711468.68609619 362542761.31091309 0 362542761.31091309 2162526456.5126667 0 0 0 0 -421171425.81812286 42180654.903915405 0 42180654.903915405 2115923696.0633774 0 0 0 0 -66340383.348700523 -36065625.278972626 0 -36065625.278972626 1929847447.2447739 0 0 0 0 -391770995.76635361 59724230.256813049 0 59724230.256813049 2074739821.1950455 0 0 0 0 -333252672.20227051 183250254.43009567 0 183250254.43009567 1768635085.2910919 0 0 0 0 -265900302.23352432 250656912.57537842 0 250656912.57537842 1520465412.4677277 0 0 0 0 -75027357.35285759 317321226.22574806 0 317321226.22574806 819407729.61146927 0 0 0 0 -312920170.12707138 211060782.91952896 0 211060782.91952896 1511208447.0332165 0 0 0 0 664958015.74186516 -41893455.593233109 0 -41893455.593233109 -49229011.340942383 0 0 0 0 -239893720.91896057 -52179289.025489807 0 -52179289.025489807 1143187388.6531906 0 0 0 0 139357790.42989063 462096434.54744053 0 462096434.54744053 1421284650.0231018 0 0 0 0 -219005664.08408546 603452798.20124054 0 603452798.20124054 3206541282.6530533 0 0 0 0 -6368581.7761936188 382600430.35168457 0 382600430.35168457 3003986710.2478485 0 0 0 0 102410977.56893921 553779669.13506317 0 553779669.13506317 2647814871.8248138 0 0 0 0 232046482.69305485 414196676.38794518 0 414196676.38794518 2776744671.0012817 0 0 0 0 -208235952.29437828 545976420.48442078 0 545976420.48442078 2945255530.2931976 0 0 0 0 352338214.35259438 403952805.98059082 0 403952805.98059082 1853928524.755394 0 0 0 0 20431275.204189301 519042063.60877228 0 519042063.60877228 2195365281.1517162 0 0 0 0 102595733.51434898 806581985.47127151 0 806581985.47127151 2796072020.3456802 0 0 0 0 -114372749.42331886 -127411641.9138031 0 -127411641.9138031 1656096336.1983185 0 0 0 0 -172546051.07555771 -129487392.18254089 0 -129487392.18254089 1216919308.7004471 0 0 0 0 -355376542.89653015 95427210.182617188 0 95427210.182617188 585020308.31317139 0 0 0 0 -435353971.43856812 -297232824.72575378 0 -297232824.72575378 1248762381.2980042 0 0 0 0 -443159287.69057465 103680274.27737427 0 103680274.27737427 1362119343.0205078 0 0 0 0 -178773042.81377411 144487187.22833252 0 144487187.22833252 2131581938.171648 0 0 0 0 -8506287.0729546547 283827484.75012493 0 283827484.75012493 1640502333.9972382 0 0 0 0 188619118.68119669 -77594148.12131691 0 -77594148.12131691 1767503480.9990082 0 0 0 0 5303006.3724926477 621107.7471787259 0 621107.7471787259 415666.02346380427 0 0 0 0 130334700.2754364 143066212.54117584 0 143066212.54117584 1388542366.2223549 0 0 0 0 315742513.13326645 193137965.80860901 0 193137965.80860901 1373941372.125061 0 0 0 0 81386595.152686119 336864892.50630569 0 336864892.50630569 1842919058.4600372 0 0 0 0 -17616232.257894516 131423624.85180664 0 131423624.85180664 1817284437.1999054 0 0 0 0 -10264194.22134304 291165652.09820366 0 291165652.09820366 1468059348.7138062 0 0 0 0 -209857851.07442474 -166775017.39941406 0 -166775017.39941406 1112784246.6487732 0 0 0 0 -406580033.90523911 37752058.160675049 0 37752058.160675049 1463154667.8900452 0 0 0 0 -87666684.202793121 177263494.81777954 0 177263494.81777954 2610379124.3486319 0 0 0 0 -237380821.23036003 267432264.90416908 0 267432264.90416908 -137787258.5831604 0 0 0 0 -76082588.919139862 193004496.09065247 0 193004496.09065247 -135218417.4469986 0 0 0 0 -112699552.18830299 -74856331.81496048 0 -74856331.81496048 -47717355.591499329 0 0 0 0 -61499199.975242615 -77233722.719264984 0 -77233722.719264984 -106401070.46395874 0 0 0 0 183487897.48091698 -40963618.768819809 0 -40963618.768819809 277200659.22900391 0 0 0 0 1856888.0698163002 6158011.5471310057 0 6158011.5471310057 4886496.9483269714 0 0 0 0 136141641.25863647 -332062567.34265137 0 -332062567.34265137 -404222621.58203125 0 0 0 0 157453.57964895852 220641.42870302475 0 220641.42870302475 -153247.39322482049 0 0 0 0 -34103296.547725677 -75862769.420501709 0 -75862769.420501709 -166169668.1317749 0 0 0 0 -98479184.202280045 -107984400.50878906 0 -107984400.50878906 24512195.837997437 0 0 0 0 -463015865.29911804 -340149525.93692017 0 -340149525.93692017 144759733.02461243 0 0 0 0 -396856624.27133942 -385385822.55775452 0 -385385822.55775452 -7283668.3489379883 0 0 0 0 132315583.9727726 149363729.00663948 0 149363729.00663948 1624886.8709907532 0 0 0 0 -1315393.4586184057 2508504.2221201705 0 2508504.2221201705 1087524.1219916977 0 0 0 0 -476388327.03878498 253822329.24883652 0 253822329.24883652 -125515397.42061996 0 0 0 0 -741809462.49116135 59175518.277137756 0 59175518.277137756 77959641.34916687 0 0 0 0 -275810881.5402832 187635287.05792999 0 187635287.05792999 -103396118.72707367 0 0 0 0 469732975.72628784 222773287.09918976 0 222773287.09918976 -195273584.79929733 0 0 0 0 918917169.93259525 -52338314.62921524 0 -52338314.62921524 -69200220.062065125 0 0 0 0 1893812.7279428784 -1761124.6776736043 0 -1761124.6776736043 699.40270599350333 0 0 0 0 2253010.9241431206 -1642877.4630622789 0 -1642877.4630622789 2172286.9724417403 0 0 0 0 -48949861.459262848 -108461330.0076828 0 -108461330.0076828 -79010263.502319336 0 0 0 0 97881250.667327881 14524252.655517578 0 14524252.655517578 75571147.630086958 0 0 0 0 -65056089.348623276 -120197533.13796425 0 -120197533.13796425 73460730.053703308 0 0 0 0 -168089725.09698105 25733157.34519577 0 25733157.34519577 -20294402.290176392 0 0 0 0 350840135.31241417 -90890749.83686924 0 -90890749.83686924 780350704.64961243 0 0 0 0 467606734.59781837 -19090009.967857361 0 -19090009.967857361 60278471.743225098 0 0 0 0 252717828.62918854 152414257.78878784 0 152414257.78878784 277780873.54564381 0 0 0 0 389171948.23496294 -224574128.62531853 0 -224574128.62531853 214005633.51447296 0 0 0 0 -116672773.3283596 -124151695.94300461 0 -124151695.94300461 202451469.88638306 0 0 0 0 -31335018.345497131 102920814.04706573 0 102920814.04706573 181760186.7155304 0 0 0 0 33365443.87059021 136073527.5356102 0 136073527.5356102 -102659220.41488647 0 0 0 0 -226740153.96126652 -110204504.91061211 0 -110204504.91061211 39530852.403373718 0 0 0 0 58679863.525047302 232595656.58652115 0 232595656.58652115 215364953.18450165 0 0 0 0 385877743.3731823 88188780.223514557 0 88188780.223514557 19794180.022590637 0 0 0 0 80786179.121772766 -24712712.246711731 0 -24712712.246711731 129811944.75849152 0 0 0 0 -6276187.8784790039 20243510.789585114 0 20243510.789585114 -42143486.107463837 0 0 0 0 -529394901.24084187 -50428890.811281681 0 -50428890.811281681 50280521.568153381 0 0 0 0 -1488390.5087971855 -160884.39049561135 0 -160884.39049561135 1264501.3520229887 0 0 0 0 1856541.5312081098 6896756.2997879498 0 6896756.2997879498 4487746.3387193829 0 0 0 0 -602736804.5597496 466427227.83493423 0 466427227.83493423 -79057476.790111542 0 0 0 0 -393783254.7359314 236886732.22539806 0 236886732.22539806 1811943.0962486267 0 0 0 0 -422548878.44029236 31865366.77820015 0 31865366.77820015 204815118.26012039 0 0 0 0 -283915923.29182434 179356281.82813072 0 179356281.82813072 -132468664.03702164 0 0 0 0 -160320497.88075638 -3530327.3359375 0 -3530327.3359375 21275521.245342255 0 0 0 0 -123189481.25086975 2562995.4020462036 0 2562995.4020462036 24298437.292625427 0 0 0 0 711554.69793068245 -604126.62180474307 0 -604126.62180474307 -186823.01107002655 0 0 0 0 -115709672.44798279 15343732.418876648 0 15343732.418876648 -48655600.185303688 0 0 0 0 1800914.685486801 6905878.3185483702 0 6905878.3185483702 4168750.2775884308 0 0 0 0 -600549673.69432449 253620670.19670963 0 253620670.19670963 147019437.15925598 0 0 0 0 -277209087.52482986 -96464131.386940002 0 -96464131.386940002 -40156420.25868988 0 0 0 0 -713919832.81145477 77540906.319841385 0 77540906.319841385 130580520.54279327 0 0 0 0 -27654335.312353134 148353521.44160175 0 148353521.44160175 -4767381.1062393188 0 0 0 0 12516776.486919403 73719925.910577774 0 73719925.910577774 132419437.87229347 0 0 0 0 423165336.60349751 167566469.51292133 0 167566469.51292133 -63636001.017021179 0 0 0 0 194057024.92339706 182753114.41834641 0 182753114.41834641 -16493359.845035553 0 0 0 0 134761733.60790062 29458937.989688873 0 29458937.989688873 -85659196.060073853 0 0 0 0 -240065895.12820625 191505160.6184864 0 191505160.6184864 85495025.72842598 0 0 0 0 1618460.4536348148 5768796.5541033652 0 5768796.5541033652 2604079.7822378092 0 0 0 0 195665238.96965361 154603309.31481314 0 154603309.31481314 -31408697.916343689 0 0 0 0 254993537.15579987 142493363.55042458 0 142493363.55042458 -69417716.836174011 0 0 0 0 371839666.49445343 109288349.44968224 0 109288349.44968224 -74985695.134048462 0 0 0 0 305724356.48466873 66483055.900306702 0 66483055.900306702 42975400.217155457 0 0 0 0 358901960.26773548 56775760.275673389 0 56775760.275673389 -102191994.98364258 0 0 0 0 306138978.5136528 28826183.75071907 0 28826183.75071907 -91247356.935218811 0 0 0 0 355145294.7469368 -18911228.64167881 0 -18911228.64167881 -58817548.504776001 0 0 0 0 363041617.58045959 -57153663.447319031 0 -57153663.447319031 26335277.557012558 0 0 0 0 231630731.56750488 -2600806.8148345947 0 -2600806.8148345947 -113089134.7114315 0 0 0 0 6792561.4233808517 -164983453.3063941 0 -164983453.3063941 23507696.583740234 0 0 0 0 300291740.08920288 -100809577.36479187 0 -100809577.36479187 -179998722.3014183 0 0 0 0 527491805.779953 121659648.20139694 0 121659648.20139694 -93196027.882411957 0 0 0 0 459722624.71606445 -114663806.32616615 0 -114663806.32616615 -145432072.30918884 0 0 0 0 837060047.73154831 369398491.27858353 0 369398491.27858353 190555287.93138123 0 0 0 0 733785169.5190239 -410355253.75035095 0 -410355253.75035095 316467882.87910461 0 0 0 0 114239601.2048378 -28679859.083599091 0 -28679859.083599091 121591204.82292175 0 0 0 0 110383061.75190091 16468064.377947569 0 16468064.377947569 44581902.504508972 0 0 0 0 -371685438.41126823 106984365.506917 0 106984365.506917 721930338.97161102 0 0 0 0 -213463305.5253706 338015953.05015564 0 338015953.05015564 142024649.09752655 0 0 0 0 -1662491.4163704235 1153377.6862571519 0 1153377.6862571519 3945457.7536799833 0 0 0 0 -18964530.603700161 99378848.42186594 0 99378848.42186594 -193456591.47033691 0 0 0 0 1204653820.5604134 -257688386.76502609 0 -257688386.76502609 -97075619.042930603 0 0 0 0 801509455.9103241 -433773155.42792892 0 -433773155.42792892 449964744.79628754 0 0 0 0 -75400228.467302322 -263371422.10309267 0 -263371422.10309267 321345469.55002213 0 0 0 0 -148127799.6894455 -27208270.994525909 0 -27208270.994525909 269839726.59838009 0 0 0 0 2698194.1460660398 -2259376.1056845868 0 -2259376.1056845868 -3306065.7481015883 0 0 0 0 -305522441.01715851 38351164.036380768 0 38351164.036380768 319700474.44003296 0 0 0 0 4056090.6564716883 -3890806.3156640334 0 -3890806.3156640334 -5427176.2886335738 0 0 0 0 -76075603.900726318 -152477820.09418488 0 -152477820.09418488 294783855.14149427 0 0 0 0 -589797808.26423645 -136162977.93311596 0 -136162977.93311596 308536278.11841583 0 0 0 0 168637996.0240612 -147733875.23585129 0 -147733875.23585129 -410710512.69250107 0 0 0 0 -91678889.285209656 257039107.32110977 0 257039107.32110977 -188481407.51885223 0 0 0 0 -333817646.44627762 -305541030.39203072 0 -305541030.39203072 -53648720.127521515 0 0 0 0 -481276857.34797478 73415040.842523575 0 73415040.842523575 127550591.06346893 0 0 0 0 -129079442.30481339 162215424.29924583 0 162215424.29924583 -283375382.52886581 0 0 0 0 -1026514.7182562053 -2631025.9763322212 0 -2631025.9763322212 3397153.8102466771 0 0 0 0 9067454.0089492798 -110083165.7251606 0 -110083165.7251606 31620552.033624649 0 0 0 0 205474347.19333649 -7594817.0733242035 0 -7594817.0733242035 -304290796.19154739 0 0 0 0 91325198.681816101 -334734119.39444923 0 -334734119.39444923 182445104.73110199 0 0 0 0 2654818.8912650198 -2388911.8103406811 0 -2388911.8103406811 -3432038.2496180236 0 0 0 0 -2918396.974609375 115980419.03516388 0 115980419.03516388 -72522138.503509521 0 0 0 0 -151072748.13340759 -149061035.67925644 0 -149061035.67925644 70011312.794567108 0 0 0 0 50056969.367019653 240783285.47054291 0 240783285.47054291 150947512.59291542 0 0 0 0 -8935563.6917351708 3194518.9147886103 0 3194518.9147886103 18963742.909103364 0 0 0 0 -1477224.431640625 20315829.273048401 0 20315829.273048401 30458648.692649841 0 0 0 0 -19379057.139533997 4383363.0015716553 0 4383363.0015716553 56917002.071552277 0 0 0 0 -13117234.361187933 11543249.219464716 0 11543249.219464716 35893722.6047903 0 0 0 0 -21701103.539236069 7673971.7949504852 0 7673971.7949504852 25502334.386459351 0 0 0 0 124431948.20390701 143130027.62104797 0 143130027.62104797 -206427691.48228455 0 0 0 0 -422635807.35988617 -115665161.86080742 0 -115665161.86080742 200816204.0004921 0 0 0 0 -8002275.7529803775 13444496.943271004 0 13444496.943271004 41683297.064061128 0 0 0 0 -98851116.296333313 -6337357.966252327 0 -6337357.966252327 92718310.378921509 0 0 0 0 -265563719.14086914 73922870.176410675 0 73922870.176410675 55772240.869888306 0 0 0 0 -4297875.1640269011 24990419.067980312 0 24990419.067980312 36566140.147437505 0 0 0 0 -35994456.594646454 31111548.454322815 0 31111548.454322815 15409342.968444824 0 0 0 0 -14555156.291920096 9103622.5452352129 0 9103622.5452352129 55467217.615902394 0 0 0 0 -325385912.251791 97794831.924446106 0 97794831.924446106 195164263.24365234 0 0 0 0 1782540.2164219376 17227759.952561803 0 17227759.952561803 51864247.024689034 0 0 0 0 -109356271.20453262 -94855607.626281738 0 -94855607.626281738 8097625.1421508789 0 0 0 0 -535727748.86782074 -62990408.960800171 0 -62990408.960800171 151270405.70022583 0 0 0 0 -9273855.3514448479 4169811.16061226 0 4169811.16061226 28332916.084881805 0 0 0 0 -264291970.43506622 58543589.264730453 0 58543589.264730453 133916112.15460205 0 0 0 0 -173032678.0864563 97188036.712745667 0 97188036.712745667 122069322.66731071 0 0 0 0 -2842958.7181549072 -64420461.603561401 0 -64420461.603561401 154427885.46983004 0 0 0 0 -334763564.8709259 141342802.42824936 0 141342802.42824936 71278290.585453033 0 0 0 0 -118445450.51079941 94872024.526201248 0 94872024.526201248 81152782.632629395 0 0 0 0 36129350.400349617 15847182.28225708 0 15847182.28225708 259233609.81481934 0 0 0 0 19717646.318397522 -24335676.551651001 0 -24335676.551651001 477623013.5124054 0 0 0 0 332298190.49871421 255301285.97219658 0 255301285.97219658 184847138.14538574 0 0 0 0 145528358.95444489 102677748.91275024 0 102677748.91275024 63893748.675567627 0 0 0 0 227603336.301916 171945918.23491764 0 171945918.23491764 -38343765.293273926 0 0 0 0 94852991.546386719 132926925.95373535 0 132926925.95373535 -9948034.7286376953 0 0 0 0 153853179.14595509 109270533.3323288 0 109270533.3323288 -30622678.78717041 0 0 0 0 79547685.494922638 170714805.45193481 0 170714805.45193481 35338261.503356934 0 0 0 0 -35901205.087924957 111582250.12593079 0 111582250.12593079 5051805.725402832 0 0 0 0 93876148.960220337 121408846.50127411 0 121408846.50127411 -125501308.64465332 0 0 0 0 -50612964.671272278 68248397.856964111 0 68248397.856964111 -117757344.23638535 0 0 0 0 -213670498.39718246 234513513.80587006 0 234513513.80587006 -13844512.295562744 0 0 0 0 29841229.901925623 171115828.80374551 0 171115828.80374551 50726519.65145874 0 0 0 0 24429919.623214722 -11255018.744903564 0 -11255018.744903564 220430769.90150452 0 0 0 0 -38984350.813789368 -63940778.612304688 0 -63940778.612304688 38270126.005599976 0 0 0 0 -213253960.98852348 227973972.50733948 0 227973972.50733948 266994187.94561768 0 0 0 0 1135912.4403347857 1411583.0187934339 0 1411583.0187934339 -853739.76164255664 0 0 0 0 -338628558.08115387 37889666.839172363 0 37889666.839172363 143092184.35207367 0 0 0 0 1667477.4582826179 22540384.048993811 0 22540384.048993811 31005912.717167757 0 0 0 0 -194006420.26854706 110555231.55986023 0 110555231.55986023 57808432.270599365 0 0 0 0 -323674882.52132416 331828613.15913773 0 331828613.15913773 -86208609.74798584 0 0 0 0 -456619729.15122986 148972017.19584656 0 148972017.19584656 -16368703.672912598 0 0 0 0 -199458013.00743484 212961712.49436951 0 212961712.49436951 -211187499.51702881 0 0 0 0 -235053515.59282303 291096620.66702271 0 291096620.66702271 36701736.747253418 0 0 0 0 -29341883.607597351 22975432.364051819 0 22975432.364051819 39266955.126457214 0 0 0 0 -497470.94820594788 16198028.896392822 0 16198028.896392822 14638903.723526001 0 0 0 0 -4525672.5042963102 16135075.557238681 0 16135075.557238681 42369147.930134162 0 0 0 0 -382190921.85710144 344598851.98329163 0 344598851.98329163 61120681.073059082 0 0 0 0 -44811443.646562576 42368493.641880035 0 42368493.641880035 22009714.588439941 0 0 0 0 -290845528.23767853 -19716475.176605225 0 -19716475.176605225 -46146998.693725586 0 0 0 0 -264132341.41400909 246034462.01820374 0 246034462.01820374 -97838567.204833984 0 0 0 0 -275517606.51825809 243129859.68566132 0 243129859.68566132 39111482.701782227 0 0 0 0 -317189226.37890625 130904162.12304688 0 130904162.12304688 8479951.5124053955 0 0 0 0 -328208977.57079315 139639859.97774506 0 139639859.97774506 173940621.8527832 0 0 0 0 186643546.44945145 228972057.4940033 0 228972057.4940033 172071450.467453 0 0 0 0 -621358893.22625303 287622465.60872269 0 287622465.60872269 502975244.02587891 0 0 0 0 582754063.72055054 705136702.19815063 0 705136702.19815063 231467423.99523926 0 0 0 0 46315986.884887695 -117136744.28851318 0 -117136744.28851318 396501777.76223123 0 0 0 0 1050615232.2893181 -532383331.93862915 0 -532383331.93862915 399222822.61030459 0 0 0 0 -264813530.15661645 -590409039.28238297 0 -590409039.28238297 1388372922.5756531 0 0 0 0 79230209.875967026 20753112.081501007 0 20753112.081501007 94192619.121948242 0 0 0 0 -40732417.794193268 -132658496.5995903 0 -132658496.5995903 597208217.86419678 0 0 0 0 -321837169.55347633 -134799591.43414307 0 -134799591.43414307 1041704656.5424042 0 0 0 0 -72538444.678249359 31074658.500198364 0 31074658.500198364 698522538.5660553 0 0 0 0 -78105394.144256592 -58106355.650802612 0 -58106355.650802612 793746666.29153442 0 0 0 0 -50553063.092429161 115847445.04699707 0 115847445.04699707 626333765.27958679 0 0 0 0 2003989.162576382 2168839.8948243558 0 2168839.8948243558 -1256320.2105825655 0 0 0 0 51710579.11045742 -101949698.27552795 0 -101949698.27552795 301543191.23930359 0 0 0 0 -404170510.21000862 364042234.95418549 0 364042234.95418549 444252786.20171356 0 0 0 0 9662985.2123823166 -308661362.68392944 0 -308661362.68392944 220928813.239151 0 0 0 0 -450772.03819642495 -1955994.4274858783 0 -1955994.4274858783 1177735.3566656709 0 0 0 0 -105084091.75237846 -390186001.89546204 0 -390186001.89546204 893494317.54165268 0 0 0 0 -329498766.93324089 -7529884.7723312378 0 -7529884.7723312378 57519017.514190674 0 0 0 0 -271163883.24592209 13430038.051376343 0 13430038.051376343 36099840.459381104 0 0 0 0 -330954050.97634697 -28732690.698623657 0 -28732690.698623657 -157723739.91819763 0 0 0 0 -947507002.55082417 218457945.57815933 0 218457945.57815933 384230866.3548584 0 0 0 0 -606724944.66850567 -352505578.49453354 0 -352505578.49453354 1280543225.0080566 0 0 0 0 653088367.48814583 -1652084236.3575974 0 -1652084236.3575974 761894026.96650696 0 0 0 0 -363025487.83476257 -1661622539.5578918 0 -1661622539.5578918 1765399773.1355591 0 0 0 0 -271797491.87539554 -119900625.96720839 0 -119900625.96720839 362422671.26489258 0 0 0 0 1386085959.6249504 -734137829.55203629 0 -734137829.55203629 441304286.50854492 0 0 0 0 -1659109.0313707981 -2516255.1750030527 0 -2516255.1750030527 5942409.2981334925 0 0 0 0 623129963.31676674 -1600838990.0742188 0 -1600838990.0742188 792998258.68066406 0 0 0 0 1439845831.5633812 -1794651773.4087219 0 -1794651773.4087219 430368398.25692749 0 0 0 0 -509057286.46595764 1006584836.6464386 0 1006584836.6464386 827424558.23104858 0 0 0 0 -499266971.82735395 -66701727.581094742 0 -66701727.581094742 8517082.328918457 0 0 0 0 -2544181.2833283497 -2897213.0872431751 0 -2897213.0872431751 11454154.381299973 0 0 0 0 -357965627.0064373 8864761.6312026978 0 8864761.6312026978 40121232.781112671 0 0 0 0 -304324930.39166832 -63672651.590492249 0 -63672651.590492249 -48220325.936004639 0 0 0 0 -836676.0582791199 -3549466.449606596 0 -3549466.449606596 2190099.6051021963 0 0 0 0 -347673255.13632965 -72088076.985603333 0 -72088076.985603333 -23184382.250732422 0 0 0 0 57424683.539375305 -235805528.60437012 0 -235805528.60437012 -45560015.222236633 0 0 0 0 -625461597.65504456 -78503073.597709656 0 -78503073.597709656 288061058.49752808 0 0 0 0 11910806.910778046 -265712487.24533319 0 -265712487.24533319 9442521.7136917114 0 0 0 0 -393162720.03283691 211815309.17843246 0 211815309.17843246 -14618850.329690695 0 0 0 0 3484686.6747676656 5636653.7352435049 0 5636653.7352435049 7272530.0523595735 0 0 0 0 -149846945.35588837 64806059.611564636 0 64806059.611564636 -145995349.532547 0 0 0 0 -211901972.04269409 13735565.961591721 0 13735565.961591721 -56831394.585487366 0 0 0 0 -154760219.75075531 68471408.006465912 0 68471408.006465912 -2996224.6277656555 0 0 0 0 -55761431.585067749 -28467868.88319397 0 -28467868.88319397 80988358.457450867 0 0 0 0 -11592249.757571999 -2855096.8798707277 0 -2855096.8798707277 12948461.520069778 0 0 0 0 2427299252.2260933 -1117652617.4082642 0 -1117652617.4082642 105555598.68078613 0 0 0 0 1031654.9565691464 4753029.2401488945 0 4753029.2401488945 5703872.5164829791 0 0 0 0 14719333.381734848 39056070.732860565 0 39056070.732860565 879695538.5486908 0 0 0 0 -88997029.574638367 116146319.77983475 0 116146319.77983475 47971378.295129776 0 0 0 0 8267954.8718067743 17334294.850279748 0 17334294.850279748 31495152.662555322 0 0 0 0 382189362.41947174 -699539085.7265625 0 -699539085.7265625 389210323.871521 0 0 0 0 268151418.89759445 -819158817.19606018 0 -819158817.19606018 870113803.6594404 0 0 0 0 548014565.03444958 -907987383.26814079 0 -907987383.26814079 221168826.25900269 0 0 0 0 501831071.07860184 -591821251.71221161 0 -591821251.71221161 -179215748.56610107 0 0 0 0 385003128.17943954 -794303854.76785278 0 -794303854.76785278 331280167.24822235 0 0 0 0 514739110.04676819 -798992047.14497375 0 -798992047.14497375 149000739.83346558 0 0 0 0 651576475.55854034 -584874901.45431519 0 -584874901.45431519 280407518.05989933 0 0 0 0 10658645.010585453 16057154.84092827 0 16057154.84092827 23874738.871339977 0 0 0 0 -11382755.926544189 572854904.57888031 0 572854904.57888031 214460725.97444153 0 0 0 0 402958304.28379536 -596532727.33742046 0 -596532727.33742046 279953180.54214478 0 0 0 0 2711544.8184444979 2389709.0437149443 0 2389709.0437149443 548007.76851373166 0 0 0 0 -641383733.58737564 435213045.89224052 0 435213045.89224052 200325211.52262115 0 0 0 0 9982174.0580765475 12998462.206578473 0 12998462.206578473 17219485.560557902 0 0 0 0 -1093956691.1925659 1519346226.9943848 0 1519346226.9943848 1276595494.1970367 0 0 0 0 -18431770.937866211 -604602996.95291901 0 -604602996.95291901 -819930942.64202118 0 0 0 0 563681785.66558456 -52805759.152332306 0 -52805759.152332306 1010761209.8924866 0 0 0 0 898172632.85072708 242165187.30566406 0 242165187.30566406 507800799.70025635 0 0 0 0 768076638.37322426 -198426573.687994 0 -198426573.687994 1045870658.463501 0 0 0 0 865189826.96211052 311179096.68784332 0 311179096.68784332 3236401144.8187561 0 0 0 0 -165208143.57949829 891521893.1343689 0 891521893.1343689 3988579191.5232086 0 0 0 0 1477771580.600174 1047696991.8177643 0 1047696991.8177643 2468028652.2895966 0 0 0 0 443350095.56600094 148609658.89547253 0 148609658.89547253 2169541228.412323 0 0 0 0 1379734499.1109734 -125769533.73096466 0 -125769533.73096466 962755980.97399139 0 0 0 0 689036031.4863553 -644157599.37283421 0 -644157599.37283421 359641221.45446777 0 0 0 0 454599144.21814728 -325899606.44085693 0 -325899606.44085693 1213716621.9294281 0 0 0 0 -28221132.353107452 -580779210.60239792 0 -580779210.60239792 554178378.99195862 0 0 0 0 488105287.22817612 -240804019.84207916 0 -240804019.84207916 222427869.46323109 0 0 0 0 -893943579.62839317 244479570.91427612 0 244479570.91427612 90895186.451152802 0 0 0 0 443289154.62617874 321908288.20263672 0 321908288.20263672 -81673550.180809021 0 0 0 0 189625586.31206512 1045107394.582077 0 1045107394.582077 1214688023.7685089 0 0 0 0 10037806.999387741 1324811221.7036438 0 1324811221.7036438 808939506.54981232 0 0 0 0 -762940.82251501456 -716205.99152764305 0 -716205.99152764305 4430412.4291729033 0 0 0 0 166069062.0069046 374121365.06229401 0 374121365.06229401 1503874366.8209801 0 0 0 0 284830778.79811478 390084998.29800415 0 390084998.29800415 258431561.58267212 0 0 0 0 182374315.68785095 546781156.22465515 0 546781156.22465515 671279715.57141113 0 0 0 0 779962463.89894867 1036188331.1208191 0 1036188331.1208191 665740609.69797802 0 0 0 0 304292986.00532532 563206200.47216797 0 563206200.47216797 306172932.38249207 0 0 0 0 445454512.45260239 312388687.49443817 0 312388687.49443817 -176570263.04241943 0 0 0 0 142091736.79293823 -102501962.54838562 0 -102501962.54838562 -111020006.30056763 0 0 0 0 4527419.2214109711 1314676.9920042902 0 1314676.9920042902 330165.25516201556 0 0 0 0 417473402.60606003 50379135.565986633 0 50379135.565986633 -25554521.022277832 0 0 0 0 -124775381.82028961 99913317.512496948 0 99913317.512496948 167568878.39802551 0 0 0 0 376838863.51646423 -31843171.347839355 0 -31843171.347839355 -13166789.257736206 0 0 0 0 -5597822.4795322418 -237137050.15713692 0 -237137050.15713692 417115233.59132385 0 0 0 0 4238739.7184190825 -663876.62682391703 0 -663876.62682391703 4707751.2128140284 0 0 0 0 1144152172.4968643 -103176357.74708557 0 -103176357.74708557 -118367651.92453003 0 0 0 0 651701321.78478241 1597781708.5089417 0 1597781708.5089417 1579240518.5116348 0 0 0 0 216576118.52177811 1083724011.808609 0 1083724011.808609 1140421825.4008789 0 0 0 0 396450002.10072327 493290978.38163757 0 493290978.38163757 353945713.92709351 0 0 0 0 1710571763.5908108 1155007689.8178291 0 1155007689.8178291 506729296.11322021 0 0 0 0 -233419793.61556244 -167345711.74459076 0 -167345711.74459076 405325262.5686121 0 0 0 0 -106606853.45885611 -225736795.49110031 0 -225736795.49110031 98654354.154800415 0 0 0 0 96758526.757517815 -485322662.73247528 0 -485322662.73247528 290460430.29853821 0 0 0 0 -29567744.727538109 -502090132.09104919 0 -502090132.09104919 366493941.27192688 0 0 0 0 -485235.96071159514 -2239482.2807742544 0 -2239482.2807742544 1112577.031646058 0 0 0 0 -563989119.62977695 -9338220.5555295944 0 -9338220.5555295944 161215745.74035645 0 0 0 0 -35541065.728876114 -419499334.26099396 0 -419499334.26099396 290324930.02322388 0 0 0 0 -363814343.22586632 -245466985.43505096 0 -245466985.43505096 436562352.97136688 0 0 0 0 -229921904.59671021 -45811481.813117981 0 -45811481.813117981 55169171.377700806 0 0 0 0 -1943943.0127320373 -1771411.371413229 0 -1771411.371413229 10275782.904399186 0 0 0 0 -195522851.44277143 -131020026.2069416 0 -131020026.2069416 229134867.86193848 0 0 0 0 247288969.38303423 -615155868.09244728 0 -615155868.09244728 797393644.87470245 0 0 0 0 220505608.17213821 607905218.95988464 0 607905218.95988464 1407800588.6336098 0 0 0 0 -70410729.957387924 -136148052.42713928 0 -136148052.42713928 224326026.88062096 0 0 0 0 -163954738.8560791 5409473.805644989 0 5409473.805644989 518516857.69551086 0 0 0 0 -53252148.62976408 -314546491.67975783 0 -314546491.67975783 200106970.09873962 0 0 0 0 -304659646.60267448 -279627162.39711761 0 -279627162.39711761 305451691.84130096 0 0 0 0 -230456319.06056976 182870437.02626038 0 182870437.02626038 68581063.8893013 0 0 0 0 -689282097.384408 157269662.9407196 0 157269662.9407196 134411629.5402832 0 0 0 0 -419519208.64004326 -222024280.08808899 0 -222024280.08808899 397892805.76153564 0 0 0 0 -351496483.23728752 -184136129.25144958 0 -184136129.25144958 178814067.61058044 0 0 0 0 122399197.89055157 -202803682.7681427 0 -202803682.7681427 170271642.23165894 0 0 0 0 -1762660.2875715289 -1562197.5961880237 0 -1562197.5961880237 586753.1568633914 0 0 0 0 -1134592400.7297792 241026017.03227234 0 241026017.03227234 302348110.60813904 0 0 0 0 -2320842.2346439362 608616487.8747406 0 608616487.8747406 370407256.50152588 0 0 0 0 61078238.022350311 173276675.63195038 0 173276675.63195038 -56051464.717460632 0 0 0 0 154942078.73104 555206044.745224 0 555206044.745224 429894471.7147522 0 0 0 0 500796798.86577988 544345316.90900421 0 544345316.90900421 330067708.35879517 0 0 0 0 409193452.36618423 683317635.37054443 0 683317635.37054443 475506712.13426781 0 0 0 0 619191180.48472309 610116791.13276291 0 610116791.13276291 279001767.38348389 0 0 0 0 338304789.09844589 496011156.80810547 0 496011156.80810547 486365273.60620117 0 0 0 0 523111126.65753937 575051793.86711121 0 575051793.86711121 267024701.43878174 0 0 0 0 18338966.833978895 -6675410.7253598645 0 -6675410.7253598645 -783322.16998662055 0 0 0 0 426129913.28197098 673931323.20685959 0 673931323.20685959 597956892.29629517 0 0 0 0 115454796.42075729 -34344756.231063843 0 -34344756.231063843 -332135714.90331268 0 0 0 0 87853932.584168911 212844112.14402199 0 212844112.14402199 -53926901.769592285 0 0 0 0 149665557.63292551 64109786.203746796 0 64109786.203746796 -124897196.06439209 0 0 0 0 239882733.01541519 314905913.22520447 0 314905913.22520447 144717167.46336365 0 0 0 0 69600826.340877533 179168572.47970581 0 179168572.47970581 -243616447.06828308 0 0 0 0 86218100.204652786 -264666184.6451683 0 -264666184.6451683 -574564596.66539001 0 0 0 0 -152291195.16170311 -208075385.3276825 0 -208075385.3276825 -125547270.47623444 0 0 0 0 390867159.84905815 -112320715.01055908 0 -112320715.01055908 -179960570.96305084 0 0 0 0 285963133.91208076 294785248.27363205 0 294785248.27363205 684186097.0838623 0 0 0 0 560719015.25604057 625617669.49593353 0 625617669.49593353 371455424.40280151 0 0 0 0 620347777.46955109 1340345952.7601547 0 1340345952.7601547 1502703829.7891464 0 0 0 0 8408183.1285402849 -3740547.6276283227 0 -3740547.6276283227 1014859.5266924873 0 0 0 0 -161348572.00277567 248017065.21965027 0 248017065.21965027 -422271852.30491638 0 0 0 0 1257395955.6710358 -761155648.57839966 0 -761155648.57839966 -237511083.35931396 0 0 0 0 906561.42099223472 -2081357.9480230212 0 -2081357.9480230212 1705794.0917396992 0 0 0 0 -1838032303.7289963 -351748991.72167969 0 -351748991.72167969 2569047581.7549725 0 0 0 0 -436245702.83535004 1979889553.5810852 0 1979889553.5810852 2964714745.2752762 0 0 0 0 1222645152.9273348 133915982.68818665 0 133915982.68818665 -471799290.84179688 0 0 0 0 -577810293.51784325 150246971.4731369 0 150246971.4731369 229061209.07041931 0 0 0 0 -633124279.43008041 -129125513.366745 0 -129125513.366745 549715938.1940155 0 0 0 0 -6894698.5527095795 100641688.59793973 0 100641688.59793973 125536823.17718506 0 0 0 0 -1541857.4216017723 -45640702.868826866 0 -45640702.868826866 152285723.57928467 0 0 0 0 131760435.52397156 57460198.320983887 0 57460198.320983887 45179350.756591797 0 0 0 0 -1868714.1209850311 11696164.007858276 0 11696164.007858276 38296860.662242889 0 0 0 0 12684712.78303593 12155969.473261746 0 12155969.473261746 9664070.0039700568 0 0 0 0 16081685.04010844 12859124.093211871 0 12859124.093211871 38144591.843763605 0 0 0 0 39664069.992499486 -804278.22759548947 0 -804278.22759548947 -4641953.1890945435 0 0 0 0 -165394804.46736145 -211247805.34849548 0 -211247805.34849548 -39396885.214584351 0 0 0 0 146380195.55426025 59975398.50012207 0 59975398.50012207 20889716.000366211 0 0 0 0 109757067.83547211 103721710.29545593 0 103721710.29545593 70738192.366485596 0 0 0 0 -1642353.1768272854 -2145849.2676618621 0 -2145849.2676618621 -112825.89782125503 0 0 0 0 -2566516.594997406 8741214.3278198242 0 8741214.3278198242 48421623.763198853 0 0 0 0 3785707.7580544949 10701191.481330872 0 10701191.481330872 60614402.46270752 0 0 0 0 11920851.62184757 -2207854.5146598816 0 -2207854.5146598816 34425668.572021484 0 0 0 0 11616647.970775604 -3049319.3730163574 0 -3049319.3730163574 34803204.993850708 0 0 0 0 7237273.3060455322 1761112.6895904541 0 1761112.6895904541 29728425.783088684 0 0 0 0 155174090.02910614 -1113718.8323364258 0 -1113718.8323364258 -99835927.134552002 0 0 0 0 22668308.635897536 -2260286.6258908659 0 -2260286.6258908659 22759735.354502924 0 0 0 0 11116433.122478008 -3123665.4996337891 0 -3123665.4996337891 31622582.49974823 0 0 0 0 11444730.344344974 -4103582.1528129578 0 -4103582.1528129578 34214944.716888428 0 0 0 0 11011603.136543274 -65498664.81502533 0 -65498664.81502533 -78558604.090820312 0 0 0 0 19369181.185649343 2329890.5354985818 0 2329890.5354985818 -2569656.3476938009 0 0 0 0 6227081.0591144972 809083.2768894732 0 809083.2768894732 -2305896.9099202305 0 0 0 0 -294465138.08272934 -18195406.225112915 0 -18195406.225112915 64721611.314483643 0 0 0 0 -117529270.49343491 379345185.52260971 0 379345185.52260971 429769275.72131348 0 0 0 0 375735878.17310333 256517225.43182373 0 256517225.43182373 261423155.00897217 0 0 0 0 100271241.20668793 -241311583.1656189 0 -241311583.1656189 28223506.89276886 0 0 0 0 466592471.9064064 153547522.50093842 0 153547522.50093842 -10044093.015686035 0 0 0 0 1091530432.4729462 756928671.6153183 0 756928671.6153183 407122606.97694397 0 0 0 0 1058172609.2443428 8589352.809211731 0 8589352.809211731 341306176.05984497 0 0 0 0 537627723.9978981 470011841.96072388 0 470011841.96072388 261976341.1116333 0 0 0 0 721087343.08188629 402403886.95426941 0 402403886.95426941 212164084.15458679 0 0 0 0 489342272.57114792 31103637.568874359 0 31103637.568874359 50250434.26159668 0 0 0 0 100924323.28969955 142861809.9246521 0 142861809.9246521 196930570.21468449 0 0 0 0 402601746.51522064 -19766264.002540588 0 -19766264.002540588 -83510526.377338409 0 0 0 0 25068994.909011759 -12748758.244640268 0 -12748758.244640268 -2318979.8951654509 0 0 0 0 284254696.0798111 149573723.52471924 0 149573723.52471924 -13239749.610046387 0 0 0 0 -131202557.57551575 -10179842.231582642 0 -10179842.231582642 57309536.637310028 0 0 0 0 129228560.18394852 43438835.566047668 0 43438835.566047668 77872289.110870361 0 0 0 0 3700852.3148891088 3834225.4369894117 0 3834225.4369894117 3188912.8238614649 0 0 0 0 14876830.964883812 12102890.357983254 0 12102890.357983254 -9407767.7580274791 0 0 0 0 97788730.463088989 69270840.105285645 0 69270840.105285645 61902341.252349854 0 0 0 0 -168838226.13321686 -79607046.323120117 0 -79607046.323120117 134183157.2483902 0 0 0 0 131048215.31376266 26652254.546875 0 26652254.546875 -128849513.44558716 0 0 0 0 77434477.290409088 157507018.9262619 0 157507018.9262619 236151982.04325867 0 0 0 0 80512048.816238403 133994358.21427155 0 133994358.21427155 169271020.8946228 0 0 0 0 7795463.2458092161 6569085.083940696 0 6569085.083940696 -6125634.2979551777 0 0 0 0 202641517.98372459 178183336.38318634 0 178183336.38318634 123557262.43693542 0 0 0 0 46196364.73462677 1409243.7442626953 0 1409243.7442626953 96932591.908127308 0 0 0 0 -7945616.158056736 -36449399.084526062 0 -36449399.084526062 -39626127.906356812 0 0 0 0 -11636575.764129639 47347178.367446899 0 47347178.367446899 287630390.96250153 0 0 0 0 -17644464.509301294 -5058754.8761675209 0 -5058754.8761675209 39393375.339495495 0 0 0 0 138148587.67155647 140180704.38042068 0 140180704.38042068 17088593.59777832 0 0 0 0 192339337.12312317 227671706.11601257 0 227671706.11601257 145414425.72638702 0 0 0 0 148724451.53855896 105098791.55400276 0 105098791.55400276 19550958.108856201 0 0 0 0 -40713160.141815186 76580604.511566162 0 76580604.511566162 93274379.941650391 0 0 0 0 -13859329.031932689 1475646.4474181756 0 1475646.4474181756 15428672.334158629 0 0 0 0 182864079.61271858 95099781.45088768 0 95099781.45088768 15462688.775695801 0 0 0 0 174423369.76266479 139570881.73478889 0 139570881.73478889 1375548.8029785156 0 0 0 0 12168950.857456684 26080243.90228653 0 26080243.90228653 62856493.061691284 0 0 0 0 575741.18556928635 4104425.1349983215 0 4104425.1349983215 52564341.976318359 0 0 0 0 -19543169.891490936 -4477592.3061065674 0 -4477592.3061065674 18127174.137451172 0 0 0 0 -9882455.6155897304 8155830.6291237064 0 8155830.6291237064 40808986.218028232 0 0 0 0 -9582728.6078013666 -803399.3706196174 0 -803399.3706196174 32114216.743052058 0 0 0 0 -4580381.3607243039 1681471.282901831 0 1681471.282901831 17825623.196559757 0 0 0 0 24430510.195619583 24117790.53477478 0 24117790.53477478 7114909.7257995605 0 0 0 0 -19927404.596750259 -4195181.1034164429 0 -4195181.1034164429 20600667.550071716 0 0 0 0 -20214542.705625534 -4220672.4822998047 0 -4220672.4822998047 20689198.72518158 0 0 0 0 -9072519.9013363793 -11659295.548962768 0 -11659295.548962768 32861905.196126081 0 0 0 0 -9516022.5760602802 -14618311.686195478 0 -14618311.686195478 5066103.1186781228 0 0 0 0 -72068641.220564604 -46040623.83731842 0 -46040623.83731842 38233867.056356907 0 0 0 0 -23453330.050199032 -6063050.1564331055 0 -6063050.1564331055 18931979.550170898 0 0 0 0 42932659.691455841 32555242.420637131 0 32555242.420637131 -12967496.558094025 0 0 0 0 7255316.5063791275 100625505.46498871 0 100625505.46498871 62701435.668941498 0 0 0 0 -66143991.748345852 -4264750.4460773468 0 -4264750.4460773468 326154518.77042007 0 0 0 0 92850089.025277376 -107301392.24008894 0 -107301392.24008894 -66931076.410118103 0 0 0 0 -27012031.036513805 -34765392.144989014 0 -34765392.144989014 12183829.656860352 0 0 0 0 7169119.915769577 6381490.033996582 0 6381490.033996582 14907822.091556549 0 0 0 0 40461992.009248257 -40968109.761230469 0 -40968109.761230469 -19378431.837753296 0 0 0 0 -3589286.5315977037 -3470469.6681876387 0 -3470469.6681876387 39585233.293850318 0 0 0 0 1230865.4812981165 1394742.7147767209 0 1394742.7147767209 1925287.0182441995 0 0 0 0 -290485208.31285477 -130130200.27147293 0 -130130200.27147293 342854290.20822906 0 0 0 0 49227677.82315731 -152336864.97709656 0 -152336864.97709656 215582548.7095871 0 0 0 0 14638550.796409607 -61950129.004138947 0 -61950129.004138947 294805630.41596985 0 0 0 0 1131665.5497662723 1615561.9530152865 0 1615561.9530152865 -2666589.3921097629 0 0 0 0 -288152.35376755823 2908938.4451822801 0 2908938.4451822801 -53875.629351101816 0 0 0 0 -1917151.7952680588 -161060580.03230286 0 -161060580.03230286 22001608.762638092 0 0 0 0 53201142.704807758 -2779084.6555662155 0 -2779084.6555662155 324043370.0996933 0 0 0 0 -276052541.58922815 395737351.68444347 0 395737351.68444347 -475099090.92696381 0 0 0 0 -492577508.42953563 -85319897.615839005 0 -85319897.615839005 -51704046.402282715 0 0 0 0 47033782.749649048 156729909.71259117 0 156729909.71259117 -42852479.744184494 0 0 0 0 -99167613.915882111 -60515675.880495071 0 -60515675.880495071 -75468680.756065369 0 0 0 0 -947034665.83190906 697574142.71534586 0 697574142.71534586 -311816497.25001526 0 0 0 0 -826558099.03451788 212911204.76035833 0 212911204.76035833 -3285808.0473251343 0 0 0 0 120529175.95374727 40010874.38892746 0 40010874.38892746 -169158166.06575966 0 0 0 0 -104612749.39019489 36094045.391912401 0 36094045.391912401 79502183.689785004 0 0 0 0 23298384.328949451 70192026.007204056 0 70192026.007204056 39368375.214468956 0 0 0 0 -124813232.34157181 52179684.063774109 0 52179684.063774109 81831560.976205826 0 0 0 0 18539180.914758205 -5749373.2075271606 0 -5749373.2075271606 31099668.565719604 0 0 0 0 13193393.203494072 -8128249.5876235962 0 -8128249.5876235962 43725511.719772339 0 0 0 0 2698883.0654582977 6434505.6332931519 0 6434505.6332931519 74616121.672088623 0 0 0 0 12924769.128118277 -10767300.600669861 0 -10767300.600669861 63004909.007015228 0 0 0 0 94884552.503967285 -25840507.006868362 0 -25840507.006868362 -69159219.90636462 0 0 0 0 -1321691.4162441071 -6827231.6124349255 0 -6827231.6124349255 37394715.659210876 0 0 0 0 -57182467.219504952 7175519.1944007874 0 7175519.1944007874 94367217.875946045 0 0 0 0 -460952.76145084749 -8961743.737267863 0 -8961743.737267863 36426072.952064991 0 0 0 0 -3966743.8451321125 -3458494.8183135986 0 -3458494.8183135986 29799882.959617615 0 0 0 0 16608198.87993741 -1984841.9523086548 0 -1984841.9523086548 26686254.636834919 0 0 0 0 8986970.5631341934 3326339.4902534485 0 3326339.4902534485 28561108.084503174 0 0 0 0 9735277.6506519318 1070465.1619262695 0 1070465.1619262695 26654352.044239938 0 0 0 0 16370092.009872204 -5979706.8798187003 0 -5979706.8798187003 22529895.679651245 0 0 0 0 99472985.454473495 -218268199.33121872 0 -218268199.33121872 -33290286.790710449 0 0 0 0 321735254.35119438 -257262662.72039413 0 -257262662.72039413 24219002.785400391 0 0 0 0 -163100703.34954071 14962058.992355347 0 14962058.992355347 150993093.30175781 0 0 0 0 148550511.04350662 -79397323.470718384 0 -79397323.470718384 -85521662.226593018 0 0 0 0 -78626987.269363403 -205403284.80058289 0 -205403284.80058289 335270934.19793701 0 0 0 0 7270036.0406353474 -8187657.5498580933 0 -8187657.5498580933 24347881.210559845 0 0 0 0 -138840135.26428223 22054594.604515076 0 22054594.604515076 50131234.152374268 0 0 0 0 12092608.842377996 -5819000.5558874719 0 -5819000.5558874719 27153405.95048169 0 0 0 0 9246151.8589025736 -3693567.6710252762 0 -3693567.6710252762 26680337.530326843 0 0 0 0 -58945713.436937809 -10432876.674881935 0 -10432876.674881935 122203351.70379257 0 0 0 0 -14439186.982463837 -46525046.284952164 0 -46525046.284952164 83816687.324449539 0 0 0 0 -29280000.125123024 -78715319.642002583 0 -78715319.642002583 75054301.971881866 0 0 0 0 15164059.688755035 -32073790.863562584 0 -32073790.863562584 13494599.056484222 0 0 0 0 -13954297.848698616 -36070467.520225525 0 -36070467.520225525 76057371.207765579 0 0 0 0 7023759.1101241112 -9581353.0274915695 0 -9581353.0274915695 16770538.872085571 0 0 0 0 3241808.4107362386 -14534117.080695132 0 -14534117.080695132 32159749.829633828 0 0 0 0 1328044.0530850887 -24117695.917144775 0 -24117695.917144775 23299334.105957031 0 0 0 0 -4519188.9240858555 -8852759.6427612305 0 -8852759.6427612305 4895003.523042202 0 0 0 0 2278755.8626175709 -12926563.887390532 0 -12926563.887390532 37606532.878509507 0 0 0 0 -1840941517.6294708 25583712.017631531 0 25583712.017631531 989520387.81060791 0 0 0 0 6710726.6927562552 -9732519.210118182 0 -9732519.210118182 20428309.476731349 0 0 0 0 5161244.6074392116 -13183100.299999738 0 -13183100.299999738 26449540.749254301 0 0 0 0 12725955.222216845 -6557015.1496887207 0 -6557015.1496887207 2412334.9805245399 0 0 0 0 -130027140.46469498 92470621.861618042 0 92470621.861618042 305174298.30960083 0 0 0 0 -22043777.563171208 -5709642.0130004883 0 -5709642.0130004883 41484884.374969482 0 0 0 0 12281707.951716948 -7687603.2321377676 0 -7687603.2321377676 9503994.6971698254 0 0 0 0 645861.6930171136 -75980.914485732093 0 -75980.914485732093 -160537.15374603868 0 0 0 0 -33971867.261032104 -648979298.92227173 0 -648979298.92227173 -85063600.175720215 0 0 0 0 231232895.37636566 22534291.090927124 0 22534291.090927124 101527530.57209015 0 0 0 0 198069850.5430603 -222800085.94067383 0 -222800085.94067383 305575811.5459137 0 0 0 0 745808.30769213848 434565.26247338951 0 434565.26247338951 -447699.5299982354 0 0 0 0 4075560.7336559929 2454258.4254108062 0 2454258.4254108062 3971392.5751167908 0 0 0 0 2977552651.1415405 2502305326.549839 0 2502305326.549839 1199594618.3539734 0 0 0 0 1797653482.2900238 -1257178006.5268555 0 -1257178006.5268555 903098017.58093262 0 0 0 0 128689751.5633316 -1296284677.6010666 0 -1296284677.6010666 4091232453.5232124 0 0 0 0 234312623.43286133 -862773989.66531372 0 -862773989.66531372 868681987.55740356 0 0 0 0 -336706085.47695923 1828469597.7380905 0 1828469597.7380905 2348316179.6554642 0 0 0 0 1899852921.7799759 1524180282.5353088 0 1524180282.5353088 468784728.68406296 0 0 0 0 -142658534.41513062 1464912307.4565926 0 1464912307.4565926 2253800028.3508911 0 0 0 0 919169514.86180878 2769297270.74086 0 2769297270.74086 3855209918.5858259 0 0 0 0 759256028.49215698 136109277.48613739 0 136109277.48613739 -674101495.56858826 0 0 0 0 -23129333.682289124 2128421052.7500992 0 2128421052.7500992 1427694620.3903351 0 0 0 0 -3038124.7362701409 2441084.5196149834 0 2441084.5196149834 6183697.5158294067 0 0 0 0 1128517303.5281525 2751304301.3315125 0 2751304301.3315125 1419245309.2935476 0 0 0 0 129899501.82282639 -1173788572.6420212 0 -1173788572.6420212 -2930025056.3925781 0 0 0 0 -2358939368.0875397 -1122349061.1161804 0 -1122349061.1161804 463340499.39936066 0 0 0 0 960116734.19099426 -864560403.6938324 0 -864560403.6938324 987478820.74972534 0 0 0 0 -1501532978.2973042 -2186381928.6405544 0 -2186381928.6405544 5275932978.9073792 0 0 0 0 1955919952.4129715 2847139040.6098328 0 2847139040.6098328 395876131.88713074 0 0 0 0 -87278012.382686615 -2735452813.5087891 0 -2735452813.5087891 4547080549.0939636 0 0 0 0 5468671.2881320156 5317932.6072389279 0 5317932.6072389279 6070569.3168922961 0 0 0 0 1072218859.5461884 -1521170698.7144928 0 -1521170698.7144928 3543090165.2169189 0 0 0 0 -1061209010.6360092 185465307.79128265 0 185465307.79128265 3432260351.0042343 0 0 0 0 -2020085231.1353149 -916014776.43989563 0 -916014776.43989563 4369346430.8249588 0 0 0 0 -2347233238.8403454 2625113668.9498672 0 2625113668.9498672 3335038960.8693542 0 0 0 0 8454535.9448761642 -7883107.3043738157 0 -7883107.3043738157 15547424.563737096 0 0 0 0 7725542383.1953125 2780185067.8339233 0 2780185067.8339233 2691332012.7772865 0 0 0 0 150314729.11621094 5513145738.531662 0 5513145738.531662 5740063783.3055496 0 0 0 0 1603720024.2346878 2722280565.9560318 0 2722280565.9560318 1206286506.0149536 0 0 0 0 -1072211889.3912506 -957831386.48141861 0 -957831386.48141861 -177234825.30791855 0 0 0 0 -747590268.24940491 -1155913518.1265526 0 -1155913518.1265526 -768814571.38106537 0 0 0 0 -19327310.853803635 -223352844.03799438 0 -223352844.03799438 236985314.67770386 0 0 0 0 14554205.334878821 -14946066.175936414 0 -14946066.175936414 11863991.201503329 0 0 0 0 -588793377.4881897 -467393761.71079254 0 -467393761.71079254 -628318294.95118523 0 0 0 0 -893406996.40963745 -311166236.88397217 0 -311166236.88397217 514697020.0844574 0 0 0 0 907885012.04642296 90127274.60102272 0 90127274.60102272 -35844606.872612 0 0 0 0 -854984660.86914635 8611129.7879257202 0 8611129.7879257202 950682181.21784973 0 0 0 0 2244637.9572945158 -2286898.4132037312 0 -2286898.4132037312 2425327.4090745947 0 0 0 0 -53557038.901855469 36462894.388729095 0 36462894.388729095 -15381829.557296753 0 0 0 0 13214637.770121528 -9350582.1171331778 0 -9350582.1171331778 6633779.1469395794 0 0 0 0 656297833.99880123 -1581783593.2425847 0 -1581783593.2425847 -1613686893.2937851 0 0 0 0 609442036.39630127 549346014.78967667 0 549346014.78967667 325233932.14800262 0 0 0 0 -265495653.70624542 538188298.07966614 0 538188298.07966614 1831128892.5954628 0 0 0 0 -306918117.14968872 -23781202.61227417 0 -23781202.61227417 1595278602.0564728 0 0 0 0 -154526588.25581741 150468117.87428284 0 150468117.87428284 995475618.22120857 0 0 0 0 -99533607.24829483 257033699.12356567 0 257033699.12356567 1014866454.1918945 0 0 0 0 98377456.401889801 -1013746002.4526176 0 -1013746002.4526176 1467235377.4472046 0 0 0 0 -268905013.98202515 64783907.11555481 0 64783907.11555481 1650815596.8815002 0 0 0 0 -4260461.0065841675 55299861.222076416 0 55299861.222076416 834209518.86380005 0 0 0 0 -9314458.3407058716 -373958392.5741272 0 -373958392.5741272 1171273734.1493378 0 0 0 0 185184529.47219467 -219760512.37296295 0 -219760512.37296295 663409042.23379517 0 0 0 0 -51309588.666755676 -75724161.415802002 0 -75724161.415802002 688819860.91323471 0 0 0 0 114819983.03678417 -391428719.93598366 0 -391428719.93598366 1227932657.376709 0 0 0 0 203111143.78313255 4491277.9409713745 0 4491277.9409713745 -228184474.33459473 0 0 0 0 22937575.044282734 -14341127.461487874 0 -14341127.461487874 8565907.8389550876 0 0 0 0 168902590.71165466 32731333.219055176 0 32731333.219055176 298906155.99787903 0 0 0 0 -522789.89559268951 -174684405.88195419 0 -174684405.88195419 192785639.85043335 0 0 0 0 130704086.55681419 280729371.41041565 0 280729371.41041565 260534177.21548462 0 0 0 0 -37580369.856082916 108105486.32831573 0 108105486.32831573 298535614.57117081 0 0 0 0 42627734.146639824 8878504.231836319 0 8878504.231836319 322787488.50462341 0 0 0 0 -467903123.41493607 -471077067.40149307 0 -471077067.40149307 -324610352.14019775 0 0 0 0 -14497706.60273087 -229857849.3975625 0 -229857849.3975625 -324290286.53436279 0 0 0 0 16117611.24626741 -17339902.780385207 0 -17339902.780385207 13286798.37633284 0 0 0 0 -625214751.31904888 -261307850.20616817 0 -261307850.20616817 37750815.274261475 0 0 0 0 -453710778.82633972 -234117858.13764954 0 -234117858.13764954 15557654.372970581 0 0 0 0 -265781041.66703606 -251025449.77323723 0 -251025449.77323723 6741849.4945755005 0 0 0 0 -268109164.84281731 -209783869.53732491 0 -209783869.53732491 13688303.006759644 0 0 0 0 5208840.6624374203 1632935.8767043445 0 1632935.8767043445 -5757464.8676072732 0 0 0 0 -434703049.94685364 -182153742.38279724 0 -182153742.38279724 130014294.23597717 0 0 0 0 -86606671.3861866 -27722886.122144699 0 -27722886.122144699 28141295.292438507 0 0 0 0 68219892.113487244 -38247306.75667572 0 -38247306.75667572 -8697339.2479417324 0 0 0 0 4241621.0188104827 -16342262.165561832 0 -16342262.165561832 4108548.4932821561 0 0 0 0 51543969.598562241 -80937656.769472122 0 -80937656.769472122 59449813.524215698 0 0 0 0 -55810654.952322006 -99231584.46443367 0 -99231584.46443367 -29876514.594039917 0 0 0 0 -335256469.37074661 -26895131.661821365 0 -26895131.661821365 15931728.994113922 0 0 0 0 -575718464.08270836 41647713.018280029 0 41647713.018280029 111752612.20396233 0 0 0 0 -472544558.15765762 -152478299.14864349 0 -152478299.14864349 123166826.54573917 0 0 0 0 -498568025.33209038 -125256862.14109993 0 -125256862.14109993 194668206.42347717 0 0 0 0 -344628902.85261726 13076155.775590897 0 13076155.775590897 182177633.64543915 0 0 0 0 -369913386.7324295 -33261468.229827881 0 -33261468.229827881 112229555.57365036 0 0 0 0 -456310249.23902702 -56197535.32865715 0 -56197535.32865715 301480159.81063843 0 0 0 0 -554331879.44864273 -210850204.17215347 0 -210850204.17215347 218316933.4957962 0 0 0 0 -230720357.32631874 6399118.4068584442 0 6399118.4068584442 196361831.98399353 0 0 0 0 -223127226.90830231 -68801611.134450912 0 -68801611.134450912 347037779.24523163 0 0 0 0 -257755417.67612267 -151233559.72689247 0 -151233559.72689247 231541605.39709282 0 0 0 0 215855944.89141083 -61043216.875774384 0 -61043216.875774384 111395806.0337677 0 0 0 0 14091404.857793331 -75943261.023058176 0 -75943261.023058176 87388698.938838959 0 0 0 0 -630585400.90450096 201798163.12615204 0 201798163.12615204 -33716084.643096924 0 0 0 0 -285453448.74435806 -113541524.16779709 0 -113541524.16779709 -68558174.437545776 0 0 0 0 -825541774.48988724 -126634258.75963783 0 -126634258.75963783 142466395.46019363 0 0 0 0 -247337047.93508148 2867956.0442504883 0 2867956.0442504883 226941413.28748703 0 0 0 0 -857973.59772014618 -13584028.392277718 0 -13584028.392277718 108026130.68545914 0 0 0 0 244272325.43325996 -203308254.9392643 0 -203308254.9392643 108834886.6549263 0 0 0 0 -81847690.253091693 -185393983.27121687 0 -185393983.27121687 235762090.9633255 0 0 0 0 3541593.1715458613 -5760045.6090866737 0 -5760045.6090866737 -679158.1801714357 0 0 0 0 -478752712.85167313 -75685663.003171921 0 -75685663.003171921 101975926.04184341 0 0 0 0 1233298.9996233471 -1373286.3148412667 0 -1373286.3148412667 -494309.80261158198 0 0 0 0 -1106635756.1586266 238714259.88217163 0 238714259.88217163 154640208.6129818 0 0 0 0 457693549.55007458 -327720386.88385773 0 -327720386.88385773 388452899.79269409 0 0 0 0 -37259.591745905578 -180134.25017463975 0 -180134.25017463975 -531823.82972168922 0 0 0 0 687409392.93834877 -566671378.54075813 0 -566671378.54075813 325721219.66688776 0 0 0 0 -611947326.98143196 592820241.58104324 0 592820241.58104324 4712502.2876739502 0 0 0 0 -626732823.76940441 172730254.75882339 0 172730254.75882339 12626288.138835907 0 0 0 0 -1184134.0850598384 -848783.7708659023 0 -848783.7708659023 -670840.48304468952 0 0 0 0 -195365535.47813892 141918553.91712856 0 141918553.91712856 221301189.86335754 0 0 0 0 354031506.84649086 -840684208.15096855 0 -840684208.15096855 310835556.24203825 0 0 0 0 -1915089.678025662 -1002390.0671030022 0 -1002390.0671030022 -527687.54574298859 0 0 0 0 -413490797.73898315 490266504.32365608 0 490266504.32365608 -56681050.343421936 0 0 0 0 -402017318.01566029 451888361.33429718 0 451888361.33429718 14829137.920913696 0 0 0 0 -105065636.41678548 325649107.32611275 0 325649107.32611275 -1822035.7755050659 0 0 0 0 -338761152.84703445 426488655.07234573 0 426488655.07234573 -62927127.505912781 0 0 0 0 -382789911.46482468 280576963.2771492 0 280576963.2771492 244709836.44895935 0 0 0 0 -143328015.29637909 173180489.64206886 0 173180489.64206886 207788619.4251194 0 0 0 0 -105423016.83360291 -40726638.407585144 0 -40726638.407585144 11383324.767032623 0 0 0 0 -235972995.21818638 24091753.018363953 0 24091753.018363953 192513705.16718292 0 0 0 0 -166023014.91145325 -56553337.76984024 0 -56553337.76984024 464523082.15646744 0 0 0 0 -173193233.04464722 107409556.73455811 0 107409556.73455811 252073161.614048 0 0 0 0 33861692.371061325 -227716184.8652935 0 -227716184.8652935 404930565.8999176 0 0 0 0 -96927316.88886261 106635808.18292618 0 106635808.18292618 191029209.53730202 0 0 0 0 31798738.805149078 92351520.800769806 0 92351520.800769806 132985150.2989769 0 0 0 0 -102119510.54766083 32218295.178272247 0 32218295.178272247 319143987.24423981 0 0 0 0 -736792.49338150024 17620207.906824112 0 17620207.906824112 83144156.924638748 0 0 0 0 -857408.55845743418 438869.96713727713 0 438869.96713727713 67214213.601745605 0 0 0 0 2845465.8920898438 -56553263.328363419 0 -56553263.328363419 149736015.43223953 0 0 0 0 493170.43161416054 384086513.07763815 0 384086513.07763815 12108906.447982788 0 0 0 0 -107506857.61198044 76897846.31615448 0 76897846.31615448 -9558674.0480980873 0 0 0 0 104459931.66595507 -5367052.069442749 0 -5367052.069442749 -20598531.718612671 0 0 0 0 -1067847.1262535462 211522.83023983426 0 211522.83023983426 -195583.82980945706 0 0 0 0 -3472907.2237899527 2379074.5230491827 0 2379074.5230491827 885312.99882094562 0 0 0 0 -2739988.2684013192 557771.33407423086 0 557771.33407423086 3027086.8597652987 0 0 0 0 114610580.10887074 -107629325.22292328 0 -107629325.22292328 39987999.62335968 0 0 0 0 -108388501.96198273 156717874.80698395 0 156717874.80698395 -271478849.83781052 0 0 0 0 -560479992.89631557 -309737719.52262115 0 -309737719.52262115 -151420785.63699722 0 0 0 0 -759630902.03779984 -566097093.39822388 0 -566097093.39822388 -348207120.04611206 0 0 0 0 -358861621.88397121 477744561.87849808 0 477744561.87849808 -128999996.05477142 0 0 0 0 -1060465629.4125403 -128536532.71282864 0 -128536532.71282864 200361707.31982422 0 0 0 0 -871657336.54508591 584445282.93076706 0 584445282.93076706 225612084.83496284 0 0 0 0 -592077828.51780796 134287133.71295929 0 134287133.71295929 139077951.27011108 0 0 0 0 -481688922.13266945 142770046.06309891 0 142770046.06309891 136445911.43344688 0 0 0 0 -517920052.22247076 45999650.61328125 0 45999650.61328125 176975897.11470795 0 0 0 0 -648592391.66043425 -92669542.941850662 0 -92669542.941850662 58115312.872642517 0 0 0 0 -51193788.553032398 -116407860.08542633 0 -116407860.08542633 -111817864.91911507 0 0 0 0 106090090.95100135 -74631712.96389389 0 -74631712.96389389 -182194141.28743744 0 0 0 0 -3364356.763039255 4892454.8059926722 0 4892454.8059926722 5517635.3936443031 0 0 0 0 -194747033.8825314 109224750.93585205 0 109224750.93585205 61037642.848243713 0 0 0 0 -362942489.10108662 -4155745.5724029541 0 -4155745.5724029541 85238344.564910889 0 0 0 0 -372463772.3590765 43511136.95816803 0 43511136.95816803 43398268.751091003 0 0 0 0 -2072304.9496672852 7197314.8848385075 0 7197314.8848385075 2400858.0772448815 0 0 0 0 -5851533.4336682558 6609283.4511985779 0 6609283.4511985779 4080352.3576812744 0 0 0 0 -18625713.422070861 -9706988.9083366394 0 -9706988.9083366394 8954645.9305877686 0 0 0 0 -45207.819109340431 906440.79725974053 0 906440.79725974053 3045740.3838536702 0 0 0 0 -457394134.94424152 176664798.92319489 0 176664798.92319489 -137435164.63691711 0 0 0 0 -372002873.08873558 45833113.294033051 0 45833113.294033051 21923017.567176819 0 0 0 0 -524160073.19111729 72110554.932594299 0 72110554.932594299 80150656.015632629 0 0 0 0 -59554771.041791916 -90291854.863925934 0 -90291854.863925934 46611327.202835083 0 0 0 0 2202867.3946176646 1457160.4182528313 0 1457160.4182528313 216543.39735968411 0 0 0 0 -827024903.98223019 564353045.14671707 0 564353045.14671707 70037805.307014465 0 0 0 0 -58994379.921429634 -45465869.03156662 0 -45465869.03156662 -13914928.851982117 0 0 0 0 -1709622.1388732162 4387806.1144331563 0 4387806.1144331563 11994537.711424947 0 0 0 0 -1787441.8606557664 -2339927.0280411728 0 -2339927.0280411728 974908.99101880565 0 0 0 0 26458029.872987598 30448051.548524857 0 30448051.548524857 3470617.8947372437 0 0 0 0 -81213376.671993762 43185557.013890266 0 43185557.013890266 35963345.343032837 0 0 0 0 2776636.8736686707 227038413.78526306 0 227038413.78526306 296386562.6166172 0 0 0 0 513341844.57167053 185757260.22820282 0 185757260.22820282 227175370.80039978 0 0 0 0 529389.46513997391 250109.29763531126 0 250109.29763531126 -892335.76363781095 0 0 0 0 26857579.08977592 114422321.94168949 0 114422321.94168949 234914521.67584991 0 0 0 0 3541190.8892760277 -136680745.56058836 0 -136680745.56058836 131054386.93697357 0 0 0 0 -3421103.6929968405 386942.83176300302 0 386942.83176300302 3562196.1138653308 0 0 0 0 -223550787.04942608 -29422260.740879059 0 -29422260.740879059 43776948.947006226 0 0 0 0 -1522541.6693241554 213496.88610138744 0 213496.88610138744 1583889.7092449926 0 0 0 0 -631098447.16959572 -693759.23575592041 0 -693759.23575592041 44280963.821005821 0 0 0 0 6922721.8452162743 238274203.73806 0 238274203.73806 292694503.35659027 0 0 0 0 -624286033.98902035 -43640406.794994354 0 -43640406.794994354 -188123261.74873352 0 0 0 0 93016795.478078842 190756482.65483093 0 190756482.65483093 -341102212.45175171 0 0 0 0 -298395642.83696175 371784684.04058075 0 371784684.04058075 313515217.60570908 0 0 0 0 930993840.11050487 979976948.99330568 0 979976948.99330568 442430325.83149719 0 0 0 0 197201984.83482742 536081219.02407455 0 536081219.02407455 537543054.83629227 0 0 0 0 167030278.23205376 130289946.95304108 0 130289946.95304108 266966825.79225159 0 0 0 0 241278271.84992027 288344035.6795311 0 288344035.6795311 1101593850.8903809 0 0 0 0 235943434.55128479 400855867.42653656 0 400855867.42653656 736367480.79756165 0 0 0 0 42148969.007147789 376001036.40177917 0 376001036.40177917 423990266.67448425 0 0 0 0 827010965.93632364 491961472.20380211 0 491961472.20380211 -192617550.16183472 0 0 0 0 -2374765.7909171698 -595321.17019933136 0 -595321.17019933136 8227581.0391997397 0 0 0 0 18736008.591193199 25257173.49887085 0 25257173.49887085 -10010613.621032715 0 0 0 0 55797157.835367203 190520359.37793732 0 190520359.37793732 563849325.78098297 0 0 0 0 125154762.03452778 561517388.58049011 0 561517388.58049011 715795866.72499084 0 0 0 0 -652829723.0159874 284237350.27606201 0 284237350.27606201 1643297508.7121124 0 0 0 0 -455589002.21498108 83332865.503829956 0 83332865.503829956 714590981.50100708 0 0 0 0 -270446441.05095863 -386468555.71796417 0 -386468555.71796417 570553766.43998718 0 0 0 0 -164170268.02494526 883942270.1828804 0 883942270.1828804 126140783.19398689 0 0 0 0 1647251.8442751225 832063.15666786954 0 832063.15666786954 -580981.33064377308 0 0 0 0 -117493549.66273332 887825480.76871681 0 887825480.76871681 -588180139.21292114 0 0 0 0 719369.56000405038 -898517.10536280647 0 -898517.10536280647 -978935.14476617053 0 0 0 0 81235204.839967251 110898338.05180359 0 110898338.05180359 358608863.11018372 0 0 0 0 341068453.12123489 -52441194.436416626 0 -52441194.436416626 46928550.423675537 0 0 0 0 23686553.096461773 -91526076.323583603 0 -91526076.323583603 8746844.1158676147 0 0 0 0 474986685.0499841 652550548.60840225 0 652550548.60840225 779133535.89112854 0 0 0 0 -350126.87568339298 1715074.3456357718 0 1715074.3456357718 4374737.5600070655 0 0 0 0 -2248084.4190737307 -319971941.72163963 0 -319971941.72163963 1118515911.1575089 0 0 0 0 236981055.36507845 243974000.48922729 0 243974000.48922729 165416332.96699142 0 0 0 0 160555771.69054127 455750085.68273163 0 455750085.68273163 636952996.7039032 0 0 0 0 -45828476.088968277 216230670.23188782 0 216230670.23188782 364147997.75170088 0 0 0 0 -230674002.62577629 256318571.11265564 0 256318571.11265564 1024867693.4658973 0 0 0 0 -246362523.23361874 339754928.08785629 0 339754928.08785629 1027082005.3720703 0 0 0 0 -121767566.01640224 -435741179.72154236 0 -435741179.72154236 924505722.24412441 0 0 0 0 -253886539.52990866 185656915.58097076 0 185656915.58097076 877930178.71826172 0 0 0 0 -270994334.39234483 154270118.95258713 0 154270118.95258713 2116332229.8114166 0 0 0 0 276668962.67090607 -1137167365.3710861 0 -1137167365.3710861 1586595906.7068787 0 0 0 0 167080791.84694171 -643113864.33226967 0 -643113864.33226967 -44017346.350585938 0 0 0 0 60173467.532529831 -355041653.56737518 0 -355041653.56737518 164431634.59321594 0 0 0 0 17516600.796649933 -187543458.85155487 0 -187543458.85155487 49441736.224136353 0 0 0 0 75955198.161857605 -281827430.45848465 0 -281827430.45848465 13980502.607131958 0 0 0 0 -630293657.0252459 340676150.04366493 0 340676150.04366493 1408733320.2455902 0 0 0 0 -613212437.27980673 657022261.93966293 0 657022261.93966293 2089747536.189064 0 0 0 0 1039995918.0869572 891325267.62207031 0 891325267.62207031 668008819.730896 0 0 0 0 1532490877.9877467 -710079901.87832642 0 -710079901.87832642 -161824785.2177124 0 0 0 0 300150903.49509513 -186607556.22893524 0 -186607556.22893524 -217604637.59732056 0 0 0 0 468066656.48310483 -38757508.905357361 0 -38757508.905357361 -1306697379.9608154 0 0 0 0 683788381.94344282 -491210432.30319214 0 -491210432.30319214 -1892803426.7673645 0 0 0 0 -487196160.7426033 -151449536.93774414 0 -151449536.93774414 -17690513.47593689 0 0 0 0 -194234993.37086666 316467353.2795105 0 316467353.2795105 -792573497.00393677 0 0 0 0 1137595.9665901684 -1020698.7794077955 0 -1020698.7794077955 3810667.2518273517 0 0 0 0 28499409.121613622 40225441.171413422 0 40225441.171413422 -837469586.07937717 0 0 0 0 44085521.661591172 -34582714.041307449 0 -34582714.041307449 14634270.293518066 0 0 0 0 -7018106.6312887669 -5097943.5485420227 0 -5097943.5485420227 8923398.7503509521 0 0 0 0 163981.10691169251 -1302766.7478064746 0 -1302766.7478064746 92473.184231843799 0 0 0 0 423392425.46569395 661199467.73710632 0 661199467.73710632 -2013656619.0566387 0 0 0 0 -2838576.3725179136 -2535629.5113345291 0 -2535629.5113345291 8723050.0098865554 0 0 0 0 -2868708.4657688141 -5856652.6389312744 0 -5856652.6389312744 5360721.1539535522 0 0 0 0 10623627.344340324 1155274.9906768799 0 1155274.9906768799 -247285875.25040627 0 0 0 0 -66194449.132098198 -57771793.699165344 0 -57771793.699165344 -248636630.00022125 0 0 0 0 2727267.2505490156 -8042847.8178336639 0 -8042847.8178336639 2356185.5877178609 0 0 0 0 -235482690.62174416 41204630.41204834 0 41204630.41204834 -541838248.20346069 0 0 0 0 -52165792.017693043 487282548.87518311 0 487282548.87518311 -455665021.43544769 0 0 0 0 149950905.16168404 -237437891.78534317 0 -237437891.78534317 -571231364.40002441 0 0 0 0 -208854446.21215487 442626793.43177795 0 442626793.43177795 -1032709701.0754013 0 0 0 0 -369258239.71471715 -255330905.01579285 0 -255330905.01579285 -1177477689.4407959 0 0 0 0 563633.30941783322 -241851.81625971757 0 -241851.81625971757 -667035.77297535539 0 0 0 0 -4786431.7644131184 -8964776.961227417 0 -8964776.961227417 6559469.18409729 0 0 0 0 22830462.614289761 1789205.7515010834 0 1789205.7515010834 -4112277.4686126709 0 0 0 0 -896223.95322400052 -4883230.6356939226 0 -4883230.6356939226 9248351.8536810204 0 0 0 0 -83006341.503811836 -178024564.55148315 0 -178024564.55148315 -22503367.352523804 0 0 0 0 -8046672.0899524689 -24369711.63769722 0 -24369711.63769722 4121363.099521637 0 0 0 0 -46665296.962930202 256793803.4404583 0 256793803.4404583 239552284.77052307 0 0 0 0 -32960331.809030533 -266771427.68267822 0 -266771427.68267822 58498426.831329346 0 0 0 0 -95855752.802073717 177607835.53171921 0 177607835.53171921 128845415.37941742 0 0 0 0 380030664.420928 -385520963.59008026 0 -385520963.59008026 -455608889.03503036 0 0 0 0 -487110255.40611148 153484254.68319702 0 153484254.68319702 1288408678.7556992 0 0 0 0 -58589705.097015858 -289928812.38733673 0 -289928812.38733673 -436804637.0052948 0 0 0 0 497097.102016669 -1052163.6290110219 0 -1052163.6290110219 1271282.4624385908 0 0 0 0 97359666.559013605 451389209.68114281 0 451389209.68114281 515217080.95534515 0 0 0 0 -8173177.1532211304 292889848.07342911 0 292889848.07342911 284415095.05954742 0 0 0 0 -79072200.889229774 160489543.25507736 0 160489543.25507736 116301234.97844315 0 0 0 0 97685018.997573614 -36403267.515838623 0 -36403267.515838623 -30295873.736709595 0 0 0 0 50376921.508185387 -48793753.897102356 0 -48793753.897102356 42713814.805999756 0 0 0 0 446815.25341596676 -119463.06185540371 0 -119463.06185540371 1383786.0704060122 0 0 0 0 39819860.063363791 306618626.21100998 0 306618626.21100998 414595771.53380203 0 0 0 0 729759696.75601125 189281466.83250427 0 189281466.83250427 105028338.32894897 0 0 0 0 298560767.77883959 -41998820.906715393 0 -41998820.906715393 -15797987.384857178 0 0 0 0 372245530.96847647 382510531.5449295 0 382510531.5449295 223274031.4627533 0 0 0 0 -124511213.62088743 322811027.63953018 0 322811027.63953018 309424313.99021912 0 0 0 0 40545289.61737299 337080830.61821747 0 337080830.61821747 211845053.94178009 0 0 0 0 -435463241.07029295 268130095.92551041 0 268130095.92551041 495412393.98074341 0 0 0 0 100138859.56562245 -91407796.435054779 0 -91407796.435054779 -60331661.48928833 0 0 0 0 189455220.53129363 -371242258.84524918 0 -371242258.84524918 813724433.40885568 0 0 0 0 423906232.8292141 670571077.9465332 0 670571077.9465332 757520566.45173645 0 0 0 0 509566866.76370788 -221687307.24474335 0 -221687307.24474335 -172420.30736541748 0 0 0 0 -6791564.0497018099 67799887.567054749 0 67799887.567054749 13295130.445345879 0 0 0 0 -595648085.81211019 -444937781.18287277 0 -444937781.18287277 319111381.70719147 0 0 0 0 -42830335.643376112 92106382.383575439 0 92106382.383575439 -56910758.337158203 0 0 0 0 766792.21096358891 -2231651.2208435126 0 -2231651.2208435126 3547516.04188288 0 0 0 0 -131079332.4006362 341169799.88350677 0 341169799.88350677 120459253.17808533 0 0 0 0 -601578870.50069177 45866061.357784271 0 45866061.357784271 196986981.3669281 0 0 0 0 -244723855.89910531 280746528.42429352 0 280746528.42429352 343378328.83856201 0 0 0 0 -717379914.93391919 -537365107.67428207 0 -537365107.67428207 213206758.95803833 0 0 0 0 764925.20108471427 -2243537.7521994002 0 -2243537.7521994002 3454712.8726446331 0 0 0 0 -615934996.06301165 -52310210.135147095 0 -52310210.135147095 326834562.52492905 0 0 0 0 -345492294.79150295 1524931.9791870117 0 1524931.9791870117 288735108.35128784 0 0 0 0 -185318127.17287946 -407698287.35162163 0 -407698287.35162163 1311090448.531723 0 0 0 0 565164524.15750074 894921596.8258934 0 894921596.8258934 832030325.25454712 0 0 0 0 8448596.5762763023 260119380.26230621 0 260119380.26230621 110528169.85801697 0 0 0 0 8466624.2779045105 259798211.68222046 0 259798211.68222046 80148121.672653198 0 0 0 0 16814975.583261967 200557045.00805664 0 200557045.00805664 238223911.95504761 0 0 0 0 -100175897.68722916 329482064.94487 0 329482064.94487 104239344.20368195 0 0 0 0 23437635.83609581 251876829.76940918 0 251876829.76940918 114718570.82584381 0 0 0 0 -100096295.92525631 159838649.70346069 0 159838649.70346069 304738105.52622986 0 0 0 0 128075951.19882882 73077414.110092163 0 73077414.110092163 114437781.98775864 0 0 0 0 111806435.87818721 76482426.318993568 0 76482426.318993568 66224959.227630615 0 0 0 0 -246149.06695551588 -670948.43125489354 0 -670948.43125489354 599991.95184397697 0 0 0 0 -172415268.28333902 92607333.42956543 0 92607333.42956543 395108025.05726624 0 0 0 0 -76325264.184432983 510834022.04455566 0 510834022.04455566 401316848.15512252 0 0 0 0 -192346361.04363775 212880489.31190491 0 212880489.31190491 411559757.4082489 0 0 0 0 -89134235.542406082 26225280.361694336 0 26225280.361694336 252865894.4730835 0 0 0 0 405324.66479607136 -361207.13161944598 0 -361207.13161944598 358993.81862504035 0 0 0 0 346186190.56902671 461992763.06295013 0 461992763.06295013 -45385200.652215719 0 0 0 0 -239401661.39698416 -50615899.760803223 0 -50615899.760803223 230105562.40388489 0 0 0 0 -196769708.6554929 62688213.294109344 0 62688213.294109344 159597953.12313843 0 0 0 0 -3173635.2269611359 -73501215.469116211 0 -73501215.469116211 390111092.08244514 0 0 0 0 134564533.17163658 67785253.497970581 0 67785253.497970581 226162946.72653198 0 0 0 0 254361026.76155549 243762231.0654211 0 243762231.0654211 453919930.86120605 0 0 0 0 247483949.77660877 20371015.453669548 0 20371015.453669548 357802540.65252686 0 0 0 0 -123391289.36312103 -80131707.507324219 0 -80131707.507324219 425686257.45558167 0 0 0 0 -77862464.562313557 47926016.866226196 0 47926016.866226196 371843024.00419617 0 0 0 0 52269316.49846983 -252352815.73588562 0 -252352815.73588562 193664981.373909 0 0 0 0 101093986.1361227 2360922.4461669922 0 2360922.4461669922 -272430800.23046875 0 0 0 0 -51769673.107008815 -111631598.28620529 0 -111631598.28620529 -78119873.752059937 0 0 0 0 -1718551.3331594467 6837170.7282180786 0 6837170.7282180786 34700910.96251297 0 0 0 0 -117251.42937104835 -113641.05303107202 0 -113641.05303107202 4783971.3560193591 0 0 0 0 45914137.661108971 99269955.267692566 0 99269955.267692566 58352190.35484314 0 0 0 0 81824054.138580233 31240381.75510931 0 31240381.75510931 -21526840.868301392 0 0 0 0 -181591.43672981052 541536.6190236588 0 541536.6190236588 623086.55685511231 0 0 0 0 -5702358.7841417193 1765346.6528091431 0 1765346.6528091431 -3190350.3019504547 0 0 0 0 210747543.6526016 403963781.95986938 0 403963781.95986938 881597348.02275085 0 0 0 0 -179566915.29585886 -188747177.9228363 0 -188747177.9228363 -297634422.23297882 0 0 0 0 440666.85643741448 -991984.00532959402 0 -991984.00532959402 1417678.58691369 0 0 0 0 439062942.34172511 -358871841.02238083 0 -358871841.02238083 -383443653.94793701 0 0 0 0 -153123117.56125832 84000072.678230286 0 84000072.678230286 1641786421.4537354 0 0 0 0 -56350278.553398907 295980784.31354654 0 295980784.31354654 1044435303.2850494 0 0 0 0 98633342.558621526 456159414.37881088 0 456159414.37881088 867588146.7936554 0 0 0 0 314294376.85744238 254440128.65248108 0 254440128.65248108 380942675.02192688 0 0 0 0 -47228496.107258797 -564221.50012207031 0 -564221.50012207031 445999074.26452351 0 0 0 0 109143189.57162285 -116150152.45526123 0 -116150152.45526123 365120774.60961914 0 0 0 0 133853905.03961182 -785504583.47544861 0 -785504583.47544861 137017743.3780899 0 0 0 0 -500321429.94413042 -270786747.25731659 0 -270786747.25731659 1232217341.9168854 0 0 0 0 183646769.1619525 -1090016348.6803894 0 -1090016348.6803894 189499206.76926422 0 0 0 0 55964283.882715225 -217528848.25088501 0 -217528848.25088501 -1110945091.587616 0 0 0 0 -4414051.4269928932 7020113.1788787842 0 7020113.1788787842 1189590.8667907715 0 0 0 0 -371609.07375264168 27776828.737110138 0 27776828.737110138 -10266234.259496689 0 0 0 0 -189069.74528907426 5439575.0248827916 0 5439575.0248827916 1295386.8620383963 0 0 0 0 -1058234.4913678702 1884492.0527864508 0 1884492.0527864508 11099407.696914215 0 0 0 0 -2852714.6104985476 2026471.684220314 0 2026471.684220314 1482915.7601318359 0 0 0 0 -3401674.1926184259 5132625.1768671907 0 5132625.1768671907 9327823.8990576863 0 0 0 0 -1538769.2510074242 1702797.5990919508 0 1702797.5990919508 4221737.2530140504 0 0 0 0 -3785034.4228372574 4034943.9011154175 0 4034943.9011154175 2355810.6910095215 0 0 0 0 -4915795.3483428955 3556999.445098877 0 3556999.445098877 2465967.2741394043 0 0 0 0 -3506777.1133618355 5540659.4962263107 0 5540659.4962263107 4347969.7026367188 0 0 0 0 -2315302.2517789369 4678000.942827234 0 4678000.942827234 15582366.123627663 0 0 0 0 742154.32076663687 4303788.1295066737 0 4303788.1295066737 18601567.221229658 0 0 0 0 -13381939.90177536 14941554.101783752 0 14941554.101783752 -2536871.7476844788 0 0 0 0 -6733296.4389951294 7784993.9376182817 0 7784993.9376182817 19666612.499895915 0 0 0 0 -1386826.703856349 3748364.5984344482 0 3748364.5984344482 1492605.9203491211 0 0 0 0 -2357066.1260548118 9306501.5546852034 0 9306501.5546852034 1064128.5452917069 0 0 0 0 -141791321.62178469 415609073.0489502 0 415609073.0489502 -1319343788.739521 0 0 0 0 4120747.3918737583 2600687.2333138324 0 2600687.2333138324 5954643.7972451895 0 0 0 0 -92355894.874778271 -87015978.29788208 0 -87015978.29788208 -503270125.84602356 0 0 0 0 -12184967.530067384 27401882.268793583 0 27401882.268793583 -19218864.785202026 0 0 0 0 -4730714.617354393 22504818.759208679 0 22504818.759208679 -22446164.721099854 0 0 0 0 79574.202183117275 10429022.331964556 0 10429022.331964556 -7317600.8365562484 0 0 0 0 1364143.8627338409 16688408.17032814 0 16688408.17032814 -19724711.234786987 0 0 0 0 248149.62778395601 3173858.0224712044 0 3173858.0224712044 -371462.31866100058 0 0 0 0 28848972.721211433 37398994.338747025 0 37398994.338747025 29818141.941040039 0 0 0 0 -353207.21910381317 6763802.61302948 0 6763802.61302948 -817935.58811569214 0 0 0 0 181142.97100067139 51094052.914382935 0 51094052.914382935 68595350.125286102 0 0 0 0 -2593426.3221263885 23607409.60332489 0 23607409.60332489 54344125.017982483 0 0 0 0 1646807.3904395062 4993645.7437218651 0 4993645.7437218651 547136.25116950646 0 0 0 0 3859389.8610477448 -7945277.6011047363 0 -7945277.6011047363 -30289875.959640503 0 0 0 0 97339.167417049408 5251012.5102005005 0 5251012.5102005005 21064185.20526886 0 0 0 0 -716184.81140261889 1377208.2445764542 0 1377208.2445764542 26559753.458251953 0 0 0 0 -241004.50443339348 473182.15155792236 0 473182.15155792236 29996197.653823853 0 0 0 0 174408945.45916653 -324105161.9540329 0 -324105161.9540329 -366858482.96938515 0 0 0 0 432629.7916411683 3594512.8624420166 0 3594512.8624420166 24848751.002674103 0 0 0 0 -899152.59880646551 374231.51582580805 0 374231.51582580805 10005719.856101051 0 0 0 0 1159165.2926558852 6312394.6079101562 0 6312394.6079101562 25757247.056495667 0 0 0 0 3640742.8244111538 5007039.3694229126 0 5007039.3694229126 21870420.575180054 0 0 0 0 -89537.661133237183 803463.0238494873 0 803463.0238494873 20609773.410093307 0 0 0 0 -29235070.672895432 12693708.54524231 0 12693708.54524231 -17744561.71710968 0 0 0 0 2410043.1448228359 3906526.7095336914 0 3906526.7095336914 9910607.473236084 0 0 0 0 -725584.01198221091 2922027.3873077966 0 2922027.3873077966 26196950.298618302 0 0 0 0 -1640036.7158989906 3377530.0648422241 0 3377530.0648422241 9959164.4223632812 0 0 0 0 -1499526.7647719383 1590351.2770233154 0 1590351.2770233154 19544382.635280609 0 0 0 0 -394525.99232888629 -668358.96263194829 0 -668358.96263194829 655192.29857435077 0 0 0 0 -2335479.9055449963 5828199.6218948364 0 5828199.6218948364 9412045.4492492676 0 0 0 0 -3645297.4011698961 -1030214.5100345612 0 -1030214.5100345612 7088482.0443725586 0 0 0 0 494767.4830930921 1929846.9946999121 0 1929846.9946999121 9181910.0382879153 0 0 0 0 -15561553.511877775 -23596759.756444931 0 -23596759.756444931 -7287380.1253814697 0 0 0 0 5591951.3277084827 4347606.1480560303 0 4347606.1480560303 16944557.62979126 0 0 0 0 492881.55596267188 -935526.57798160799 0 -935526.57798160799 -884133.4934085533 0 0 0 0 16757031.997925043 -7107914.0107307434 0 -7107914.0107307434 -16177119.618103027 0 0 0 0 51071884.876858711 2935626.3621673584 0 2935626.3621673584 789458.056432724 0 0 0 0 -3569615.4450192451 -24088620.542129517 0 -24088620.542129517 -2719383.6623754501 0 0 0 0 -12416402.391898692 -15941288.281217575 0 -15941288.281217575 -8882035.3990020752 0 0 0 0 97315563.876689911 100707126.12493896 0 100707126.12493896 115542385.89810562 0 0 0 0 -21171961.887010582 -9218030.608373221 0 -9218030.608373221 39799314.692667902 0 0 0 0 102631299.90897512 147744891.65903759 0 147744891.65903759 197788688.07958984 0 0 0 0 -21535184.549221534 -11129749.27415375 0 -11129749.27415375 40079338.018288106 0 0 0 0 -29157595.507101297 -86179749.34122324 0 -86179749.34122324 -44244751.428756714 0 0 0 0 -38557785.408956528 -23228880.071968079 0 -23228880.071968079 -4253004.9504356384 0 0 0 0 37086206.121780396 -77237381.424228668 0 -77237381.424228668 33564903.644527435 0 0 0 0 -80443772.314828157 -105687954.25285816 0 -105687954.25285816 -21847722.393959045 0 0 0 0 -35762127.578976154 -28340068.704019547 0 -28340068.704019547 -13184321.782737732 0 0 0 0 6940703.3827924728 29054328.902801514 0 29054328.902801514 53725699.98982811 0 0 0 0 -48621962.301545143 -34694495.595684052 0 -34694495.595684052 35817313.025283813 0 0 0 0 -29129591.525447845 10493612.127195358 0 10493612.127195358 126441584.98992157 0 0 0 0 38036321.364153862 -49112403.573806763 0 -49112403.573806763 146622056.30434418 0 0 0 0 42218483.239964485 59778601.939277649 0 59778601.939277649 65061713.244567871 0 0 0 0 23504854.459439278 -51623447.846984863 0 -51623447.846984863 148470051.81817627 0 0 0 0 -111444295.83317077 54424224.1301651 0 54424224.1301651 149754595.65987396 0 0 0 0 15425582.712773323 -43519217.303565979 0 -43519217.303565979 155644027.73306847 0 0 0 0 -194372.6433020616 -1503171.2319591045 0 -1503171.2319591045 1208600.3683594447 0 0 0 0 90410209.741892815 -16908934.505226135 0 -16908934.505226135 133544760.0196228 0 0 0 0 -12512137.908397675 -43111297.91204834 0 -43111297.91204834 155892120.38410378 0 0 0 0 -165626.81960181403 -285880.69740886614 0 -285880.69740886614 1611536.318442259 0 0 0 0 37132100.240592957 27712772.954826355 0 27712772.954826355 43752484.221603394 0 0 0 0 -27189022.556177616 -49056079.988525391 0 -49056079.988525391 149124904.24669266 0 0 0 0 -66605201.296310902 32754395.083236694 0 32754395.083236694 118025663.30392456 0 0 0 0 3722168.0565743446 5499600.2533950806 0 5499600.2533950806 26114029.931835175 0 0 0 0 5571116.3813295364 9580587.9001274109 0 9580587.9001274109 35102906.384689331 0 0 0 0 67355307.167856574 16133887.462129593 0 16133887.462129593 11455192.98614502 0 0 0 0 32494452.791133881 148214582.21705627 0 148214582.21705627 51481889.870880127 0 0 0 0 107600883.00056458 -95413156.030502319 0 -95413156.030502319 128497890.02986145 0 0 0 0 -4803551.0729064941 -33870736.134490967 0 -33870736.134490967 101533336.44047546 0 0 0 0 -3551168.8831617553 -2788821.9147685841 0 -2788821.9147685841 8850029.3703074232 0 0 0 0 -122989771.83700609 -124159195.87431335 0 -124159195.87431335 125018584.22392273 0 0 0 0 72787150.988481998 -204755097.82685089 0 -204755097.82685089 12100411.949554443 0 0 0 0 243804445.75921714 -204580645.31490517 0 -204580645.31490517 -23706844.906219482 0 0 0 0 -344939544.44455433 -405681323.59037781 0 -405681323.59037781 -62368521.278793335 0 0 0 0 41444144.026721001 -3586100.3594055176 0 -3586100.3594055176 62914123.300476074 0 0 0 0 -162637134.29056358 296296412.83826065 0 296296412.83826065 202302440.9072113 0 0 0 0 -589634219.1698637 168899559.80880356 0 168899559.80880356 20440687.039520264 0 0 0 0 154905505.61216831 244622201.85996342 0 244622201.85996342 302393454.51925659 0 0 0 0 126344126.30975962 -222000.59750366211 0 -222000.59750366211 236939948.12709045 0 0 0 0 8613195.0663281754 739666.65467007831 0 739666.65467007831 -4261810.4137435108 0 0 0 0 100391770.47867775 171264003.33957577 0 171264003.33957577 229784784.71807861 0 0 0 0 161200703.49541473 154242937.24006653 0 154242937.24006653 211943190.48265076 0 0 0 0 -2818219.2343413876 -1391238.3622724712 0 -1391238.3622724712 4385453.2474034727 0 0 0 0 -52973739.79890728 -127987323.06919861 0 -127987323.06919861 201965606.14178467 0 0 0 0 7241715.8260258576 3176867.3379501179 0 3176867.3379501179 -5153947.555203326 0 0 0 0 223147785.9237442 68893019.468109131 0 68893019.468109131 391031126.57312012 0 0 0 0 85171818.614011765 274122284.9650116 0 274122284.9650116 87539306.942527771 0 0 0 0 132793356.48118973 182788352.70858765 0 182788352.70858765 216336816.70333862 0 0 0 0 134693502.41605759 147525916.55535889 0 147525916.55535889 171444562.96278763 0 0 0 0 104590496.31155396 122781655.95175171 0 122781655.95175171 194014836.51503754 0 0 0 0 -70858096.604320526 -27472938.413738251 0 -27472938.413738251 30455801.848342896 0 0 0 0 -66398470.244873047 -86691222.290142059 0 -86691222.290142059 -40676885.724723816 0 0 0 0 -20773959.498274751 -11767060.883428916 0 -11767060.883428916 41172539.341577657 0 0 0 0 103420047.85064697 100861598.76448059 0 100861598.76448059 218126846.65988159 0 0 0 0 90779574.328210831 159787562.19721413 0 159787562.19721413 291403261.13540649 0 0 0 0 214803201.14741135 202901078.00338745 0 202901078.00338745 215989882.91406965 0 0 0 0 -14326830.840602875 62726581.996368408 0 62726581.996368408 225008633.97395611 0 0 0 0 139690319.84675503 361552131.50575638 0 361552131.50575638 389196267.95568848 0 0 0 0 128947042.98436356 222642209.97737122 0 222642209.97737122 327394159.85560608 0 0 0 0 54822109.05264473 -12470012.802352905 0 -12470012.802352905 97198946.411399841 0 0 0 0 10622232.772717144 -1170847.6328516379 0 -1170847.6328516379 -3084906.4509308338 0 0 0 0 -100421124.4209013 -125691193.03691864 0 -125691193.03691864 100987225.90927887 0 0 0 0 -15301525.264568776 -7634737.2296645194 0 -7634737.2296645194 47065387.311844431 0 0 0 0 1885769.8387246132 282068190.41095543 0 282068190.41095543 307527135.59762573 0 0 0 0 90885645.76292038 117365541.4801178 0 117365541.4801178 24903011.729248047 0 0 0 0 -18967648.925929792 -11002362.554795206 0 -11002362.554795206 43296128.719668247 0 0 0 0 -59043426.867921829 -103347201.78059769 0 -103347201.78059769 -57004572.758705139 0 0 0 0 -8648437.9639759064 -48996546.019172668 0 -48996546.019172668 -32162276.184688568 0 0 0 0 -62926833.700997353 43579769.84834671 0 43579769.84834671 396968976.44868469 0 0 0 0 -411072.99262017198 -1081963.084674634 0 -1081963.084674634 874842.24508361891 0 0 0 0 -44737485.820407867 -26707252.154285431 0 -26707252.154285431 8363121.1920204163 0 0 0 0 -4682864.670258522 -44579213.544570923 0 -44579213.544570923 -14292668.400428772 0 0 0 0 -72646337.898057222 -36054748.195026875 0 -36054748.195026875 2707769.7339859009 0 0 0 0 -31273177.5736413 14931427.788898468 0 14931427.788898468 57557291.041511536 0 0 0 0 -331582.03517245827 -1914754.2305542901 0 -1914754.2305542901 1480937.3036578372 0 0 0 0 -21162708.824491024 167610183.94662476 0 167610183.94662476 449627098.42190552 0 0 0 0 -59443031.595804214 109591403.39740753 0 109591403.39740753 362865389.73114014 0 0 0 0 33122946.760206223 162604639.38634491 0 162604639.38634491 355391967.12747192 0 0 0 0 36426396.202156067 200255953.84781075 0 200255953.84781075 256430573.34368896 0 0 0 0 -4260122.2111968994 111476134.69376564 0 111476134.69376564 297303236.84536743 0 0 0 0 -2491009.4597252235 3290017.6358443834 0 3290017.6358443834 4248749.2742044777 0 0 0 0 -252195607.09944057 -4521816.9515190125 0 -4521816.9515190125 74922773.084640503 0 0 0 0 148977645.15802765 147871699.98753357 0 147871699.98753357 99833774.737071991 0 0 0 0 286164320.44623566 240802648.63272858 0 240802648.63272858 129617918.8008728 0 0 0 0 79748678.531177521 184821202.48965454 0 184821202.48965454 245094021.60917664 0 0 0 0 111433214.19855976 143425369.31352997 0 143425369.31352997 192073411.94805908 0 0 0 0 68423451.64274025 94386638.060043335 0 94386638.060043335 147617453.05329895 0 0 0 0 71307304.716594696 86057285.622398376 0 86057285.622398376 64182264.683258057 0 0 0 0 20278122.909984589 43884944.849534988 0 43884944.849534988 156857349.3944397 0 0 0 0 -54054373.222763896 66713225.124412537 0 66713225.124412537 321653336.7880249 0 0 0 0 4980160.0168132782 104558206.59202576 0 104558206.59202576 237120628.51165771 0 0 0 0 16462496.588944435 71336291.014755249 0 71336291.014755249 321716393.62197876 0 0 0 0 -5996352.484380722 -30614458.074043274 0 -30614458.074043274 304649845.4858551 0 0 0 0 -7199265.662984848 72033623.107948303 0 72033623.107948303 166822131.02643967 0 0 0 0 11089553.073033571 107860133.66156101 0 107860133.66156101 42638883.945129395 0 0 0 0 -169882534.01617813 47130415.300949097 0 47130415.300949097 150270437.73106575 0 0 0 0 841774.43987488747 -6278269.0018386841 0 -6278269.0018386841 84111625.333152771 0 0 0 0 -148246706.63325524 -428227386.07616234 0 -428227386.07616234 113073673.30558777 0 0 0 0 -92996244.832573324 147664242.75662231 0 147664242.75662231 380554939.10865021 0 0 0 0 -15517872.834758282 469387658.29051971 0 469387658.29051971 969107298.17021561 0 0 0 0 -410381877.03597832 -355049764.9074173 0 -355049764.9074173 1167222370.3643913 0 0 0 0 706550746.1498816 -80624369.678649902 0 -80624369.678649902 -547131045.16537476 0 0 0 0 1204994.0285284203 -1322168.548554536 0 -1322168.548554536 1079541.7772732675 0 0 0 0 127077986.22928762 18170178.982025146 0 18170178.982025146 22240546.549453735 0 0 0 0 1353407427.6365933 342137054.76382446 0 342137054.76382446 -490812737.06695557 0 0 0 0 532227.59053636901 -1926864.3615894392 0 -1926864.3615894392 1854686.7600383908 0 0 0 0 -109332925.26949024 83720002.050582886 0 83720002.050582886 132720183.83281708 0 0 0 0 6724041.6740894318 31617366.129997253 0 31617366.129997253 44692391.050842285 0 0 0 0 118473682.10500908 -17756775.442771912 0 -17756775.442771912 -30108745.71975708 0 0 0 0 -42675.834868780803 -1878846.7478659712 0 -1878846.7478659712 1423458.8614293672 0 0 0 0 -19650052.9828825 -23757075.539264679 0 -23757075.539264679 11674548.334133148 0 0 0 0 -71339926.3364923 109615736.42805481 0 109615736.42805481 125715955.15597534 0 0 0 0 124943363.62139511 -138970060.96496582 0 -138970060.96496582 140962723.71892548 0 0 0 0 -104888581.0060401 104443572.15362549 0 104443572.15362549 671418644.9411087 0 0 0 0 -322926.08882268285 -1009790.0612140521 0 -1009790.0612140521 1180082.6184045523 0 0 0 0 -106876032.53112988 149458253.05445862 0 149458253.05445862 441575141.12486267 0 0 0 0 -45172572.277475178 134475511.39411926 0 134475511.39411926 445213222.60980225 0 0 0 0 200585588.886796 148884201.05996704 0 148884201.05996704 301517263.23542786 0 0 0 0 89360225.386563301 -70223299.493515015 0 -70223299.493515015 421412176.37493896 0 0 0 0 -16745050.337347031 44857461.160476685 0 44857461.160476685 362638940.25836945 0 0 0 0 -62580619.826807022 151461592.45748901 0 151461592.45748901 202987540.25453663 0 0 0 0 27910447.36302948 158572791.89454651 0 158572791.89454651 203245041.89703369 0 0 0 0 71243188.264799118 57146062.204269409 0 57146062.204269409 176015855.22402954 0 0 0 0 -43792813.463977814 41159511.176757812 0 41159511.176757812 173795992.20378494 0 0 0 0 3584978.9451096058 86985829.314458847 0 86985829.314458847 87736083.375335693 0 0 0 0 -104587871.42694473 81781001.727149963 0 81781001.727149963 99329664.912727356 0 0 0 0 -74238021.178030014 129750584.73236847 0 129750584.73236847 39397758.450994492 0 0 0 0 12368969.945013523 63108281.285423279 0 63108281.285423279 200042080.86984253 0 0 0 0 -3269259.6723279953 41902627.205230713 0 41902627.205230713 295015975.90611267 0 0 0 0 33222336.715927839 84055367.101753235 0 84055367.101753235 130351254.38313293 0 0 0 0 -15520137.290989697 14501896.808473587 0 14501896.808473587 168315298.40620422 0 0 0 0 7758506.1584215164 87511331.047943115 0 87511331.047943115 93048894.367355347 0 0 0 0 24328797.191558838 40185741.091201782 0 40185741.091201782 103615478.51721191 0 0 0 0 118328968.66764593 108093070.36864471 0 108093070.36864471 74945479.219139099 0 0 0 0 32095539.399812818 90497403.528377533 0 90497403.528377533 229530564.98120117 0 0 0 0 -33590071.784614772 158091004.20799255 0 158091004.20799255 245367660.23514366 0 0 0 0 57592506.882847622 301881212.5025177 0 301881212.5025177 466489630.13821411 0 0 0 0 -154580166.56479207 166917832.40078354 0 166917832.40078354 467474900.33360291 0 0 0 0 -619306.40336126485 923149.76269391458 0 923149.76269391458 4222781.4552683756 0 0 0 0 449391649.88263321 -572724781.43848419 0 -572724781.43848419 43573592.268882751 0 0 0 0 525786632.07303238 432304748.84791565 0 432304748.84791565 312657147.27848816 0 0 0 0 233002081.2314527 147974274.96718788 0 147974274.96718788 36538312.644058228 0 0 0 0 71707707.769470334 -7472519.1833267212 0 -7472519.1833267212 19679348.490280151 0 0 0 0 -13544319.147031307 -3212245.3640060425 0 -3212245.3640060425 58951705.111434937 0 0 0 0 -37793445.325526714 30574168.765090942 0 30574168.765090942 26820413.198913574 0 0 0 0 -2432321.8820516411 4096624.6852244595 0 4096624.6852244595 11319835.649331354 0 0 0 0 18690020.216271877 2112609.7380924225 0 2112609.7380924225 -11183873.20300293 0 0 0 0 -28244012.167719364 9478536.8992805481 0 9478536.8992805481 -5630230.8504943848 0 0 0 0 -13644055.344445944 27386808.229423523 0 27386808.229423523 -10659111.206747055 0 0 0 0 28993363.719436347 27255466.1457901 0 27255466.1457901 -11049474.494447708 0 0 0 0 57413471.764155015 39896714.493778229 0 39896714.493778229 -2337933.5237426758 0 0 0 0 7169336.0914112255 25990276.926181793 0 25990276.926181793 3235882.6177062988 0 0 0 0 41591889.922557831 30206530.543395996 0 30206530.543395996 46802822.631076813 0 0 0 0 51920331.112250924 79236811.100939751 0 79236811.100939751 37898891.476135254 0 0 0 0 19229168.342010975 45418127.960121155 0 45418127.960121155 8878087.4410171509 0 0 0 0 -11164152.643819571 104411516.68139076 0 104411516.68139076 -2184884.2920684814 0 0 0 0 -47526718.608042717 96622829.366020203 0 96622829.366020203 -19306648.735305786 0 0 0 0 -13936380.40236187 34479664.779006958 0 34479664.779006958 27687004.979766846 0 0 0 0 -128820027.87178993 70094090.652404785 0 70094090.652404785 23113624.699417114 0 0 0 0 -2272843.8008513195 8697284.0702866372 0 8697284.0702866372 2975634.7700594664 0 0 0 0 -6669172.4040532112 20133832.027107239 0 20133832.027107239 -3881092.0653686523 0 0 0 0 -3479078.4113833671 22136842.120108608 0 22136842.120108608 12813476.318219282 0 0 0 0 -25545297.246598244 61653664.329788208 0 61653664.329788208 23645448.186426163 0 0 0 0 1042665.9494724274 17368172.23960495 0 17368172.23960495 8696240.1750183105 0 0 0 0 117063.97200022836 24173033.31630788 0 24173033.31630788 3502093.5032839626 0 0 0 0 -23636319.29035902 48081997.312637329 0 48081997.312637329 -1634202.282913208 0 0 0 0 14572248.822160244 62763120.187849045 0 62763120.187849045 558858.5714263916 0 0 0 0 3301125.8020706177 41669988.201004028 0 41669988.201004028 -5179753.5771560669 0 0 0 0 21134326.790044785 30189695.96081543 0 30189695.96081543 -62006892.838760376 0 0 0 0 -10619220.509115057 23252502.370437898 0 23252502.370437898 30703723.690959081 0 0 0 0 650952.62996367738 12528459.517205629 0 12528459.517205629 -10228185.778003246 0 0 0 0 -8488893.754447937 24540722.654052734 0 24540722.654052734 -22139587.203819275 0 0 0 0 -2367566.4542222354 15569397.120917253 0 15569397.120917253 7587657.4059276879 0 0 0 0 13104785.171285629 45849697.289886475 0 45849697.289886475 -12852979.967041016 0 0 0 0 -4603417.008645664 15866832.868249074 0 15866832.868249074 15659005.895309197 0 0 0 0 14389071.190652847 18355458.599990845 0 18355458.599990845 4704302.8427200317 0 0 0 0 -33111518.685977936 73220841.553470612 0 73220841.553470612 -5769356.5357055664 0 0 0 0 19182586.379226685 62902522.625289917 0 62902522.625289917 -29484370.144332886 0 0 0 0 -11754845.618597031 67204610.093704224 0 67204610.093704224 -52616312.530248642 0 0 0 0 -200196978.10845184 150445216.47080994 0 150445216.47080994 20093636.09942627 0 0 0 0 -15585577.764831729 20529892.929066673 0 20529892.929066673 35324997.252370372 0 0 0 0 -4421885.1809573174 17343193.041996002 0 17343193.041996002 -17304812.038208008 0 0 0 0 -19359612.297197342 69713583.753097534 0 69713583.753097534 -21859360.211273193 0 0 0 0 2912914.6511148079 28956787.021249175 0 28956787.021249175 47303774.337154679 0 0 0 0 1171982.5156353819 23129780.011844132 0 23129780.011844132 54384307.232507437 0 0 0 0 -158948857.08996964 108099274.62665558 0 108099274.62665558 80406775.906288147 0 0 0 0 31003989.763725281 79974104.77141571 0 79974104.77141571 19841991.374923706 0 0 0 0 31787529.925095797 83818596.763219833 0 83818596.763219833 35072894.837982178 0 0 0 0 -21042342.382991791 109788108.11792755 0 109788108.11792755 18913875.687511683 0 0 0 0 16580172.853505135 70412516.812755585 0 70412516.812755585 13757900.341186523 0 0 0 0 1332262.8215120765 22024642.098290093 0 22024642.098290093 -8579042.1564522088 0 0 0 0 96001165.215591311 100771497.06702375 0 100771497.06702375 21827993.550018311 0 0 0 0 69951845.666996002 80851008.999725342 0 80851008.999725342 19506688.748146057 0 0 0 0 370664.25530550908 -1034735.6662105881 0 -1034735.6662105881 -2675935.5654604863 0 0 0 0 95741440.622598648 98173939.50163269 0 98173939.50163269 14673607.878936768 0 0 0 0 78966430.661460876 107867221.82565308 0 107867221.82565308 20658824.002624512 0 0 0 0 84551277.975131989 106198789.32688904 0 106198789.32688904 18270393.709320068 0 0 0 0 82083570.952831268 117119117.03359985 0 117119117.03359985 56291647.956039429 0 0 0 0 141134551.05870247 118777376.58460236 0 118777376.58460236 59399045.337493896 0 0 0 0 82121539.748042926 87188784.992627621 0 87188784.992627621 42731694.707077026 0 0 0 0 -4918759.3930959702 36726942.779769897 0 36726942.779769897 16752468.668395996 0 0 0 0 -10481241.281042099 18211259.735290527 0 18211259.735290527 1047237.4829101562 0 0 0 0 -1347398.0130135105 18297424.533822216 0 18297424.533822216 14066379.29419744 0 0 0 0 4203148.5736245383 16320042.83975184 0 16320042.83975184 -16727795.182516336 0 0 0 0 -11504379.140253067 12224400.128082275 0 12224400.128082275 15266250.832717896 0 0 0 0 -13158427.041633606 24209636.347885132 0 24209636.347885132 5487627.8171386719 0 0 0 0 -14555788.490001678 13077784.540908813 0 13077784.540908813 15036751.249298096 0 0 0 0 527513.68175467895 19946828.98721794 0 19946828.98721794 152141.09434248134 0 0 0 0 23641140.680468082 31366660.327102661 0 31366660.327102661 -1803281.7978820801 0 0 0 0 -291774.30377978692 771214.17436867207 0 771214.17436867207 2621918.0968025774 0 0 0 0 -42102364.150019333 44411962.992023468 0 44411962.992023468 38881887.279754639 0 0 0 0 3027839.1899735332 41645432.485687256 0 41645432.485687256 22446966.952697754 0 0 0 0 -17782370.985494971 27840237.702270508 0 27840237.702270508 20957643.394561768 0 0 0 0 -23455480.283259213 66179881.474227905 0 66179881.474227905 77627342.790130615 0 0 0 0 62611628.373763084 53509272.424453735 0 53509272.424453735 27272934.63659668 0 0 0 0 -1379888.6354033812 17744850.324687034 0 17744850.324687034 14824425.193699971 0 0 0 0 15513032.360629559 61620190.372386932 0 61620190.372386932 28623035.201873779 0 0 0 0 10458195.37740683 23104067.403992556 0 23104067.403992556 -24659084.948675707 0 0 0 0 6737888.8996810913 108550871.64279938 0 108550871.64279938 63501772.848175049 0 0 0 0 45461957.636659622 66172803.333656311 0 66172803.333656311 136998.27895355225 0 0 0 0 168914558.24307251 81735237.732177734 0 81735237.732177734 60192260.151489258 0 0 0 0 110205753.89010239 127150167.21660233 0 127150167.21660233 69004897.335327148 0 0 0 0 -43524250.645559311 -114866098.66436768 0 -114866098.66436768 175170020.77844238 0 0 0 0 3947081.0858076224 5747062.8479014039 0 5747062.8479014039 2178096.4952190816 0 0 0 0 2238790.0935687423 6220195.2466166615 0 6220195.2466166615 4562650.4830409139 0 0 0 0 -7011972.9986801147 200485222.18354034 0 200485222.18354034 -176607679.84716797 0 0 0 0 104280574.44603348 -40285622.965118408 0 -40285622.965118408 344096154.40856934 0 0 0 0 121825648.88495636 161258314.16481018 0 161258314.16481018 -165637840.38531494 0 0 0 0 -366682219.70342827 -21772102.379039764 0 -21772102.379039764 54225708.679138184 0 0 0 0 2210961.3313557697 2699488.3281509988 0 2699488.3281509988 -1802780.3566570282 0 0 0 0 -530637809.88891506 91789726.11782074 0 91789726.11782074 276367978.23568726 0 0 0 0 113062255.90892029 -120338842.52575684 0 -120338842.52575684 153784117.24547672 0 0 0 0 -339243311.80298615 597743821.68487549 0 597743821.68487549 184140155.48804951 0 0 0 0 -59585735.77598381 248560304.58583069 0 248560304.58583069 -44331935.930679321 0 0 0 0 2220803.6678269403 1074590.6331837028 0 1074590.6331837028 -516591.26220700145 0 0 0 0 -264769657.2741909 509126340.02914429 0 509126340.02914429 -289167868.89648438 0 0 0 0 -805633362.84749222 288240575.85562134 0 288240575.85562134 69220188.951721191 0 0 0 0 243098916.33277893 283825648.0610199 0 283825648.0610199 46609049.692474365 0 0 0 0 31408098.515965462 71671799.157241821 0 71671799.157241821 131323594.15600586 0 0 0 0 131604631.10026526 36772694.617927551 0 36772694.617927551 69372718.017669678 0 0 0 0 -25015442.245590687 68831633.514083862 0 68831633.514083862 97419644.711975098 0 0 0 0 -352499567.37896919 249977491.73466492 0 249977491.73466492 97290601.826293945 0 0 0 0 -46286905.970672965 39604702.803314209 0 39604702.803314209 64505233.135650635 0 0 0 0 -84734359.958530426 297986870.33755493 0 297986870.33755493 72300827.985580444 0 0 0 0 -173593990.14214516 102450055.46636963 0 102450055.46636963 39494885.630462646 0 0 0 0 -74134413.787936211 35604745.947555542 0 35604745.947555542 86472848.458007812 0 0 0 0 -84113136.324115276 9048915.6582183838 0 9048915.6582183838 21303862.337463379 0 0 0 0 -48111405.93125248 -16607414.966796875 0 -16607414.966796875 63195733.914871216 0 0 0 0 -18474576.286992557 -9377901.2240018845 0 -9377901.2240018845 36905548.321258545 0 0 0 0 34054108.122487068 45733529.879272461 0 45733529.879272461 40149432.02923584 0 0 0 0 -35549138.398330748 34157477.793334961 0 34157477.793334961 85190099.82598877 0 0 0 0 -36242529.656193793 19396030.23508215 0 19396030.23508215 -10963892.0753479 0 0 0 0 997003.98394135549 1363113.770845294 0 1363113.770845294 1910664.3147643805 0 0 0 0 -128246801.88502884 20212276.160583496 0 20212276.160583496 53814680.05039978 0 0 0 0 -154070574.05000973 -67595085.395172119 0 -67595085.395172119 106080215.22894287 0 0 0 0 787004.262457959 -986290.3790947888 0 -986290.3790947888 187600.2529515326 0 0 0 0 -52740120.477457285 -47774468.693013191 0 -47774468.693013191 -6050294.6078186035 0 0 0 0 126944743.86980471 188824807.01379013 0 188824807.01379013 152847592.12350464 0 0 0 0 79562846.314365149 -41720940.697250366 0 -41720940.697250366 76522205.093994141 0 0 0 0 82732.278497420455 2608333.4978656843 0 2608333.4978656843 89423.911700837314 0 0 0 0 -28806212.17612195 132551907.69802856 0 132551907.69802856 -349211297.1441679 0 0 0 0 -13586056.193900347 176543799.33322144 0 176543799.33322144 222852946.50221062 0 0 0 0 -328880590.70907956 76569325.669988632 0 76569325.669988632 -252765249.8968811 0 0 0 0 -124170331.58257675 253832322.03990173 0 253832322.03990173 -46966535.026306152 0 0 0 0 -119897001.15685749 19798895.343383789 0 19798895.343383789 239858147.71401978 0 0 0 0 30180328.156882286 240845770.572052 0 240845770.572052 156090012.47753906 0 0 0 0 -124227192.02588987 206699735.03910828 0 206699735.03910828 230751416.69480896 0 0 0 0 -189471291.96978951 165481580.65045166 0 165481580.65045166 104160861.58460999 0 0 0 0 -259061719.40927124 213841344.18112183 0 213841344.18112183 -148953478.43939209 0 0 0 0 -235436716.745574 23433560.920555115 0 23433560.920555115 -4052259.3583984375 0 0 0 0 -226665427.49732494 161961949.15989685 0 161961949.15989685 -207900851.19180298 0 0 0 0 -136076378.47479248 40770916.477798462 0 40770916.477798462 -65168926.919250488 0 0 0 0 -435572431.11991501 4934925.6109161377 0 4934925.6109161377 3951169.3262939453 0 0 0 0 -156775864.23795319 254622349.07714844 0 254622349.07714844 -88371309.87985611 0 0 0 0 -191425162.27762508 143927921.67607117 0 143927921.67607117 -94176912.299987793 0 0 0 0 -137412502.93185329 220448129.8583374 0 220448129.8583374 -122342542.81750488 0 0 0 0 -224029503.69955063 398735766.58522034 0 398735766.58522034 146633714.51953125 0 0 0 0 138618816.029688 -59578180.154575348 0 -59578180.154575348 293436628.52383423 0 0 0 0 -208565666.01819229 369677549.14331055 0 369677549.14331055 -44967829.628997803 0 0 0 0 -4586062.9370049052 -114406.09056586772 0 -114406.09056586772 5485660.1399718523 0 0 0 0 149896353.05714798 -215385620.78393555 0 -215385620.78393555 351890147.3692627 0 0 0 0 20262292.752557755 -338934082.75325012 0 -338934082.75325012 339446634.01867676 0 0 0 0 175354992.02957153 -245625706.8079834 0 -245625706.8079834 -242513895.38134766 0 0 0 0 175494980.18426514 -256830581.18920898 0 -256830581.18920898 215427195.43774414 0 0 0 0 302914389.7187748 -384849743.78683472 0 -384849743.78683472 268147811.92044067 0 0 0 0 128360854.31336975 -425801420.95288086 0 -425801420.95288086 269906287.48419189 0 0 0 0 129469492.83600616 -415684670.19342041 0 -415684670.19342041 29334766.803710938 0 0 0 0 429824476.9276886 -427166077.13845825 0 -427166077.13845825 329123508.08528137 0 0 0 0 163631303.67360878 -382977780.8397522 0 -382977780.8397522 379288895.30145264 0 0 0 0 442596453.24234581 -423216498.13354492 0 -423216498.13354492 365758841.4393158 0 0 0 0 316527369.00040531 -449190240.40974045 0 -449190240.40974045 382915660.32476807 0 0 0 0 393835969.96015167 -333018126.68710327 0 -333018126.68710327 288070176.26269531 0 0 0 0 -44421215.657295227 -2410767.1276245117 0 -2410767.1276245117 4599089.4478759766 0 0 0 0 136447400.70462036 63019328.308074951 0 63019328.308074951 -126607571.78099823 0 0 0 0 -5531422.3437723219 -657794.9680942148 0 -657794.9680942148 5126836.3268824518 0 0 0 0 -1228851.9827514812 492244.50132659078 0 492244.50132659078 1117330.4949717596 0 0 0 0 -207570695.77822781 -67716650.847518921 0 -67716650.847518921 -5910744.7260742188 0 0 0 0 260982339.70866394 -199344860.71365356 0 -199344860.71365356 314195912.76898193 0 0 0 0 323752153.84637451 -357391759.31178284 0 -357391759.31178284 279624387.26766968 0 0 0 0 -1676014.739757061 719780.87911828607 0 719780.87911828607 1946715.4535699934 0 0 0 0 -216314127.8905735 -54481232.838668823 0 -54481232.838668823 20038877.439048767 0 0 0 0 -80677823.140514374 182088947.73944092 0 182088947.73944092 360095348.59773636 0 0 0 0 -61257449.578530312 -244105067.26431656 0 -244105067.26431656 -65833827.953796387 0 0 0 0 -502027951.14419937 64566211.815437317 0 64566211.815437317 466513968.04052734 0 0 0 0 124947968.83208036 217972688.44734192 0 217972688.44734192 -82024497.735534668 0 0 0 0 -2321526.0351772681 2261136.238639839 0 2261136.238639839 112611.03584845364 0 0 0 0 196398245.14089584 -18480217.184410095 0 -18480217.184410095 -39347966.525827408 0 0 0 0 -60562644.729415894 -735715.58228302002 0 -735715.58228302002 280343974.75701904 0 0 0 0 -51110452.033800125 -22902907.746139526 0 -22902907.746139526 64957825.619926453 0 0 0 0 -15043566.184416294 98952439.353391647 0 98952439.353391647 234552273.41210938 0 0 0 0 -19285415.869274139 68137986.540924072 0 68137986.540924072 82453101.521354675 0 0 0 0 79457574.896908998 76468047.750041962 0 76468047.750041962 56509203.329620361 0 0 0 0 225514795.08122993 220344266.89505959 0 220344266.89505959 176222883.03408813 0 0 0 0 -79460009.971923828 165696748.5430069 0 165696748.5430069 172334988.26981354 0 0 0 0 -94509755.536359787 38389124.950141907 0 38389124.950141907 43688533.290100098 0 0 0 0 -2741118.2588405609 110865324.094841 0 110865324.094841 33458220.751815796 0 0 0 0 -51355455.3579216 101419446.93809509 0 101419446.93809509 283254889.17944336 0 0 0 0 130665.78879586793 4334731.5944083259 0 4334731.5944083259 150379.01621971605 0 0 0 0 77506316.919696808 140020363.75875854 0 140020363.75875854 -8679551.21104002 0 0 0 0 79625014.317432404 53260366.554916382 0 53260366.554916382 -92917368.40447998 0 0 0 0 13270.3740523085 2502410.5241284743 0 2502410.5241284743 91667.284795922693 0 0 0 0 -234112533.46521759 -16095983.563461304 0 -16095983.563461304 214882682.44097805 0 0 0 0 -230940840.45571136 44576163.195587158 0 44576163.195587158 -55905191.47567749 0 0 0 0 42903861.195144653 112328209.58844757 0 112328209.58844757 -269266022.64041138 0 0 0 0 174449848.30360985 113904929.17417145 0 113904929.17417145 -64402102.85635376 0 0 0 0 -413473405.86558342 -233762615.51218796 0 -233762615.51218796 30614514.69909668 0 0 0 0 -265040867.39373016 26299941.139923096 0 26299941.139923096 -65608463.266818047 0 0 0 0 -289681865.4560833 65311481.932807922 0 65311481.932807922 -18922383.631225586 0 0 0 0 -286584534.1733551 69111729.248886108 0 69111729.248886108 -14346947.181915283 0 0 0 0 -37369560.701526642 5039834.1323699951 0 5039834.1323699951 18887729.346435547 0 0 0 0 -139803335.56062698 -68643989.458084106 0 -68643989.458084106 242426545.17701721 0 0 0 0 -5995653.2558948938 -10213111.837256845 0 -10213111.837256845 28220547.879998684 0 0 0 0 -28941824.570632935 12168464.08795166 0 12168464.08795166 20878292.822250366 0 0 0 0 -30855608.946075439 10113005.440292358 0 10113005.440292358 19554906.154296875 0 0 0 0 -19384531.716002464 2276247.4707946777 0 2276247.4707946777 10979806.272766113 0 0 0 0 -2177734.2936729398 -3165208.5537060937 0 -3165208.5537060937 13002286.208146133 0 0 0 0 -18821454.901126862 1466700.1018981934 0 1466700.1018981934 10181289.271911621 0 0 0 0 -3031960.790761386 -2692383.0475759227 0 -2692383.0475759227 13139074.459093526 0 0 0 0 -22827380.193973541 7023951.0278167725 0 7023951.0278167725 12328965.324279785 0 0 0 0 -9937155.6383213643 8566029.1152923703 0 8566029.1152923703 14035521.918996587 0 0 0 0 -29005378.640825272 6568425.4730873108 0 6568425.4730873108 15301728.178527832 0 0 0 0 -21078961.881195068 -10643004.042930603 0 -10643004.042930603 36913759.412872314 0 0 0 0 -24849823.703796387 9346587.0006408691 0 9346587.0006408691 16214449.172363281 0 0 0 0 -956955.34229894355 -995050.90820925683 0 -995050.90820925683 1435267.8258701935 0 0 0 0 -7715343.3189820601 3931610.2079456709 0 3931610.2079456709 16757671.137617983 0 0 0 0 -25610881.310894012 2104993.9048156738 0 2104993.9048156738 19371064.864074707 0 0 0 0 -5850294.5469244868 -5295387.2787346868 0 -5295387.2787346868 29771255.215694949 0 0 0 0 -50756771.705114841 -1756814.4494476318 0 -1756814.4494476318 26973944.936645508 0 0 0 0 2841800.3756713867 100747356.07017517 0 100747356.07017517 26366212.115249634 0 0 0 0 -6389641.617863968 7603972.3430467248 0 7603972.3430467248 10156022.301221788 0 0 0 0 -36635805.779499054 -17283288.904815674 0 -17283288.904815674 35101127.158195496 0 0 0 0 -62532506.113391876 11968635.218017578 0 11968635.218017578 19920631.977432251 0 0 0 0 -13405503.667540839 18122506.124652591 0 18122506.124652591 23723073.607780963 0 0 0 0 -8152962.5907083582 -3031471.6090335613 0 -3031471.6090335613 29376975.07019189 0 0 0 0 -36389080.142799377 -870679.78951263428 0 -870679.78951263428 24359982.890945435 0 0 0 0 -36562980.988649368 1927449.5303115845 0 1927449.5303115845 20383892.986644745 0 0 0 0 -20873823.250148773 -1493592.927110672 0 -1493592.927110672 15901259.348114014 0 0 0 0 -4540293.5672461698 -4006472.8933282578 0 -4006472.8933282578 16617767.751851827 0 0 0 0 -16372623.178472519 11332941.387947083 0 11332941.387947083 14098011.771835327 0 0 0 0 -13650181.291978836 8293050.1833267212 0 8293050.1833267212 17028533.36375618 0 0 0 0 -8308100.6105122939 9508310.7820930183 0 9508310.7820930183 17888917.516155675 0 0 0 0 -55564546.159975052 5667159.0551452637 0 5667159.0551452637 10069682.576553345 0 0 0 0 -4218835.7865897734 3290945.591171734 0 3290945.591171734 12235197.120230079 0 0 0 0 -4875927.963891983 6740434.5590744019 0 6740434.5590744019 15237866.418758392 0 0 0 0 -5293779.5361804813 8349981.5418086052 0 8349981.5418086052 28794783.223526001 0 0 0 0 -12836489.294102669 330354.50043487549 0 330354.50043487549 24216984.659931183 0 0 0 0 -7699691.4465904329 4581880.8099852577 0 4581880.8099852577 16239098.559302106 0 0 0 0 -16374076.930132866 9283087.8080711365 0 9283087.8080711365 21957038.200119019 0 0 0 0 -13049307.688465357 2265732.5573406219 0 2265732.5573406219 22255792.588577271 0 0 0 0 -7699705.5216629021 6418839.4635094758 0 6418839.4635094758 17888689.657971226 0 0 0 0 -5103141.1610852722 1062586.2678668294 0 1062586.2678668294 17276378.056348585 0 0 0 0 -12200442.9034729 5151403.076965332 0 5151403.076965332 21649776.278295517 0 0 0 0 -7268087.4163318165 2475621.4236229844 0 2475621.4236229844 21907120.559610613 0 0 0 0 -1097380.6103286743 6773778.5824203491 0 6773778.5824203491 29423268.526885986 0 0 0 0 -1435451.1221478134 2033786.127802372 0 2033786.127802372 21141392.813697815 0 0 0 0 -4827722.075292415 -408226.68820441701 0 -408226.68820441701 22900711.650817461 0 0 0 0 -57124742.233636856 -80536881.588705063 0 -80536881.588705063 25370099.410721779 0 0 0 0 2181019.6381666446 766059.36236533709 0 766059.36236533709 5921835.1381898001 0 0 0 0 -15955570.682564855 116170702.7312398 0 116170702.7312398 225882287.18815994 0 0 0 0 96700868.55789566 -211927911.47288895 0 -211927911.47288895 37359503.092666626 0 0 0 0 -13195704.406306148 -2614279.1744213104 0 -2614279.1744213104 24364943.504646301 0 0 0 0 57934830.667183876 5030905.2863349915 0 5030905.2863349915 37326415.220443726 0 0 0 0 51679983.708094597 -4367172.0395679474 0 -4367172.0395679474 31251428.373077393 0 0 0 0 15084042.892771721 -28921547.205072403 0 -28921547.205072403 13468632.129736185 0 0 0 0 58957448.311870575 -9395401.058177948 0 -9395401.058177948 16549212.647472382 0 0 0 0 11651534.4786129 7834116.4380874634 0 7834116.4380874634 12750501.722946167 0 0 0 0 179299705.96735477 -170441322.37598419 0 -170441322.37598419 -131360343.25946808 0 0 0 0 1378598.3681734386 139176.80774086528 0 139176.80774086528 963126.30440409854 0 0 0 0 218528867.33434868 -4667198.2757873535 0 -4667198.2757873535 -7282997.965473175 0 0 0 0 99770228.522608757 -58041769.342670918 0 -58041769.342670918 42317696.101379395 0 0 0 0 81957728.909669876 6684082.9911079407 0 6684082.9911079407 -2372646.7290611267 0 0 0 0 823307068.14250946 -217241330.69796753 0 -217241330.69796753 63917251.392093748 0 0 0 0 -39325388.516681671 -45002165.870014191 0 -45002165.870014191 -10873014.479362488 0 0 0 0 -1574548.6569703389 498137.57718960568 0 498137.57718960568 3492261.4723699279 0 0 0 0 161620033.85366106 -157486303.90410662 0 -157486303.90410662 65036754.504768372 0 0 0 0 -232427826.23838043 795185245.68011475 0 795185245.68011475 59216728.146575928 0 0 0 0 -172654979.61132312 -10027249.405631542 0 -10027249.405631542 61141093.804679871 0 0 0 0 136153421.48792648 -46217689.957622528 0 -46217689.957622528 -269244788.01543427 0 0 0 0 -116240639.72034836 156315206.54911232 0 156315206.54911232 10297539.848518372 0 0 0 0 53070036.4227314 117504652.9976368 0 117504652.9976368 15235445.6410923 0 0 0 0 -4353400.2206144333 -16503087.982297897 0 -16503087.982297897 61220805.810537815 0 0 0 0 16581431.107142448 3934893.9407958984 0 3934893.9407958984 17349191.308979034 0 0 0 0 -56602953.020957947 -14942927.383087158 0 -14942927.383087158 113171621.86891937 0 0 0 0 -2398773.5583276749 8319151.4027938843 0 8319151.4027938843 24262047.076736122 0 0 0 0 -5105137.3219425697 523651.81675688736 0 523651.81675688736 18490778.388612874 0 0 0 0 83526937.044356346 -111744468.13689232 0 -111744468.13689232 -76560734.952945709 0 0 0 0 -9488913.0970457792 -185414.78042030334 0 -185414.78042030334 19082183.418647766 0 0 0 0 -3512458.3101561069 4296220.2732853889 0 4296220.2732853889 15010464.472076416 0 0 0 0 -3305244.0855185986 5998418.3113174438 0 5998418.3113174438 19589654.142323494 0 0 0 0 -6223361.8390416419 2411798.2559851799 0 2411798.2559851799 19348729.771727987 0 0 0 0 -6583082.6942326063 1983234.5008451473 0 1983234.5008451473 14652111.453422271 0 0 0 0 1336128.5901962519 8674146.0862345695 0 8674146.0862345695 29515524.146820068 0 0 0 0 518903.04657387733 3148443.9888839722 0 3148443.9888839722 16979208.871276855 0 0 0 0 -947290.21819490567 -830479.75568371639 0 -830479.75568371639 20117367.058736313 0 0 0 0 2757505.9088106155 27253490.676311493 0 27253490.676311493 11640658.196813583 0 0 0 0 -729542.02278481075 6877075.1620005835 0 6877075.1620005835 25961467.292226549 0 0 0 0 5904525.614495784 -53291302.755920768 0 -53291302.755920768 43513510.388893127 0 0 0 0 -13245142.610416412 -493025.92720413208 0 -493025.92720413208 61194864.824157715 0 0 0 0 -14971071.677102625 5940947.1330804825 0 5940947.1330804825 39862135.350540161 0 0 0 0 -21597491.4781003 7252430.1187095642 0 7252430.1187095642 40398563.2579422 0 0 0 0 -8101916.08319664 -10200595.563276291 0 -10200595.563276291 71870894.237531662 0 0 0 0 -8529485.5122013595 355155.15835620835 0 355155.15835620835 17930893.968039092 0 0 0 0 -13410472.505393028 -11603606.812872887 0 -11603606.812872887 76538698.314311981 0 0 0 0 -4864264.868437767 -34075675.700597763 0 -34075675.700597763 86401120.209537506 0 0 0 0 -5702443.3179577412 -5375093.6148723811 0 -5375093.6148723811 25527428.657399617 0 0 0 0 16306627.84016037 -40655608.901174545 0 -40655608.901174545 103791845.38934326 0 0 0 0 -3000667.5334439194 3739058.0859221905 0 3739058.0859221905 3649127.0191347674 0 0 0 0 8555627.468547821 29395797.031215668 0 29395797.031215668 3864635.0154762268 0 0 0 0 2103293.8110961914 29899075.112052917 0 29899075.112052917 26317349.651695251 0 0 0 0 -27351971.238840103 40927210.734800339 0 40927210.734800339 83840951.632202148 0 0 0 0 -8287725.1421823502 8290931.0151996613 0 8290931.0151996613 -4274108.0269470215 0 0 0 0 -8317871.1690745354 5927742.6043777466 0 5927742.6043777466 44899509.714992523 0 0 0 0 -4073737.427362442 -19537278.690036774 0 -19537278.690036774 20521931.79404068 0 0 0 0 -12043628.210021973 -8550502.9055919647 0 -8550502.9055919647 72915982.783630371 0 0 0 0 -3618782.7754809 -6527981.3416594174 0 -6527981.3416594174 22914375.706434991 0 0 0 0 -11635886.65252018 -24750223.331212044 0 -24750223.331212044 29145296.445159912 0 0 0 0 -10197802.791185856 -19389112.821204185 0 -19389112.821204185 31312891.94298172 0 0 0 0 -9563462.1750888824 -25883434.404373169 0 -25883434.404373169 17114856.975518227 0 0 0 0 -17269600.641267776 -1388891.0198326111 0 -1388891.0198326111 27118728.964126587 0 0 0 0 -14637431.812628388 16371892.905749321 0 16371892.905749321 17442140.82800293 0 0 0 0 11198294.567388535 2200128.894153595 0 2200128.894153595 23429804.021095276 0 0 0 0 -1929548.9521098137 6275589.4154891968 0 6275589.4154891968 33945709.674133301 0 0 0 0 -4557834.1161985397 1206032.3632736206 0 1206032.3632736206 26753707.745508194 0 0 0 0 -20992690.957107544 -39932589.014266968 0 -39932589.014266968 2927075.3867797852 0 0 0 0 -1609300.4574584598 -6463770.8943039458 0 -6463770.8943039458 16540049.730585247 0 0 0 0 -37056794.72844696 -22433890.926048279 0 -22433890.926048279 21218503.864326477 0 0 0 0 -542666.19137741113 335873.17988464702 0 335873.17988464702 458657.84166125208 0 0 0 0 -8344791.3009271622 -28148026.222509384 0 -28148026.222509384 -36463561.52721405 0 0 0 0 -1397682.0301659591 1080545.5582434442 0 1080545.5582434442 4482358.002742447 0 0 0 0 13747934.024982452 -2721262.3175354004 0 -2721262.3175354004 42523706.430175781 0 0 0 0 -9530221.222291328 -2836357.4908114611 0 -2836357.4908114611 28297530.359317228 0 0 0 0 7106807.9764677286 -10503514.703546524 0 -10503514.703546524 5147122.1361694336 0 0 0 0 -5552945.5455834866 -13733529.744370461 0 -13733529.744370461 7281904.7526702881 0 0 0 0 12133041.818225861 22689324.617321014 0 22689324.617321014 4553639.1991271973 0 0 0 0 20729986.487348557 -33203995.425769806 0 -33203995.425769806 42969205.68223381 0 0 0 0 353876.34262806899 -103983.46681708749 0 -103983.46681708749 170065.46357868612 0 0 0 0 13211491.073860168 9026724.748878479 0 9026724.748878479 -6058979.3389282227 0 0 0 0 -21966227.775546908 4613898.8857650757 0 4613898.8857650757 15715182.735733032 0 0 0 0 -16936565.757339478 -7345812.5386505127 0 -7345812.5386505127 34553781.088401794 0 0 0 0 13316360.954358578 -10802459.425445557 0 -10802459.425445557 6868023.8074493408 0 0 0 0 25665484.644710779 44546114.592201233 0 44546114.592201233 -9088714.7757759094 0 0 0 0 -283144.28933069878 -1824501.374140542 0 -1824501.374140542 1943161.42830199 0 0 0 0 -985051.97522632813 -772250.65437089652 0 -772250.65437089652 8967782.3890388533 0 0 0 0 57894356.487451077 -15142235.936195374 0 -15142235.936195374 29643110.679786682 0 0 0 0 19821246.466428757 67257787.382545471 0 67257787.382545471 -32321456.798381805 0 0 0 0 53874065.382445544 22269711.62215662 0 22269711.62215662 -77658031.614776611 0 0 0 0 -42656266.561397791 -17832704.465549469 0 -17832704.465549469 21276496.031440735 0 0 0 0 -37803124.215921879 -7924246.0553359985 0 -7924246.0553359985 46208584.388679504 0 0 0 0 -52794331.680688977 -16821703.63297081 0 -16821703.63297081 85577277.779998779 0 0 0 0 -633456.85388122522 1394333.9744231328 0 1394333.9744231328 924978.49506572634 0 0 0 0 -56108320.378944159 -25550254.166957855 0 -25550254.166957855 65139050.616394043 0 0 0 0 -65394566.967563629 -107628822.17097092 0 -107628822.17097092 764869654.9462204 0 0 0 0 -33280722.179918051 2252948.1486549377 0 2252948.1486549377 68199480.545143127 0 0 0 0 259384535.57105756 -342244618.44213104 0 -342244618.44213104 -215842014.39931488 0 0 0 0 -125003465.80570006 151740455.03355408 0 151740455.03355408 -87578053.152458191 0 0 0 0 -4710106.9883814557 16379380.646821497 0 16379380.646821497 14715258.724221721 0 0 0 0 31553140.40998745 136278897.1232605 0 136278897.1232605 -253292902.52663898 0 0 0 0 107952489.84428358 -71419870.014282227 0 -71419870.014282227 -29783835.913070679 0 0 0 0 145321780.59684134 24939340.299186707 0 24939340.299186707 -155583360.61486816 0 0 0 0 -643186.56904375553 23084992.118974686 0 23084992.118974686 4042782.4244766235 0 0 0 0 -6675168.7707800865 6045405.5223790444 0 6045405.5223790444 32451387.052607417 0 0 0 0 -10274778.58234024 -3140879.7495307922 0 -3140879.7495307922 -66082870.800430298 0 0 0 0 -69964561.225788593 91493355.154075623 0 91493355.154075623 -49450523.864490509 0 0 0 0 -5756138.1775202714 2282034.1620143708 0 2282034.1620143708 9494499.2343657166 0 0 0 0 -12233584.764875412 1447903.799118042 0 1447903.799118042 20306399.589828491 0 0 0 0 -10167749.169277225 15855558.868385866 0 15855558.868385866 34651582.691659734 0 0 0 0 -76946626.551634312 27161623.739902496 0 27161623.739902496 7941840.7431030273 0 0 0 0 -6450648.5534477234 5850424.3798675537 0 5850424.3798675537 12367025.742721558 0 0 0 0 -14944141.504671097 5677707.3574371338 0 5677707.3574371338 24582456.621047974 0 0 0 0 -8495312.0207583345 6752665.3824810609 0 6752665.3824810609 19605289.853737041 0 0 0 0 -15552031.345448285 2615254.6401519775 0 2615254.6401519775 20812968.859161377 0 0 0 0 -4572635.4453628026 1773838.2681482211 0 1773838.2681482211 26007627.821053639 0 0 0 0 -9357988.4531507492 1583071.8736877441 0 1583071.8736877441 14659425.41166687 0 0 0 0 1990740.901720047 13112693.729827881 0 13112693.729827881 6573079.0416259766 0 0 0 0 -1391608.9313423375 5148785.0315558277 0 5148785.0315558277 15385945.900861535 0 0 0 0 -1171931.1801301935 698671.44932326116 0 698671.44932326116 1391745.0217960179 0 0 0 0 -3592870.98836945 -1875678.9321882688 0 -1875678.9321882688 18814806.971149951 0 0 0 0 -7219190.1390895844 6073784.4457473755 0 6073784.4457473755 19839584.514274597 0 0 0 0 -12856555.291095734 4151838.6679534912 0 4151838.6679534912 30806290.659832001 0 0 0 0 4015019.2808566093 14535606.106513977 0 14535606.106513977 -5823398.7715034485 0 0 0 0 -22100952.112891197 4747796.9072380066 0 4747796.9072380066 39834519.87713623 0 0 0 0 -734997.27687621117 -10199745.010887146 0 -10199745.010887146 45822209.338439941 0 0 0 0 -11173969.60726738 -8039104.1563491821 0 -8039104.1563491821 31183837.98651123 0 0 0 0 -1301399.5980905348 1699355.2729742844 0 1699355.2729742844 1577619.2512674779 0 0 0 0 -4027183.2455530711 2055454.620001344 0 2055454.620001344 11734816.575609989 0 0 0 0 -4804436.7479894254 7126744.4704374913 0 7126744.4704374913 5953836.3938171044 0 0 0 0 -10976404.759172082 3995562.0123825073 0 3995562.0123825073 23324636.122802734 0 0 0 0 -4476626.8672083616 30885951.073356628 0 30885951.073356628 27388121.60574007 0 0 0 0 5188250.5743058361 28674241.619873047 0 28674241.619873047 75817654.439525604 0 0 0 0 7965.75880974334 11073925.325195312 0 11073925.325195312 44889278.323898315 0 0 0 0 -928624.06099316524 -1692959.078348279 0 -1692959.078348279 6972133.1260165647 0 0 0 0 9473263.0404746234 5345661.047252655 0 5345661.047252655 29858009.733001709 0 0 0 0 824369.7252366906 3023195.1512184963 0 3023195.1512184963 4945272.580321122 0 0 0 0 2887162.1609025002 6975006.425994873 0 6975006.425994873 25782298.89541626 0 0 0 0 16963.717521152237 -1834049.0663098097 0 -1834049.0663098097 8073635.5307260081 0 0 0 0 279258.75578895211 2011022.767036438 0 2011022.767036438 19653839.931091309 0 0 0 0 8587748.0182036627 -2644639.7124443054 0 -2644639.7124443054 28971683.425354004 0 0 0 0 -239938.55142575654 12052412.375915527 0 12052412.375915527 56143151.792236328 0 0 0 0 6399411.2147718631 25238978.372779846 0 25238978.372779846 96642210.428146362 0 0 0 0 24439684.67250732 40993980.008865356 0 40993980.008865356 60732006.221981049 0 0 0 0 20194487.474123742 11682228.582213402 0 11682228.582213402 21018917.262512207 0 0 0 0 -314954.21096674236 102087.36995442212 0 102087.36995442212 2559996.0597987622 0 0 0 0 43928274.084317595 42910518.405769348 0 42910518.405769348 80738547.359680176 0 0 0 0 18558336.880108334 64042241.526062012 0 64042241.526062012 133026210.38294983 0 0 0 0 2996839.2345001539 47920360.785055161 0 47920360.785055161 140900628.55717468 0 0 0 0 43540.445060185382 14151843.573608398 0 14151843.573608398 80009623.271238327 0 0 0 0 -40786.326224020697 18916691.98651886 0 18916691.98651886 210580138.48033142 0 0 0 0 6920732.1696615629 50288762.819152832 0 50288762.819152832 140657267.8860321 0 0 0 0 -6824.6533706364771 921194.88655853271 0 921194.88655853271 250318190.62734985 0 0 0 0 -23440964.516573071 29408698.615455627 0 29408698.615455627 215985156.81438446 0 0 0 0 -24573905.522622071 25474957.831391335 0 25474957.831391335 282189826.60824585 0 0 0 0 -11400968.643423036 -56137979.906585693 0 -56137979.906585693 380851153.56892395 0 0 0 0 -34077691.540996641 55511264.590606689 0 55511264.590606689 435384999.86431885 0 0 0 0 -40576955.627151944 -41198050.994735718 0 -41198050.994735718 322579658.19882202 0 0 0 0 -34094837.507427216 34212588.108856201 0 34212588.108856201 304807914.77941513 0 0 0 0 -6559543.8955276683 94519674.453399658 0 94519674.453399658 292092544.42915344 0 0 0 0 -31661412.75448899 24757616.091747284 0 24757616.091747284 335674782.91738892 0 0 0 0 -3562001.4616586417 60342208.788421631 0 60342208.788421631 245831967.83512878 0 0 0 0 -3411416.549477376 65891466.320983887 0 65891466.320983887 211617069.17523193 0 0 0 0 1684323.4781702328 43383658.781982422 0 43383658.781982422 192906294.99664307 0 0 0 0 29001089.098827578 90895349.767959595 0 90895349.767959595 173713248.25637817 0 0 0 0 13269610.427150022 52769570.659263611 0 52769570.659263611 155658902.94445801 0 0 0 0 46821805.553517908 93290591.033721924 0 93290591.033721924 146125815.62716675 0 0 0 0 52199287.262383759 38458147.275619507 0 38458147.275619507 63352102.780273438 0 0 0 0 46074431.934984833 68265337.968200684 0 68265337.968200684 143993333.43814087 0 0 0 0 45281545.257097602 31487683.333480835 0 31487683.333480835 83796297.898284912 0 0 0 0 15250944.253852963 6323553.6520843506 0 6323553.6520843506 64168024.968055725 0 0 0 0 94150343.025398433 53464481.92590332 0 53464481.92590332 47618708.109985352 0 0 0 0 154277017.72280464 149628628.12898254 0 149628628.12898254 127151257.30270386 0 0 0 0 29185626.015026342 127310175.95718384 0 127310175.95718384 315808019.29013062 0 0 0 0 25583574.333798926 69777777.67764473 0 69777777.67764473 196580609.38241577 0 0 0 0 31829479.873607382 130707212.14860535 0 130707212.14860535 233838295.63240051 0 0 0 0 -4425030.6284781126 73251569.217280388 0 73251569.217280388 338435289.64526367 0 0 0 0 -5132743.6228430718 66832242.13130188 0 66832242.13130188 333782827.03300476 0 0 0 0 -18983476.011468165 56879489.036956787 0 56879489.036956787 507372490.16656494 0 0 0 0 -25071673.539213359 148936497.01269531 0 148936497.01269531 324143936.13869476 0 0 0 0 8242074.7210599035 245309879.26239777 0 245309879.26239777 601237600.40209961 0 0 0 0 -141272752.65607244 136143406.14667511 0 136143406.14667511 565390305.01724243 0 0 0 0 -102082201.90916091 78509610.267044067 0 78509610.267044067 562385332.05664062 0 0 0 0 -39679634.630187705 -121924409.32563782 0 -121924409.32563782 696249293.1519165 0 0 0 0 477407371.55480963 730194619.44248962 0 730194619.44248962 1239997643.4870605 0 0 0 0 -90606510.361800194 -298934021.03909302 0 -298934021.03909302 1573928629.8442307 0 0 0 0 -208600411.30022812 203956016.26899338 0 203956016.26899338 1016730524.9252319 0 0 0 0 505616400.11670232 -784562696.31037903 0 -784562696.31037903 966835367.67037964 0 0 0 0 -37889078.271481052 461108730.91448975 0 461108730.91448975 1438335575.0673294 0 0 0 0 360080641.86080784 485807199.06585693 0 485807199.06585693 386569950.93405151 0 0 0 0 291653101.0344888 303199117.9641571 0 303199117.9641571 192554286.59896851 0 0 0 0 176287823.54564261 157413677.30917358 0 157413677.30917358 107918421.49938965 0 0 0 0 311188462.80275095 183694564.07901955 0 183694564.07901955 84101193.032592773 0 0 0 0 543900886.10449791 -84789468.403945923 0 -84789468.403945923 342252747.91619873 0 0 0 0 807097314.42294931 -625245284.81130981 0 -625245284.81130981 888551661.36763 0 0 0 0 -2479121.4514172701 213156.64831986278 0 213156.64831986278 4487174.9246446639 0 0 0 0 -431447911.44441223 -185391108.74902344 0 -185391108.74902344 -81286697.3515625 0 0 0 0 227412908.67327309 15007725.448852539 0 15007725.448852539 -195620273.51257324 0 0 0 0 -171281000.94635701 12405815.106193542 0 12405815.106193542 47588839.788223267 0 0 0 0 -98327.840721383225 5003294.9399254732 0 5003294.9399254732 8602953.1371700466 0 0 0 0 -323555.43595507753 521335.01790062338 0 521335.01790062338 403258.65415618941 0 0 0 0 -94227452.601395488 -226011195.96362305 0 -226011195.96362305 -196930568.62304688 0 0 0 0 -396526403.26335621 188673633.68435669 0 188673633.68435669 -11617305.203872681 0 0 0 0 82774207.633344114 83769134.359283447 0 83769134.359283447 107019766.72555542 0 0 0 0 42441563.01851511 -11358024.891723633 0 -11358024.891723633 3191730.1682739258 0 0 0 0 282088568.42902684 153904365.78509521 0 153904365.78509521 -141804342.50524902 0 0 0 0 111327797.0039078 -17868023.236663818 0 -17868023.236663818 -32081880.745605469 0 0 0 0 -76241972.282013178 -50362840.536346436 0 -50362840.536346436 37510368.83782959 0 0 0 0 59868136.560049415 3904686.7007141113 0 3904686.7007141113 32074036.96131897 0 0 0 0 122659162.86749592 90519579.604248047 0 90519579.604248047 64488610.067260742 0 0 0 0 22544871.496070147 -2077351.1586761475 0 -2077351.1586761475 30673375.711212158 0 0 0 0 48575650.059088111 12024404.985031128 0 12024404.985031128 32770063.460876465 0 0 0 0 -34352993.815093756 -24826365.781524658 0 -24826365.781524658 40163970.054988861 0 0 0 0 -29355763.604261756 -1083099.4693393707 0 -1083099.4693393707 5000153.3902893066 0 0 0 0 -101789915.04383749 36309378.905628204 0 36309378.905628204 25468676.970947266 0 0 0 0 -44061803.430399299 -10214093.092697144 0 -10214093.092697144 26525116.207794189 0 0 0 0 -19995538.037384748 -11386868.752593994 0 -11386868.752593994 21075588.903793335 0 0 0 0 -20837513.004695833 -13771574.597862244 0 -13771574.597862244 14765145.812652588 0 0 0 0 -4136631.6690597534 22021111.980354309 0 22021111.980354309 30765050.713729858 0 0 0 0 23415976.623435974 62861137.504348755 0 62861137.504348755 84480255.181488037 0 0 0 0 -7477302.6397302859 -4372783.2509037852 0 -4372783.2509037852 9961171.2312112823 0 0 0 0 -9711201.0313090086 -25194446.703552246 0 -25194446.703552246 1547369.8408355713 0 0 0 0 -17737692.980057031 -13238183.008972168 0 -13238183.008972168 11145409.50982666 0 0 0 0 -10552637.132290512 -26473762.112693787 0 -26473762.112693787 30242703.804962158 0 0 0 0 21754008.231687635 -9498173.1753540039 0 -9498173.1753540039 11279489.057403564 0 0 0 0 3837240.4591583982 1882387.2363586426 0 1882387.2363586426 62814308.747924805 0 0 0 0 16355095.173962153 -20053657.841461182 0 -20053657.841461182 11626512.640563965 0 0 0 0 3510380.7222481221 43711385.52911377 0 43711385.52911377 88310416.586929321 0 0 0 0 -2712490.7962743542 2415728.9071961641 0 2415728.9071961641 10589364.272400498 0 0 0 0 16024174.513263389 7207898.8096389771 0 7207898.8096389771 -14631624.104858398 0 0 0 0 5656062.2424844503 6281524.5940246582 0 6281524.5940246582 31951760.004272461 0 0 0 0 978298.94613470742 -1349139.3092875853 0 -1349139.3092875853 11701996.979989201 0 0 0 0 3398911.6829577684 619948.41473388672 0 619948.41473388672 7130663.3872375488 0 0 0 0 3950843.9438750744 1088789.3683013916 0 1088789.3683013916 11406144.918258667 0 0 0 0 6805344.2772659482 1584077.6458587497 0 1584077.6458587497 6988226.5049883574 0 0 0 0 -4876834.9200112224 5980025.5662155151 0 5980025.5662155151 37155724.47857666 0 0 0 0 -2380502.0797129124 1540702.5192108154 0 1540702.5192108154 37033339.220733643 0 0 0 0 -142955.88860822073 2030823.7014644146 0 2030823.7014644146 7663736.6279498301 0 0 0 0 2952855.3743979931 3079529.1475982666 0 3079529.1475982666 15091824.93296814 0 0 0 0 7516447.1665464956 -4271591.8767007664 0 -4271591.8767007664 8677612.9114636146 0 0 0 0 17954336.502388 -58423163.396392822 0 -58423163.396392822 -536512373.91975403 0 0 0 0 -45240563.858705521 -313945906.5599823 0 -313945906.5599823 -435888761.46918869 0 0 0 0 11308718.658942182 -1950369.3900728375 0 -1950369.3900728375 5558878.9418521076 0 0 0 0 154505341.37564087 -291853698.93214417 0 -291853698.93214417 -860686304.40955353 0 0 0 0 -105375982.79858398 -90210330.989929199 0 -90210330.989929199 -50576314.860412598 0 0 0 0 4493351.7387244701 2370957.8470458984 0 2370957.8470458984 3019733.2130584717 0 0 0 0 -3569440.0501582623 4345547.1282945499 0 4345547.1282945499 8000802.825250648 0 0 0 0 14985061.341808319 16005200.311019897 0 16005200.311019897 21308233.061203003 0 0 0 0 8327941.5329250256 8156590.4841190055 0 8156590.4841190055 9827869.9051159248 0 0 0 0 7408103.7889276147 1479916.7271881104 0 1479916.7271881104 2663149.6681671143 0 0 0 0 -1945322.4289112911 -2192442.9848742783 0 -2192442.9848742783 7213471.6522645727 0 0 0 0 16707621.796452878 5586729.8731603399 0 5586729.8731603399 518091.93633379787 0 0 0 0 11391473.7697258 -124189111.77423096 0 -124189111.77423096 11172821.045471191 0 0 0 0 3506425.6886539459 367041.54415893555 0 367041.54415893555 -15995977.30770874 0 0 0 0 104506776.5198288 -95416437.252037048 0 -95416437.252037048 -294048189.81777954 0 0 0 0 16204370.796365222 -1969266.47063189 0 -1969266.47063189 4038865.9313919023 0 0 0 0 2139696.1338374 1771272.024157308 0 1771272.024157308 -1526129.3525581434 0 0 0 0 -158979257.59681702 254519810.86376953 0 254519810.86376953 -263807569.00100708 0 0 0 0 133034837.18923187 218186103.22019958 0 218186103.22019958 37826518.496826172 0 0 0 0 15158259.416998228 2971881.6490771919 0 2971881.6490771919 3993099.5550836697 0 0 0 0 8599804.114076376 1997845.097076416 0 1997845.097076416 -5018646.8121795654 0 0 0 0 132955309.91142654 177427898.98994446 0 177427898.98994446 -45905714.250854492 0 0 0 0 14324524.05099131 3199709.2491142899 0 3199709.2491142899 4415754.3018837273 0 0 0 0 191380299.81900024 192036228.43261719 0 192036228.43261719 -42254183.614501953 0 0 0 0 6155088.0159225464 90583350.781097412 0 90583350.781097412 60419778.661422729 0 0 0 0 280427682.30839157 -194321352.61932373 0 -194321352.61932373 -513306836.18408966 0 0 0 0 230575995.88936615 -91472712.408416748 0 -91472712.408416748 -893165199.82225037 0 0 0 0 -70775552.421917915 52101570.124156952 0 52101570.124156952 -631535893.68035889 0 0 0 0 171644116.97484207 140126718.58380127 0 140126718.58380127 -456835997.36634827 0 0 0 0 11010118.732078552 56550672.648742676 0 56550672.648742676 -830339628.54443359 0 0 0 0 31717049.07660675 -86433162.689239502 0 -86433162.689239502 -658188737.94442749 0 0 0 0 -36968082.20565033 -40009590.610900879 0 -40009590.610900879 -1157488513.2696228 0 0 0 0 -8452783.697160244 229226279.31674957 0 229226279.31674957 -649565332.18469238 0 0 0 0 -19545991.641799927 98675236.035995483 0 98675236.035995483 -404964003.92959595 0 0 0 0 178057115.83688736 168647360.0171814 0 168647360.0171814 -832352236.00463867 0 0 0 0 18067120.976022311 -975668.46874681115 0 -975668.46874681115 -433446.5746649988 0 0 0 0 163369696.65041351 174516580.84616089 0 174516580.84616089 -682451601.55397415 0 0 0 0 61442507.41355896 285063899.52142334 0 285063899.52142334 -283982294.94641113 0 0 0 0 -58785212.614154816 9799587.5842132568 0 9799587.5842132568 -582188717.99758911 0 0 0 0 29190395.783558846 177815741.25931549 0 177815741.25931549 -681617498.25494385 0 0 0 0 16021096.419243082 3856172.4801136702 0 3856172.4801136702 273553.55860679224 0 0 0 0 97416146.5632267 6392601.5699462891 0 6392601.5699462891 -26471549.021377563 0 0 0 0 169716790.05207062 251869158.631073 0 251869158.631073 -484540760.85372925 0 0 0 0 181111794.98488617 371213125.94216919 0 371213125.94216919 -211979103.18069458 0 0 0 0 -45241545.386440277 359249705.41796875 0 359249705.41796875 -199821705.8910675 0 0 0 0 19636582.450934123 1664885.6622819528 0 1664885.6622819528 1053698.6024029925 0 0 0 0 7421786.8125886917 -10341516.034423828 0 -10341516.034423828 -10410866.06577301 0 0 0 0 30063734.294427872 -28519579.99961853 0 -28519579.99961853 4140885.8869810104 0 0 0 0 73254198.054187775 -6751764.4799880981 0 -6751764.4799880981 -9325297.7241210938 0 0 0 0 40853873.561327934 27517135.86579895 0 27517135.86579895 16258607.189575195 0 0 0 0 43194584.096536636 -55337818.414489746 0 -55337818.414489746 7376248.028137207 0 0 0 0 -27230389.991882324 -7174505.2864990234 0 -7174505.2864990234 5207549.1887817383 0 0 0 0 7971640.1743335724 -11812198.300506592 0 -11812198.300506592 10315446.117034912 0 0 0 0 23733520.189582825 52985484.797393799 0 52985484.797393799 5119694.1845550537 0 0 0 0 7258074.132730484 6165734.535949707 0 6165734.535949707 -19303871.989471436 0 0 0 0 8375187.6447235625 7606200.0238578618 0 7606200.0238578618 33551.619678020477 0 0 0 0 -16377610.050056458 14676808.096435547 0 14676808.096435547 829409.77786254883 0 0 0 0 -145670.65910699312 -442460.60508693755 0 -442460.60508693755 591513.99075943977 0 0 0 0 5391168.0642642975 -67142641.935534 0 -67142641.935534 -159422732.33547974 0 0 0 0 71741662.575462341 188064078.34791565 0 188064078.34791565 -83593954.839092255 0 0 0 0 -53221579.098398209 100248960.61744881 0 100248960.61744881 359713117.37084961 0 0 0 0 31355484.393550873 276100796.50885773 0 276100796.50885773 189056999.94148254 0 0 0 0 -3036948.0055525731 255203.07287263125 0 255203.07287263125 2893013.6956261992 0 0 0 0 -7788782.7864837646 63298083.554397583 0 63298083.554397583 177697898.53501892 0 0 0 0 -61484117.865814209 138930982.29042053 0 138930982.29042053 233484812.97209167 0 0 0 0 104411559.91400528 106648563.73435211 0 106648563.73435211 90905639.161315918 0 0 0 0 -2467084.4602466337 1295491.0850590318 0 1295491.0850590318 4950491.9810030311 0 0 0 0 -5657868.6822433472 1823043.2610015869 0 1823043.2610015869 7030072.2572937012 0 0 0 0 30256168.150337219 157195799.08905029 0 157195799.08905029 164214506.6663208 0 0 0 0 244679810.94284821 123122621.79567719 0 123122621.79567719 82435396.286499023 0 0 0 0 39835265.64116478 162791436.86499405 0 162791436.86499405 336334576.31756592 0 0 0 0 1738130.7953643799 39286034.68196106 0 39286034.68196106 77360460.595550537 0 0 0 0 12762600.337245941 -23468028.150741577 0 -23468028.150741577 19025042.316268921 0 0 0 0 -9371376.9566680789 -1703208.2057707608 0 -1703208.2057707608 9423684.6506773829 0 0 0 0 37523640.055034637 175614411.58030701 0 175614411.58030701 231919847.94613647 0 0 0 0 -25796907.359024048 -20030696.013931274 0 -20030696.013931274 206160824.92725372 0 0 0 0 -3950824.6490224609 -3292818.2542422581 0 -3292818.2542422581 4065252.5363493264 0 0 0 0 -8129691.4210643768 4897856.2252578735 0 4897856.2252578735 7660551.8239440918 0 0 0 0 -31093380.594471455 2347875.6803207397 0 2347875.6803207397 21936353.563018799 0 0 0 0 -50895915.356943846 4064523.2916564941 0 4064523.2916564941 27886166.861831665 0 0 0 0 -4937402.4266540371 3035837.9615308903 0 3035837.9615308903 14918227.086072877 0 0 0 0 -4708106.4882717133 2448021.1924285889 0 2448021.1924285889 6322339.8713302612 0 0 0 0 -677304.26014709473 3053926.4640350342 0 3053926.4640350342 6333836.2475128174 0 0 0 0 -4663497.6790542603 1776631.7794189453 0 1776631.7794189453 9516441.6219482422 0 0 0 0 435814206.1542244 -48191635.800575256 0 -48191635.800575256 1264216241.3329315 0 0 0 0 -2413709.6256771088 3284487.8146438599 0 3284487.8146438599 10073670.143005371 0 0 0 0 -668893102.76750565 -977737944.37164307 0 -977737944.37164307 532604932.19804382 0 0 0 0 -10333441.645029068 3399318.7434310913 0 3399318.7434310913 9527705.4763031006 0 0 0 0 -7372503.5194726214 3802163.885800384 0 3802163.885800384 5820923.6193110719 0 0 0 0 85562551.043148041 118865551.70239258 0 118865551.70239258 309731017.19478607 0 0 0 0 -62697168.718288422 49453525.703216553 0 49453525.703216553 1087288490.34729 0 0 0 0 -29330935.911722183 -89567447.781707764 0 -89567447.781707764 395378925.64431763 0 0 0 0 -579002723.42377329 -1084513903.7782764 0 -1084513903.7782764 -42413820.257873535 0 0 0 0 -705204594.97151184 -151974071.1360321 0 -151974071.1360321 684506686.84515381 0 0 0 0 -1730542.0363201052 2345377.5982328579 0 2345377.5982328579 90820.248280420899 0 0 0 0 263736913.51563263 -941420009.67523193 0 -941420009.67523193 -1116765958.3232727 0 0 0 0 366409619.84457016 -189967556.29299927 0 -189967556.29299927 10183334.493562698 0 0 0 0 429069411.7936101 337374248.08311272 0 337374248.08311272 1434791247.8851929 0 0 0 0 217064568.27925682 500074937.30755234 0 500074937.30755234 1129887906.7039185 0 0 0 0 354643292.07728577 -406972281.69085693 0 -406972281.69085693 457862744.80593872 0 0 0 0 -145094062.31966686 -554957380.64272308 0 -554957380.64272308 600024407.17523193 0 0 0 0 426817903.02554893 764325841.4201355 0 764325841.4201355 959258939.20330811 0 0 0 0 -222118758.09240955 479113101.69126701 0 479113101.69126701 1243022110.2319031 0 0 0 0 -128210244.51224899 320332788.98535156 0 320332788.98535156 1185116136.1882477 0 0 0 0 209134098.38214979 323888897.31996155 0 323888897.31996155 827264402.57598877 0 0 0 0 223993635.05636406 -432221699.35299683 0 -432221699.35299683 620236833.29162598 0 0 0 0 58034503.48029232 -6940203.8175430298 0 -6940203.8175430298 -37097642.667907715 0 0 0 0 -747670951.29646587 57367945.362075806 0 57367945.362075806 343686383.86108398 0 0 0 0 -394846142.15589714 -198526196.88720703 0 -198526196.88720703 312096636.20453453 0 0 0 0 -160988381.25865364 -160567091.50255585 0 -160567091.50255585 -492754822.22546387 0 0 0 0 -6806005.0878141532 6315447.2253922224 0 6315447.2253922224 1402032.3516386151 0 0 0 0 80886068.691638947 -23750892.624267578 0 -23750892.624267578 609175984.32321167 0 0 0 0 -340919371.01887608 -119055400.94981384 0 -119055400.94981384 -27806925.416824341 0 0 0 0 19343877.165985107 -36795085.341957092 0 -36795085.341957092 928663002.81816101 0 0 0 0 26105830.943500519 101254419.97756958 0 101254419.97756958 739939112.14141846 0 0 0 0 -110122845.16337395 -92243277.137168884 0 -92243277.137168884 1526050754.8530731 0 0 0 0 -4283648.1588359978 5377807.4746070728 0 5377807.4746070728 4860357.0327660292 0 0 0 0 -294836.24203419685 5558801.7914638519 0 5558801.7914638519 10670618.345489502 0 0 0 0 -989722.49267578125 3716692.7989807129 0 3716692.7989807129 9421231.1999359131 0 0 0 0 -120792.19801377319 6928981.1022731513 0 6928981.1022731513 4447919.3870306686 0 0 0 0 737967.61453056335 6011980.9683113098 0 6011980.9683113098 10742610.12260437 0 0 0 0 -3450650.4266226459 -647982.20836660266 0 -647982.20836660266 1617379.2212776691 0 0 0 0 -352365032.23625183 -220942455.95387268 0 -220942455.95387268 121246098.05667114 0 0 0 0 -220222743.26558685 -514425974.3547821 0 -514425974.3547821 646404365.05822754 0 0 0 0 171344858.78474426 -79667428.073059082 0 -79667428.073059082 62577944.764038086 0 0 0 0 -917505.50863647461 -713272631.40164185 0 -713272631.40164185 -2354302938.9517212 0 0 0 0 -1946183.8477968425 1250655.7563928366 0 1250655.7563928366 1417525.6563542932 0 0 0 0 746881.19584638998 425853.63982149959 0 425853.63982149959 258294.92072609812 0 0 0 0 136654190.18583679 -546391099.48243713 0 -546391099.48243713 -849201224.81939697 0 0 0 0 2303909243.9544582 1732830230.8801117 0 1732830230.8801117 -975081497.18930054 0 0 0 0 -622471.93713914044 -2025555.9424080923 0 -2025555.9424080923 9722745.8674047738 0 0 0 0 1123608326.8100624 2360225407.2225456 0 2360225407.2225456 -890902404.5541687 0 0 0 0 -474890490.9119873 -1956130527.2416534 0 -1956130527.2416534 783222327.67492676 0 0 0 0 53036998.875594139 -318869434.17051315 0 -318869434.17051315 -45603444.686248779 0 0 0 0 -691660612.32604599 -649486052.35018921 0 -649486052.35018921 833680865.27444458 0 0 0 0 2572792.1359863281 141757288.69076538 0 141757288.69076538 11016869.793445587 0 0 0 0 52622071.337905884 -112395157.01179504 0 -112395157.01179504 660113558.80761719 0 0 0 0 52722821.970817566 -122612757.45861816 0 -122612757.45861816 1128056531.6376343 0 0 0 0 46367361.549272537 -345073041.54827881 0 -345073041.54827881 599703487.10961914 0 0 0 0 210022342.05651855 -75222883.679168701 0 -75222883.679168701 336017452.68638611 0 0 0 0 231390237.7002182 36594772.960632324 0 36594772.960632324 754008023.12133789 0 0 0 0 -119110970.87392426 49743603.909332275 0 49743603.909332275 867268504.80401611 0 0 0 0 -578200.21542293159 203838.97126101516 0 203838.97126101516 225560.8843960017 0 0 0 0 -32807792.906570435 197272405.77079773 0 197272405.77079773 403622078.07415771 0 0 0 0 5483028.3242088072 6882541.1460736617 0 6882541.1460736617 -3659888.9683995023 0 0 0 0 -6717325.7935333252 62677990.904541016 0 62677990.904541016 678665722.32305908 0 0 0 0 285860619.70768023 443759598.99705315 0 443759598.99705315 594106621.43182373 0 0 0 0 -581026283.0981369 -85593586.752845764 0 -85593586.752845764 559271747.47653198 0 0 0 0 -197382040.03448486 363507547.69978333 0 363507547.69978333 413672260.96749878 0 0 0 0 77589734.366210938 -195330871.0300293 0 -195330871.0300293 179519363.73596191 0 0 0 0 1810201.8760623932 2442268.149127759 0 2442268.149127759 -1241660.8117592968 0 0 0 0 48669839.720985413 23240393.519882202 0 23240393.519882202 -160414482.13342285 0 0 0 0 49119823.218940735 4648348.5679931641 0 4648348.5679931641 -59367728.558837891 0 0 0 0 34851922.01763916 -1401562.4867858887 0 -1401562.4867858887 -12084534.935142517 0 0 0 0 -2754543.5018015644 15805747.861742303 0 15805747.861742303 -731866.81039331853 0 0 0 0 10804498.459647655 25306001.153738022 0 25306001.153738022 -32601360.389099121 0 0 0 0 273893250.12936664 -42616152.490841866 0 -42616152.490841866 -7135967.9757080078 0 0 0 0 960880572.28691864 977984921.13769531 0 977984921.13769531 -375390798.7723999 0 0 0 0 -2720637.8963246439 2790309.3583816849 0 2790309.3583816849 6030288.2566302568 0 0 0 0 671881327.29874039 418267912.22239685 0 418267912.22239685 -342962018.22485352 0 0 0 0 439649329.63434601 1295215189.5768738 0 1295215189.5768738 -559754031.95535278 0 0 0 0 753521908.0057869 676475915.87875366 0 676475915.87875366 393313452.06323242 0 0 0 0 89546679.142791748 -380270200.31803894 0 -380270200.31803894 2056096944.6365356 0 0 0 0 205994010.63088608 -295785172.61628723 0 -295785172.61628723 9081550.8747558594 0 0 0 0 -88708314.775993347 350526544.86359406 0 350526544.86359406 -437483759.97698975 0 0 0 0 27268866.811141968 66046567.184143066 0 66046567.184143066 -76285377.157073975 0 0 0 0 545963220.63790894 -162909349.72399902 0 -162909349.72399902 -1165355036.8291016 0 0 0 0 616592098.05113983 855822967.2268219 0 855822967.2268219 -629704144.39746094 0 0 0 0 686960740.53309631 535941223.03933716 0 535941223.03933716 -901924423.98373413 0 0 0 0 375889146.29055023 651443528.72944641 0 651443528.72944641 501594583.04217529 0 0 0 0 599135806.93499756 875577576.38426208 0 875577576.38426208 -493480044.27494812 0 0 0 0 -287171790.95027161 -563608069.50537109 0 -563608069.50537109 533814704.54956055 0 0 0 0 -3226825.9446089882 -6620002.9178796336 0 -6620002.9178796336 30212804.107699454 0 0 0 0 323119800.2417984 429922303.24615479 0 429922303.24615479 1040594574.7332153 0 0 0 0 310935938.71364594 538062941.81811523 0 538062941.81811523 382155641.16456604 0 0 0 0 192928314.81349659 -34319128.564071655 0 -34319128.564071655 56050989.879150391 0 0 0 0 -39366485.737556458 17974142.027130127 0 17974142.027130127 65091412.244598389 0 0 0 0 911636822.64573669 448120592.08943176 0 448120592.08943176 87264259.251708984 0 0 0 0 -10889711.206821442 35756853.192596436 0 35756853.192596436 63461724.58367157 0 0 0 0 30674019.564359665 13382471.229003906 0 13382471.229003906 -22848985.488319397 0 0 0 0 -721316.040457692 -2873320.9970082119 0 -2873320.9970082119 11362932.136049941 0 0 0 0 106579627.16988373 73294213.649856567 0 73294213.649856567 1010366127.6178589 0 0 0 0 322320.03583319858 2921540.8685431257 0 2921540.8685431257 10552441.515637025 0 0 0 0 247979455.71325684 53605135.518463135 0 53605135.518463135 1368633636.6983948 0 0 0 0 234429644.38621521 164275567.11465454 0 164275567.11465454 732722938.77267456 0 0 0 0 73379584.389785767 776214143.95309448 0 776214143.95309448 178652669.73052979 0 0 0 0 973836892.93598175 -223468843.58476257 0 -223468843.58476257 1153166224.391983 0 0 0 0 26802844.193395615 1271933.757232666 0 1271933.757232666 32927616.958321571 0 0 0 0 -1473140276.2244873 -683685511.33973694 0 -683685511.33973694 -283940488.01287842 0 0 0 0 -1130086015.5582428 -441242545.27679443 0 -441242545.27679443 -1024211366.4192505 0 0 0 0 -1793314.2391679175 -309237.56784348935 0 -309237.56784348935 1432420.5169628337 0 0 0 0 12362831.390995324 -2837686.4041666314 0 -2837686.4041666314 -752633.4496230036 0 0 0 0 28193745.579473495 63616751.769577026 0 63616751.769577026 26499478.614807129 0 0 0 0 517387097.71789551 249449514.04264832 0 249449514.04264832 153951848.28363037 0 0 0 0 242088111.76734924 411746189.1124115 0 411746189.1124115 379672446.91891479 0 0 0 0 -46482901.385005951 -44801591.623228073 0 -44801591.623228073 603276860.43487549 0 0 0 0 56668007.280265808 170006936.37335205 0 170006936.37335205 628156836.09570312 0 0 0 0 71736549.830451965 301317038.40756226 0 301317038.40756226 360838005.61014938 0 0 0 0 165373157.7216568 587482800.0872879 0 587482800.0872879 1187792031.7357178 0 0 0 0 -32376142.596092224 -177079360.0255127 0 -177079360.0255127 266288323.8928833 0 0 0 0 33549834.68038559 -220343574.41821289 0 -220343574.41821289 132702673.7134285 0 0 0 0 -5383778.8452665033 -9172191.3660952188 0 -9172191.3660952188 7522511.9570237994 0 0 0 0 635329720.43935966 381111055.25569916 0 381111055.25569916 231387367.32752991 0 0 0 0 258290116.95025253 745423632.6381017 0 745423632.6381017 482637891.89572144 0 0 0 0 -34791889.054031372 777956322.88615417 0 777956322.88615417 26863116.323059082 0 0 0 0 -314581098.79395676 -96492775.72845459 0 -96492775.72845459 16648022.444519043 0 0 0 0 258332054.96016693 718979159.83094788 0 718979159.83094788 829548485.88031006 0 0 0 0 27133697.140117168 18547480.013262272 0 18547480.013262272 13876970.070861816 0 0 0 0 12891671.206547156 1965779.7561114877 0 1965779.7561114877 17577705.646372095 0 0 0 0 -1661710.6882831869 -7675820.6943498403 0 -7675820.6943498403 3965083.9534667283 0 0 0 0 -4607504.4626001269 -3710137.9937952608 0 -3710137.9937952608 2177853.9957346916 0 0 0 0 1426758852.396225 214104379.52307129 0 214104379.52307129 1041664744.3409424 0 0 0 0 6251283.5601360658 -4431473.8063664287 0 -4431473.8063664287 2743270.4389274418 0 0 0 0 -13966771.98938179 -16820669.376037598 0 -16820669.376037598 -9108847.598815918 0 0 0 0 1676499592.9892197 1910317911.3750687 0 1910317911.3750687 669051314.18569946 0 0 0 0 -1848744511.0249405 -1121557977.4915771 0 -1121557977.4915771 3508098268.6043091 0 0 0 0 178778699.12718964 -113249922.40536499 0 -113249922.40536499 -790744475.84999084 0 0 0 0 -1136967125.5288467 -814867928.50448608 0 -814867928.50448608 1953526887.3312073 0 0 0 0 5327666.2100143433 -4429940.6571960449 0 -4429940.6571960449 -1218257.9342041016 0 0 0 0 15236447.951463219 -5676958.8968601599 0 -5676958.8968601599 5028582.1260980368 0 0 0 0 14108535.82062912 6193103.0956726074 0 6193103.0956726074 -6652457.5701751709 0 0 0 0 -996302.59649505652 177047.82563002408 0 177047.82563002408 2429287.414568767 0 0 0 0 386995619.51425934 331712116.04348755 0 331712116.04348755 498831506.56712437 0 0 0 0 16692734.508860294 4343887.8673658445 0 4343887.8673658445 2368136.5510571003 0 0 0 0 966864495.32551193 633427027.2973175 0 633427027.2973175 11024685.491851807 0 0 0 0 14539805.956090005 -792039.40519606695 0 -792039.40519606695 1272705.0970656872 0 0 0 0 528391811.49389958 380665288.32385731 0 380665288.32385731 192273915.28253174 0 0 0 0 931307537.77323151 359289625.22366333 0 359289625.22366333 39296094.862365723 0 0 0 0 -1723287.4258289337 16740213.629585266 0 16740213.629585266 25315692.070739746 0 0 0 0 -13697535.255558014 6245021.0957641602 0 6245021.0957641602 15610201.17199707 0 0 0 0 26461430.540696144 -15190265.686828613 0 -15190265.686828613 -17177124.890167236 0 0 0 0 887251227.54786682 253576111.82408142 0 253576111.82408142 61848746.80291748 0 0 0 0 11048302.861475507 -1013739.6316534393 0 -1013739.6316534393 1109053.6747953892 0 0 0 0 -2707025.0062599182 26577586.209411621 0 26577586.209411621 9794770.3879394531 0 0 0 0 -30619190.389726639 -13929454.761535645 0 -13929454.761535645 6252296.1390380859 0 0 0 0 -233669.48725212319 66874.1379648 0 66874.1379648 667202.6602229178 0 0 0 0 -29621297.378733635 18190433.484100342 0 18190433.484100342 19479760.582275391 0 0 0 0 -14326703.04788208 765210997.24536133 0 765210997.24536133 980479222.92541504 0 0 0 0 1435845751.3632431 189274536.83721924 0 189274536.83721924 -44943752.270080566 0 0 0 0 867069276.40289307 527126654.49555969 0 527126654.49555969 477434583.31958008 0 0 0 0 1377285.8900415543 -2201305.590570569 0 -2201305.590570569 -733966.95836530253 0 0 0 0 870051994.70782089 -23179059.727127075 0 -23179059.727127075 463815353.93347168 0 0 0 0 832906257.5098877 435900537.04040527 0 435900537.04040527 54847287.816131592 0 0 0 0 1566782957.4916077 566629661.37390137 0 566629661.37390137 62612169.778198242 0 0 0 0 865000313.05384064 1081537359.3745422 0 1081537359.3745422 624434986.10339355 0 0 0 0 180926963.60015106 604224389.32733154 0 604224389.32733154 364972626.18017578 0 0 0 0 -436336860.99465179 245186604.53060913 0 245186604.53060913 681777901.41394043 0 0 0 0 255668176.71337891 534965026.06561279 0 534965026.06561279 323993627.32080078 0 0 0 0 227019180.93704224 524029018.03430176 0 524029018.03430176 130975400.17370605 0 0 0 0 611728940.8253479 795055511.81437683 0 795055511.81437683 277466858.31860352 0 0 0 0 259745522.33515167 558292154.81506348 0 558292154.81506348 55466058.253540039 0 0 0 0 257991520.81622314 510739773.1060791 0 510739773.1060791 3151031.8774185181 0 0 0 0 -195111704.80580139 34680400.122802734 0 34680400.122802734 193625997.77600098 0 0 0 0 -12043715.367858887 229480637.44335938 0 229480637.44335938 8878011.4254760742 0 0 0 0 259369134.45446396 279612387.12042236 0 279612387.12042236 298367203.19830322 0 0 0 0 564356013.60572815 179916834.79110718 0 179916834.79110718 89424209.450675964 0 0 0 0 508090430.91878128 266507163.48301697 0 266507163.48301697 239573251.65270996 0 0 0 0 420332228.57875824 95504845.301544189 0 95504845.301544189 131353990.05743408 0 0 0 0 168695704.18404007 118679243.2946167 0 118679243.2946167 78058016.733703613 0 0 0 0 -290475777.81961441 156616106.49343872 0 156616106.49343872 218322586.81166077 0 0 0 0 -330085699.20960999 358529898.09568787 0 358529898.09568787 36123041.324440002 0 0 0 0 -263608415.72240067 156746615.15188599 0 156746615.15188599 9229712.1162834167 0 0 0 0 -4839562.3215112612 18211232.160315044 0 18211232.160315044 60487041.462729469 0 0 0 0 -202333308.23505402 255562509.72796631 0 255562509.72796631 -210492792.50976562 0 0 0 0 -4201222.9336730167 2256593.2342435047 0 2256593.2342435047 8903027.5443870574 0 0 0 0 557898864.15621614 199785861.35227013 0 199785861.35227013 -381850122.55496216 0 0 0 0 -373727315.24893188 56155956.850723267 0 56155956.850723267 133207893.11743164 0 0 0 0 -13806885.54352951 216545624.01699829 0 216545624.01699829 112525879.47912598 0 0 0 0 -27088524.992900848 145988056.33604431 0 145988056.33604431 71321464.338226318 0 0 0 0 -244054877.71807861 155100521.2459259 0 155100521.2459259 154370006.34997559 0 0 0 0 -484693268.04498672 49248998.563812256 0 49248998.563812256 118494578.6327095 0 0 0 0 -553813202.57597637 178483112.17004395 0 178483112.17004395 166402099.98934937 0 0 0 0 -297918866.29057693 186559834.42977905 0 186559834.42977905 72129571.500423431 0 0 0 0 -277178518.51994371 85450148.802789688 0 85450148.802789688 179398916.89068604 0 0 0 0 36443572.379741669 111601446.27792358 0 111601446.27792358 103320006.47488403 0 0 0 0 321684681.41336823 161909562.63479614 0 161909562.63479614 86831413.147369385 0 0 0 0 43644201.70414257 143395414.51721573 0 143395414.51721573 186910147.51293945 0 0 0 0 605505747.37781525 124747601.11898804 0 124747601.11898804 104407573.45352173 0 0 0 0 317127678.00650787 218710667.62969971 0 218710667.62969971 83905184.466888428 0 0 0 0 299670883.25002289 272583270.81536865 0 272583270.81536865 24997964.73714447 0 0 0 0 509081146.11824799 270705014.29806519 0 270705014.29806519 23411912.555053711 0 0 0 0 14802133.700000763 131900334.01973724 0 131900334.01973724 99081257.984680176 0 0 0 0 247997382.59588623 590790926.78143311 0 590790926.78143311 129162492.83623695 0 0 0 0 581111274.1047287 496518815.7272644 0 496518815.7272644 4536327.5761108398 0 0 0 0 414276308.69832611 535149667.42028809 0 535149667.42028809 5204347.9612445831 0 0 0 0 592639464.11009216 513681589.93685913 0 513681589.93685913 29684349.123657227 0 0 0 0 775121183.92661667 347702348.85391235 0 347702348.85391235 -13865003.598876953 0 0 0 0 450390066.39720154 356442397.94445801 0 356442397.94445801 -13068065.355201721 0 0 0 0 392253472.84480667 379381555.875 0 379381555.875 72808518.956665039 0 0 0 0 359038112.48641205 423262563.26989746 0 423262563.26989746 15158731.588226318 0 0 0 0 524249157.80642319 427992711.33123779 0 427992711.33123779 8786521.6625976562 0 0 0 0 302044788.79243851 484216639.21086121 0 484216639.21086121 107943794.1585083 0 0 0 0 311628857.35398865 505301908.1789856 0 505301908.1789856 47793121.167541504 0 0 0 0 376044373.09376526 487551452.77090454 0 487551452.77090454 52060174.588195801 0 0 0 0 277354776.21174622 533927158.95437622 0 533927158.95437622 53726940.339355469 0 0 0 0 311717514.16685343 503175583.65366745 0 503175583.65366745 45773337.476196289 0 0 0 0 258856175.69362521 473475545.05555916 0 473475545.05555916 106959084.38391113 0 0 0 0 254851662.66375732 419571784.51031494 0 419571784.51031494 205807733.76062012 0 0 0 0 260792031.92296219 378396738.23498535 0 378396738.23498535 129382138.33172607 0 0 0 0 252806134.67053223 349282050.22302246 0 349282050.22302246 73277809.009460449 0 0 0 0 193708466.01123428 364865913.81312561 0 364865913.81312561 280491136.35876465 0 0 0 0 174847206.79328156 312802350.7913208 0 312802350.7913208 175025777.78288269 0 0 0 0 188379317.73692322 396460655.73403931 0 396460655.73403931 198350875.4777832 0 0 0 0 192474621.55480576 420948549.49117279 0 420948549.49117279 340500626.60986328 0 0 0 0 -16049799.552595139 214137678.7213707 0 214137678.7213707 130680698.7520752 0 0 0 0 216689079.65235901 198499225.04397583 0 198499225.04397583 72401480.742248535 0 0 0 0 269419112.04825592 306862397.44039917 0 306862397.44039917 88395858.450698853 0 0 0 0 236983947.83219528 291077332.81930161 0 291077332.81930161 84742525.436645508 0 0 0 0 179023792.3032341 302849277.89573669 0 302849277.89573669 198731070.95025635 0 0 0 0 128337967.89506531 241519621.46444702 0 241519621.46444702 127174795.99272156 0 0 0 0 130021153.70744324 241515978.57052612 0 241515978.57052612 95692588.548492432 0 0 0 0 -34413133.274795532 182158096.9302063 0 182158096.9302063 153048576.78112793 0 0 0 0 106237925.15732479 183853742.95454788 0 183853742.95454788 81084028.063354492 0 0 0 0 100165376.14484501 176905060.45661545 0 176905060.45661545 279238887.67193604 0 0 0 0 168589324.44846344 18736102.951080322 0 18736102.951080322 212728757.60134888 0 0 0 0 51225468.343482971 79713055.44708252 0 79713055.44708252 176813736.37936401 0 0 0 0 135944228.49854279 204011184.26522827 0 204011184.26522827 178715104.24194717 0 0 0 0 138532542.29622269 233134411.90768433 0 233134411.90768433 334386568.4004364 0 0 0 0 34990171.417042732 58727826.39963913 0 58727826.39963913 542259878.10418701 0 0 0 0 89381480.41827774 257825208.60920715 0 257825208.60920715 419680753.00686646 0 0 0 0 -296928932.62094879 -21224927.758529663 0 -21224927.758529663 551380221.36798096 0 0 0 0 60527680.030942917 3600015.7309341431 0 3600015.7309341431 417785066.36083984 0 0 0 0 164382258.98103333 -378401254.3364563 0 -378401254.3364563 774070566.79953003 0 0 0 0 -941139.18865945749 -48454.804455861449 0 -48454.804455861449 715888.73278869689 0 0 0 0 284291974.02140427 -117425944.53858948 0 -117425944.53858948 357437646.3614502 0 0 0 0 84511154.393688202 -105979825.29266357 0 -105979825.29266357 302965651.9730072 0 0 0 0 135239485.51947021 93676981.22718811 0 93676981.22718811 131189443.18292236 0 0 0 0 139020803.50893402 -64265030.020736694 0 -64265030.020736694 567848539.19540405 0 0 0 0 188124049.51150513 -97001374.829330444 0 -97001374.829330444 279544857.64361572 0 0 0 0 33519994.640838623 -102036021.0080719 0 -102036021.0080719 138166014.28552246 0 0 0 0 76025708.127178192 192384519.99700928 0 192384519.99700928 -726379745.12420654 0 0 0 0 122614950.42569828 -47972647.024684906 0 -47972647.024684906 -60990591.589141846 0 0 0 0 -275963107.92071533 193221047.33488464 0 193221047.33488464 135135377.08178711 0 0 0 0 -18788349.770004272 249032605.28109741 0 249032605.28109741 -45500773.516048431 0 0 0 0 -268178289.34100676 100503371.18342543 0 100503371.18342543 64514581.25567627 0 0 0 0 -36772184.741419315 197712595.38473511 0 197712595.38473511 84204110.472473145 0 0 0 0 -260633984.71168995 205182409.01845932 0 205182409.01845932 95698735.37109375 0 0 0 0 -734201121.49000359 -211360216.26635742 0 -211360216.26635742 -21172989.010044098 0 0 0 0 -834889377.28016853 320211999.00657654 0 320211999.00657654 85101964.32762146 0 0 0 0 -447945237.57110786 662005752.17747498 0 662005752.17747498 174269466.71609497 0 0 0 0 -415384566.50345612 -647424283.94911194 0 -647424283.94911194 136303499.54876709 0 0 0 0 -256833031.84589005 164706343.38642883 0 164706343.38642883 881991392.42645264 0 0 0 0 324730541.96053314 -622858636.67440033 0 -622858636.67440033 36704447.969726562 0 0 0 0 144250587.56095123 -211525870.54556274 0 -211525870.54556274 -21585554.094787598 0 0 0 0 -112458994.77493382 -178256207.42137146 0 -178256207.42137146 825239778.99435425 0 0 0 0 312552134.87678528 -422960610.82327271 0 -422960610.82327271 409630590.26312256 0 0 0 0 -15858738.982955933 -6619550.592956543 0 -6619550.592956543 2043625.1774902344 0 0 0 0 -2775468.8036058377 1161017.4425478652 0 1161017.4425478652 3116104.090524964 0 0 0 0 240260512.11755371 -276459213.673172 0 -276459213.673172 435375087.14802742 0 0 0 0 10331841.341815948 -138852877.59655762 0 -138852877.59655762 834796185.46161652 0 0 0 0 28968666.624853134 10960708.538772583 0 10960708.538772583 -7522963.1335754395 0 0 0 0 -4798152.0498991236 69059.972561426461 0 69059.972561426461 2881707.0644898936 0 0 0 0 195917175.38845062 -548718775.09429932 0 -548718775.09429932 826784939.36130714 0 0 0 0 -1225634.0977701815 203767.55653141439 0 203767.55653141439 1709322.525793016 0 0 0 0 440824145.73775101 -450988388.45622253 0 -450988388.45622253 466412679.41749573 0 0 0 0 174165901.67591095 -353346961.84240723 0 -353346961.84240723 507803760.41345215 0 0 0 0 160501397.10545731 -440097000.79462433 0 -440097000.79462433 485193379.89501953 0 0 0 0 104436623.93981552 -364657760.44790649 0 -364657760.44790649 537171545.28979492 0 0 0 0 310074220.16800308 -503700884.57781982 0 -503700884.57781982 598192559.4942627 0 0 0 0 344989482.55073547 -412369673.88623047 0 -412369673.88623047 477648150.47921753 0 0 0 0 310443208.83544493 -527743403.68776894 0 -527743403.68776894 667666383.13705444 0 0 0 0 280868540.150383 -377248827.64796448 0 -377248827.64796448 512424910.2651062 0 0 0 0 398145270.00604212 -673973789.22405398 0 -673973789.22405398 786442273.537323 0 0 0 0 399775609.63784027 -517349751.45393372 0 -517349751.45393372 574322996.02139282 0 0 0 0 511816312.28977966 -635889043.6534462 0 -635889043.6534462 611611634.79901123 0 0 0 0 319238977.91615677 -566041950.32876587 0 -566041950.32876587 676858728.99185181 0 0 0 0 586627642.36256027 -793748579.03593445 0 -793748579.03593445 771230301.58158875 0 0 0 0 481259631.20138931 -593123906.43742371 0 -593123906.43742371 516902186.5047245 0 0 0 0 304855520.78188324 -389387447.65815735 0 -389387447.65815735 486947278.06478882 0 0 0 0 456108460.41265869 -941128196.63999939 0 -941128196.63999939 1110274509.4145966 0 0 0 0 361600938.06645584 -1017545702.0508118 0 -1017545702.0508118 1062849980.1640778 0 0 0 0 597344411.34556675 -864346164.86512375 0 -864346164.86512375 829121083.86834717 0 0 0 0 442976341.96978188 -800588868.29827118 0 -800588868.29827118 966152575.21279907 0 0 0 0 457836674.82444763 -656722467.57133484 0 -656722467.57133484 788543031.19488525 0 0 0 0 351451860.49660492 -534435474.99591064 0 -534435474.99591064 652094418.61283875 0 0 0 0 282054377.74142551 -743223994.31805992 0 -743223994.31805992 883986506.82107544 0 0 0 0 235280275.50818253 -955984638.59434509 0 -955984638.59434509 1033789596.2585449 0 0 0 0 241861438.6680069 -683386249.81506348 0 -683386249.81506348 821630721.99655151 0 0 0 0 444507484.86751556 -1043486643.9406281 0 -1043486643.9406281 1030637540.3423157 0 0 0 0 251165622.8757782 -923202357.29003906 0 -923202357.29003906 1083378545.9090271 0 0 0 0 -41589035.39068222 -681849859.98989868 0 -681849859.98989868 1007891753.8637924 0 0 0 0 115600997.45029831 -529170269.52729797 0 -529170269.52729797 782042935.29559326 0 0 0 0 90021125.798835754 -518656521.69818115 0 -518656521.69818115 795651278.26260376 0 0 0 0 170530284.54272842 -391075093.09924316 0 -391075093.09924316 593098625.34333801 0 0 0 0 246232001.11268616 -530455881.2787323 0 -530455881.2787323 689484539.58972168 0 0 0 0 119932980.07584381 -597888422.99108887 0 -597888422.99108887 873030198.12084961 0 0 0 0 59348449.768660545 -377120433.93317032 0 -377120433.93317032 652282987.66339111 0 0 0 0 129336377.5622406 -423776621.02655029 0 -423776621.02655029 502678694.29562378 0 0 0 0 95880475.073490143 -379907529.93084717 0 -379907529.93084717 623690944.09164429 0 0 0 0 7777063.9819717407 3884574.7103271484 0 3884574.7103271484 5181254.6944122314 0 0 0 0 61696058.539588928 -246335413.07550049 0 -246335413.07550049 673873844.05490112 0 0 0 0 -37733605.803833008 -19054093.202270508 0 -19054093.202270508 500454582.0307312 0 0 0 0 180516851.20457077 -306324532.74832153 0 -306324532.74832153 396912985.15632629 0 0 0 0 -1954749.6718131211 -280252.4966314584 0 -280252.4966314584 1243106.9772436619 0 0 0 0 104156824.02451706 -605257092.05963898 0 -605257092.05963898 597796692.8637085 0 0 0 0 -2466223.9636906702 848098.43355719745 0 848098.43355719745 2224816.3606332839 0 0 0 0 159126448.73058319 -361043611.16964722 0 -361043611.16964722 429683459.31141663 0 0 0 0 -157594949.85026836 -544770824.94544601 0 -544770824.94544601 1092693456.2995605 0 0 0 0 -15465564.60358429 -274714059.93673706 0 -274714059.93673706 528796290.00512695 0 0 0 0 -103338185.04955292 -280634347.63540649 0 -280634347.63540649 723324721.81563568 0 0 0 0 -51567185.692722321 77664568.271881104 0 77664568.271881104 -113917338.93041992 0 0 0 0 -411112644.57996488 -199262365.53910446 0 -199262365.53910446 953503985.46459961 0 0 0 0 -437310548.8287468 21521097.711883545 0 21521097.711883545 838587840.35632324 0 0 0 0 147459732.98902893 -672739137.59895325 0 -672739137.59895325 1202166369.6195755 0 0 0 0 32342499.424041748 -75744830.15512085 0 -75744830.15512085 1456740100.1898041 0 0 0 0 416791393.00927734 -478368300.6388092 0 -478368300.6388092 1660601380.8217468 0 0 0 0 173743632.21127129 -450420599.03633118 0 -450420599.03633118 2011183330.7226257 0 0 0 0 506884727.73043442 -1443712157.92276 0 -1443712157.92276 1699392938.6194916 0 0 0 0 7749473.8502922058 -472736058.51263428 0 -472736058.51263428 1104631268.6334076 0 0 0 0 88640310.695398331 -893980925.66171265 0 -893980925.66171265 1332561930.7413025 0 0 0 0 285252421.21491909 -1074314129.3457794 0 -1074314129.3457794 1132822679.3476562 0 0 0 0 306323633.38024902 -1031827495.1687775 0 -1031827495.1687775 1114725052.0535583 0 0 0 0 352749446.09991074 -1160645021.5340118 0 -1160645021.5340118 1126224339.5779123 0 0 0 0 620830170.56518555 -971885392.53755569 0 -971885392.53755569 684743815.81069946 0 0 0 0 327172249.95072365 -1108453003.4331818 0 -1108453003.4331818 1020517351.0553894 0 0 0 0 463987540.13905334 -1087961171.8442993 0 -1087961171.8442993 983402505.36283875 0 0 0 0 1116836309.0701981 -494849796.98214722 0 -494849796.98214722 136158784.56938934 0 0 0 0 637937154.33361816 -1061972877.1978149 0 -1061972877.1978149 907059252.72436523 0 0 0 0 813690516.66211319 -1174082757.6212311 0 -1174082757.6212311 891819446.55613518 0 0 0 0 2311067483.4777994 -921296048.85796356 0 -921296048.85796356 221501326.86071777 0 0 0 0 402502425.21446609 174311527.0712738 0 174311527.0712738 -4075331.1155700684 0 0 0 0 515874.26085776184 -3795756.8092187718 0 -3795756.8092187718 7276932.0284032673 0 0 0 0 1262236645.3941994 -2068143309.0484619 0 -2068143309.0484619 2549276724.5090179 0 0 0 0 527165700.22429371 83045351.8552742 0 83045351.8552742 3980484067.1228943 0 0 0 0 2477445343.9777641 191117819.83072662 0 191117819.83072662 1418686275.4692688 0 0 0 0 988938380.92459488 -364448946.19898987 0 -364448946.19898987 1232154330.293396 0 0 0 0 598257583.33465576 -154574903.63726807 0 -154574903.63726807 673266176.75683594 0 0 0 0 685741589.12605286 84000801.363365173 0 84000801.363365173 943778351.06558228 0 0 0 0 548621030.28282547 158155277.38891602 0 158155277.38891602 857902783.08738708 0 0 0 0 816994652.91369629 170249332.68656921 0 170249332.68656921 308788976.82458496 0 0 0 0 578396225.02320862 395951987.36598206 0 395951987.36598206 617781140.36605835 0 0 0 0 1294286592.9444709 493110902.94960594 0 493110902.94960594 1008043125.8328552 0 0 0 0 314490874.10300255 3013752.0267715454 0 3013752.0267715454 947450600.84515381 0 0 0 0 326425325.91044235 196517324.69515991 0 196517324.69515991 2074648180.2919464 0 0 0 0 167932847.53560257 341756737.39001465 0 341756737.39001465 1173883741.9793091 0 0 0 0 155670467.13314438 252537465.50114441 0 252537465.50114441 591085155.22628784 0 0 0 0 -11693295.064495087 -276889086.4354248 0 -276889086.4354248 589254529.71942139 0 0 0 0 -77582174.730876923 312006206.604599 0 312006206.604599 736772837.67235565 0 0 0 0 94461130.773033142 383794909.99667358 0 383794909.99667358 697585338.84951782 0 0 0 0 266402702.21409607 508936651.09881592 0 508936651.09881592 495933735.82836914 0 0 0 0 328724119.43873215 427337502.63943481 0 427337502.63943481 389628381.71722412 0 0 0 0 61441459.016332626 296739420.04122925 0 296739420.04122925 481966189.32965088 0 0 0 0 190043647.25440979 453516035.8470459 0 453516035.8470459 385293532.76399231 0 0 0 0 195076598.4535675 424366606.61291504 0 424366606.61291504 405144316.93798828 0 0 0 0 636053684.52219009 437882845.704422 0 437882845.704422 600700258.06890869 0 0 0 0 267368634.42854309 397966935.21789551 0 397966935.21789551 605204057.98962402 0 0 0 0 411726130.56082439 213524596.30136395 0 213524596.30136395 423267345.60913086 0 0 0 0 427129847.86647415 473669217.54795837 0 473669217.54795837 336214082.22015381 0 0 0 0 288730566.83201158 507088420.17303371 0 507088420.17303371 256474527.84851074 0 0 0 0 281387919.22765279 338355587.23854971 0 338355587.23854971 212314847.55407715 0 0 0 0 230001030.57880402 433236932.76525879 0 433236932.76525879 164494616.07235718 0 0 0 0 226246959.2329483 483790956.94897461 0 483790956.94897461 213680983.20941162 0 0 0 0 226861420.59126282 451771357.11019897 0 451771357.11019897 269899352.19665527 0 0 0 0 228903835.71054077 421990206.10528564 0 421990206.10528564 398523100.53890991 0 0 0 0 240992627.93601227 494190746.21859741 0 494190746.21859741 322142776.82626343 0 0 0 0 242470906.38093567 416750321.48568726 0 416750321.48568726 148303495.493927 0 0 0 0 214890135.58382416 524323232.04559326 0 524323232.04559326 198285397.29629517 0 0 0 0 258162494.97453594 468307126.54931641 0 468307126.54931641 183403500.21252441 0 0 0 0 223881575.18521118 521296572.36477661 0 521296572.36477661 128552624.32723999 0 0 0 0 234756035.16266441 480347388.26480865 0 480347388.26480865 116648934.01898193 0 0 0 0 186585966.24884033 529658657.53045654 0 529658657.53045654 71393766.281036377 0 0 0 0 193422253.99954367 416918635.31343269 0 416918635.31343269 -11410013.25592041 0 0 0 0 23662347.502044678 391718633.72692871 0 391718633.72692871 -11297983.384521484 0 0 0 0 137675468.73545456 488829248.94868469 0 488829248.94868469 -94189958.313964844 0 0 0 0 155142389.51581573 427246256.85324097 0 427246256.85324097 9086979.2160339355 0 0 0 0 95210318.490444183 414651521.04138184 0 414651521.04138184 18397037.569824219 0 0 0 0 218433952.84708405 552599213.25552368 0 552599213.25552368 46491604.423400879 0 0 0 0 333550313.00459957 242222688.93865585 0 242222688.93865585 -51933478.273651123 0 0 0 0 108126319.0277648 201568145.27643394 0 201568145.27643394 -49366833.883514404 0 0 0 0 193235019.98745346 313449965.70300293 0 313449965.70300293 -8867637.7760009766 0 0 0 0 169501804.96117401 479041209.615448 0 479041209.615448 118267717.12149048 0 0 0 0 156976550.14845848 277429903.60063171 0 277429903.60063171 -284319624.64813232 0 0 0 0 148733700.98569489 407746830.34466553 0 407746830.34466553 -80470915.341903687 0 0 0 0 124697174.11591053 -23234560.408611298 0 -23234560.408611298 -189953635.89657593 0 0 0 0 246554380.07310867 257442728.32496643 0 257442728.32496643 -346403209.98976135 0 0 0 0 432433482.01820374 174532572.75700378 0 174532572.75700378 -106861582.60299683 0 0 0 0 472933247.96211433 -215215421.12413788 0 -215215421.12413788 -125036949.55587769 0 0 0 0 257492759.8427887 -116469511.62097168 0 -116469511.62097168 195709309.44137573 0 0 0 0 665376681.66747665 10451606.803901672 0 10451606.803901672 230626191.1829834 0 0 0 0 382447452.48051453 360515536.92025757 0 360515536.92025757 134808568.49453735 0 0 0 0 360503167.09493637 51116109.919998169 0 51116109.919998169 282517478.45022583 0 0 0 0 -116806766.78013039 -171653337.53413391 0 -171653337.53413391 552207377.20062256 0 0 0 0 173498928.14412498 -240533141.95552063 0 -240533141.95552063 29273.209747314453 0 0 0 0 179346653.87695885 -439525672.83425903 0 -439525672.83425903 479294133.72267914 0 0 0 0 231417188.18576622 -61662062.123062134 0 -61662062.123062134 241805237.64315796 0 0 0 0 419538043.19882393 -338003781.50676727 0 -338003781.50676727 571976631.10806274 0 0 0 0 68073395.585626602 -14372768.857543945 0 -14372768.857543945 -206532609.44421387 0 0 0 0 271648908.03117561 -313351429.76100159 0 -313351429.76100159 -420052410.20675659 0 0 0 0 -84278560.516365051 -295961274.19380951 0 -295961274.19380951 11734957.414245605 0 0 0 0 -26493322.333057404 -196899939.76054382 0 -196899939.76054382 -327923859.64976501 0 0 0 0 -319572713.74192905 -397566038.64717484 0 -397566038.64717484 3645420.5321502686 0 0 0 0 2042265.4938108237 -3855050.7172633857 0 -3855050.7172633857 17276871.815536529 0 0 0 0 -1630650.4398834705 5916680.1232147217 0 5916680.1232147217 2817543.8267364502 0 0 0 0 -80677358.933385372 23846639.569519043 0 23846639.569519043 104726417.76318359 0 0 0 0 -108932343.59277299 -404838085.08153391 0 -404838085.08153391 560729420.62149048 0 0 0 0 -263217386.64397812 -22258051.428817749 0 -22258051.428817749 -106309174.4085083 0 0 0 0 -384850049.64163208 -176761018.98504639 0 -176761018.98504639 1670447346.5591736 0 0 0 0 -418034804.20402718 378562368.29901123 0 378562368.29901123 871405741.40325546 0 0 0 0 -361227764.22582841 299917644.00168037 0 299917644.00168037 -205368959.13302612 0 0 0 0 116557.82540301245 -2483423.3332020231 0 -2483423.3332020231 14160462.789953455 0 0 0 0 -531028258.25226998 -111008605.24049759 0 -111008605.24049759 387579014.72384644 0 0 0 0 64964980.595653534 583720856.33261108 0 583720856.33261108 2653306624.8596649 0 0 0 0 277520.7424952318 -1199836.6917823777 0 -1199836.6917823777 1340764.2217073105 0 0 0 0 -854063843.29728413 305050969.24032593 0 305050969.24032593 2566119740.9493103 0 0 0 0 -717931080.41226101 -98747814.756668091 0 -98747814.756668091 3752497914.3074646 0 0 0 0 -694067111.48246384 58805088.353500366 0 58805088.353500366 1720876643.892334 0 0 0 0 -199840321.41915894 -440619040.74188232 0 -440619040.74188232 1765951858.7511902 0 0 0 0 -587240611.99712563 -241477928.54951477 0 -241477928.54951477 2469484807.6418457 0 0 0 0 58101584.889316559 -225387500.70066833 0 -225387500.70066833 638553898.57898712 0 0 0 0 -10255518.241491318 -397021885.76754761 0 -397021885.76754761 870397733.77235413 0 0 0 0 -380753803.03994232 -66796140.314582586 0 -66796140.314582586 1422669780.2703857 0 0 0 0 939579418.55109024 -258370176.04832077 0 -258370176.04832077 579092602.96621704 0 0 0 0 371624313.45785046 -706341762.62763214 0 -706341762.62763214 1375916848.1475525 0 0 0 0 -201208922.67403793 -422630828.83189392 0 -422630828.83189392 1659107174.9035034 0 0 0 0 -770133623.57287025 -574863618.96188354 0 -574863618.96188354 3678234490.3397217 0 0 0 0 1053520194.1058068 -1445016158.617424 0 -1445016158.617424 2447402542.5298462 0 0 0 0 -589036361.87541199 -216831198.70821381 0 -216831198.70821381 2193484003.1229553 0 0 0 0 -796975138.2277298 -176079129.61499786 0 -176079129.61499786 2462631611.4074707 0 0 0 0 -915917122.52605057 -208528105.94250488 0 -208528105.94250488 2232223944.8991394 0 0 0 0 -216265755.5491066 887286831.28691101 0 887286831.28691101 2656076056.4573593 0 0 0 0 -88194595.383499146 262813726.44837189 0 262813726.44837189 350916768.37831116 0 0 0 0 -412923862.07967758 -665401617.70611191 0 -665401617.70611191 -702941705.20014954 0 0 0 0 -386039328.36860466 -444287827.2771759 0 -444287827.2771759 183146003.60849762 0 0 0 0 -815456.04572500847 -10445240.320707485 0 -10445240.320707485 18875136.128857642 0 0 0 0 -183471797.2348938 -88292653.170913696 0 -88292653.170913696 213891241.26376343 0 0 0 0 -458646050.79916716 307814708.96665955 0 307814708.96665955 -208650546.0078125 0 0 0 0 -1224990980.9161372 -55954834.654396057 0 -55954834.654396057 1011159768.5178528 0 0 0 0 -520907810.98472786 -388864640.51454163 0 -388864640.51454163 1132782691.9206581 0 0 0 0 -413607535.97558039 183021620.08693695 0 183021620.08693695 1140636843.5828857 0 0 0 0 -169854557.60694313 -248665424.48294067 0 -248665424.48294067 645538603.83128357 0 0 0 0 -869283582.0121479 46703890.471832275 0 46703890.471832275 2030609488.7571411 0 0 0 0 -741643039.53642654 -194942089.10328674 0 -194942089.10328674 2097857364.4444389 0 0 0 0 -534613271.71643126 -163969667.47911453 0 -163969667.47911453 2698612725.9247742 0 0 0 0 -636521413.49549675 -464488168.24931335 0 -464488168.24931335 2638999948.9265137 0 0 0 0 68759837.641413689 -189757267.08323669 0 -189757267.08323669 2658970338.2512817 0 0 0 0 1381639895.2111113 -77506396.309814453 0 -77506396.309814453 2381443743.2177515 0 0 0 0 52666392.613428593 61333118.80027771 0 61333118.80027771 2385813055.5371666 0 0 0 0 449550166.28920931 311164885.84447479 0 311164885.84447479 1773165948.2877197 0 0 0 0 -120095290.62742043 -64474558.695846558 0 -64474558.695846558 2470307511.7422333 0 0 0 0 312708315.95720005 428346069.13839722 0 428346069.13839722 2928343329.7661743 0 0 0 0 -11472491.509567812 153437903.4777298 0 153437903.4777298 1730973672.2219543 0 0 0 0 461075383.10406947 -276726348.37849426 0 -276726348.37849426 1824009339.7033691 0 0 0 0 -283756812.57930708 -180873900.7689209 0 -180873900.7689209 1822413915.813283 0 0 0 0 -143764958.33904171 118403674.74502563 0 118403674.74502563 822642237.8395462 0 0 0 0 299881017.35712588 -58769638.386009216 0 -58769638.386009216 889291724.70684814 0 0 0 0 180972046.78079674 41736325.174266815 0 41736325.174266815 205767326.38543701 0 0 0 0 114949189.47679901 -169246049.28270149 0 -169246049.28270149 121079199.6164856 0 0 0 0 130957616.06327862 102246455.82467651 0 102246455.82467651 479869351.4526062 0 0 0 0 -6880667.1402614713 -46129431.894638062 0 -46129431.894638062 961783546.89626312 0 0 0 0 175129033.64946616 90472106.913116455 0 90472106.913116455 982045440.91831207 0 0 0 0 87239.090550495122 -147057400.3717804 0 -147057400.3717804 1068670782.4245453 0 0 0 0 -185728117.03167963 125165467.60188293 0 125165467.60188293 2241109719.8735809 0 0 0 0 -284730.16992194264 -144253599.69663239 0 -144253599.69663239 1893925053.1376724 0 0 0 0 5860308.8205971122 297579180.29631042 0 297579180.29631042 1455408576.8397522 0 0 0 0 -200721293.60669577 -375955247.09371948 0 -375955247.09371948 2331479753.9752197 0 0 0 0 -42610.803138340663 -276182720.8534379 0 -276182720.8534379 2037249213.5248413 0 0 0 0 543730.32022036077 -1702923.8506831974 0 -1702923.8506831974 3646305.5132933147 0 0 0 0 12781396.590137541 11148742.371505737 0 11148742.371505737 -31291667.885940552 0 0 0 0 -196441636.22361836 -302353522.8659687 0 -302353522.8659687 3189367791.0371399 0 0 0 0 783238233.07718337 -1103320966.8334961 0 -1103320966.8334961 1553097480.2861633 0 0 0 0 390744386.00893891 -976665344.67182922 0 -976665344.67182922 4532096334.3856812 0 0 0 0 359023.63869338611 -974107.51478773728 0 -974107.51478773728 2020079.0033325106 0 0 0 0 391420449.16750145 1337558582.0665588 0 1337558582.0665588 4361085924.1455288 0 0 0 0 332273.02352070966 -2529990.6823752373 0 -2529990.6823752373 5052556.7010221332 0 0 0 0 14705252.699010491 1736258.2285766602 0 1736258.2285766602 -19554819.615005493 0 0 0 0 96750.824296981096 -30151527.409614563 0 -30151527.409614563 35795082.034729004 0 0 0 0 24245645.131397545 -16002982.408004761 0 -16002982.408004761 37558735.225877762 0 0 0 0 111614178.17779797 52250140.124084473 0 52250140.124084473 -44651498.117507935 0 0 0 0 -21100267.994573593 -32184420.921684265 0 -32184420.921684265 27963362.78503418 0 0 0 0 -15258598.349573433 -12959664.719299316 0 -12959664.719299316 116470231.3032074 0 0 0 0 270909.01395894587 -131616.54963586479 0 -131616.54963586479 -70092.308413796127 0 0 0 0 4028670.0464903414 6064562.135307312 0 6064562.135307312 -11504497.175811768 0 0 0 0 -4954260.8853880167 2762726.6929168701 0 2762726.6929168701 2300674.0213394165 0 0 0 0 764582.7280936992 9092.7553855627775 0 9092.7553855627775 -167427.93830016628 0 0 0 0 2639297.8586614132 2686597.7142333984 0 2686597.7142333984 -3674862.9882507324 0 0 0 0 -20300269.323791325 -10233189.098312378 0 -10233189.098312378 105151230.81620789 0 0 0 0 -393955.79618527234 1333523.5933239162 0 1333523.5933239162 5278694.1463467553 0 0 0 0 134985.07923467207 784826.02002368867 0 784826.02002368867 4545095.5981360376 0 0 0 0 531665.0844850475 3111297.598449707 0 3111297.598449707 18929670.25491333 0 0 0 0 -131945.18168125048 327797.47231893241 0 327797.47231893241 2443358.4119764417 0 0 0 0 877.26223201600635 630852.796875 0 630852.796875 2451303.2343597412 0 0 0 0 -31399.103103278685 7586816.1763916016 0 7586816.1763916016 21645083.563598633 0 0 0 0 6628770.1953075305 8248083.963470459 0 8248083.963470459 155523397.9616394 0 0 0 0 380211.85008924041 856041.9360525161 0 856041.9360525161 2106378.3044707924 0 0 0 0 -71275.421476844116 -41432381.174898043 0 -41432381.174898043 70557287.244750977 0 0 0 0 17895515.644854128 -47813513.220031738 0 -47813513.220031738 36535749.981750488 0 0 0 0 8954149.1611218471 -9077168.8994655609 0 -9077168.8994655609 57111509.874603271 0 0 0 0 -15780328.324522443 -10145425.093803406 0 -10145425.093803406 54285883.995819092 0 0 0 0 13020438.975483119 6758950.4052886963 0 6758950.4052886963 59875522.090454102 0 0 0 0 -165001454.68338174 -139424463.53907776 0 -139424463.53907776 305765173.5814209 0 0 0 0 131216002.19322747 -303029037.19120789 0 -303029037.19120789 -57155153.325927258 0 0 0 0 -59679716.324675292 -330963671.68482208 0 -330963671.68482208 460866887.63659668 0 0 0 0 -466869.70953735791 -155277648.83885193 0 -155277648.83885193 37956636.350234985 0 0 0 0 293607911.47764713 -464098874.41546631 0 -464098874.41546631 434135661.86476517 0 0 0 0 -897995.62655448914 -173988823.44674683 0 -173988823.44674683 969341900.2651062 0 0 0 0 28583600.154170319 -374193460.93661499 0 -374193460.93661499 349505748.74539948 0 0 0 0 -309741628.88410354 -130566131.49871063 0 -130566131.49871063 744532926.2036438 0 0 0 0 -271449506.78402758 -330899789.15003967 0 -330899789.15003967 232260279.9292984 0 0 0 0 -431038306.73301125 195886577.87793732 0 195886577.87793732 38765674.897735596 0 0 0 0 -1644903.1868695715 1722134.8421536908 0 1722134.8421536908 1307439.6878492236 0 0 0 0 -810080815.97488427 166874339.22777557 0 166874339.22777557 -26405017.845367432 0 0 0 0 -382781232.74400783 132084319.43356323 0 132084319.43356323 -131623772.36322021 0 0 0 0 -808842776.80488694 172797825.92436218 0 172797825.92436218 1594973.2178497314 0 0 0 0 -121137268.04984325 -231715904.52467346 0 -231715904.52467346 -39428594.964935303 0 0 0 0 -556456647.65802562 -61990359.908630371 0 -61990359.908630371 -25415257.501407623 0 0 0 0 -509439112.20710206 -335059020.67985535 0 -335059020.67985535 -423940623.91104126 0 0 0 0 -127644694.93488988 -116680445.44750214 0 -116680445.44750214 -324233395.82128906 0 0 0 0 -914668804.38600373 266678076.69284058 0 266678076.69284058 -64190131.356994629 0 0 0 0 -1449788.3751487532 -281027.68197540939 0 -281027.68197540939 1957674.1589732766 0 0 0 0 -28261087.872153282 4460564.4470825195 0 4460564.4470825195 4684088.2270507812 0 0 0 0 -502110390.28575367 21790221.658813477 0 21790221.658813477 -37475510.063110352 0 0 0 0 -1084287861.9998615 -52442138.276947021 0 -52442138.276947021 -46923152.453109741 0 0 0 0 -733190219.72290587 -445933818.87638855 0 -445933818.87638855 -255258427.24917603 0 0 0 0 -781691403.81805658 -394142783.46139908 0 -394142783.46139908 -294516504.21896362 0 0 0 0 -520950831.77701747 3462151.3241424561 0 3462151.3241424561 -460687201.16463089 0 0 0 0 -162878580.58416218 -149287698.52523613 0 -149287698.52523613 -314600220.43875122 0 0 0 0 -146104584.31226072 -181758484.69364929 0 -181758484.69364929 -54079520.091171741 0 0 0 0 70894817.151834831 -260853700.78849792 0 -260853700.78849792 -292873907.88378906 0 0 0 0 -61811440.445534289 -101652251.75167847 0 -101652251.75167847 -361417431.64500427 0 0 0 0 242584.72304462423 -139118793.30279714 0 -139118793.30279714 -367849220.16415405 0 0 0 0 -33078126.00399214 -103517955.34213257 0 -103517955.34213257 -330783463.69805908 0 0 0 0 -49551821.341392994 -170646194.88833618 0 -170646194.88833618 -357121047.75411987 0 0 0 0 -78138893.924137056 -81333653.816375732 0 -81333653.816375732 -239038495.79345703 0 0 0 0 -49447.869950391309 -161324921.34069061 0 -161324921.34069061 -251924261.97776794 0 0 0 0 73056982.387205422 -81844440.225814819 0 -81844440.225814819 -78654888.441362381 0 0 0 0 -91152233.500958145 -133934944.869133 0 -133934944.869133 -80328819.504989624 0 0 0 0 -9773037.7287957147 -3402861.3738765717 0 -3402861.3738765717 192792493.73574829 0 0 0 0 -90201136.579823375 -124271331.36802673 0 -124271331.36802673 417134139.17371368 0 0 0 0 138566.61103891084 -173229898.98077393 0 -173229898.98077393 181655061.87585449 0 0 0 0 -187433563.21927714 -302210337.8380127 0 -302210337.8380127 179610129.39735794 0 0 0 0 -127632384.42620397 -278222435.21813202 0 -278222435.21813202 -149382503.81518555 0 0 0 0 -97600974.684514999 -94710375.736480713 0 -94710375.736480713 256462235.47486877 0 0 0 0 37482011.075583547 -242314614.44093609 0 -242314614.44093609 -58403519.065795898 0 0 0 0 -304816264.19480348 -193527693.11470032 0 -193527693.11470032 -52371935.588378906 0 0 0 0 -276098126.3252492 -408363065.0395422 0 -408363065.0395422 -89910999.86114502 0 0 0 0 -649815919.82745123 -334871966.634758 0 -334871966.634758 -104324566.4541626 0 0 0 0 -135484977.77274606 -253804033.41149139 0 -253804033.41149139 -191230737.85803223 0 0 0 0 -156227578.58051676 -194353395.99631214 0 -194353395.99631214 -427997560.00598145 0 0 0 0 -469346428.89982915 -110569704.0773468 0 -110569704.0773468 -244379044.8927002 0 0 0 0 -413095960.37995583 -293231503.581007 0 -293231503.581007 -342917459.29962158 0 0 0 0 -527607050.40141106 -515079526.70814514 0 -515079526.70814514 -263402037.00627899 0 0 0 0 -100166137.30239868 -15571398.804443359 0 -15571398.804443359 77194728.32346344 0 0 0 0 -65734640.856048584 -38885817.985321045 0 -38885817.985321045 -71204941.715270996 0 0 0 0 -91927383.372117996 -101663161.7355957 0 -101663161.7355957 93884798.004272461 0 0 0 0 -49403204.636497498 47244934.630950928 0 47244934.630950928 10476209.729980469 0 0 0 0 -2560733.0300357835 -5262856.3738238551 0 -5262856.3738238551 18927185.188040614 0 0 0 0 10342554.928110123 36729954.437576294 0 36729954.437576294 -23739674.648620605 0 0 0 0 -332522689.39285374 -280794982.94368362 0 -280794982.94368362 -35523528.950637817 0 0 0 0 -964621481.46045923 -536252340.8911972 0 -536252340.8911972 2106522.63671875 0 0 0 0 -546589319.25529957 -550743554.44496918 0 -550743554.44496918 -103036956.22918701 0 0 0 0 -605608285.24889123 -405290807.11417198 0 -405290807.11417198 9794839.3079681396 0 0 0 0 -422506782.03668547 -662867489.06059265 0 -662867489.06059265 -522131363.37890244 0 0 0 0 -579324499.94239712 150783270.33110046 0 150783270.33110046 -13148632.653911591 0 0 0 0 -10976405.923546035 -4576996.7504718304 0 -4576996.7504718304 12206805.016012169 0 0 0 0 -16426330.905118942 -13704530.295097351 0 -13704530.295097351 28818616.815307617 0 0 0 0 48302417.140727997 138512593.77348328 0 138512593.77348328 -55803804.906112671 0 0 0 0 -1633644.576803227 -2700737.5787659287 0 -2700737.5787659287 4422370.4805652797 0 0 0 0 -26980527.665493011 -15597995.581787109 0 -15597995.581787109 45194269.610656738 0 0 0 0 -4732955.8470058013 -5508004.023632504 0 -5508004.023632504 20987481.642666236 0 0 0 0 -5553779.8122358322 -39894.426303863525 0 -39894.426303863525 30647152.691116333 0 0 0 0 -20220473.078948975 -9571342.5768280029 0 -9571342.5768280029 28348340.811706543 0 0 0 0 -14255250.708776474 -16828675.84487915 0 -16828675.84487915 4172338.8441467285 0 0 0 0 -4685967.8557033539 -37254486.879089355 0 -37254486.879089355 -33986431.543197632 0 0 0 0 -20210115.207792759 -6970138.6878089905 0 -6970138.6878089905 32735.369873046875 0 0 0 0 -11119707.3086586 -52000841.008911133 0 -52000841.008911133 13147507.990921021 0 0 0 0 -20773124.917648315 -30746947.554748535 0 -30746947.554748535 -9435132.3115539551 0 0 0 0 12513616.065168381 -33065719.244598389 0 -33065719.244598389 -18942072.669311523 0 0 0 0 -27818382.144195557 -8133636.6415710449 0 -8133636.6415710449 -34150960.338623047 0 0 0 0 -81834178.326658249 -71696687.143241882 0 -71696687.143241882 -103716884.50878906 0 0 0 0 -24845900.248511314 -51561463.368415833 0 -51561463.368415833 -115789699.69213867 0 0 0 0 6865.9790345299989 -81986.043218381703 0 -81986.043218381703 83465.7572556464 0 0 0 0 -310473.94099023845 -357883.51682767272 0 -357883.51682767272 542954.5997018218 0 0 0 0 -40641223.435798645 38258996.344299316 0 38258996.344299316 37322152.267120361 0 0 0 0 -23603885.174407959 -63520248.913330078 0 -63520248.913330078 -123567535.50244141 0 0 0 0 -1172133.1329659428 385980.50495144725 0 385980.50495144725 1387413.7965059821 0 0 0 0 969277.69459342957 -13987657.184585571 0 -13987657.184585571 11508218.42767334 0 0 0 0 3084219.3825721741 1470781.9553985596 0 1470781.9553985596 12356624.858440399 0 0 0 0 -2901023.5991003579 -549852.72268271446 0 -549852.72268271446 4045792.0356547236 0 0 0 0 -3379673.4180874201 302469.16557683051 0 302469.16557683051 4557401.2929926664 0 0 0 0 -32545103.353433609 -5707690.2591705322 0 -5707690.2591705322 9494222.5226135254 0 0 0 0 -31650285.014659882 10005741.378662109 0 10005741.378662109 42417310.165222168 0 0 0 0 -102076590.13165665 2034198.4324951172 0 2034198.4324951172 17107525.666259766 0 0 0 0 -48764342.216117859 24170071.684326172 0 24170071.684326172 -14292529.377868652 0 0 0 0 144011.00672197249 -2305402.9941086844 0 -2305402.9941086844 1337986.371851638 0 0 0 0 -682117.44338989258 -945886.21520996094 0 -945886.21520996094 624131.2509765625 0 0 0 0 -2144169.9727527387 -2732849.8849536777 0 -2732849.8849536777 13660289.739081958 0 0 0 0 -6237890.572190702 -15338302.937801123 0 -15338302.937801123 27091075.13671875 0 0 0 0 -170097.1263885498 -5566311.4825439453 0 -5566311.4825439453 577208.20852661133 0 0 0 0 -174199.20456633624 -2219041.0544985309 0 -2219041.0544985309 123608.48332200944 0 0 0 0 -1896820.1545257568 -2322983.2458496094 0 -2322983.2458496094 -1894594.9171142578 0 0 0 0 -1075591.9314737814 -1086023.2915347964 0 -1086023.2915347964 12023.164871700108 0 0 0 0 -1517229.0069628516 -1238560.7148759663 0 -1238560.7148759663 6695698.1849715579 0 0 0 0 -7591716.6499414146 43346822.240306377 0 43346822.240306377 12266346.05480957 0 0 0 0 -7424826.2666527741 -10567684.023119614 0 -10567684.023119614 11207878.822998405 0 0 0 0 5472757.6225786209 20157386.872817993 0 20157386.872817993 35248320.797271729 0 0 0 0 -5014063.1309245694 6754461.6920458637 0 6754461.6920458637 16018001.808137879 0 0 0 0 23477243.745708942 5494227.2827415466 0 5494227.2827415466 18503783.343261719 0 0 0 0 -31151491.705224037 29435148.807079315 0 29435148.807079315 14993428.195281982 0 0 0 0 -17973673.651470184 6341022.5399627686 0 6341022.5399627686 9510015.3575553894 0 0 0 0 1263088.1910324097 -8892511.6871185303 0 -8892511.6871185303 37723950.15782547 0 0 0 0 -8144205.7966766357 -2563923.7247467041 0 -2563923.7247467041 36540821.261077881 0 0 0 0 -52370895.429080963 7000480.3002510071 0 7000480.3002510071 87144544.842926025 0 0 0 0 -35440370.502585411 41538711.68989563 0 41538711.68989563 -17192252.478881836 0 0 0 0 -2046111.1667780532 -472713.72478486598 0 -472713.72478486598 3680092.09953513 0 0 0 0 87842241.012096405 -89895847.106781006 0 -89895847.106781006 56801491.115356445 0 0 0 0 -1081311.4677449903 103851.49952358007 0 103851.49952358007 1428144.2915327549 0 0 0 0 22975654.393288612 -24983972.419113159 0 -24983972.419113159 -18691080.915206909 0 0 0 0 -97270615.072690964 168441581.49310303 0 168441581.49310303 -71163100.053161621 0 0 0 0 -70129683.84769249 30479562.089996338 0 30479562.089996338 73088699.607025146 0 0 0 0 -59006353.451850891 -150690027.32904053 0 -150690027.32904053 -39651441.283828735 0 0 0 0 17421502.927164078 -7115233.0414123535 0 -7115233.0414123535 -80329349.109130859 0 0 0 0 -973913.34113538638 -197858.35052830726 0 -197858.35052830726 1317338.910145402 0 0 0 0 -79512566.026277542 -161661308.13946533 0 -161661308.13946533 50557057.285598755 0 0 0 0 -23109929.480154037 17225416.864852905 0 17225416.864852905 18556540.012115479 0 0 0 0 -46000841.116165161 -23933300.27520752 0 -23933300.27520752 4511792.2258300781 0 0 0 0 -4351963.9766741954 -3990896.636291936 0 -3990896.636291936 20077045.655082375 0 0 0 0 -4777175.7313723564 -18404272.211715698 0 -18404272.211715698 -138636077.1039772 0 0 0 0 14072993.667509079 16293896.744110107 0 16293896.744110107 11028461.540283203 0 0 0 0 -1170693.1913877416 -3166659.827378761 0 -3166659.827378761 55417.746907964349 0 0 0 0 -8349499.6748905182 2557176.8782958984 0 2557176.8782958984 3034324.9729003906 0 0 0 0 -5156178.5005235355 -6208243.5458522141 0 -6208243.5458522141 10877362.804595008 0 0 0 0 -12872800.759232998 12926517.597930908 0 12926517.597930908 -1574012.6764221191 0 0 0 0 -3275470.576787394 7377554.330127459 0 7377554.330127459 3744513.1228253841 0 0 0 0 -5244682.0527079497 1329419.3377055041 0 1329419.3377055041 5600664.9990257621 0 0 0 0 -5880864.5961399078 -21640046.087966919 0 -21640046.087966919 50461559.644859314 0 0 0 0 -21174637.627132416 -13084767.626068115 0 -13084767.626068115 51447474.87701416 0 0 0 0 -7214649.4707865641 1686091.4817073047 0 1686091.4817073047 13399875.588693872 0 0 0 0 -6248892.9855098724 -11697212.050521851 0 -11697212.050521851 42754462.78187561 0 0 0 0 -13468111.294174194 918403.66244506836 0 918403.66244506836 -40599487.159332275 0 0 0 0 -9732585.5583148003 57503551.126403809 0 57503551.126403809 -5556865.9565734863 0 0 0 0 67187415.797606468 5169919.574005127 0 5169919.574005127 -40675000.457077503 0 0 0 0 -152355565.4815166 176020273.54995728 0 176020273.54995728 -181014009.06314087 0 0 0 0 -50197484.597537041 -15988333.493057251 0 -15988333.493057251 -13477499.644836426 0 0 0 0 -2065951.3653058549 1571725.5378161548 0 1571725.5378161548 2975512.1089912355 0 0 0 0 -22953813.12782526 -52045007.920127869 0 -52045007.920127869 -27403334.860687256 0 0 0 0 116229290.94678688 -30669612.950836182 0 -30669612.950836182 -50092791.372795105 0 0 0 0 169187134.92051792 131093343.74816895 0 131093343.74816895 11112656.409111023 0 0 0 0 -162799147.04794145 -16542019.525535583 0 -16542019.525535583 509706519.83886719 0 0 0 0 -61830254.237983704 28605472.038574219 0 28605472.038574219 6975905.9695739746 0 0 0 0 -92836839.846923828 13491099.786712646 0 13491099.786712646 420905600.75201416 0 0 0 0 74809516.647237778 -5914268.8060302734 0 -5914268.8060302734 -51934641.744232178 0 0 0 0 -42318448.603919983 40685704.599868774 0 40685704.599868774 24391024.421472073 0 0 0 0 -13818437.682902742 3809229.2984879017 0 3809229.2984879017 17631223.958995856 0 0 0 0 -118682.33399189264 -1934339.3234188706 0 -1934339.3234188706 2187852.0656684381 0 0 0 0 -34295191.844565392 8238689.2828826904 0 8238689.2828826904 21254083.404220581 0 0 0 0 -12242270.983753681 8520218.3566436768 0 8520218.3566436768 9135562.1633605957 0 0 0 0 -24032004.565849304 10384599.827445984 0 10384599.827445984 32807770.283538818 0 0 0 0 -10137725.498068482 1253654.1876224577 0 1253654.1876224577 12146160.533265181 0 0 0 0 -22567847.381570816 -8790075.1838531494 0 -8790075.1838531494 34875483.220626831 0 0 0 0 -57514174.977145195 14011454.905082703 0 14011454.905082703 65795419.361328125 0 0 0 0 -52108873.355051041 3919815.4034423828 0 3919815.4034423828 13241098.026031494 0 0 0 0 18918118.743116379 -21472543.526535034 0 -21472543.526535034 -15388692.404525757 0 0 0 0 -5506671.7514071614 9392318.1802911535 0 9392318.1802911535 12260651.227358222 0 0 0 0 -16770735.890806831 -1836527.3061687723 0 -1836527.3061687723 11660588.115717988 0 0 0 0 -178342911.84008408 -74918641.796165466 0 -74918641.796165466 -15144414.976195335 0 0 0 0 -9646082.1602000967 -3964548.7289412618 0 -3964548.7289412618 5275669.0275938995 0 0 0 0 -148210111.61466789 213158351.53691101 0 213158351.53691101 -143308706.57150602 0 0 0 0 307898991.61562157 -96781968.935195923 0 -96781968.935195923 -383393233.86180115 0 0 0 0 -167920781.1402092 86027216.979858398 0 86027216.979858398 -33840176.292726517 0 0 0 0 -3099009.5675483244 -2217878.4870724455 0 -2217878.4870724455 1413832.5581094595 0 0 0 0 -381546091.91830909 498485877.8043108 0 498485877.8043108 -198504606.03543091 0 0 0 0 -412303093.67336845 178908918.49000549 0 178908918.49000549 62756015.115036011 0 0 0 0 -239466413.80058146 88788334.187586784 0 88788334.187586784 105197001.715271 0 0 0 0 -899416487.12327194 -100406264.25558472 0 -100406264.25558472 144046374.11993408 0 0 0 0 -1040335300.8227119 711316830.7477417 0 711316830.7477417 376584606.37850189 0 0 0 0 -997849764.54196262 204404569.32348251 0 204404569.32348251 755212523.53335571 0 0 0 0 -146733453.7066803 -152455397.98970032 0 -152455397.98970032 59091701.821624756 0 0 0 0 -220171445.95633507 -165871944.84707642 0 -165871944.84707642 60040902.115875244 0 0 0 0 -262392380.16552353 -70024637.410377502 0 -70024637.410377502 59543120.40914917 0 0 0 0 -117969914.82535839 44764883.102180481 0 44764883.102180481 7583477.756439209 0 0 0 0 -31824518.153524399 -1348439.4846954346 0 -1348439.4846954346 22261731.089691162 0 0 0 0 -245142500.77727509 54090721.719039917 0 54090721.719039917 22293431.714927673 0 0 0 0 -68342790.965514183 -27624248.097335815 0 -27624248.097335815 -49373325.43637085 0 0 0 0 -52622460.98631382 17620010.455131531 0 17620010.455131531 34374221.604507446 0 0 0 0 19568666.002112389 17378370.27935791 0 17378370.27935791 -14906277.554382324 0 0 0 0 -27182166.61771965 35629335.640106201 0 35629335.640106201 31839605.039093018 0 0 0 0 -17127954.038913716 -4489349.3733799383 0 -4489349.3733799383 10789359.379152041 0 0 0 0 5099425.0793094635 6698605.9533233643 0 6698605.9533233643 54368911.209503174 0 0 0 0 -41252766.486194611 16208593.3359375 0 16208593.3359375 117225386.70812988 0 0 0 0 -41816609.0519104 -73489979.526977539 0 -73489979.526977539 65862533.911521912 0 0 0 0 -20156602.871091843 -60425013.005584717 0 -60425013.005584717 53274793.234455109 0 0 0 0 -30084480.336133957 46565358.41809082 0 46565358.41809082 61979462.277267456 0 0 0 0 -1370544.546875 -12313801.780426025 0 -12313801.780426025 -17184085.324996948 0 0 0 0 385523.45594124869 -5078250.9064807743 0 -5078250.9064807743 5478223.0999009907 0 0 0 0 4666724.4810066223 -26321686.326324463 0 -26321686.326324463 -13088620.871887207 0 0 0 0 7611855.3213235699 -5964766.2019199133 0 -5964766.2019199133 206965.22024831921 0 0 0 0 22851196.477783203 43111098.181343079 0 43111098.181343079 -2852816.0545349121 0 0 0 0 -20536967.694194794 13545853.09072876 0 13545853.09072876 -6468053.1087493896 0 0 0 0 8808890.2680435181 -14248119.994140625 0 -14248119.994140625 -27937367.048370361 0 0 0 0 203591.46008276567 -4610174.499368079 0 -4610174.499368079 4330697.6550241932 0 0 0 0 5506462.1417350601 -11529102.34124098 0 -11529102.34124098 8148843.9971350729 0 0 0 0 -2572712.4907684326 -8666577.3502731323 0 -8666577.3502731323 -3307881.6463775635 0 0 0 0 -2697026.9788513184 -8147412.3402099609 0 -8147412.3402099609 -4207185.6202087402 0 0 0 0 -522210.30826554541 -608946.24273604155 0 -608946.24273604155 -835115.39188954979 0 0 0 0 -5588075.9325485229 -7404524.8667602539 0 -7404524.8667602539 -7699520.6031188965 0 0 0 0 -206851.22217808384 -749081.94387314469 0 -749081.94387314469 -570949.74500140548 0 0 0 0 -12992004.752196312 -18636424.274383545 0 -18636424.274383545 -1649196.0561523438 0 0 0 0 12094218.231697083 312535.59307861328 0 312535.59307861328 -28557047.891235352 0 0 0 0 -19595777.208286285 -9451463.8363037109 0 -9451463.8363037109 11386437.701904297 0 0 0 0 -14168369.921352386 7426468.2142333984 0 7426468.2142333984 38932710.236083984 0 0 0 0 -21526206.150642395 -11605161.370407104 0 -11605161.370407104 28459940.017092705 0 0 0 0 -1664113.3860244751 3229521.698425293 0 3229521.698425293 1585336.7021484375 0 0 0 0 -18037724.568004608 -3357260.7973022461 0 -3357260.7973022461 28463156.944519043 0 0 0 0 -23488109.137554169 -15013996.187866211 0 -15013996.187866211 49744285.176750183 0 0 0 0 -18623331.536785126 -5082241.3949127197 0 -5082241.3949127197 69943513.304168701 0 0 0 0 -5891104.1359186172 16056126.417434692 0 16056126.417434692 59962204.44519043 0 0 0 0 320308.02787971497 10218639.392410278 0 10218639.392410278 20035005.02935791 0 0 0 0 -21247735.717492104 -24575159.719337463 0 -24575159.719337463 6118443.4262695312 0 0 0 0 -459602.7421606509 -250583.02732338011 0 -250583.02732338011 230226.3368024379 0 0 0 0 -442739.80329435319 -304842.57981393486 0 -304842.57981393486 31228.220150493085 0 0 0 0 72306589.466430664 -4735915.0588378906 0 -4735915.0588378906 50535062.107849121 0 0 0 0 68484563.989028931 -7315894.6228027344 0 -7315894.6228027344 -21723310.811065674 0 0 0 0 45191506.969341278 -48546980.780212402 0 -48546980.780212402 -2481971.1732177734 0 0 0 0 -38263581.884101868 -29666093.04498291 0 -29666093.04498291 3614309.8767089844 0 0 0 0 11868750.316455841 -82547627.215072632 0 -82547627.215072632 59067131.912414551 0 0 0 0 -6673529.7242830582 -898643.41467238963 0 -898643.41467238963 7692994.7831392549 0 0 0 0 367677097.25343513 -162373692.40061951 0 -162373692.40061951 -28691068.037719727 0 0 0 0 74562735.857982635 -158887273.80448914 0 -158887273.80448914 244614958.74707031 0 0 0 0 90417058.508785248 -867832206.61769104 0 -867832206.61769104 1178796908.1599426 0 0 0 0 221080771.70314407 -1011582342.3152771 0 -1011582342.3152771 1321760655.933136 0 0 0 0 239953757.61637688 -728005597.86819077 0 -728005597.86819077 848254462.23612976 0 0 0 0 61972038.81671524 -518307720.25149536 0 -518307720.25149536 671294645.47881317 0 0 0 0 154668251.686306 -105541097.81761169 0 -105541097.81761169 338165283.88129425 0 0 0 0 -2562419.0092890225 554732.82774988562 0 554732.82774988562 6260473.6142062135 0 0 0 0 -2007159.6565551758 -5569199.1738586426 0 -5569199.1738586426 15093204.694488525 0 0 0 0 -35789451.121021271 -16467996.39979744 0 -16467996.39979744 18791154.363861084 0 0 0 0 -20130178.569625854 -1614827.7991333008 0 -1614827.7991333008 22333706.70904541 0 0 0 0 632074.79411480576 267606.71270021796 0 267606.71270021796 -888614.29580162466 0 0 0 0 7873932.3546295166 -6441926.2737426758 0 -6441926.2737426758 14992256.868835449 0 0 0 0 5742014.6393103674 -6362232.1438059881 0 -6362232.1438059881 2181034.5404765084 0 0 0 0 -84303156.427598953 -133117464.49977875 0 -133117464.49977875 1752270682.2457581 0 0 0 0 -825514093.2628479 -537806432.75622559 0 -537806432.75622559 7516525.0591583252 0 0 0 0 49954.429059391841 -194684.48505848646 0 -194684.48505848646 360198.64951295406 0 0 0 0 -272630277.36946869 -46096765.20765686 0 -46096765.20765686 -42725784.393409729 0 0 0 0 -266476073.39119339 -54418692.959037781 0 -54418692.959037781 -36218812.605987549 0 0 0 0 -1081254588.2718887 9792753.8342285156 0 9792753.8342285156 63392847.9349823 0 0 0 0 -88911221.613632202 211655152.36955261 0 211655152.36955261 -79516966.634994507 0 0 0 0 101614341.25602722 -102960170.0405426 0 -102960170.0405426 -62361819.463302612 0 0 0 0 33703721.769096375 15071010.674819946 0 15071010.674819946 -141348712.25158691 0 0 0 0 144993108.91272736 -177879293.21315002 0 -177879293.21315002 -26507204.671768188 0 0 0 0 -16717805.436969757 -103089562.62327576 0 -103089562.62327576 268884798.6932373 0 0 0 0 -146657449.71393394 -138328227.93765259 0 -138328227.93765259 28361943.802490234 0 0 0 0 -11462646.884652559 -1619424.1119888723 0 -1619424.1119888723 5238228.8407178055 0 0 0 0 -1081184687.8411026 379518531.26481628 0 379518531.26481628 176528889.9960022 0 0 0 0 -572276446.26905346 -878096058.52107239 0 -878096058.52107239 -936940700.68489075 0 0 0 0 -4222921.7265751846 -355185.20716406405 0 -355185.20716406405 1528383.7922307448 0 0 0 0 78732431.731283188 -580481018.55867004 0 -580481018.55867004 -1277037947.1893082 0 0 0 0 -1549781504.3638496 -1688144422.5887909 0 -1688144422.5887909 6808248.8737030029 0 0 0 0 92413496.856733322 -310863665.4380188 0 -310863665.4380188 199056492.26642704 0 0 0 0 512762170.15194416 -1944924539.3773422 0 -1944924539.3773422 365012856.14859009 0 0 0 0 -7632912.5670852661 -1076521570.1172562 0 -1076521570.1172562 -101314751.13754272 0 0 0 0 -2323032713.8136234 -333518204.95530701 0 -333518204.95530701 451763256.89532471 0 0 0 0 -901231328.95059586 -405672063.82901382 0 -405672063.82901382 351778726.36825562 0 0 0 0 -657203518.24768066 -992303715.84432983 0 -992303715.84432983 40577058.922821045 0 0 0 0 -708831474.80696487 -606076457.83921814 0 -606076457.83921814 -37348286.498657227 0 0 0 0 -638882481.96858406 -239545505.38335037 0 -239545505.38335037 -356241793.6546936 0 0 0 0 -24889121.735767365 -1070576489.1973572 0 -1070576489.1973572 -960648428.02852631 0 0 0 0 1428342.8125129547 -1019623.4036922157 0 -1019623.4036922157 2505174.5248172171 0 0 0 0 -46639269.812423706 -416894185.89651489 0 -416894185.89651489 2629219303.2870483 0 0 0 0 -199647964.48243332 -532009575.38876343 0 -532009575.38876343 -1351384822.2199631 0 0 0 0 630242786.95679855 -1639728215.9804077 0 -1639728215.9804077 1600331112.7874756 0 0 0 0 653800819.4083519 -1819336303.2679291 0 -1819336303.2679291 -139292782.99102783 0 0 0 0 842639809.30094087 -825907372.33951879 0 -825907372.33951879 958846084.0642395 0 0 0 0 635848100.27906418 -970209157.15853882 0 -970209157.15853882 907111583.77319717 0 0 0 0 220735402.61982346 -1053602552.5430908 0 -1053602552.5430908 2384202032.964325 0 0 0 0 826257837.54827046 -1419241849.0131602 0 -1419241849.0131602 1366931510.1797791 0 0 0 0 766177797.2943573 -822391272.74517822 0 -822391272.74517822 641006429.05344009 0 0 0 0 481375255.21384239 -560419206.03630066 0 -560419206.03630066 596829857.46713257 0 0 0 0 699418477.97877312 -1046353990.3969879 0 -1046353990.3969879 986658481.83778381 0 0 0 0 558976373.4628849 -805099547.90679932 0 -805099547.90679932 770910301.25357056 0 0 0 0 687329954.20828342 -1419816915.5820541 0 -1419816915.5820541 518997552.41522217 0 0 0 0 611520950.86409378 -683724905.04257202 0 -683724905.04257202 555016560.39538574 0 0 0 0 1346085142.3954062 -626222827.12134933 0 -626222827.12134933 558109528.60670471 0 0 0 0 1173007514.7551575 -918809568.47080994 0 -918809568.47080994 320225485.7784729 0 0 0 0 1503621930.9367905 -1211319449.0168304 0 -1211319449.0168304 201547661.29651642 0 0 0 0 2976593281.561945 -277161589.07115173 0 -277161589.07115173 253518154.49783897 0 0 0 0 1251567858.1234732 670127654.569561 0 670127654.569561 2722795684.5414886 0 0 0 0 460369776.51574898 -662865810.81903076 0 -662865810.81903076 603949299.16435242 0 0 0 0 883911330.48398447 -1676096216.0789776 0 -1676096216.0789776 2334404003.314209 0 0 0 0 2989905073.591507 644602516.31887817 0 644602516.31887817 129679643.52049255 0 0 0 0 276793.60170219094 877412.21945760213 0 877412.21945760213 8410349.5357673019 0 0 0 0 1481608294.0839787 -1946655629.3135262 0 -1946655629.3135262 2071528539.6446838 0 0 0 0 -2371820144.2160301 -744635578.1352005 0 -744635578.1352005 1255190312.9360809 0 0 0 0 -977612594.37787628 373792813.71395874 0 373792813.71395874 1133056885.3061743 0 0 0 0 -507914096.9141674 280246297.93004608 0 280246297.93004608 772427636.49203491 0 0 0 0 -277628081.26638794 1245784144.5345764 0 1245784144.5345764 2770513455.2725563 0 0 0 0 -1213161234.3255081 1103106701.1012268 0 1103106701.1012268 477284049.21054077 0 0 0 0 -970239514.41649818 316749180.22637939 0 316749180.22637939 922904420.71542358 0 0 0 0 -496189908.2148037 1151665356.5918884 0 1151665356.5918884 -1447330539.1308746 0 0 0 0 -825208659.41530991 1330291299.5418243 0 1330291299.5418243 -68056694.851013184 0 0 0 0 290863050.3728981 257327388.10285187 0 257327388.10285187 -973263502.37132263 0 0 0 0 1350169470.5613747 145029836.71466827 0 145029836.71466827 -277450782.76362991 0 0 0 0 -120539.40324659529 3824676.1859286893 0 3824676.1859286893 23967479.71192497 0 0 0 0 -357699540.17929339 -341540848.37906456 0 -341540848.37906456 665841935.24859619 0 0 0 0 414876214.53428841 641505204.37823677 0 641505204.37823677 162071665.86210632 0 0 0 0 96429712.060386658 427753351.86500549 0 427753351.86500549 4819152.1765289307 0 0 0 0 104949340.4119339 373213409.09662056 0 373213409.09662056 352085567.28656006 0 0 0 0 -1784792.68439472 6603881.8186290152 0 6603881.8186290152 38417201.691636622 0 0 0 0 197400154.7177372 495699092.29261971 0 495699092.29261971 48510181.043304443 0 0 0 0 -565802536.83794975 -31660664.601296425 0 -31660664.601296425 7437333.885925293 0 0 0 0 160050199.16220093 624749566.52696228 0 624749566.52696228 -179635039.17930603 0 0 0 0 70057775.018260956 637395677.75250244 0 637395677.75250244 182002569.14828491 0 0 0 0 19725004.55418396 693466710.30993652 0 693466710.30993652 402016452.62466431 0 0 0 0 -334586397.25299263 211765610.29832458 0 211765610.29832458 811674275.10778809 0 0 0 0 -1185199980.832274 481585153.1813736 0 481585153.1813736 838935011.49240112 0 0 0 0 -627206466.3386898 578894898.98561859 0 578894898.98561859 727428830.19064331 0 0 0 0 -165675667.93135834 84278867.58001709 0 84278867.58001709 1116492668.7237549 0 0 0 0 -234019480.02846527 318705954.67364502 0 318705954.67364502 507384319.59542847 0 0 0 0 -157340098.07440758 -5000441.6156082153 0 -5000441.6156082153 1121472026.3733368 0 0 0 0 377674.70490412973 -3247600.8843595982 0 -3247600.8843595982 813015.9840099141 0 0 0 0 118348043.31756973 -252236060.72825623 0 -252236060.72825623 332148747.068573 0 0 0 0 -149878613.47102165 -186488756.51533508 0 -186488756.51533508 731521016.79577637 0 0 0 0 -62335206.340877533 9270751.449432373 0 9270751.449432373 813806172.09158325 0 0 0 0 -146930843.05229568 -146162716.20333862 0 -146162716.20333862 922577892.64498901 0 0 0 0 -64219344.986824036 -26172755.496643066 0 -26172755.496643066 631881837.52392578 0 0 0 0 2241079.8687311402 -6236886.7565503269 0 -6236886.7565503269 1278181.9970322102 0 0 0 0 -60843875.329729557 130586188.98125458 0 130586188.98125458 -239986075.66427612 0 0 0 0 2557308.0193944657 -4108886.6002234481 0 -4108886.6002234481 -7146002.1623159647 0 0 0 0 -60024084.221384048 -150872067.90480042 0 -150872067.90480042 -163057716.28015137 0 0 0 0 59717698.731365204 -85422003.530471802 0 -85422003.530471802 -109390471.31156921 0 0 0 0 60770612.721439362 -20555256.03326416 0 -20555256.03326416 -202240269.86083221 0 0 0 0 39110237.878047943 -154045751.14274597 0 -154045751.14274597 -172860258.90270996 0 0 0 0 76419617.138339996 -239940572.52913284 0 -239940572.52913284 1798058.4496459961 0 0 0 0 31970465.989425659 -69865311.08404541 0 -69865311.08404541 -100718910.65109253 0 0 0 0 155869383.98670959 -101723519.17500305 0 -101723519.17500305 -151190057.90440369 0 0 0 0 33880303.64214325 -184443852.39898682 0 -184443852.39898682 858478646.03504181 0 0 0 0 121336324.84399033 -34665018.632980347 0 -34665018.632980347 75933115.76947403 0 0 0 0 -5362163.507999979 7575255.2808364052 0 7575255.2808364052 52669863.19828701 0 0 0 0 -580677237.67113113 151453877.03816223 0 151453877.03816223 554356088.47697449 0 0 0 0 -1434247614.7709675 -361749769.14510918 0 -361749769.14510918 -182801779.03198242 0 0 0 0 -13207625.423897933 3076980.8327925708 0 3076980.8327925708 67160803.757944837 0 0 0 0 -2020974863.1651731 416592939.96688843 0 416592939.96688843 1644989307.1571655 0 0 0 0 -227162838.81363678 -165400728.81143188 0 -165400728.81143188 11226203.298469543 0 0 0 0 -20470965.071421042 -26720268.595230259 0 -26720268.595230259 12481720.530043948 0 0 0 0 -48776970.54259491 -71405130.867851257 0 -71405130.867851257 10578773.630630493 0 0 0 0 -170813963.89972985 658044538.89784241 0 658044538.89784241 2099088255.795166 0 0 0 0 915638679.77594471 -396219714.37145233 0 -396219714.37145233 -1180033255.2962685 0 0 0 0 187147134.20527047 -1008708310.3833733 0 -1008708310.3833733 3325753635.3522339 0 0 0 0 -2738999.7332700482 -8659995.995051384 0 -8659995.995051384 10435351.218286648 0 0 0 0 -729050785.08631599 -52371047.142896652 0 -52371047.142896652 6485318966.0331116 0 0 0 0 -569321315.14385998 -455024399.37750053 0 -455024399.37750053 3176678155.5730133 0 0 0 0 -572873265.51896012 1452888506.6684952 0 1452888506.6684952 5311148475.4241486 0 0 0 0 -1110204144.5777378 1762173258.8059235 0 1762173258.8059235 6612733433.1249542 0 0 0 0 -312064117.5921495 1834254574.3031216 0 1834254574.3031216 6322095398.0909424 0 0 0 0 -636055478.73570466 1145448012.7293396 0 1145448012.7293396 5624040810.3665009 0 0 0 0 3500385161.844378 3150083064.0567627 0 3150083064.0567627 6620311349.080368 0 0 0 0 2867613667.9172873 3684564883.8282089 0 3684564883.8282089 2177244841.9480133 0 0 0 0 1775051006.3045368 1313371940.0995407 0 1313371940.0995407 -945505978.07211304 0 0 0 0 -357827807.34938747 2449176775.7310028 0 2449176775.7310028 4701159166.7822876 0 0 0 0 -351007436.77650547 2854378208.6380005 0 2854378208.6380005 6635197547.6027031 0 0 0 0 -576696656.15375769 948028253.78578782 0 948028253.78578782 4209239746.5818329 0 0 0 0 196454729.87812975 1626040044.3920898 0 1626040044.3920898 3172534317.2095795 0 0 0 0 602223104.01989388 583927359.98506927 0 583927359.98506927 1050094893.9611511 0 0 0 0 405079230.20722914 846140936.82632446 0 846140936.82632446 1917087108.6387482 0 0 0 0 905033501.32481003 215702741.84108734 0 215702741.84108734 238489619.72720337 0 0 0 0 270219404.65163374 -265758346.92816734 0 -265758346.92816734 -111054645.80921936 0 0 0 0 -410114679.42854881 -513362161.83835983 0 -513362161.83835983 -23194501.904602051 0 0 0 0 -71918742.958000213 169529231.19653702 0 169529231.19653702 1333855580.9389343 0 0 0 0 284023900.43977833 -549590526.04795074 0 -549590526.04795074 -197308926.38141632 0 0 0 0 -494219949.2590974 -183790409.38519478 0 -183790409.38519478 1650129724.0032806 0 0 0 0 -13982598.112179939 -30929370.064646952 0 -30929370.064646952 6264827.0085067563 0 0 0 0 -32126613.740224838 7027907.6349487305 0 7027907.6349487305 -74307905.048492432 0 0 0 0 329879546.38109541 14172066.194831848 0 14172066.194831848 -795832207.27907562 0 0 0 0 -9011530.593857348 -16198964.300411746 0 -16198964.300411746 16543533.702743337 0 0 0 0 -7425791.7508049011 -12645350.848320007 0 -12645350.848320007 4876507.1281280518 0 0 0 0 -5201601.7307273969 -10669462.11926955 0 -10669462.11926955 7200142.8236278109 0 0 0 0 1384134.9070777893 -46213294.049194336 0 -46213294.049194336 -203587146.83016968 0 0 0 0 -9273052.3207621574 -6090233.7544670105 0 -6090233.7544670105 14448759.571716309 0 0 0 0 -5086098.6756286621 -8233094.954208374 0 -8233094.954208374 6787917.5724487305 0 0 0 0 -10314342.82866168 -6292921.8499965668 0 -6292921.8499965668 9260457.3190917969 0 0 0 0 -8622668.8058638573 -11388859.831874847 0 -11388859.831874847 4028885.1523742676 0 0 0 0 -710563571.06945801 382585743.48692322 0 382585743.48692322 -66621116.756942749 0 0 0 0 -609353402.75865364 -222782251.07524681 0 -222782251.07524681 246868325.86628723 0 0 0 0 -493705190.56660461 21785027.645889282 0 21785027.645889282 500494236.8604126 0 0 0 0 -516124877.06305504 -287584853.41221619 0 -287584853.41221619 418164964.33096313 0 0 0 0 -13093270.828493677 -6926179.8002834842 0 -6926179.8002834842 23229406.55824656 0 0 0 0 -12939545.070775032 -9540254.7549324036 0 -9540254.7549324036 6572210.5431213379 0 0 0 0 -13787723.463180542 -12980766.280792236 0 -12980766.280792236 4926759.2440643311 0 0 0 0 -6868502.4824714037 -10053453.680814609 0 -10053453.680814609 22340425.879043691 0 0 0 0 3486194.5484994859 6831555.1193832159 0 6831555.1193832159 15080053.965158716 0 0 0 0 -60512.8522842651 -1705343.6950050369 0 -1705343.6950050369 4048892.0009550601 0 0 0 0 -519143791.72081423 -1128206172.5439281 0 -1128206172.5439281 6095557796.7420959 0 0 0 0 179238541.15437007 3969460479.3634033 0 3969460479.3634033 6606022879.0130463 0 0 0 0 514384952.43668383 1458233098.1512375 0 1458233098.1512375 4136072108.9729691 0 0 0 0 2600324.3678159732 2149874.794444479 0 2149874.794444479 4566408.4343315437 0 0 0 0 -251875339.2694799 -290479554.78471375 0 -290479554.78471375 8630895508.8914948 0 0 0 0 -640449253.9865092 -2037591138.0758209 0 -2037591138.0758209 6602218054.2404327 0 0 0 0 -973891973.85736704 -318898877.34918976 0 -318898877.34918976 3252597647.2483215 0 0 0 0 -6604445.1382083893 -5679857.3926391602 0 -5679857.3926391602 6098879.1019592285 0 0 0 0 1373975099.607939 -1971993371.9375381 0 -1971993371.9375381 3014018114.0002136 0 0 0 0 6023008229.9988623 -2454732193.640625 0 -2454732193.640625 -2322002271.3776855 0 0 0 0 -2785736.3418784537 -8317111.4266871894 0 -8317111.4266871894 2309540.7498483509 0 0 0 0 -2715086.2337564528 -6884912.2018419364 0 -6884912.2018419364 850499.81334175169 0 0 0 0 470395742.47089684 206489280.97953796 0 206489280.97953796 -603081891.24205017 0 0 0 0 -4096934.3913898235 -15452462.180376902 0 -15452462.180376902 9537322.5044647902 0 0 0 0 184682582.31148934 198995219.49641418 0 198995219.49641418 -232559488.50856781 0 0 0 0 -146840923.4216826 -1038556144.0160275 0 -1038556144.0160275 2788073926.454071 0 0 0 0 -1053663.2479101736 -16325436.160476424 0 -16325436.160476424 6563164.5170223564 0 0 0 0 9184372.2199106216 -22042452.737632751 0 -22042452.737632751 -11872123.779998779 0 0 0 0 -13332005.892578125 -9247790.7321166992 0 -9247790.7321166992 6369526.4824523926 0 0 0 0 -7350356.4445201373 -9654889.2606524304 0 -9654889.2606524304 18418276.759071246 0 0 0 0 -40590882.35590744 -44139621.579162598 0 -44139621.579162598 28350210.001998901 0 0 0 0 16044982.483309746 -50026619.329027176 0 -50026619.329027176 4873542.7612915039 0 0 0 0 -9382311.066742897 -7895766.404258728 0 -7895766.404258728 9999072.5299263 0 0 0 0 -169055819.53850937 -31251427.275787354 0 -31251427.275787354 113221025.00747681 0 0 0 0 -6850253.4542464204 -2670254.4258948732 0 -2670254.4258948732 17575085.780665144 0 0 0 0 -98284041.282529831 -8665064.6600341797 0 -8665064.6600341797 7609077.2089347839 0 0 0 0 -148353280.6411171 -57779114.391723633 0 -57779114.391723633 116743288.31347656 0 0 0 0 -213704826.81509018 51063248.045043945 0 51063248.045043945 -32054242.575195312 0 0 0 0 74547426.538623571 -28129846.275714874 0 -28129846.275714874 -12396889.127075195 0 0 0 0 10148440.490555989 -7918115.2213425785 0 -7918115.2213425785 -5855808.9030567855 0 0 0 0 23396361.985056877 -123620636.84957886 0 -123620636.84957886 89255140.035461426 0 0 0 0 -45219369.493400574 57904956.536102295 0 57904956.536102295 -422614813.91889954 0 0 0 0 -136737219.59956944 -225801214.07413769 0 -225801214.07413769 -163414974.5586853 0 0 0 0 -159900896.30627501 -42704727.265043259 0 -42704727.265043259 12000546.771331787 0 0 0 0 -293202513.63246441 779729382.6545639 0 779729382.6545639 513442900.30480957 0 0 0 0 -223772350.72352028 222709554.57872009 0 222709554.57872009 908107820.63232422 0 0 0 0 -121530807.36263847 583850267.6900177 0 583850267.6900177 1268758674.7644196 0 0 0 0 1884535177.3290238 -1891682580.667984 0 -1891682580.667984 -579224216.11376953 0 0 0 0 -166123608.34303665 909801792.12030029 0 909801792.12030029 4300911160.0606995 0 0 0 0 2810199806.1712227 824102042.28190613 0 824102042.28190613 -80364097.35949707 0 0 0 0 -506194365.00064278 258283084.41333008 0 258283084.41333008 13403689.549915314 0 0 0 0 1813580.9671913565 -2597002.9266496077 0 -2597002.9266496077 3404186.9531768262 0 0 0 0 -206122534.65292823 -2300187416.7516813 0 -2300187416.7516813 -316645533.9083252 0 0 0 0 532852110.33361053 11375240.575462341 0 11375240.575462341 -1971740974.131897 0 0 0 0 -1458926.3998323763 -2943162.1343026906 0 -2943162.1343026906 1493743.6970261391 0 0 0 0 311209434.73740196 322890147.16207886 0 322890147.16207886 -465566710.67498779 0 0 0 0 7420601.1022803113 -7484887.8451838568 0 -7484887.8451838568 18725.195455297828 0 0 0 0 162280.05366183349 -1763204.0637772856 0 -1763204.0637772856 -304480.13061696291 0 0 0 0 397441456.31599998 -526753942.67672729 0 -526753942.67672729 -2622144968.0775146 0 0 0 0 -602185055.21497631 -349900188.57986832 0 -349900188.57986832 -170161903.56738281 0 0 0 0 18751.550737887621 -141890.79656821489 0 -141890.79656821489 453020.46042446792 0 0 0 0 4462174.3965401277 -7807070.9638049752 0 -7807070.9638049752 1069806.0559574496 0 0 0 0 -1377465.9238091949 -9515571.2965349331 0 -9515571.2965349331 2976517.8230700716 0 0 0 0 -24758834.109939575 62677529.799377441 0 62677529.799377441 -197276348.29888916 0 0 0 0 -363589186.33759642 -639892786.87952042 0 -639892786.87952042 291524197.66477966 0 0 0 0 17177322.790966034 103174789.04418945 0 103174789.04418945 -171505922.23243713 0 0 0 0 140621214.06085205 -112999648.84060669 0 -112999648.84060669 -171572454.12277222 0 0 0 0 -88610415.918672562 -24196960.62159729 0 -24196960.62159729 11129962.09777832 0 0 0 0 -116599331.26273584 -231943616.29899597 0 -231943616.29899597 762132741.32415771 0 0 0 0 210051426.60555077 -475343185.18484497 0 -475343185.18484497 617645816.09814453 0 0 0 0 -35632153.682116747 53240770.082351685 0 53240770.082351685 -84592768.697803497 0 0 0 0 62077538.443802409 166957335.21657944 0 166957335.21657944 38133214.355865479 0 0 0 0 432644007.38334179 -317346712.05813599 0 -317346712.05813599 165349351.19660187 0 0 0 0 -645283.4323692699 -1266643.9407374412 0 -1266643.9407374412 3486353.5239241421 0 0 0 0 -739624857.06171608 1229075636.0438995 0 1229075636.0438995 3237430426.6483459 0 0 0 0 -1023342311.6270125 293653124.50715446 0 293653124.50715446 2554214678.9376526 0 0 0 0 253111543.15795135 -964365981.08837891 0 -964365981.08837891 1475493022.871048 0 0 0 0 -297421913.83230782 454625625.14907837 0 454625625.14907837 1851744035.2262077 0 0 0 0 -57026495.500391483 362777003.53791809 0 362777003.53791809 592399114.14251709 0 0 0 0 559784484.5400722 215289272.07248688 0 215289272.07248688 565038420.19616699 0 0 0 0 298061717.41582012 -422971371.34594727 0 -422971371.34594727 1470614877.360611 0 0 0 0 198654426.57948798 290337681.37557602 0 290337681.37557602 462960219.87582397 0 0 0 0 51823246.122030735 -264189979.76857758 0 -264189979.76857758 48056635.040985107 0 0 0 0 -5479164.0011205133 10313521.498378221 0 10313521.498378221 17587313.375607923 0 0 0 0 80748030.338277817 -65153075.784332275 0 -65153075.784332275 265498944.55635071 0 0 0 0 -19573075.446964264 -61586395.57447052 0 -61586395.57447052 294325932.41171265 0 0 0 0 -463848210.04140472 -174903998.29796219 0 -174903998.29796219 2550993921.0259399 0 0 0 0 512825542.13962555 -752238753.50422668 0 -752238753.50422668 788171496.89442444 0 0 0 0 528457765.02131271 1071404549.6334381 0 1071404549.6334381 830384998.95050049 0 0 0 0 -749102.30613236222 4173682.9213602357 0 4173682.9213602357 5869523.2670686543 0 0 0 0 777792561.85075569 -1457027573.599823 0 -1457027573.599823 2471650999.8823853 0 0 0 0 -204110630.48914909 77959782.104278564 0 77959782.104278564 1040929303.7375031 0 0 0 0 -440400258.98697221 -45539388.292297363 0 -45539388.292297363 1125925105.2191467 0 0 0 0 -307213922.06997776 -59052341.192840576 0 -59052341.192840576 1110500915.1348724 0 0 0 0 57373846.919649482 -296123678.25348091 0 -296123678.25348091 532878191.70297241 0 0 0 0 -304664042.30449486 -31560045.942855835 0 -31560045.942855835 960276879.14242554 0 0 0 0 -100548626.38114929 135147596.50979614 0 135147596.50979614 547846865.11451721 0 0 0 0 -116123732.1338954 256648832.59146881 0 256648832.59146881 1099868398.353241 0 0 0 0 -277302444.96099985 -310887276.78456306 0 -310887276.78456306 719190415.79406738 0 0 0 0 252531045.4419322 303892713.08087921 0 303892713.08087921 359139318.65559387 0 0 0 0 -772166.76268455689 -237804.86470341869 0 -237804.86470341869 1486189.605366528 0 0 0 0 309690307.36464357 33300205.701169968 0 33300205.701169968 935617282.00015259 0 0 0 0 -133601317.67902708 -18729336.738327026 0 -18729336.738327026 1077010439.0329208 0 0 0 0 311043933.68045378 16032573.556396484 0 16032573.556396484 819344673.65304565 0 0 0 0 -168337483.79291725 -50990330.371429443 0 -50990330.371429443 1143732704.0624409 0 0 0 0 259325440.64416504 -17734471.393203735 0 -17734471.393203735 819411413.05240488 0 0 0 0 321930720.80500317 71704480.902359009 0 71704480.902359009 700299858.7640686 0 0 0 0 418645665.03581357 -32819839.6980896 0 -32819839.6980896 813123501.80252075 0 0 0 0 525430352.93344164 -216415932.54696655 0 -216415932.54696655 902554641.61694336 0 0 0 0 756146444.51411164 -46854789.184736252 0 -46854789.184736252 577015989.43676758 0 0 0 0 687314479.83733511 -275625875.4066391 0 -275625875.4066391 893562203.36859131 0 0 0 0 -136438008.02473974 275212022.11381531 0 275212022.11381531 700718348.57403564 0 0 0 0 470986822.82257891 -8453973.6399230957 0 -8453973.6399230957 247359382.57467651 0 0 0 0 -139075741.98801041 182563252.82003784 0 182563252.82003784 413114423.12576294 0 0 0 0 -201375398.30002451 17461255.376834869 0 17461255.376834869 749200807.89901733 0 0 0 0 -378799155.06189537 194200912.53337097 0 194200912.53337097 964161731.75364685 0 0 0 0 -390024633.47905636 149669143.2696991 0 149669143.2696991 1342620197.7251892 0 0 0 0 -312409437.10088158 552488173.65505981 0 552488173.65505981 690310747.43753052 0 0 0 0 -228521337.14297676 109239513.2837677 0 109239513.2837677 530789329.65176392 0 0 0 0 -21636110.312945366 -147861727.04785156 0 -147861727.04785156 -117887281.89325714 0 0 0 0 -22887447.004892349 -167202681.68829346 0 -167202681.68829346 -415324499.78001404 0 0 0 0 -714076004.38192177 -349833242.45184326 0 -349833242.45184326 356551707.76582146 0 0 0 0 195302992.88675523 215835694.69848633 0 215835694.69848633 -502601038.39093018 0 0 0 0 -421420720.75341249 -449334299.63787746 0 -449334299.63787746 275401024.97814941 0 0 0 0 -467714953.43444443 -49120473.107131958 0 -49120473.107131958 10355511.582885742 0 0 0 0 5336759.4330976261 -11132516.289111629 0 -11132516.289111629 9251945.1237070858 0 0 0 0 569845.90409908257 -2622759.0567378178 0 -2622759.0567378178 1405211.6425634995 0 0 0 0 101830910.03733076 -575085370.21975756 0 -575085370.21975756 1727099174.5977783 0 0 0 0 412891400.32073128 2471069322.4851723 0 2471069322.4851723 6604239399.0474854 0 0 0 0 163795365.0112232 1385353505.3858109 0 1385353505.3858109 2230597319.9370728 0 0 0 0 -1103631130.0797343 77523216.220767975 0 77523216.220767975 6617395341.3557129 0 0 0 0 1097727270.4444163 -1629718290.0422363 0 -1629718290.0422363 4236144739.5147705 0 0 0 0 -1089919358.5490971 -823806425.2991333 0 -823806425.2991333 6582706085.3676453 0 0 0 0 2170372065.3992262 -1589732671.3832006 0 -1589732671.3832006 574151315.53051758 0 0 0 0 2179016987.614316 -603290571.54167175 0 -603290571.54167175 -365072352.74676514 0 0 0 0 2537694.8936412865 -3781194.9414319843 0 -3781194.9414319843 4857945.4203895777 0 0 0 0 819669539.52339315 148681418.69403076 0 148681418.69403076 -122167913.92298889 0 0 0 0 1619272116.6449828 -524694860.94534302 0 -524694860.94534302 21544514.360473633 0 0 0 0 653333195.12958896 -68197806.302047729 0 -68197806.302047729 -1100618037.4619751 0 0 0 0 1592003509.525681 -948547353.55833435 0 -948547353.55833435 -1233097832.8834229 0 0 0 0 1157361578.9266655 -1046788008.6103439 0 -1046788008.6103439 141688291.57781982 0 0 0 0 1149738058.898612 -1247297645.9674911 0 -1247297645.9674911 -429113551.25143433 0 0 0 0 1058726413.3980875 -834808059.02301025 0 -834808059.02301025 -148241637.8555603 0 0 0 0 524176251.09145832 -386912823.54626465 0 -386912823.54626465 562008273.50408936 0 0 0 0 776819950.35470676 -251107627.84707642 0 -251107627.84707642 214455877.07058334 0 0 0 0 1299141048.5291615 -719828212.0836792 0 -719828212.0836792 621089330.53018188 0 0 0 0 843006163.73283553 -336935294.2820282 0 -336935294.2820282 511218802.41534424 0 0 0 0 2910311532.3963013 -1983791132.2966309 0 -1983791132.2966309 -514599380.7175293 0 0 0 0 920019199.39856005 -682403392.75528717 0 -682403392.75528717 1905815243.6072998 0 0 0 0 -646764369.19117832 -228301168.21383667 0 -228301168.21383667 2237002643.9056396 0 0 0 0 -1606945930.7452745 -1082252856.803894 0 -1082252856.803894 3895568432.0276108 0 0 0 0 -690144564.56848288 -100420431.10742188 0 -100420431.10742188 1914271317.9990234 0 0 0 0 946145.17087739031 -589241.11013979465 0 -589241.11013979465 453244.87107616663 0 0 0 0 -2034309144.9996891 1966763375.9621582 0 1966763375.9621582 -1218479571.496582 0 0 0 0 -1409438967.5663671 -625252396.46325684 0 -625252396.46325684 3851374768.6488953 0 0 0 0 1276664387.870981 -221147080.63971519 0 -221147080.63971519 -270915909.71917725 0 0 0 0 -79156427.540840864 -518962856.94041443 0 -518962856.94041443 1332165107.9243469 0 0 0 0 713875.64319616638 913317.13006341457 0 913317.13006341457 3304725.8823421597 0 0 0 0 783640647.99737608 -1362854744.6500549 0 -1362854744.6500549 1049917225.9676361 0 0 0 0 1188363239.938962 -376049535.18334961 0 -376049535.18334961 312102970.82000732 0 0 0 0 -232987882.50756294 251108829.48704529 0 251108829.48704529 -276806757.24839783 0 0 0 0 -222125.48223390209 -2977620.3650774518 0 -2977620.3650774518 3036112.8347922266 0 0 0 0 187493.03802904018 -1294851.6739381384 0 -1294851.6739381384 1307075.4844325185 0 0 0 0 -111998631.26923645 -630952052.96183014 0 -630952052.96183014 713974971.94897461 0 0 0 0 -733137283.22920537 417798502.81080627 0 417798502.81080627 760119172.49791718 0 0 0 0 389311218.75681537 -348261516.61018372 0 -348261516.61018372 -668572161.41409302 0 0 0 0 367268647.99660867 -1415021472.5550079 0 -1415021472.5550079 1841721078.4059372 0 0 0 0 489027126.09447366 628102252.62577057 0 628102252.62577057 -183493288.09703064 0 0 0 0 -940962785.79125261 -279430515.10965729 0 -279430515.10965729 6597223704.4083557 0 0 0 0 -103940.20585490574 -1421877.4863173179 0 -1421877.4863173179 1299912.4688548744 0 0 0 0 -297830496.35851759 -1565900374.5691376 0 -1565900374.5691376 6516517851.1174927 0 0 0 0 -221863.73160713477 -2598833.7968649613 0 -2598833.7968649613 2221468.4340614825 0 0 0 0 -1269200243.6049626 435069993.80090332 0 435069993.80090332 4156599116.1320801 0 0 0 0 1462202822.520292 -1435084043.1003876 0 -1435084043.1003876 1857676078.0900879 0 0 0 0 -1712125.6465707889 53900343.40184021 0 53900343.40184021 3041899306.9046021 0 0 0 0 -508761.87096274761 -1013880.7311462117 0 -1013880.7311462117 5413286.7078799605 0 0 0 0 69265026.800326571 -1165864262.3153229 0 -1165864262.3153229 6588474035.809845 0 0 0 0 223994817.10393095 1183428804.9372406 0 1183428804.9372406 3048491772.2933044 0 0 0 0 -947303033.9305166 -143575999.36143112 0 -143575999.36143112 3772699204.8320923 0 0 0 0 -1030299625.6220895 706122496.51844788 0 706122496.51844788 6604746643.8638458 0 0 0 0 620259474.65632725 -623622522.05530548 0 -623622522.05530548 -1052104188.2860413 0 0 0 0 513242666.7339747 1023993513.2038193 0 1023993513.2038193 937591240.38552856 0 0 0 0 -250296.6785880237 -18727632.600082397 0 -18727632.600082397 -12906840.135467529 0 0 0 0 1848744420.4919908 -1373638219.1221161 0 -1373638219.1221161 -134072386.71459961 0 0 0 0 -1226608.6207348485 2864970.2746141106 0 2864970.2746141106 6108040.7250172645 0 0 0 0 -121750213.99918862 -98951265.866874695 0 -98951265.866874695 -65725009.535385132 0 0 0 0 -749652.94303630374 1819905.0369464606 0 1819905.0369464606 5179535.4056611359 0 0 0 0 -303299.55447766732 -1333253.6753597623 0 -1333253.6753597623 7356465.8636765331 0 0 0 0 -74171250.239683867 73253800.193397522 0 73253800.193397522 -58011420.011398315 0 0 0 0 842430104.63803148 -586567429.34223938 0 -586567429.34223938 182538410.8610611 0 0 0 0 15297217.29831025 292002510.24187756 0 292002510.24187756 261448282.94839478 0 0 0 0 335377.46858016885 -121047720.57000732 0 -121047720.57000732 -141349522.82067871 0 0 0 0 -216740246.05322373 127299146.91023254 0 127299146.91023254 600127598.60266113 0 0 0 0 -179161853.82426441 15337048.346069336 0 15337048.346069336 396233992.19949341 0 0 0 0 -79305765.207831472 183947950.50437927 0 183947950.50437927 78880082.596847534 0 0 0 0 -817853.77432798292 -274408187.8056699 0 -274408187.8056699 842280379.98077393 0 0 0 0 -254145139.71884727 -755038205.42868042 0 -755038205.42868042 393045539.45588684 0 0 0 0 -254985769.52142653 -42223470.380340576 0 -42223470.380340576 1369112428.2265015 0 0 0 0 -433537198.72909832 -1502936676.685791 0 -1502936676.685791 2692974170.5669556 0 0 0 0 311316054.69099653 -671880060.30349731 0 -671880060.30349731 991445442.82455158 0 0 0 0 -1098162.0882288592 -335377.58346938342 0 -335377.58346938342 4674019.8418588489 0 0 0 0 897113076.48168564 366516.62422180176 0 366516.62422180176 2067533054.362854 0 0 0 0 729672212.80584669 -653451986.73718262 0 -653451986.73718262 990384218.59263039 0 0 0 0 33527.516643583527 -1075313.8862568699 0 -1075313.8862568699 2921612.0942108482 0 0 0 0 910330343.35848486 -810862973.6182642 0 -810862973.6182642 562081683.3744812 0 0 0 0 -788334.15566815576 -160992.46620690078 0 -160992.46620690078 2265258.3799723685 0 0 0 0 -384706253.31817287 415277698.63968658 0 415277698.63968658 740718626.88391113 0 0 0 0 330572853.41844666 -592833818.21260071 0 -592833818.21260071 175208299.99773407 0 0 0 0 1752087308.7436514 -1451736042.36903 0 -1451736042.36903 1852847001.7756348 0 0 0 0 1452964378.7924206 -34108241.720672607 0 -34108241.720672607 953059113.74514771 0 0 0 0 257262439.52332067 -174915780.38140869 0 -174915780.38140869 772747048.51233852 0 0 0 0 413056791.14115191 -689826997.08750916 0 -689826997.08750916 771420845.32265234 0 0 0 0 803085429.48285043 -289808976.9288559 0 -289808976.9288559 721157034.94741821 0 0 0 0 239678020.88696218 -402449322.64207458 0 -402449322.64207458 1071564623.2474976 0 0 0 0 266258046.96104622 -341636464.85690308 0 -341636464.85690308 754462004.55760956 0 0 0 0 284900753.56348526 -770987378.83348846 0 -770987378.83348846 803088029.65563965 0 0 0 0 282889371.57715213 -486167539.94481659 0 -486167539.94481659 817965323.02655029 0 0 0 0 78376394.840671539 -605716979.9499054 0 -605716979.9499054 827845699.33789444 0 0 0 0 80433786.661847591 -638899843.03106689 0 -638899843.03106689 1166715707.020813 0 0 0 0 175199366.1029613 -635761326.57772827 0 -635761326.57772827 1141355738.7973175 0 0 0 0 -51225392.677069306 -594037666.8674736 0 -594037666.8674736 1265354628.7763977 0 0 0 0 -123703001.60151458 -338644450.59962463 0 -338644450.59962463 1061674502.8808937 0 0 0 0 -295317323.64157206 -409713468.78512192 0 -409713468.78512192 1051406458.0782776 0 0 0 0 -27301844.452551913 -413880612.7053833 0 -413880612.7053833 753584016.33108521 0 0 0 0 -83998736.478079945 -274574922.35043335 0 -274574922.35043335 1078210736.8930359 0 0 0 0 151772071.52930775 -625329395.72828674 0 -625329395.72828674 1113016272.3302307 0 0 0 0 230993000.00456238 -457704894.1943512 0 -457704894.1943512 1395663782.5650024 0 0 0 0 2531840.2954521365 -290959187.06211853 0 -290959187.06211853 1306023058.4492188 0 0 0 0 176480206.1044116 -1098188102.9846954 0 -1098188102.9846954 2235671041.4163208 0 0 0 0 -416811.7112850371 -910841.33948497474 0 -910841.33948497474 3798808.290468961 0 0 0 0 1119721081.4027274 -1739640300.6201172 0 -1739640300.6201172 1769642264.3787842 0 0 0 0 869664.06945486413 -380531283.34043884 0 -380531283.34043884 158686139.35529327 0 0 0 0 1126897566.0307927 -897929115.99041748 0 -897929115.99041748 1041681492.3395996 0 0 0 0 156078662.25202066 -668145819.12835693 0 -668145819.12835693 1371015159.3006897 0 0 0 0 540428621.70081377 -1036306444.169342 0 -1036306444.169342 1521126239.942688 0 0 0 0 2614077.7869655751 -15524076.177422304 0 -15524076.177422304 54487925.782959491 0 0 0 0 -372517673.39875698 -447539349.63323212 0 -447539349.63323212 673022089.69400024 0 0 0 0 -568070339.8788681 -133006396.75247192 0 -133006396.75247192 211035066.91699219 0 0 0 0 -102380596.92944717 -41385617.906702042 0 -41385617.906702042 98363356.229130745 0 0 0 0 5352262.6596316136 87161221.646897912 0 87161221.646897912 140189358.2540741 0 0 0 0 50204003.343431473 -158836891.8467598 0 -158836891.8467598 86010854.277585745 0 0 0 0 -157124941.92760372 18897565.362388611 0 18897565.362388611 188992786.11545563 0 0 0 0 -67221826.589232445 -25224861.040483475 0 -25224861.040483475 74059204.406589508 0 0 0 0 -382174223.13061523 -167866974.42526245 0 -167866974.42526245 76465505.141052246 0 0 0 0 326121578.1517334 -71223169.063949585 0 -71223169.063949585 -178347127.8850708 0 0 0 0 100579817.14331055 464530169.4019928 0 464530169.4019928 237466387.56954956 0 0 0 0 3095541.6479580216 882102.09127108008 0 882102.09127108008 3630752.4689923748 0 0 0 0 -286300074.56999779 -217381202.45816135 0 -217381202.45816135 16713998.377334595 0 0 0 0 -206509195.81071568 74527330.855651855 0 74527330.855651855 203701588.10940552 0 0 0 0 -148785372.7845993 -338342073.80028152 0 -338342073.80028152 -199112024.06833267 0 0 0 0 3075765.9248538148 -87253.640495434403 0 -87253.640495434403 -1197846.9597072229 0 0 0 0 306040257.33503723 -90832264.546203613 0 -90832264.546203613 28470805.490097046 0 0 0 0 -422065207.32717896 181637050.10533142 0 181637050.10533142 12462687.965576172 0 0 0 0 -26848893.613578796 145812899.96813965 0 145812899.96813965 137383812.51293945 0 0 0 0 -345281212.63494873 31316706.858520508 0 31316706.858520508 303993287.48190308 0 0 0 0 -181989593.40045166 241582004.03152466 0 241582004.03152466 494214636.56588745 0 0 0 0 -91068946.708900452 -144257266.82327271 0 -144257266.82327271 404389906.35994339 0 0 0 0 -93455021.41633606 -82351473.945602417 0 -82351473.945602417 -109249317.99365234 0 0 0 0 -117377201.86923218 -28802811.353149414 0 -28802811.353149414 -202278337.318573 0 0 0 0 -623078984.6396904 75228136.588935852 0 75228136.588935852 502422532.0562439 0 0 0 0 -682525297.82320404 -444751652.40545654 0 -444751652.40545654 230664651.05988312 0 0 0 0 -289029797.95164108 79714888.933861732 0 79714888.933861732 -572466425.07785034 0 0 0 0 7176511.8814311568 -8254528.1578330696 0 -8254528.1578330696 -7343239.0766204521 0 0 0 0 1512216.9581485037 -7945791.7953926176 0 -7945791.7953926176 44958337.911645547 0 0 0 0 296890083.75193381 646311770.76254606 0 646311770.76254606 563088199.13668823 0 0 0 0 -192926313.05229759 -44082802.236488342 0 -44082802.236488342 697744858.62998962 0 0 0 0 -148717736.67361069 57806359.303497314 0 57806359.303497314 -183896681.46612549 0 0 0 0 -57638618.424911499 -228506890.70626831 0 -228506890.70626831 106935172.46346664 0 0 0 0 -780290723.25898743 -460363115.37041473 0 -460363115.37041473 -30594840.431955338 0 0 0 0 15222136.595158819 -16099260.954029642 0 -16099260.954029642 21737114.574938998 0 0 0 0 8108724.161365509 -3955591.1765518188 0 -3955591.1765518188 19305906.091453552 0 0 0 0 -4207707.8648962975 38876910.383948326 0 38876910.383948326 72399493.557136536 0 0 0 0 10952426.354028702 5753701.5457000732 0 5753701.5457000732 35670379.81060791 0 0 0 0 1734810.9823750332 4136406.8917304613 0 4136406.8917304613 1703051.8225771114 0 0 0 0 -31810002.932813168 16013448.3604002 0 16013448.3604002 76150812.901115417 0 0 0 0 -44129900.624647141 -9738407.0562572479 0 -9738407.0562572479 64657881.639816284 0 0 0 0 7288169.8624267578 14225827.030651093 0 14225827.030651093 53541648.945062637 0 0 0 0 -37856840.222637177 202064065.57241058 0 202064065.57241058 143648328.24668884 0 0 0 0 -32148288.687877655 96290813.719173431 0 96290813.719173431 18295785.405586243 0 0 0 0 -312310319.29541588 -179510788.20240021 0 -179510788.20240021 448105647.00898743 0 0 0 0 -563850469.49063802 473836418.98626566 0 473836418.98626566 -393342644.82616162 0 0 0 0 50460626.620931506 -55244850.299643815 0 -55244850.299643815 -332049583.11341 0 0 0 0 633889325.96705151 -1227272012.3817859 0 -1227272012.3817859 454260844.85390091 0 0 0 0 647588406.04496574 -1001450159.2134666 0 -1001450159.2134666 1112144569.2536621 0 0 0 0 72322.77453471921 883044.34445815161 0 883044.34445815161 4347578.9203278143 0 0 0 0 -177940650.60983765 212802131.63632417 0 212802131.63632417 -217097356.10978985 0 0 0 0 -106886944.96078777 74792408.781481743 0 74792408.781481743 -97433955.444599152 0 0 0 0 176386680.22896719 277679188.04516566 0 277679188.04516566 -625090777.71229732 0 0 0 0 233614787.51605988 -63664559.079265833 0 -63664559.079265833 1343766684.4829981 0 0 0 0 637113984.06062007 269373600.13087523 0 269373600.13087523 -513342686.35781765 0 0 0 0 31457019.166625977 -467188935.48291016 0 -467188935.48291016 801027739.75024414 0 0 0 0 -262508829.17461729 -331472096.51084518 0 -331472096.51084518 947930975.67221069 0 0 0 0 980652.49768515164 -4051235.6759066842 0 -4051235.6759066842 224993.75564122945 0 0 0 0 -9880788.2801662069 11410378.412737694 0 11410378.412737694 5741055.5498763062 0 0 0 0 86310025.015807152 78986008.915287018 0 78986008.915287018 -78976823.30493927 0 0 0 0 -1207381.6771374601 -7701916.3819840783 0 -7701916.3819840783 46580653.760296807 0 0 0 0 -1298397820.2793081 -262589125.14882278 0 -262589125.14882278 846567464.74363041 0 0 0 0 -449696782.07257342 -1341774952.3449159 0 -1341774952.3449159 1857655810.543077 0 0 0 0 -203231318.56570721 169880331.20196152 0 169880331.20196152 -650546855.75439453 0 0 0 0 133608704.95475256 292053685.05794013 0 292053685.05794013 407289262.98373795 0 0 0 0 2800907.859551318 -1849288.1563165807 0 -1849288.1563165807 979656.79586578067 0 0 0 0 594283214.59081483 -919376605.74553156 0 -919376605.74553156 210785023.47079754 0 0 0 0 182903371.459149 77886671.090006471 0 77886671.090006471 986683729.02364922 0 0 0 0 -76766481.974440575 257117781.31132746 0 257117781.31132746 -401071806.04153728 0 0 0 0 297559732.93696952 -152175514.14877057 0 -152175514.14877057 -176242268.92352486 0 0 0 0 -512861076.93934727 -303180449.01447392 0 -303180449.01447392 -70638613.465183735 0 0 0 0 5666742.5462135579 -4199125.8161983415 0 -4199125.8161983415 4251883.5789245917 0 0 0 0 -104890545.50457716 -158365708.1055671 0 -158365708.1055671 -173548189.08317423 0 0 0 0 107170570.09375048 164255457.65346479 0 164255457.65346479 -148880515.43930435 0 0 0 0 422385251.84694421 -44021893.777853489 0 -44021893.777853489 -250825712.28827286 0 0 0 0 32833297.862016201 -120465505.99428558 0 -120465505.99428558 32585098.227046967 0 0 0 0 6949232.1895546913 -158784861.93808556 0 -158784861.93808556 123046297.65160179 0 0 0 0 297631698.38947725 -193433732.51156902 0 -193433732.51156902 -183358658.00217819 0 0 0 0 -94367277.739140511 -15219755.778192997 0 -15219755.778192997 -62790743.804868221 0 0 0 0 10087952.294229031 35284731.933765411 0 35284731.933765411 122210189.79030609 0 0 0 0 -81250506.960654974 -1376619.9093265533 0 -1376619.9093265533 43853369.528764725 0 0 0 0 -236388751.55575752 -776097903.28057671 0 -776097903.28057671 -1551880490.2586021 0 0 0 0 -1597398.2753177432 210445.45189986366 0 210445.45189986366 2377926.8360766661 0 0 0 0 272516642.91276741 -18560709.025336027 0 -18560709.025336027 -274719643.58160019 0 0 0 0 302381548.97387314 9390372.5987925529 0 9390372.5987925529 -632993264.25476837 0 0 0 0 364917633.04851437 -161324044.05678558 0 -161324044.05678558 -448057217.83218956 0 0 0 0 242528939.08822536 -283218609.11676025 0 -283218609.11676025 -615716306.41630554 0 0 0 0 92537060.529155731 -341443017.43090057 0 -341443017.43090057 -385708629.83340454 0 0 0 0 300965823.66093731 -135751477.20946407 0 -135751477.20946407 -360474877.35578537 0 0 0 0 -62254203.324095964 -228947800.87096786 0 -228947800.87096786 -111040739.38102722 0 0 0 0 106162759.88056427 -250510682.58915067 0 -250510682.58915067 -240240149.89163208 0 0 0 0 296384877.34305477 -134202928.59822083 0 -134202928.59822083 -170094012.8086338 0 0 0 0 64595956.233160019 -79521589.007786751 0 -79521589.007786751 20472056.998399734 0 0 0 0 -2630179.4472006229 6700699.293724088 0 6700699.293724088 20439730.062252514 0 0 0 0 397933913.07461864 208267998.50392532 0 208267998.50392532 -42597404.69984436 0 0 0 0 -11166156.815203667 454651654.21818542 0 454651654.21818542 -13959175.469367981 0 0 0 0 -203392039.20446014 -200593949.50303078 0 -200593949.50303078 297476331.63436317 0 0 0 0 -717428558.85904312 755248441.5754261 0 755248441.5754261 -30263421.270629883 0 0 0 0 1192777638.2149634 491775083.14658546 0 491775083.14658546 -42808965.830337524 0 0 0 0 -91740979.627794266 250622470.7325654 0 250622470.7325654 162390733.23638916 0 0 0 0 963464007.05592942 -349721317.97670174 0 -349721317.97670174 212306793.04857635 0 0 0 0 -439548.75571049255 1317371.3716748732 0 1317371.3716748732 6287006.350338731 0 0 0 0 -184503536.92970157 37242756.073630333 0 37242756.073630333 636470694.57179642 0 0 0 0 503549727.11124825 -2670233.2734413147 0 -2670233.2734413147 25237428.336531162 0 0 0 0 384153332.20547032 -434322706.89131141 0 -434322706.89131141 312904053.52794266 0 0 0 0 233894003.01171952 1271997467.048502 0 1271997467.048502 -952149944.64972687 0 0 0 0 86061151.414132357 -576686824.87153244 0 -576686824.87153244 1765232434.5900536 0 0 0 0 -937693407.43401432 1093698525.7171516 0 1093698525.7171516 420132848.0082798 0 0 0 0 940210815.81557214 1456612595.0508804 0 1456612595.0508804 478402750.39873314 0 0 0 0 786802091.89577186 -1186732807.6397667 0 -1186732807.6397667 -775110275.74334717 0 0 0 0 2356791402.9864206 -960831981.05354548 0 -960831981.05354548 -747836322.78150177 0 0 0 0 -200788205.24774218 -804762757.88224983 0 -804762757.88224983 1774929497.7151031 0 0 0 0 -278239274.69207096 -412911759.31149673 0 -412911759.31149673 82913511.524944305 0 0 0 0 -575146867.49278259 -290967850.18186951 0 -290967850.18186951 39400210.50699234 0 0 0 0 -690594297.7995472 -349842278.18013573 0 -349842278.18013573 953234450.8543396 0 0 0 0 -56982355.651416779 574299328.51257706 0 574299328.51257706 1243582451.0631905 0 0 0 0 12081414.174584389 230470003.09355927 0 230470003.09355927 199625420.17141151 0 0 0 0 -200227030.78619003 87132570.617412567 0 87132570.617412567 248960741.75855446 0 0 0 0 -475312844.73755264 -175286002.69000816 0 -175286002.69000816 25720135.684593201 0 0 0 0 -97184025.733692169 71843901.476918221 0 71843901.476918221 182180437.02828598 0 0 0 0 -198541709.74065113 226940793.77419138 0 226940793.77419138 247249575.37026215 0 0 0 0 114454955.0056324 -94427694.187343597 0 -94427694.187343597 175953193.35259819 0 0 0 0 361740.98066123202 130256.8087247964 0 130256.8087247964 4181309.1966456883 0 0 0 0 220352267.23221588 -31177373.891544342 0 -31177373.891544342 71316920.958927155 0 0 0 0 111517591.05988379 21297175.537627511 0 21297175.537627511 49116596.153209686 0 0 0 0 111524126.88412476 -49311693.319503784 0 -49311693.319503784 84350876.837551117 0 0 0 0 1592784.09570043 -1692171.0643668827 0 -1692171.0643668827 12754064.275036275 0 0 0 0 18680172.636534691 -33598678.658033371 0 -33598678.658033371 137337040.08904839 0 0 0 0 17506166.840552628 -25025198.48837328 0 -25025198.48837328 131837944.12103653 0 0 0 0 -3693417.8994483948 3496993.7746429443 0 3496993.7746429443 117079666.40423012 0 0 0 0 13592249.354476929 -18145448.584892273 0 -18145448.584892273 102425115.11487961 0 0 0 0 11959767.796863556 -10652363.307282448 0 -10652363.307282448 69448194.647628784 0 0 0 0 18993432.913518667 942863.199696064 0 942863.199696064 44710558.628364563 0 0 0 0 22737729.92321825 -15703540.086364269 0 -15703540.086364269 37631342.463645935 0 0 0 0 52212927.324333191 -14235420.398906708 0 -14235420.398906708 51637515.140132904 0 0 0 0 50109881.811388493 -11290484.113153458 0 -11290484.113153458 62185586.986419678 0 0 0 0 84483016.322311401 -608847.69926261902 0 -608847.69926261902 30282522.759269714 0 0 0 0 57544302.634317398 19388619.519418716 0 19388619.519418716 52397051.577838898 0 0 0 0 559891134.35304427 -78643480.355587006 0 -78643480.355587006 -1537561347.1081085 0 0 0 0 9626364.8556203842 -37169744.505030632 0 -37169744.505030632 142476113.25501823 0 0 0 0 518946.53668286069 -6256563.7894166484 0 -6256563.7894166484 25321709.869306143 0 0 0 0 -5827613.2541275024 -357545.17626953125 0 -357545.17626953125 10721870.670776367 0 0 0 0 -51252.674963623285 -2495280.2113311402 0 -2495280.2113311402 34611865.028930672 0 0 0 0 -4677392.8659395427 2458091.1707587093 0 2458091.1707587093 15815932.146317065 0 0 0 0 -4722949.4288740158 2261602.9436035156 0 2261602.9436035156 9736701.6552734375 0 0 0 0 9846.2707461863756 -11109825.066739898 0 -11109825.066739898 36475658.681752801 0 0 0 0 -3663574.3118326943 -6798482.5773582309 0 -6798482.5773582309 32709573.620104715 0 0 0 0 -455759409.06236506 -507408363.06540954 0 -507408363.06540954 -402911165.13427734 0 0 0 0 -455518717.6518259 -515662931.11257744 0 -515662931.11257744 -162541608.4784317 0 0 0 0 -14157218.805173874 -24389219.561382294 0 -24389219.561382294 153507274.98114204 0 0 0 0 9820700.6037483215 -29532817.634086609 0 -29532817.634086609 151090558.36592484 0 0 0 0 -16758345.744462967 -2681321.0272102356 0 -2681321.0272102356 59370756.059726715 0 0 0 0 183206.2273949259 -1501380.246962158 0 -1501380.246962158 9661793.7094883807 0 0 0 0 -7547663.5690813065 13842897.131767273 0 13842897.131767273 95699111.177429199 0 0 0 0 -8433181.8454971313 6496953.4495010376 0 6496953.4495010376 69337960.928855896 0 0 0 0 -5204658.6943206787 5638857.2921714783 0 5638857.2921714783 55317876.784309387 0 0 0 0 -12001692.186462402 -10016199.803684235 0 -10016199.803684235 66425041.112644196 0 0 0 0 8024601.9177284241 6708132.675617218 0 6708132.675617218 8395404.145275116 0 0 0 0 -26155812.000265837 1669894.0662555695 0 1669894.0662555695 56817958.74004364 0 0 0 0 -23328849.25066185 -7075259.5469474792 0 -7075259.5469474792 63181787.618034363 0 0 0 0 -3837526.128728223 3535412.7957231048 0 3535412.7957231048 20602038.65773192 0 0 0 0 -46627471.570217133 69649780.092556 0 69649780.092556 104331198.80739307 0 0 0 0 -12193268.868161201 -6851972.4048576355 0 -6851972.4048576355 23628377.245757103 0 0 0 0 -6663083.3427862572 330812.18683085404 0 330812.18683085404 28587252.928522289 0 0 0 0 -11841417.30777359 -3184687.4372730255 0 -3184687.4372730255 36533091.139312744 0 0 0 0 -5513979.9310150146 -384101.48199272156 0 -384101.48199272156 25370342.023628235 0 0 0 0 -1417567.1000321312 -7732799.5123835206 0 -7732799.5123835206 37770570.784980834 0 0 0 0 1565441.0420379639 -8561673.1328735352 0 -8561673.1328735352 39160147.055488586 0 0 0 0 -1497776.7853755951 -3683157.1073455811 0 -3683157.1073455811 27871901.883242607 0 0 0 0 -4630147.8540314874 1717476.9710821686 0 1717476.9710821686 17329203.116053872 0 0 0 0 -10005076.036319733 -353142.59569549561 0 -353142.59569549561 13147510.127868652 0 0 0 0 -10073855.362098694 53230.023963928223 0 53230.023963928223 10853946.582336426 0 0 0 0 -8836542.8591313213 9363913.8990085274 0 9363913.8990085274 21602527.035391636 0 0 0 0 -6927245.7501089396 -213200.63414900098 0 -213200.63414900098 13647329.90397501 0 0 0 0 -1631172.5173123367 -7597117.8565512523 0 -7597117.8565512523 41627099.664196134 0 0 0 0 107274.0813882146 -7928890.5495828018 0 -7928890.5495828018 40807692.370795354 0 0 0 0 -533082.81158447266 -1279238.4973144531 0 -1279238.4973144531 14734186.054555893 0 0 0 0 -785543.21919631958 -1413411.525718689 0 -1413411.525718689 14731211.656646729 0 0 0 0 -1239554.6294305641 -567939.35555609316 0 -567939.35555609316 7522323.0450125039 0 0 0 0 -5143823.4077056777 -1548296.9454316795 0 -1548296.9454316795 12650028.497510314 0 0 0 0 -16564636.982246399 6809698.3853354454 0 6809698.3853354454 10615719.416671753 0 0 0 0 -68283326.044219971 54047019.667602539 0 54047019.667602539 69547253.866149902 0 0 0 0 -10769715.838747406 4607031.773443494 0 4607031.773443494 32154601.41290348 0 0 0 0 -16048686.233139038 2882032.4062194824 0 2882032.4062194824 4269306.5146560669 0 0 0 0 -78053765.27557373 19185588.262496948 0 19185588.262496948 69300711.532165527 0 0 0 0 -1628645.0252336282 -8685725.2005603276 0 -8685725.2005603276 37227749.40018826 0 0 0 0 999857.94953918457 -7925156.7471313477 0 -7925156.7471313477 39317282.833030701 0 0 0 0 -11839132.067474365 -1290188.2749023438 0 -1290188.2749023438 20465926.429573059 0 0 0 0 -11649892.933677673 -1282229.8735656738 0 -1282229.8735656738 20374065.621742249 0 0 0 0 -9657655.7569580078 2758052.2696762085 0 2758052.2696762085 10170646.069229126 0 0 0 0 -3774278.5973733328 813749.32101286575 0 813749.32101286575 13855713.911786407 0 0 0 0 -3831567.2898495803 -6240920.6392851193 0 -6240920.6392851193 37625196.487695068 0 0 0 0 -11504797.189918224 10729833.814528361 0 10729833.814528361 26222787.746285364 0 0 0 0 -10248275.341563238 -3881873.5050584152 0 -3881873.5050584152 42672651.473225847 0 0 0 0 -578151320.67617464 -257354450.07462692 0 -257354450.07462692 -191652155.77140808 0 0 0 0 -766398290.22635365 -444789631.60332394 0 -444789631.60332394 238177369.51337433 0 0 0 0 -726217848.42586899 -147663895.17552567 0 -147663895.17552567 -154583202.84082031 0 0 0 0 -14241106.525067769 21398455.929335229 0 21398455.929335229 19952827.666678682 0 0 0 0 -42882836.724185944 1369009.5699768066 0 1369009.5699768066 15868329.837890625 0 0 0 0 -4189075.4287931975 -15431848.449172556 0 -15431848.449172556 18514249.753350109 0 0 0 0 -44711761.247650146 1277322.9893188477 0 1277322.9893188477 16697065.675292969 0 0 0 0 -3225528.5356016345 -19539924.612347521 0 -19539924.612347521 50541195.62242943 0 0 0 0 -36020083.978767395 -5212707.4808120728 0 -5212707.4808120728 12987732.776489258 0 0 0 0 -22537137.564813223 17084765.357258968 0 17084765.357258968 44545923.307406992 0 0 0 0 -13334165.327227393 -4883137.236568531 0 -4883137.236568531 44212605.28492251 0 0 0 0 -23353633.680923462 2058493.2652282715 0 2058493.2652282715 8833252.5534057617 0 0 0 0 -73581300.640563965 -21372693.319335938 0 -21372693.319335938 53434570.636077881 0 0 0 0 -85110547.341796875 9738877.2533111572 0 9738877.2533111572 94687563.918701172 0 0 0 0 -97044798.327713013 -8187748.0040588379 0 -8187748.0040588379 80459871.537796021 0 0 0 0 -138444604.28881836 -29187814.910621643 0 -29187814.910621643 103428266.65698242 0 0 0 0 -101498794.70884705 -57847609.674316406 0 -57847609.674316406 44228394.955459595 0 0 0 0 8076623.2148914337 88265818.533992767 0 88265818.533992767 53834444.968841553 0 0 0 0 -13967819.166315373 5811999.8373864144 0 5811999.8373864144 29169999.443140477 0 0 0 0 -160166892.06484985 -73141032.08430481 0 -73141032.08430481 74977135.16519165 0 0 0 0 -252585684.77586365 65821823.024555206 0 65821823.024555206 228087712.48800659 0 0 0 0 2528527.0805983022 -21853074.469540544 0 -21853074.469540544 63923755.408175655 0 0 0 0 -71252269.408586502 -95405611.983530045 0 -95405611.983530045 71402321.303833008 0 0 0 0 -2132824.4411409725 -6866873.7790283402 0 -6866873.7790283402 7699795.5593877584 0 0 0 0 -1117286243.2731714 326872836.39700699 0 326872836.39700699 433607132.39554596 0 0 0 0 -763428520.50065804 -63461243.83662796 0 -63461243.83662796 150755226.38233757 0 0 0 0 -10326280.935924213 -7182313.6989678647 0 -7182313.6989678647 39569990.304593369 0 0 0 0 -723281.8491358282 -21249494.698455449 0 -21249494.698455449 -10951093.382646799 0 0 0 0 -45011934.835571289 5605512.4330177307 0 5605512.4330177307 7981215.4462432861 0 0 0 0 -67706034.944957733 -13044175.922279358 0 -13044175.922279358 81041328.613021851 0 0 0 0 73716176.934202194 36015132.203346252 0 36015132.203346252 69085541.273544312 0 0 0 0 -47083331.083708763 96055112.444734573 0 96055112.444734573 320864330.65341187 0 0 0 0 -60790999.621917725 15130069.738800049 0 15130069.738800049 7807061.2560863495 0 0 0 0 -150463589.77057648 27283299.617614746 0 27283299.617614746 63847638.446746826 0 0 0 0 -115831972.97468567 -31399667.777893066 0 -31399667.777893066 86601708.305053711 0 0 0 0 -194040465.43569946 -20405672.456489563 0 -20405672.456489563 96490542.346130371 0 0 0 0 -67874748.591835022 4490616.4922790527 0 4490616.4922790527 68430141.173542023 0 0 0 0 -78127487.30116272 34838064.725585938 0 34838064.725585938 131947294.55344963 0 0 0 0 -132266483.78630066 -6860233.0341949463 0 -6860233.0341949463 133233532.47589111 0 0 0 0 -112830103.59467697 10397736.90486145 0 10397736.90486145 125132141.91534424 0 0 0 0 -70506341.206848145 33108375.98034668 0 33108375.98034668 109967403.423172 0 0 0 0 -52441218.179257393 79654610.05411911 0 79654610.05411911 189087451.27990723 0 0 0 0 -59457555.453643799 28448626.826599121 0 28448626.826599121 124562051.88616943 0 0 0 0 -71610428.460449219 46265106.63482666 0 46265106.63482666 149566748.17254639 0 0 0 0 69311935.79133606 100092035.13571167 0 100092035.13571167 123615808.52163696 0 0 0 0 1256005.554662101 3550168.3185837343 0 3550168.3185837343 2642644.8324411064 0 0 0 0 157461424.15787506 130582316.48683167 0 130582316.48683167 115140113.17071533 0 0 0 0 -396812229.72810745 -330252396.78697968 0 -330252396.78697968 -101715899.62290764 0 0 0 0 118889227.09887695 242307383.60509682 0 242307383.60509682 182173484.01312256 0 0 0 0 96739695.214305878 53899614.646911621 0 53899614.646911621 92579659.508850098 0 0 0 0 -79516622.233531952 26945788.546569824 0 26945788.546569824 184159821.0581665 0 0 0 0 23889171.711662292 125860786.75404358 0 125860786.75404358 204864318.42382812 0 0 0 0 53114439.143455505 115807491.64819336 0 115807491.64819336 129724812.38696289 0 0 0 0 152732368.2577095 671626723.24303055 0 671626723.24303055 -279101496.34909058 0 0 0 0 -314910268.52953339 -107013979.60116577 0 -107013979.60116577 360981969.99094391 0 0 0 0 50478530.114364624 43614783.866851807 0 43614783.866851807 100933951.5010376 0 0 0 0 -514618309.7960434 19477104.744232178 0 19477104.744232178 1316835954.9471436 0 0 0 0 -131760360.11904907 -73183868.188400269 0 -73183868.188400269 247588267.36279297 0 0 0 0 -197512528.52493668 -85213933.05480957 0 -85213933.05480957 364863133.9017334 0 0 0 0 -158669688.33320999 -11036103.218170166 0 -11036103.218170166 164196747.13317871 0 0 0 0 -222215451.22389984 -24099387.944061279 0 -24099387.944061279 315100631.4666748 0 0 0 0 -141961058.64918518 -53793151.209007263 0 -53793151.209007263 249510103.3939209 0 0 0 0 -201423765.31440735 -131232726.38246155 0 -131232726.38246155 217144102.10266113 0 0 0 0 -14104396.40534253 11925854.578159563 0 11925854.578159563 22134622.511175156 0 0 0 0 965317.14070892334 77863654.999359131 0 77863654.999359131 75565617.8878479 0 0 0 0 -76973231.83695364 38289891.207461357 0 38289891.207461357 119654780.42999268 0 0 0 0 -45033752.116195679 48245362.838317871 0 48245362.838317871 80199095.196105957 0 0 0 0 8447829.2769622803 55662916.806030273 0 55662916.806030273 98881088.473335266 0 0 0 0 -12723998.629943848 77952911.122802734 0 77952911.122802734 93090416.721099854 0 0 0 0 -12317268.327697754 72655344.0050354 0 72655344.0050354 118703933.74951172 0 0 0 0 -43986461.418804169 57674344.149280548 0 57674344.149280548 111967715.41088867 0 0 0 0 -10428323.189361572 80253260.269378662 0 80253260.269378662 125598134.78314209 0 0 0 0 -65169821.686910629 42177839.025115967 0 42177839.025115967 68273348.166442871 0 0 0 0 3426846.0555267334 80034891.522628784 0 80034891.522628784 44530406.142593384 0 0 0 0 -40003767.147964478 57650699.03616333 0 57650699.03616333 78117121.826263428 0 0 0 0 -45796073.631454468 64361895.663757324 0 64361895.663757324 87039429.285186768 0 0 0 0 -4765878.0563049316 46724294.355834961 0 46724294.355834961 -9331292.5093688965 0 0 0 0 1401076.9940910339 -5444944.2088928223 0 -5444944.2088928223 16844358.547668457 0 0 0 0 -8351875.293916041 2176860.6133428253 0 2176860.6133428253 42247001.10413333 0 0 0 0 -1677112.395441426 -9383549.7768303379 0 -9383549.7768303379 37222659.528748341 0 0 0 0 -7755255.0688476562 -997900.20474243164 0 -997900.20474243164 13251224.995254517 0 0 0 0 45785185.951293945 40237899.215393066 0 40237899.215393066 -151383485.37628174 0 0 0 0 79238345.971748352 -2095544.1263122559 0 -2095544.1263122559 -104565108.39074707 0 0 0 0 -41851120.170288086 129929815.89996338 0 129929815.89996338 -190260714.95217896 0 0 0 0 150667.71424520761 -853069.34171262383 0 -853069.34171262383 3061875.4126234055 0 0 0 0 51946813.172653198 2135182.2299499512 0 2135182.2299499512 -16302005.330871582 0 0 0 0 -8030210.692101812 6178806.4485604092 0 6178806.4485604092 44521728.394857422 0 0 0 0 -12259925.890792847 454572.87805175781 0 454572.87805175781 16335609.87713623 0 0 0 0 -13598565.503992081 5692261.4166488647 0 5692261.4166488647 14806739.489074707 0 0 0 0 -51574492.873596191 83304859.212158203 0 83304859.212158203 52258403.778137207 0 0 0 0 -10072464.469773825 7506527.1898490749 0 7506527.1898490749 22903306.047874324 0 0 0 0 -3397028.0587168946 -3419616.0673163999 0 -3419616.0673163999 10416166.708750352 0 0 0 0 -142283072.04716492 -29065703.340209961 0 -29065703.340209961 115233686.50500488 0 0 0 0 -6494598.732285168 8359877.2804293633 0 8359877.2804293633 9117222.9193514884 0 0 0 0 -77735089.130302429 62001818.673736572 0 62001818.673736572 -29155793.186645508 0 0 0 0 -89875287.313293457 48083359.943725586 0 48083359.943725586 36134131.526611328 0 0 0 0 -109411510.3114624 24117447.279907227 0 24117447.279907227 48284125.799133301 0 0 0 0 -172265533.62366486 135495228.57644653 0 135495228.57644653 88403200.312652588 0 0 0 0 -164832503.04017448 36980132.280426025 0 36980132.280426025 237328403.91143799 0 0 0 0 -150443113.22161865 49226434.957183838 0 49226434.957183838 88688684.224609375 0 0 0 0 -125695584.91570616 -7734763.0963411331 0 -7734763.0963411331 35934518.112304688 0 0 0 0 -119542766.57858276 -5362480.865234375 0 -5362480.865234375 -5314904.0192871094 0 0 0 0 -150987745.11959839 15737839.557006836 0 15737839.557006836 159861591.51324463 0 0 0 0 -125677126.29253769 -8777434.2269887924 0 -8777434.2269887924 87168950.781982422 0 0 0 0 -108499585.79434204 20349931.145141602 0 20349931.145141602 43890394.712280273 0 0 0 0 -107987078.53234863 4481281.4290771484 0 4481281.4290771484 20744105.713745117 0 0 0 0 -106980772.72344971 1755002.4470214844 0 1755002.4470214844 -7389252.8518066406 0 0 0 0 -90272684.926239014 20931395.491577148 0 20931395.491577148 -30190411.487060547 0 0 0 0 -89423987.194091797 29127608.74621582 0 29127608.74621582 -9786876.1348876953 0 0 0 0 -92997348.815490723 37112150.161224365 0 37112150.161224365 2305332.1926269531 0 0 0 0 -26025176.969887733 -3154782.0544281006 0 -3154782.0544281006 8222007.3837890625 0 0 0 0 -82710663.03805542 39414681.441772461 0 39414681.441772461 -13477948.21194458 0 0 0 0 -85706192.168334961 32575972.483520508 0 32575972.483520508 -20279041.575012207 0 0 0 0 -5989695.8083705269 5268926.6574715003 0 5268926.6574715003 30396932.848389424 0 0 0 0 -93097917.113693237 13838923.829620361 0 13838923.829620361 -54282773.023498535 0 0 0 0 -771454.9733257629 246464.59614485502 0 246464.59614485502 5487501.7171700262 0 0 0 0 157366325.91378021 -199095824.4006958 0 -199095824.4006958 -153274341.48144531 0 0 0 0 -26510235.014465332 238144927.65899658 0 238144927.65899658 -152703329.48535156 0 0 0 0 -74742917.40422821 39280691.109954834 0 39280691.109954834 -29783101.524291992 0 0 0 0 -2622872.0169696808 355271370.5494957 0 355271370.5494957 235180864.73524475 0 0 0 0 325026.16916739382 295112.82243578881 0 295112.82243578881 690351.61962075531 0 0 0 0 -427527756.34910011 -291183480.17524719 0 -291183480.17524719 -96838768.762378693 0 0 0 0 315472431.80922365 337375757.98109055 0 337375757.98109055 -247369535.03353882 0 0 0 0 -168064820.73011351 240423968.13218784 0 240423968.13218784 463736103.95944214 0 0 0 0 -397545036.60442352 20919512.6847229 0 20919512.6847229 491335151.19841003 0 0 0 0 -333949719.14471436 78327369.746040344 0 78327369.746040344 523362790.66885376 0 0 0 0 -163122497.85582352 -25495018.449386597 0 -25495018.449386597 144030089.92976379 0 0 0 0 -253848925.42525482 46773090.28968811 0 46773090.28968811 220871134.24514008 0 0 0 0 -260993502.18995285 118452132.13518524 0 118452132.13518524 235349434.60888672 0 0 0 0 -451944538.81183529 39750063.870146275 0 39750063.870146275 295940857.402771 0 0 0 0 -29132253.057006836 47136559.514572144 0 47136559.514572144 157643962.2794342 0 0 0 0 -16247552.687297821 117029389.94501495 0 117029389.94501495 135003543.29692078 0 0 0 0 -9042280.8681190014 175700848.58684349 0 175700848.58684349 167213478.59309387 0 0 0 0 -79565586.979621887 7999719.9432983398 0 7999719.9432983398 418788995.27145386 0 0 0 0 -115526328.82236576 125456615.62656212 0 125456615.62656212 213278374.38508606 0 0 0 0 70640156.808918953 36077437.667770386 0 36077437.667770386 327030210.97889709 0 0 0 0 74641152.932785034 -274902945.43939972 0 -274902945.43939972 497462524.91383362 0 0 0 0 232877806.47839546 -243501414.9600296 0 -243501414.9600296 417538772.00920105 0 0 0 0 86566165.777500153 -111584844.71134949 0 -111584844.71134949 90614690.982780457 0 0 0 0 -353125166.83780861 -39333261.696155548 0 -39333261.696155548 280265421.09339905 0 0 0 0 -705892059.83475876 -489920300.94117737 0 -489920300.94117737 9741965.7752990723 0 0 0 0 2112999.1216342207 634839.63716507703 0 634839.63716507703 -1029703.2612773925 0 0 0 0 77899041.940310836 328129283.94131505 0 328129283.94131505 455891123.74041748 0 0 0 0 -404918931.0086562 31581548.563017488 0 31581548.563017488 130846853.81570435 0 0 0 0 -258283990.31612396 -106295991.43365479 0 -106295991.43365479 -114634439.98862839 0 0 0 0 -311957627.74661636 -34798182.399276733 0 -34798182.399276733 320169023.4883728 0 0 0 0 504556940.15240312 -287779312.20409012 0 -287779312.20409012 586256772.39456177 0 0 0 0 708146031.95271492 -584196019.04039764 0 -584196019.04039764 498662684.21429443 0 0 0 0 350316594.32164192 -463869211.7928772 0 -463869211.7928772 507007901.69470215 0 0 0 0 357969185.15179062 -266814061.62841797 0 -266814061.62841797 304360855.22746277 0 0 0 0 328791448.38126087 -391711341.71461487 0 -391711341.71461487 529649567.5854187 0 0 0 0 456020605.8208077 -292978538.85236359 0 -292978538.85236359 89904467.074249268 0 0 0 0 313992180.06407928 -442630137.14834595 0 -442630137.14834595 789964967.74311066 0 0 0 0 404105486.85520649 -203659877.13693237 0 -203659877.13693237 851756674.8999939 0 0 0 0 233364686.52034068 -407885682.65597916 0 -407885682.65597916 728345413.72877502 0 0 0 0 -37047317.649484873 275500779.68117523 0 275500779.68117523 -224092330.34774399 0 0 0 0 -2402275.9128724793 -63367.349553875625 0 -63367.349553875625 3016866.2774046808 0 0 0 0 -11305095.162222147 27497853.932746887 0 27497853.932746887 -90166903.888885498 0 0 0 0 -16600783.554819822 388516312.03684998 0 388516312.03684998 134769339.91837311 0 0 0 0 -49149272.832266331 82683116.606782913 0 82683116.606782913 640994735.20428467 0 0 0 0 274268431.5525763 -97356910.004924774 0 -97356910.004924774 607704795.96784973 0 0 0 0 194513956.78652585 -192824087.83095169 0 -192824087.83095169 509480882.43711853 0 0 0 0 354339252.66210747 -501170568.13996887 0 -501170568.13996887 722757946.25845909 0 0 0 0 385970379.80084598 -427207058.80513382 0 -427207058.80513382 860638504.98852539 0 0 0 0 350614168.45137906 -260386552.55173492 0 -260386552.55173492 900226755.27701569 0 0 0 0 394255921.72814941 -199456118.91825104 0 -199456118.91825104 983993617.43907166 0 0 0 0 682760938.19333458 -346340327.17340088 0 -346340327.17340088 812778064.74268341 0 0 0 0 469315881.82379532 -545887586.10747528 0 -545887586.10747528 949891110.14267635 0 0 0 0 644695982.53094196 -398849826.32588959 0 -398849826.32588959 1109750165.3395092 0 0 0 0 768161277.72033024 -187444648.47226715 0 -187444648.47226715 1105232098.5345612 0 0 0 0 428789046.21077251 -1374124235.096283 0 -1374124235.096283 1277225612.9513626 0 0 0 0 266494378.16059065 -1089746950.7772217 0 -1089746950.7772217 1793873168.0324249 0 0 0 0 516121863.78831768 -324306976.40684128 0 -324306976.40684128 1486991020.6190796 0 0 0 0 380081081.90310276 -992493573.98830032 0 -992493573.98830032 1106039560.6272583 0 0 0 0 567245397.61601233 -917081346.70148468 0 -917081346.70148468 934758586.45090199 0 0 0 0 419185386.21159077 -659407365.14902496 0 -659407365.14902496 569491067.71003723 0 0 0 0 776438189.751894 -999460528.49617004 0 -999460528.49617004 733649809.62090683 0 0 0 0 1058357719.8840468 -934381078.84523535 0 -934381078.84523535 676958597.01579285 0 0 0 0 320919788.41892815 -1547080364.6015015 0 -1547080364.6015015 1436250639.0627518 0 0 0 0 992728698.71011496 -1547189513.6235042 0 -1547189513.6235042 968917036.52210999 0 0 0 0 389966759.34715462 -1330165696.5681763 0 -1330165696.5681763 1021763829.2811089 0 0 0 0 513434714.08948469 -1217527050.515934 0 -1217527050.515934 970008996.58403015 0 0 0 0 -617423498.69729805 -840234364.99932861 0 -840234364.99932861 1105834328.6396332 0 0 0 0 56036396.874427795 -516539898.28926086 0 -516539898.28926086 433655618.53534508 0 0 0 0 -150913219.36459923 -241978082.05721283 0 -241978082.05721283 382777557.48353195 0 0 0 0 122040065.97111225 -374961511.25958633 0 -374961511.25958633 217272925.03619385 0 0 0 0 -130895295.28847885 2307775.731880188 0 2307775.731880188 133501664.53211975 0 0 0 0 120531776.03889179 -307772425.1893158 0 -307772425.1893158 416677237.70252991 0 0 0 0 418203643.34727478 -661282152.64059448 0 -661282152.64059448 566697983.46396255 0 0 0 0 491162174.35461044 -601188352.73593903 0 -601188352.73593903 375061116.2784481 0 0 0 0 891256740.43557358 -1021029431.6811676 0 -1021029431.6811676 659255062.87896347 0 0 0 0 508210781.01667881 -559446695.3239975 0 -559446695.3239975 456620323.94200134 0 0 0 0 777879818.76816845 -1016557348.9773064 0 -1016557348.9773064 1090088756.3183823 0 0 0 0 1204956301.6318264 -925066546.60543823 0 -925066546.60543823 322486770.84590149 0 0 0 0 655372291.16760254 -604763831.49374962 0 -604763831.49374962 150112276.09353638 0 0 0 0 795461873.67821503 -318934704.21586609 0 -318934704.21586609 19846982.356658936 0 0 0 0 328298283.67329383 -133173789.69235563 0 -133173789.69235563 230008162.50802612 0 0 0 0 277676742.63648796 -567417941.56611633 0 -567417941.56611633 543488093.83943176 0 0 0 0 325622737.53113937 -75770476.200775146 0 -75770476.200775146 33637278.126373291 0 0 0 0 337723495.40363693 -128237274.38544464 0 -128237274.38544464 223243758.48087311 0 0 0 0 301342772.48839951 -319982286.33592987 0 -319982286.33592987 -40095491.095504761 0 0 0 0 400951596.32086563 3776294.4596862793 0 3776294.4596862793 -74490215.289291382 0 0 0 0 100349807.28985882 -573441223.48575926 0 -573441223.48575926 -221842064.58009338 0 0 0 0 36878029.850074768 -87774360.789596558 0 -87774360.789596558 287496059.49100494 0 0 0 0 1088733068.3494873 185120103.96440125 0 185120103.96440125 -72310937.37097168 0 0 0 0 820637743.26292801 -334965453.75323868 0 -334965453.75323868 -171596109.87617493 0 0 0 0 1927290625.4234066 -654223745.63188934 0 -654223745.63188934 -111259128.61407471 0 0 0 0 1621728866.8876958 -1076235409.0175858 0 -1076235409.0175858 -153719791.32691956 0 0 0 0 1785546793.8301163 -1865677148.5736008 0 -1865677148.5736008 -194513536.3862915 0 0 0 0 3216594445.3562031 -1286817496.8241577 0 -1286817496.8241577 -376538652.36820984 0 0 0 0 1659479622.6785297 -989069658.46958923 0 -989069658.46958923 -325979106.94099426 0 0 0 0 3943776247.5093222 -2337269309.5363998 0 -2337269309.5363998 918732292.09318542 0 0 0 0 1386263273.2924542 -1553534246.3044357 0 -1553534246.3044357 2011831651.5812378 0 0 0 0 2149488910.3561335 172580485.43889236 0 172580485.43889236 3857543280.0998344 0 0 0 0 2182053956.8974781 -2634790123.7710114 0 -2634790123.7710114 3173740273.0661545 0 0 0 0 1822469507.515759 -2886793754.9229851 0 -2886793754.9229851 3726755541.700346 0 0 0 0 -237086299.03273916 -129808150.73694992 0 -129808150.73694992 3888724584.8001223 0 0 0 0 592462519.02514148 -102056268.51371002 0 -102056268.51371002 7994104.1778717041 0 0 0 0 3462161178.8702149 397359460.53227186 0 397359460.53227186 -445833345.62554932 0 0 0 0 7446999.5620045979 -3906370.2089434788 0 -3906370.2089434788 2903198.9773145281 0 0 0 0 -1119118123.6730099 -51166035.839996338 0 -51166035.839996338 121197876.57307434 0 0 0 0 -642537201.61310196 80026219.368736267 0 80026219.368736267 256637418.26834297 0 0 0 0 -207400879.60800648 -363954945.55469704 0 -363954945.55469704 -251575065.78599548 0 0 0 0 4260406.4129709601 -5089928.3768635672 0 -5089928.3768635672 745879.48739659041 0 0 0 0 -1050004214.7382593 -629695295.90928268 0 -629695295.90928268 -252602334.56898654 0 0 0 0 19838775.193934441 -318489841.98558426 0 -318489841.98558426 -1145947082.0368366 0 0 0 0 3247709.1072228523 -3190091.3647961542 0 -3190091.3647961542 -227704.6991777271 0 0 0 0 1003299217.7255242 -2229828213.213665 0 -2229828213.213665 -538734621.99095154 0 0 0 0 -986824943.02734184 -445225019.11222839 0 -445225019.11222839 1415110658.701194 0 0 0 0 959520772.34135067 -2162411223.8353882 0 -2162411223.8353882 795731164.64579582 0 0 0 0 613232383.78133345 -1426728977.1753349 0 -1426728977.1753349 536722917.24040222 0 0 0 0 1451011984.3272266 -1573981131.9379463 0 -1573981131.9379463 441447436.6215744 0 0 0 0 661949208.67105007 -604279593.02237701 0 -604279593.02237701 2224048200.2668381 0 0 0 0 -717266778.58814096 -190944885.99687195 0 -190944885.99687195 2282112551.3636017 0 0 0 0 -733394829.98073435 -842235705.00450897 0 -842235705.00450897 1373364245.6256332 0 0 0 0 -1923475823.5779533 -1702393059.4285965 0 -1702393059.4285965 616825958.78314209 0 0 0 0 -1372596095.4984741 -4373553.5214233398 0 -4373553.5214233398 330006299.67028332 0 0 0 0 -2476304957.5800133 -520641517.20874786 0 -520641517.20874786 -269348191.96041489 0 0 0 0 1915019.9973536232 -2297836.0717615783 0 -2297836.0717615783 47387.231824152172 0 0 0 0 -1285732579.0534949 331569749.66083527 0 331569749.66083527 1620869500.2288208 0 0 0 0 -834203005.9753933 -352200425.88176727 0 -352200425.88176727 -388988404.15776062 0 0 0 0 -1140288451.3093338 -550448127.44386292 0 -550448127.44386292 -477594929.8720932 0 0 0 0 275970609.52922177 113548870.22800064 0 113548870.22800064 102941265.87007332 0 0 0 0 -4621555.9268043051 -191047.08754870296 0 -191047.08754870296 7117032.4815410301 0 0 0 0 -4035744069.6658173 484271024.43319702 0 484271024.43319702 1645453449.3477631 0 0 0 0 -1161429590.2240968 -566295951.01607895 0 -566295951.01607895 268069776.6831665 0 0 0 0 -3459369728.0265198 2055436600.7799759 0 2055436600.7799759 -1714962454.6185799 0 0 0 0 -2831524606.2546282 -744453218.45041752 0 -744453218.45041752 446440983.00997925 0 0 0 0 -1316111316.2608008 -96724391.088806152 0 -96724391.088806152 713293073.5825882 0 0 0 0 -1419666301.9345303 2458975983.5255356 0 2458975983.5255356 67654121.826340675 0 0 0 0 -748384779.09033751 1506066804.9139824 0 1506066804.9139824 2457283476.3910561 0 0 0 0 -690137288.21075368 337318419.76021957 0 337318419.76021957 1954561795.205574 0 0 0 0 -958573432.46587539 542130919.59158516 0 542130919.59158516 1804027864.6879196 0 0 0 0 -403117492.86230803 833632576.04372406 0 833632576.04372406 2806552251.5484619 0 0 0 0 32668609.861279488 486682081.51825905 0 486682081.51825905 3737708429.6891022 0 0 0 0 -1560247088.8007622 -199802115.64723587 0 -199802115.64723587 3579369532.4558487 0 0 0 0 -1886579242.132689 279381094.67691612 0 279381094.67691612 6617127689.8294983 0 0 0 0 -1968497429.8403082 1224901619.5946007 0 1224901619.5946007 4551499527.3380222 0 0 0 0 -1378065781.9492366 1232072041.1453304 0 1232072041.1453304 4528736395.8788452 0 0 0 0 438909604.93379122 1014129664.0215836 0 1014129664.0215836 6613500056.8789034 0 0 0 0 -2128232914.3793495 141244307.31394625 0 141244307.31394625 7048996349.0103912 0 0 0 0 -2528284562.0703478 2475553775.4011707 0 2475553775.4011707 5245524429.6919708 0 0 0 0 858936550.03138781 -2052389002.5648193 0 -2052389002.5648193 3848303724.5647278 0 0 0 0 1456262798.079689 -1925280392.1812172 0 -1925280392.1812172 2625179939.8299751 0 0 0 0 2265151586.4605551 -2394863893.1774139 0 -2394863893.1774139 2585807090.0953331 0 0 0 0 1235821639.5684233 -2698227415.887043 0 -2698227415.887043 3043016332.5721436 0 0 0 0 1915105753.5330973 -2779200046.9010353 0 -2779200046.9010353 2929436986.853096 0 0 0 0 593398838.78669977 -2183007642.6611061 0 -2183007642.6611061 3518656525.8743057 0 0 0 0 3778201600.4539418 -843079532.65145493 0 -843079532.65145493 3690433014.3122711 0 0 0 0 871082026.95552051 -1152624884.149601 0 -1152624884.149601 3479861582.885788 0 0 0 0 -111180613.84559536 129401672.112854 0 129401672.112854 4420073809.4655914 0 0 0 0 -264898766.77638918 2028807193.8228455 0 2028807193.8228455 2789039606.2901306 0 0 0 0 594218612.07682645 -2751350155.1095886 0 -2751350155.1095886 2800450216.6842575 0 0 0 0 -3267.1240102985316 -1024854.4280987801 0 -1024854.4280987801 5003644.6257257015 0 0 0 0 1685208459.0217338 -2151910680.9749146 0 -2151910680.9749146 684054433.15552521 0 0 0 0 171243034.37567019 606861161.16780663 0 606861161.16780663 886467299.73429108 0 0 0 0 421328470.14904082 -2601834778.049614 0 -2601834778.049614 2791468636.7662392 0 0 0 0 -1250578241.6105468 -1266889775.5093098 0 -1266889775.5093098 6601784499.8324203 0 0 0 0 -24791.681972519207 -1773632.5114514998 0 -1773632.5114514998 5048459.2077156901 0 0 0 0 -446906341.79396588 1838498865.5075824 0 1838498865.5075824 2215398054.1746902 0 0 0 0 -57516179.2129291 -494369584.74100876 0 -494369584.74100876 6598221159.6969175 0 0 0 0 1537403290.1263812 -2283169492.4181995 0 -2283169492.4181995 3604746713.674614 0 0 0 0 190561402.44794998 -2035004130.4063606 0 -2035004130.4063606 6615472372.8453293 0 0 0 0 -12664074.474057421 -639688461.09630108 0 -639688461.09630108 3432529843.0372162 0 0 0 0 249243241.45928958 -2260466742.9948711 0 -2260466742.9948711 4371945705.0705032 0 0 0 0 1470580459.7816715 -3558764781.4055862 0 -3558764781.4055862 3981267324.5180359 0 0 0 0 406531520.7638461 -3210865636.1022511 0 -3210865636.1022511 6617662108.2120972 0 0 0 0 1145138710.0583606 -2409918027.4677887 0 -2409918027.4677887 3286512445.8203182 0 0 0 0 1146341297.0479541 -2880433786.2690926 0 -2880433786.2690926 3822493458.399601 0 0 0 0 4452697.5249994304 -3884558.4113856857 0 -3884558.4113856857 11541362.337138981 0 0 0 0 1818589700.5034804 -4567645739.7422199 0 -4567645739.7422199 6598829407.2211418 0 0 0 0 6053093525.0665054 -4172770229.6740742 0 -4172770229.6740742 1890962548.889904 0 0 0 0 2717962.5232817018 -6194213.7777323602 0 -6194213.7777323602 29065072.934649393 0 0 0 0 54791050.968214989 -1124872770.472456 0 -1124872770.472456 754953703.62974548 0 0 0 0 1643177829.8864515 -538916334.33636665 0 -538916334.33636665 211092251.10811806 0 0 0 0 68070618.917046547 321473521.59981537 0 321473521.59981537 195273716.80945206 0 0 0 0 1164703501.5750422 -2397884121.517498 0 -2397884121.517498 3026803907.281601 0 0 0 0 1176398040.1728125 -2355912857.5017977 0 -2355912857.5017977 3070380829.3999481 0 0 0 0 1289126786.6488516 -1561768115.3780708 0 -1561768115.3780708 1031498908.8730621 0 0 0 0 1750049004.0100429 -2668387581.1961136 0 -2668387581.1961136 2532458654.7673492 0 0 0 0 370632602.18130207 -647221026.94318771 0 -647221026.94318771 1384306155.2812729 0 0 0 0 629306423.44423258 -1272653738.4771178 0 -1272653738.4771178 1831598351.6704636 0 0 0 0 865089697.26278067 -1241638457.8700218 0 -1241638457.8700218 1643463695.5636444 0 0 0 0 33882113.786324501 -233537828.75536346 0 -233537828.75536346 1595958333.9935989 0 0 0 0 12337691.509529829 370747212.56700897 0 370747212.56700897 634695826.98504639 0 0 0 0 2598411.2427990912 -462887.01086645946 0 -462887.01086645946 -822508.25002241135 0 0 0 0 381051277.16016197 -280030833.70605469 0 -280030833.70605469 -119445336.71544647 0 0 0 0 -2284051.2665405273 -219216031.15823364 0 -219216031.15823364 18950979.041900635 0 0 0 0 524615155.49640894 -6858823.4046363831 0 -6858823.4046363831 134021436.27778625 0 0 0 0 354408845.18955135 185230282.2591095 0 185230282.2591095 8863959.2196273804 0 0 0 0 503492060.05250502 -4603036.5409965515 0 -4603036.5409965515 -102797468.60491943 0 0 0 0 735538566.3053441 -592623836.6243 0 -592623836.6243 547850374.25540161 0 0 0 0 218330840.53792763 259443319.69760132 0 259443319.69760132 324956246.0170784 0 0 0 0 -956584821.96222305 -160619463.08615875 0 -160619463.08615875 449157523.777771 0 0 0 0 1328876.8219521423 -6903175.1694927113 0 -6903175.1694927113 36855647.760968052 0 0 0 0 -96107727.171523094 211370750.35891533 0 211370750.35891533 -98634908.297782898 0 0 0 0 11230670.829088926 22034200.761821747 0 22034200.761821747 69988066.885894775 0 0 0 0 194579760.33990765 118973274.04063034 0 118973274.04063034 -48675337.414093018 0 0 0 0 -40969677.102998734 258795647.45304108 0 258795647.45304108 215206.79007530212 0 0 0 0 -624690447.35056782 151212063.62014389 0 151212063.62014389 134487245.78882599 0 0 0 0 -214462168.20499468 -5102767.123046875 0 -5102767.123046875 11555275.429969788 0 0 0 0 -78567543.351046085 116677199.01719666 0 116677199.01719666 -16238738.078582764 0 0 0 0 156037822.66588116 147999504.27586746 0 147999504.27586746 -44162737.92074585 0 0 0 0 -43006602.683302879 46465749.364585876 0 46465749.364585876 118998829.89073944 0 0 0 0 163309298.49221039 126247230.63619232 0 126247230.63619232 -14685942.24786377 0 0 0 0 8939109.6253578477 -2160825.9579221234 0 -2160825.9579221234 5855086.1948068179 0 0 0 0 14540469.894508362 -1854312.3893432617 0 -1854312.3893432617 17115410.630645752 0 0 0 0 9354810.9851770531 -3962464.0395276584 0 -3962464.0395276584 -475543.47369898111 0 0 0 0 -638841104.16038513 -409881567.78565979 0 -409881567.78565979 -76482956.405801773 0 0 0 0 -111460118.37490845 -109492579.41007996 0 -109492579.41007996 -149998309.22695923 0 0 0 0 3533585.2968406677 -42740957.487628937 0 -42740957.487628937 -218798717.4914856 0 0 0 0 13067298.554865807 -11860332.559619065 0 -11860332.559619065 8309451.5888573676 0 0 0 0 -16454123.454948425 -16904203.892456055 0 -16904203.892456055 -9538403.2016601562 0 0 0 0 12004997.676156521 -240305984.62093735 0 -240305984.62093735 -11042398.561096191 0 0 0 0 153854271.52178383 48137124.781524658 0 48137124.781524658 -3525030.4914550781 0 0 0 0 9489378.3823877424 -2601308.850483356 0 -2601308.850483356 -4198115.4261486903 0 0 0 0 31132200.376888752 -53451286.065734863 0 -53451286.065734863 -64744161.894729614 0 0 0 0 15820777.825618014 -10269897.201617338 0 -10269897.201617338 10608478.506017566 0 0 0 0 218378646.10651875 -48775493.553321838 0 -48775493.553321838 -196023770.14335632 0 0 0 0 3902412.6467686817 -2887207.1503648423 0 -2887207.1503648423 13115493.920719109 0 0 0 0 4849274.5314176539 -2345421.942550052 0 -2345421.942550052 -2953278.2171131298 0 0 0 0 182155955.78198385 89053028.020557404 0 89053028.020557404 -12824478.892250061 0 0 0 0 48222862.949127436 -24602519.12921524 0 -24602519.12921524 -53300465.357269287 0 0 0 0 188452748.1633873 94430192.328296661 0 94430192.328296661 -40614148.949623108 0 0 0 0 -278050565.86582279 283432225.37802339 0 283432225.37802339 -118868819.80919456 0 0 0 0 -234169403.41130614 228265240.20493126 0 228265240.20493126 -217275926.83081341 0 0 0 0 1008356.4363942118 2934446.4874684215 0 2934446.4874684215 9517345.3407504912 0 0 0 0 772036179.6748724 -328420709.19450474 0 -328420709.19450474 207297406.79629898 0 0 0 0 419272792.19449091 -134755898.24169445 0 -134755898.24169445 125136592.6376667 0 0 0 0 274558849.87433124 -197360572.73295426 0 -197360572.73295426 442676125.21632004 0 0 0 0 99813966.475989819 -61310976.979046822 0 -61310976.979046822 662342126.8573761 0 0 0 0 338554591.09923315 -195364217.53144932 0 -195364217.53144932 430959886.03448486 0 0 0 0 1105479102.910778 -333308935.38886642 0 -333308935.38886642 74429502.438243866 0 0 0 0 772105906.72403848 -338511532.49671644 0 -338511532.49671644 209468093.73981857 0 0 0 0 550742782.58189487 -805068348.0182209 0 -805068348.0182209 1281540571.3807812 0 0 0 0 472102616.31012249 -522976567.75610828 0 -522976567.75610828 979635542.80732346 0 0 0 0 -277133966.61221492 270457309.11712754 0 270457309.11712754 -10966117.511358261 0 0 0 0 3372514459.6695042 -1954693240.5215149 0 -1954693240.5215149 -142504787.25015831 0 0 0 0 -175201214.46625042 20618301.464244843 0 20618301.464244843 28498733.174413681 0 0 0 0 -272181567.90266132 123317703.86469936 0 123317703.86469936 130672634.22144282 0 0 0 0 -279278346.25437546 217250235.95082855 0 217250235.95082855 118578285.95440233 0 0 0 0 -262468405.85184002 256783849.04316521 0 256783849.04316521 -32832393.644676685 0 0 0 0 -209627006.39698124 133696869.00713444 0 133696869.00713444 34280430.079823494 0 0 0 0 -243845584.02400327 218611864.50711346 0 218611864.50711346 -124883638.93681908 0 0 0 0 -413046601.70737314 371023265.70498943 0 371023265.70498943 -153310258.0485878 0 0 0 0 -302061697.75510597 226531752.63172102 0 226531752.63172102 -52166737.725746155 0 0 0 0 -287324777.57325602 293961465.88725376 0 293961465.88725376 -96101408.109934807 0 0 0 0 -400603004.33858776 281536344.03612614 0 281536344.03612614 -48837463.832010269 0 0 0 0 -260990079.28414631 278710648.3576479 0 278710648.3576479 -86212944.282239914 0 0 0 0 -293590665.36716437 259985889.43892539 0 259985889.43892539 -5396640.6065254211 0 0 0 0 3882303.8480434245 -18255352.387070145 0 -18255352.387070145 434294.45237890631 0 0 0 0 -908043236.6100111 274501564.30016649 0 274501564.30016649 17208004.271867752 0 0 0 0 -243403950.91900635 82260884.937393188 0 82260884.937393188 100369035.85737991 0 0 0 0 -658469.61198707414 -6341011.3087628065 0 -6341011.3087628065 43556409.451393083 0 0 0 0 -728097909.61582077 134768111.13257408 0 134768111.13257408 37312224.134304047 0 0 0 0 -442125914.41791725 86857465.563009739 0 86857465.563009739 7018827.3490767479 0 0 0 0 -161295950.59650362 54050856.846117496 0 54050856.846117496 -31654534.630224228 0 0 0 0 3322804.1354636382 -18044126.425756589 0 -18044126.425756589 -636179.89310612716 0 0 0 0 -214808089.90297294 -51580068.47903347 0 -51580068.47903347 164452281.33236694 0 0 0 0 720408.43494129227 -6811942.2096303655 0 -6811942.2096303655 40695229.945987627 0 0 0 0 -219901223.77289939 45589375.062670708 0 45589375.062670708 3235956.6956577301 0 0 0 0 -202986540.67588723 57331210.243088961 0 57331210.243088961 -4091304.5500106812 0 0 0 0 -271578948.25689745 253592880.93945503 0 253592880.93945503 -119068185.39310265 0 0 0 0 -358593735.25644994 167126038.09553909 0 167126038.09553909 -49258696.859466076 0 0 0 0 -268518512.79399723 237415504.0725255 0 237415504.0725255 -34202861.633663177 0 0 0 0 -161351340.81432366 95409564.057790756 0 95409564.057790756 -33565769.600215435 0 0 0 0 -228124463.18215847 199823099.945158 0 199823099.945158 -85588807.919471741 0 0 0 0 -240539683.67696571 184673769.02089405 0 184673769.02089405 -103748575.06342411 0 0 0 0 -111981804.5163517 72988821.197015762 0 72988821.197015762 -88590770.386342406 0 0 0 0 -153584778.77925706 33595778.207084417 0 33595778.207084417 636118.26369667053 0 0 0 0 -216120062.4241569 164466593.48562717 0 164466593.48562717 -126449362.93528461 0 0 0 0 -55682687.362060666 6924532.221282959 0 6924532.221282959 27057583.916340828 0 0 0 0 860138.36875727633 -4094306.7839201186 0 -4094306.7839201186 -63444.160908482969 0 0 0 0 -230103896.16591597 95260671.975712299 0 95260671.975712299 -697493759.23622513 0 0 0 0 -80760876.86703676 -20041958.345104218 0 -20041958.345104218 -1845481.7069652677 0 0 0 0 -92149662.417173982 -35727013.523694038 0 -35727013.523694038 -32720190.929924488 0 0 0 0 -295346208.48839295 -364170316.64766145 0 -364170316.64766145 38585994.513381958 0 0 0 0 -426939597.44431698 -196076874.19474077 0 -196076874.19474077 543555754.70811462 0 0 0 0 -128121445.03390944 -190075176.88119316 0 -190075176.88119316 180908225.30808687 0 0 0 0 -92863200.807571441 -63341738.387284279 0 -63341738.387284279 197130274.00508499 0 0 0 0 -98248850.268609822 -220556061.70517063 0 -220556061.70517063 -18844593.780719757 0 0 0 0 -6389941.793627739 12629326.110757828 0 12629326.110757828 -111458758.8086195 0 0 0 0 -55632396.591611505 -2279988.0832657814 0 -2279988.0832657814 -47795356.198940277 0 0 0 0 2528180.5866653919 -132229492.3619833 0 -132229492.3619833 53089302.65370369 0 0 0 0 118356840.28817558 -125666220.64365482 0 -125666220.64365482 23104500.409826279 0 0 0 0 129792023.4820013 78392181.574258804 0 78392181.574258804 -70374062.680017471 0 0 0 0 -227891292.2786026 249717424.35728693 0 249717424.35728693 -80195475.926790237 0 0 0 0 -81288440.928631544 166795068.03551674 0 166795068.03551674 -236324870.52495766 0 0 0 0 -153376232.91092253 104707238.03139305 0 104707238.03139305 -54250920.761659622 0 0 0 0 -490334820.25496292 264831848.02870461 0 264831848.02870461 -111560886.78299713 0 0 0 0 -263259386.01775837 107831776.35589695 0 107831776.35589695 -165485684.07932115 0 0 0 0 366543481.80872059 -298291873.98052216 0 -298291873.98052216 127259134.73361015 0 0 0 0 1131567.7662164778 3928776.9113120874 0 3928776.9113120874 13073868.367803339 0 0 0 0 1044564626.3674817 -563479274.93606281 0 -563479274.93606281 -356181659.13500977 0 0 0 0 -481338787.39569372 506701594.62071717 0 506701594.62071717 -256636746.77822495 0 0 0 0 994400064.2605114 -365901119.90584183 0 -365901119.90584183 365146546.50744629 0 0 0 0 -123086989.06547666 8298229.603415966 0 8298229.603415966 -262258979.05225706 0 0 0 0 -154734310.67339706 291749710.03062344 0 291749710.03062344 -499722969.83655357 0 0 0 0 -143179659.72154617 -87188503.399424553 0 -87188503.399424553 -82775740.174196631 0 0 0 0 -670404895.22295773 552272256.07351851 0 552272256.07351851 432795620.43637562 0 0 0 0 -175345408.34942532 44362618.761036396 0 44362618.761036396 412261079.80948067 0 0 0 0 145508489.35735321 112975537.89501286 0 112975537.89501286 422680937.30821836 0 0 0 0 -297698053.8340643 -336112764.49906516 0 -336112764.49906516 2632023953.3204212 0 0 0 0 58128399.590786189 -185855815.63029063 0 -185855815.63029063 73218682.937138557 0 0 0 0 301673426.23167348 -13529569.616521835 0 -13529569.616521835 -154447429.03925842 0 0 0 0 -16421116.629829884 -340387079.95145893 0 -340387079.95145893 -175856990.05990791 0 0 0 0 158592356.01517382 -149407714.55324364 0 -149407714.55324364 -54884343.022032261 0 0 0 0 288156636.50123918 268547014.43078327 0 268547014.43078327 193083616.01030624 0 0 0 0 71075223.678790689 -54221797.7542243 0 -54221797.7542243 219630079.99697876 0 0 0 0 -6706805.7056950331 -42651796.1111269 0 -42651796.1111269 1203459163.0261383 0 0 0 0 -428580493.74027699 227166116.40080559 0 227166116.40080559 948741679.57897568 0 0 0 0 149796317.46792865 30438716.159428596 0 30438716.159428596 991857293.7138834 0 0 0 0 595740998.13379788 1181367228.6857495 0 1181367228.6857495 1961419497.7076921 0 0 0 0 -1132245923.6428556 1696203411.2369988 0 1696203411.2369988 6615960532.216939 0 0 0 0 2173702042.5282655 3274722588.6864042 0 3274722588.6864042 2854867889.9111519 0 0 0 0 -1131199400.5726328 1690451019.6030455 0 1690451019.6030455 6600909828.155777 0 0 0 0 -912892056.14698672 124610912.59903693 0 124610912.59903693 4044925465.9004288 0 0 0 0 -957680135.34574211 -122281967.11471224 0 -122281967.11471224 2761819430.1286001 0 0 0 0 -966913853.56104028 -1290907927.94047 0 -1290907927.94047 6614842478.238493 0 0 0 0 -58328705.33159101 -1140752061.6311216 0 -1140752061.6311216 2092199018.5106182 0 0 0 0 -453687.68646107061 -974295.6608202504 0 -974295.6608202504 8732672.7390695233 0 0 0 0 1203388155.0682716 -3537039180.0422435 0 -3537039180.0422435 6603319903.3084641 0 0 0 0 104314963.82488638 1412388646.9633331 0 1412388646.9633331 1378177412.0810566 0 0 0 0 -569267429.11682773 838259963.88523197 0 838259963.88523197 6600683808.2384844 0 0 0 0 -369094268.80854768 -1499129490.6782484 0 -1499129490.6782484 6602111163.0609245 0 0 0 0 -456526760.19186616 -317699255.80723667 0 -317699255.80723667 2272495113.8223953 0 0 0 0 405075707.34836543 -278792930.64260387 0 -278792930.64260387 2273794691.5246086 0 0 0 0 913051920.74849665 -548687479.60344601 0 -548687479.60344601 540919415.76794815 0 0 0 0 410712185.15404558 -595636006.17532825 0 -595636006.17532825 -97595650.129592896 0 0 0 0 766001730.94633532 -18362700.785699844 0 -18362700.785699844 519835720.85686302 0 0 0 0 186141810.05928957 -340705405.41561317 0 -340705405.41561317 -48583752.330781937 0 0 0 0 818519483.33690917 -493426980.69689751 0 -493426980.69689751 -13347058.725515366 0 0 0 0 131400832.65308106 118928603.71617031 0 118928603.71617031 -76750305.402996063 0 0 0 0 848213997.42532766 149018829.93195078 0 149018829.93195078 -175054181.46998978 0 0 0 0 530769320.46510386 -111127966.88432121 0 -111127966.88432121 -3547940.6888275146 0 0 0 0 11490363.720816851 -6711974.1318283081 0 -6711974.1318283081 969825.19716143608 0 0 0 0 164887450.88942975 -356208761.68008327 0 -356208761.68008327 140642826.91925049 0 0 0 0 67587114.905861855 -199507468.25901031 0 -199507468.25901031 186506792.01709366 0 0 0 0 192513073.57613057 -322188912.16654062 0 -322188912.16654062 161501646.10811996 0 0 0 0 773138.64756869501 3955661.1560203689 0 3955661.1560203689 15430269.174140582 0 0 0 0 318709048.9408052 -398196045.49548149 0 -398196045.49548149 207219788.55323982 0 0 0 0 319823900.7953589 -426401545.43392181 0 -426401545.43392181 469764488.02042389 0 0 0 0 -435306128.37317848 -321452347.96546602 0 -321452347.96546602 2223671547.9855957 0 0 0 0 198924.6915522925 2425421.1276128017 0 2425421.1276128017 14828020.786798447 0 0 0 0 -421011546.49758846 -255199796.89048243 0 -255199796.89048243 297229480.47724533 0 0 0 0 -5617908.3470958471 80498907.019601822 0 80498907.019601822 141593466.84475708 0 0 0 0 322188722.22533059 -320929262.63113308 0 -320929262.63113308 185926156.94332123 0 0 0 0 5972936.7309937021 4442964.7498660749 0 4442964.7498660749 7427194.5633393675 0 0 0 0 676509.44739450014 -750106.6683588787 0 -750106.6683588787 2806999.6213166267 0 0 0 0 77190194.657240808 -1395510175.915174 0 -1395510175.915174 3241489632.3985367 0 0 0 0 -598384023.03565288 950530108.87281036 0 950530108.87281036 6544354316.0509415 0 0 0 0 1197674587.073796 225238735.31461716 0 225238735.31461716 -670866337.16916275 0 0 0 0 101543220.37240759 91931070.375869751 0 91931070.375869751 -680588544.99707365 0 0 0 0 -1194631051.1486814 -117870473.36865807 0 -117870473.36865807 6587580717.7303658 0 0 0 0 1866509.3839191208 -607857.78539696243 0 -607857.78539696243 5014839.9702816755 0 0 0 0 295127980.19105649 1281674225.7809143 0 1281674225.7809143 3762577366.6313095 0 0 0 0 966426190.80393052 -1805253532.1503525 0 -1805253532.1503525 1648643529.8895741 0 0 0 0 530584240.97002268 376525837.25235939 0 376525837.25235939 -473875186.91048431 0 0 0 0 -758731910.35598004 32304468.539765358 0 32304468.539765358 281928562.43676567 0 0 0 0 115536011.60337234 72947418.189762115 0 72947418.189762115 -133662938.65056992 0 0 0 0 -32100412.2876091 240684919.33951092 0 240684919.33951092 -47772793.410515308 0 0 0 0 -12533776.726546705 14158571.473524094 0 14158571.473524094 117608128.08128166 0 0 0 0 98915.366966741669 5532110.1469685826 0 5532110.1469685826 14785042.562669454 0 0 0 0 1880182.6031655404 -594677.22804467799 0 -594677.22804467799 10796821.798421312 0 0 0 0 22448869.123345949 -19523023.00812912 0 -19523023.00812912 -434061060.62445068 0 0 0 0 -72603434.440523028 -47819842.912835121 0 -47819842.912835121 101492480.0111084 0 0 0 0 120155339.78198725 70746243.280169487 0 70746243.280169487 33619886.035568237 0 0 0 0 1299098.3923626842 458822.81859113288 0 458822.81859113288 4703051.902901791 0 0 0 0 -64599336.821538106 120606585.34160805 0 120606585.34160805 -372481623.09087372 0 0 0 0 2763895.3450288973 4726388.8986881124 0 4726388.8986881124 3022591.3337007686 0 0 0 0 18501477.472639501 22486227.515253067 0 22486227.515253067 -2525785.9637298584 0 0 0 0 6090657.1203780174 16286324.853088379 0 16286324.853088379 10677402.661628723 0 0 0 0 -14342838.789050087 9968078.5651301444 0 9968078.5651301444 46522380.20199585 0 0 0 0 -14287816.746968269 4033614.4457092285 0 4033614.4457092285 41212848.265830994 0 0 0 0 -8292836.3209459186 8579292.8151264191 0 8579292.8151264191 31908470.776916504 0 0 0 0 -8929196.6058633327 6720370.8762779236 0 6720370.8762779236 39496760.609443665 0 0 0 0 1164472.4578513261 8101355.3066769056 0 8101355.3066769056 25615874.54397244 0 0 0 0 -960072.31619782897 527365.59705576114 0 527365.59705576114 21569394.210277572 0 0 0 0 -5495399.2614643872 1417273.2810499668 0 1417273.2810499668 3171711.4217376709 0 0 0 0 -5128419.0073795319 6044789.2259483337 0 6044789.2259483337 39413790.679599762 0 0 0 0 -800517.38974050735 513215.13473332999 0 513215.13473332999 21006582.926597875 0 0 0 0 544179.52866323246 1474197.1085988292 0 1474197.1085988292 18436893.653742146 0 0 0 0 -163363470.01249957 44241935.920749664 0 44241935.920749664 31804332.826461792 0 0 0 0 -134085545.4354403 27059725.576251984 0 27059725.576251984 29852798.670913696 0 0 0 0 43451380.503828526 55559647.241827965 0 55559647.241827965 -27949320.164588928 0 0 0 0 6910220.28129673 60551294.809387207 0 60551294.809387207 -28518694.374902725 0 0 0 0 -11325373.621901155 129849184.87498188 0 129849184.87498188 -37783886.627128601 0 0 0 0 -43904415.524516106 151029324.23433685 0 151029324.23433685 -45861096.135494232 0 0 0 0 -196248501.16890788 258319158.60729218 0 258319158.60729218 -59212707.313430786 0 0 0 0 -369084358.01534557 282892638.43289185 0 282892638.43289185 -92456167.712657928 0 0 0 0 -300156783.92316544 -193339941.40477991 0 -193339941.40477991 272135509.92599106 0 0 0 0 22554812.154677182 20419259.717170715 0 20419259.717170715 5332178.2984771729 0 0 0 0 -492613.20056681754 180800.81912057754 0 180800.81912057754 1134707.5202376917 0 0 0 0 -463208619.05250168 -198240056.68031311 0 -198240056.68031311 171585574.79556274 0 0 0 0 222399601.64721674 110292799.79468679 0 110292799.79468679 -156967520.05633545 0 0 0 0 90729940.827717781 204996135.33438492 0 204996135.33438492 -155873940.77305603 0 0 0 0 154266372.66495705 -69023664.399662018 0 -69023664.399662018 -7418351.0910377502 0 0 0 0 66854933.053663254 -57629976.053495407 0 -57629976.053495407 54623565.053089142 0 0 0 0 99603527.308880687 101094416.28251076 0 101094416.28251076 95296418.49939537 0 0 0 0 965664.12932499591 -185329.16515538469 0 -185329.16515538469 282.27225519344211 0 0 0 0 241466132.05082172 -1897363.691975832 0 -1897363.691975832 -97505564.566986084 0 0 0 0 61985389.506544113 -5320772.1165733337 0 -5320772.1165733337 -30830200.592384338 0 0 0 0 83363968.890720844 11381071.528229713 0 11381071.528229713 -30702422.340812683 0 0 0 0 68023844.598241329 63770524.940582275 0 63770524.940582275 -73172097.243258476 0 0 0 0 45440934.031058311 23902741.543941498 0 23902741.543941498 -34726324.694822311 0 0 0 0 53517926.678356171 2021570.8925428391 0 2021570.8925428391 -20711689.66040802 0 0 0 0 48365068.500863552 7798589.1583676338 0 7798589.1583676338 -5900520.253944397 0 0 0 0 28744103.942480803 17137848.077028275 0 17137848.077028275 -8135329.6083984375 0 0 0 0 32112869.213450275 42508270.789365023 0 42508270.789365023 -22027975.193664551 0 0 0 0 26818586.218091965 24722507.255807877 0 24722507.255807877 -4716581.1432113647 0 0 0 0 32251395.6278615 25953032.889648438 0 25953032.889648438 -11033931.77230835 0 0 0 0 16750637.321037292 12240777.126232147 0 12240777.126232147 19817422.463562012 0 0 0 0 3016561.2455630302 13490393.973461151 0 13490393.973461151 32522736.821990967 0 0 0 0 -60492458.251806259 -86294216.003622293 0 -86294216.003622293 14257437.043762207 0 0 0 0 -50909696.578368962 -59042116.407455206 0 -59042116.407455206 15514891.180873871 0 0 0 0 -47105296.903354645 -35413506.745075226 0 -35413506.745075226 -852463.7059135437 0 0 0 0 -51562341.333035171 -70483876.809461296 0 -70483876.809461296 -28083332.04917717 0 0 0 0 -608883.51741931587 548290.46183503163 0 548290.46183503163 3476821.1309731817 0 0 0 0 -55865701.995677471 -92574480.895248652 0 -92574480.895248652 -23282739.062652588 0 0 0 0 -148876126.22968674 313270561.21244812 0 313270561.21244812 -115589909.58508205 0 0 0 0 -3333656.2507600784 19578535.222225189 0 19578535.222225189 27469684.535263062 0 0 0 0 -7977476.1292648315 20351817.431556702 0 20351817.431556702 35412260.441699982 0 0 0 0 3637149.3569106646 -216593.06699996581 0 -216593.06699996581 14081070.129149497 0 0 0 0 -249153.77843642235 23169797.662578583 0 23169797.662578583 32370642.059597015 0 0 0 0 82062405.609718323 58997707.774600983 0 58997707.774600983 155114403.22991943 0 0 0 0 -3533224.1575920023 1085668.8721301665 0 1085668.8721301665 12733496.962844774 0 0 0 0 11476111.534030437 17297353.875011444 0 17297353.875011444 26562550.371967316 0 0 0 0 3228134.4362416863 4657894.5903072357 0 4657894.5903072357 22380039.90486145 0 0 0 0 -5236912.895932436 18566087.12569046 0 18566087.12569046 29678682.721923828 0 0 0 0 -19338720.310948372 12995920.835975647 0 12995920.835975647 27064459.507675171 0 0 0 0 -11488707.93157196 25152910.699028015 0 25152910.699028015 24297863.673995972 0 0 0 0 -8324636.4950008392 36076623.029701233 0 36076623.029701233 9638816.353187561 0 0 0 0 6691285.4893317223 22952592.492254257 0 22952592.492254257 11947183.674102783 0 0 0 0 -33571541.100570679 55582646.886287689 0 55582646.886287689 1925255.2311553955 0 0 0 0 -18162119.247508287 13447317.546161652 0 13447317.546161652 24338593.682014465 0 0 0 0 -37970832.645226955 14775524.266521454 0 14775524.266521454 29673455.975923538 0 0 0 0 -39727452.531167984 -6660236.7878074646 0 -6660236.7878074646 11205244.650390625 0 0 0 0 -3517990.972709225 3212357.4113330105 0 3212357.4113330105 23358174.034967244 0 0 0 0 -28405307.374617994 5670256.8574581146 0 5670256.8574581146 27546543.960929871 0 0 0 0 3001263.2207211298 -6141228.2931608707 0 -6141228.2931608707 17711828.665533438 0 0 0 0 -13214016.996828318 2745226.2996864319 0 2745226.2996864319 38349959.96282959 0 0 0 0 4358674.6259505302 -565806.68937161961 0 -565806.68937161961 16472777.969392888 0 0 0 0 -23018545.631319046 -8357966.0199966431 0 -8357966.0199966431 6279423.7099113464 0 0 0 0 7732164.3487923741 9159629.7180614471 0 9159629.7180614471 25371810.764755249 0 0 0 0 22077978.655294061 -6206957.254737854 0 -6206957.254737854 12957858.792053223 0 0 0 0 -21135177.38397944 -1267077.5815525055 0 -1267077.5815525055 43580505.847137451 0 0 0 0 -11874465.473293781 -6872905.2584648132 0 -6872905.2584648132 30131967.214595795 0 0 0 0 -16722281.180300713 -4393153.5492095947 0 -4393153.5492095947 28908882.545211792 0 0 0 0 -17477137.024556637 2498623.8786697388 0 2498623.8786697388 41304696.240310669 0 0 0 0 -16079627.839784682 5239297.7641677856 0 5239297.7641677856 42549520.656433105 0 0 0 0 30348690.212458611 -123640974.97101021 0 -123640974.97101021 -501686829.15505219 0 0 0 0 -92291563.305468559 -80815182.599067688 0 -80815182.599067688 -286949193.40966225 0 0 0 0 -59760046.060125351 -122101482.09225178 0 -122101482.09225178 -93066456.049514771 0 0 0 0 -26736885.316856384 -220953273.57701111 0 -220953273.57701111 -169021549.61015129 0 0 0 0 -41350327.062371254 -105122248.88051653 0 -105122248.88051653 -255607806.36561584 0 0 0 0 -9642480.9460749626 -249159648.56757736 0 -249159648.56757736 -57234464.344007492 0 0 0 0 456966653.47808456 40176626.649810791 0 40176626.649810791 -969223298.02379417 0 0 0 0 276167782.28433895 -85746489.925798416 0 -85746489.925798416 -335180990.36335564 0 0 0 0 -144622662.86951542 13084802.013397217 0 13084802.013397217 -327686018.67731106 0 0 0 0 -63458169.503456116 -215416789.43822861 0 -215416789.43822861 -342973315.75006866 0 0 0 0 240762414.31278768 -321753280.48257804 0 -321753280.48257804 456710057.07323837 0 0 0 0 756415.37163792271 209517.95587095711 0 209517.95587095711 355787.64021417312 0 0 0 0 518348404.89426863 -1348534207.004128 0 -1348534207.004128 1439160729.3504333 0 0 0 0 262517675.10643816 -221262712.70241356 0 -221262712.70241356 677416662.1348238 0 0 0 0 2029488.6355937039 496469.31865758356 0 496469.31865758356 1019542.8976901332 0 0 0 0 99032314.338094711 -227941182.81491852 0 -227941182.81491852 558051973.00878143 0 0 0 0 117125900.04616332 -256190279.76622963 0 -256190279.76622963 428390573.26046181 0 0 0 0 -134864999.69793761 -156692849.71425438 0 -156692849.71425438 496977627.04532623 0 0 0 0 313450.53396502626 131222.20235799812 0 131222.20235799812 -171463.82637510262 0 0 0 0 125407892.00227261 -250997521.2253747 0 -250997521.2253747 227843007.03937531 0 0 0 0 95039003.072155476 -73809825.06959343 0 -73809825.06959343 58342652.003255844 0 0 0 0 2635889.3074848945 -474415.81200306956 0 -474415.81200306956 6243.7186036689673 0 0 0 0 179641247.89515173 -167847303.55132294 0 -167847303.55132294 111563340.41948891 0 0 0 0 -5779474.129275322 -10736904.985999107 0 -10736904.985999107 25084213.314186096 0 0 0 0 49601099.421162128 -5112741.3813724518 0 -5112741.3813724518 -1624360.258354187 0 0 0 0 90747.414921760559 2466689.1525354385 0 2466689.1525354385 -1441975.1988887787 0 0 0 0 2485436.0762820793 -190022.2871386921 0 -190022.2871386921 2853294.6232292186 0 0 0 0 -53046568.247766495 -168237017.12034464 0 -168237017.12034464 -177657312.45830154 0 0 0 0 -31592377.968482971 -164298860.29567146 0 -164298860.29567146 -180678695.61648655 0 0 0 0 -119542930.96887302 -38012708.800561905 0 -38012708.800561905 -38718244.611406326 0 0 0 0 -96301833.086398125 -114870259.26602459 0 -114870259.26602459 46596610.983009338 0 0 0 0 37871421.548518181 8580607.1479225159 0 8580607.1479225159 -4687754.5257453918 0 0 0 0 37913825.216396332 -230259311.02910709 0 -230259311.02910709 81718631.963366032 0 0 0 0 -134160352.81220531 -118560667.14997959 0 -118560667.14997959 20109634.096658707 0 0 0 0 3402077.2137697064 -876141.88076540525 0 -876141.88076540525 6668331.4836329035 0 0 0 0 -111200013.04079914 -87444969.132492065 0 -87444969.132492065 48067333.504588127 0 0 0 0 -64059395.024831772 -83884777.056432724 0 -83884777.056432724 21929111.475952744 0 0 0 0 -77002000.750623703 -47230856.602492332 0 -47230856.602492332 87733765.552146912 0 0 0 0 -74749050.090015411 -64550817.329556465 0 -64550817.329556465 30519159.04318428 0 0 0 0 -98791738.508519173 -25139597.577087402 0 -25139597.577087402 115486071.50397873 0 0 0 0 -83036396.080820084 -29920818.847711563 0 -29920818.847711563 113622235.1147747 0 0 0 0 -67868902.907251358 33172315.035118103 0 33172315.035118103 246021155.48963547 0 0 0 0 -52150447.582052231 -86910623.087037086 0 -86910623.087037086 153932217.6383009 0 0 0 0 -89227372.237500668 -47965373.163523972 0 -47965373.163523972 115360582.26114082 0 0 0 0 -36697707.75372982 -200369086.22434807 0 -200369086.22434807 -1945131.9487571716 0 0 0 0 -37288855.810973555 -90850009.75225538 0 -90850009.75225538 59130426.2520504 0 0 0 0 122450140.39540672 -190486699.428545 0 -190486699.428545 121186690.49598885 0 0 0 0 118749665.79034996 -185988173.3729229 0 -185988173.3729229 310112377.18995857 0 0 0 0 65097611.673870087 -114649845.98236084 0 -114649845.98236084 363130161.94824934 0 0 0 0 46261041.184505463 87052001.215893745 0 87052001.215893745 295390315.66453981 0 0 0 0 -18002478.335748672 -10386330.913150787 0 -10386330.913150787 237491966.97887039 0 0 0 0 222624426.46386671 -70413633.313330173 0 -70413633.313330173 262839464.83719635 0 0 0 0 162795886.20252323 145073201.6643219 0 145073201.6643219 64010678.423843384 0 0 0 0 24689768.096826553 110921345.71260643 0 110921345.71260643 338042562.83154964 0 0 0 0 -12466647.07804966 61952883.886221886 0 61952883.886221886 155196110.6992197 0 0 0 0 16719051.694448471 67436825.423904419 0 67436825.423904419 149253047.55420208 0 0 0 0 59566803.197408199 103598639.72059345 0 103598639.72059345 127482594.24040413 0 0 0 0 100987257.35064483 75673908.79359436 0 75673908.79359436 73469188.072271347 0 0 0 0 107033166.79495192 84393241.97324276 0 84393241.97324276 61859307.026214108 0 0 0 0 69998393.692343235 72668735.645268917 0 72668735.645268917 73426467.299865723 0 0 0 0 70316388.327109396 70250135.705145478 0 70250135.705145478 70778779.534082413 0 0 0 0 10687825.984704018 55364450.447606087 0 55364450.447606087 90568774.286071301 0 0 0 0 -285991407.69035816 -185849023.76844311 0 -185849023.76844311 -26618651.771989822 0 0 0 0 -258892418.86906624 -317863877.0841732 0 -317863877.0841732 -154883572.9424572 0 0 0 0 6755227.0623235749 -4865443.6880910015 0 -4865443.6880910015 8285950.9383877758 0 0 0 0 417505.78484153748 35499986.998351574 0 35499986.998351574 61579667.772341147 0 0 0 0 -616838.6325378418 38303198.243884087 0 38303198.243884087 66747771.036361694 0 0 0 0 33589659.767109394 40290861.075684309 0 40290861.075684309 63531822.98140049 0 0 0 0 29396413.546250343 49314245.516893387 0 49314245.516893387 65974762.820174217 0 0 0 0 -21572120.277690887 30439894.379836082 0 30439894.379836082 85895588.403937101 0 0 0 0 -10428065.801959991 46375733.849206924 0 46375733.849206924 91691112.862145424 0 0 0 0 -6090440.1747617722 32072606.459720373 0 32072606.459720373 72858473.845569611 0 0 0 0 -39951230.201618195 17103226.191040039 0 17103226.191040039 79224096.039207458 0 0 0 0 -20662323.406912565 27668386.992865086 0 27668386.992865086 82835305.821626663 0 0 0 0 -53776473.447217941 -3604949.6528692245 0 -3604949.6528692245 83093834.809741974 0 0 0 0 -42684382.298333168 24419512.519693375 0 24419512.519693375 118187207.14902496 0 0 0 0 -57935030.980297089 3510996.3427906036 0 3510996.3427906036 94632152.030787468 0 0 0 0 -38139146.975925446 23062211.692463875 0 23062211.692463875 110633157.31936777 0 0 0 0 8177010.4098572731 58569407.570995808 0 58569407.570995808 105842132.791399 0 0 0 0 -63183660.542564392 21423922.288371086 0 21423922.288371086 151544899.21940422 0 0 0 0 -7969364.4494435787 40225343.311196089 0 40225343.311196089 114887782.72216797 0 0 0 0 -82410704.759296417 -15251284.102721691 0 -15251284.102721691 106928859.43026352 0 0 0 0 -66712906.918458939 -14128353.807483673 0 -14128353.807483673 98261594.008966446 0 0 0 0 -65388706.982588768 -24042174.633073807 0 -24042174.633073807 75823430.745708466 0 0 0 0 -68436564.198572159 -37512992.379227638 0 -37512992.379227638 64412932.380126953 0 0 0 0 -63617296.346801043 -27701516.970832586 0 -27701516.970832586 56680750.13728714 0 0 0 0 -63668705.841844559 -18930079.083382607 0 -18930079.083382607 73453983.644212723 0 0 0 0 -58424843.742538452 -27151107.090654373 0 -27151107.090654373 43412410.234237194 0 0 0 0 -61476496.268133163 -34091852.624300003 0 -34091852.624300003 46797877.890775681 0 0 0 0 -64351893.638086796 -47917938.018848896 0 -47917938.018848896 22556439.506469727 0 0 0 0 -47741311.202689171 -30161792.006365299 0 -30161792.006365299 21353240.03502655 0 0 0 0 -58983054.233163834 -14251013.641609192 0 -14251013.641609192 41843894.164361954 0 0 0 0 -48557319.999905586 -27883778.832485914 0 -27883778.832485914 25977162.363523483 0 0 0 0 -19192547.716491699 -12485998.803058624 0 -12485998.803058624 31085660.318092346 0 0 0 0 -58485424.308419704 -17929801.847552776 0 -17929801.847552776 53815157.291501999 0 0 0 0 -55506460.568881035 -12114573.225849628 0 -12114573.225849628 60226637.729328156 0 0 0 0 -59115043.749620438 -9302773.5519313812 0 -9302773.5519313812 71611234.968610287 0 0 0 0 -50820592.932898998 -3972222.5225071907 0 -3972222.5225071907 71398196.066831589 0 0 0 0 -28125141.284537792 -19749921.936355591 0 -19749921.936355591 21351300.11240387 0 0 0 0 -16226859.231694937 -12106104.529209137 0 -12106104.529209137 24262759.798324585 0 0 0 0 -12269770.541748524 3025569.7204399109 0 3025569.7204399109 72483100.319297791 0 0 0 0 -27454481.768199682 -9492821.0533752441 0 -9492821.0533752441 15877370.341720581 0 0 0 0 -2274316.808205354 -3379179.9579339386 0 -3379179.9579339386 19699685.885758284 0 0 0 0 -7747855.2744571082 11245644.116306532 0 11245644.116306532 24415629.131747764 0 0 0 0 -5362654.1910991166 2405811.9720786926 0 2405811.9720786926 41461731.547221884 0 0 0 0 -191738580.22868729 -146440699.78009796 0 -146440699.78009796 20500825.46572876 0 0 0 0 8763311.9886646271 118172982.70892525 0 118172982.70892525 4963954.7218780518 0 0 0 0 -1034364.4058066981 3594107.8706629626 0 3594107.8706629626 43659528.226467207 0 0 0 0 52857378.265930653 -13351245.825115204 0 -13351245.825115204 -183800000.23678589 0 0 0 0 66067161.394703865 143716196.3787384 0 143716196.3787384 224383271.67379761 0 0 0 0 -12642998.946037292 -4849294.4165802002 0 -4849294.4165802002 9482258.4343643188 0 0 0 0 -470296.12823407445 1020487.0619626418 0 1020487.0619626418 7498692.7935495302 0 0 0 0 -18296372.165997744 167222098.37997246 0 167222098.37997246 199272355.46392822 0 0 0 0 -1272414.7760090579 1285925.4600077756 0 1285925.4600077756 4867860.1836000234 0 0 0 0 -8729793.7997589111 -20643538.495094299 0 -20643538.495094299 46049256.230674744 0 0 0 0 75654518.7957623 139522831.28701782 0 139522831.28701782 -3136450.8050689697 0 0 0 0 5422570.7408428937 6809472.7905025482 0 6809472.7905025482 38466698.133453369 0 0 0 0 -112529813.45142651 -76163746.027359009 0 -76163746.027359009 -7027775.970451355 0 0 0 0 534066.08915113099 -3065257.8094511628 0 -3065257.8094511628 31429744.71697998 0 0 0 0 -833952.56468547694 -610522.96011163667 0 -610522.96011163667 3497269.0584867354 0 0 0 0 -64051051.77854538 -14787936.539505005 0 -14787936.539505005 50482206.467849731 0 0 0 0 508600.43919485807 -4545251.997156024 0 -4545251.997156024 37800010.609191895 0 0 0 0 -84008613.651088715 31092019.622016907 0 31092019.622016907 116770197.07575989 0 0 0 0 -93421716.534755707 13824556.170181274 0 13824556.170181274 94682997.611106873 0 0 0 0 -308876898.73477745 21363415.800033569 0 21363415.800033569 125952968.14599609 0 0 0 0 -278639079.84188485 256922215.06214237 0 256922215.06214237 128035303.00643921 0 0 0 0 -56713187.65381813 194093394.22994232 0 194093394.22994232 64290399.014831543 0 0 0 0 -3296599.8965012413 2510231.7143836711 0 2510231.7143836711 48579284.783092037 0 0 0 0 39392222.989806175 63219194.414840698 0 63219194.414840698 53130917.595291138 0 0 0 0 -36505228.997117043 -13671784.068927765 0 -13671784.068927765 102733169.27980042 0 0 0 0 -77423958.543794155 23963035.068481445 0 23963035.068481445 119812725.15020752 0 0 0 0 1826071.4482731819 39495431.926078796 0 39495431.926078796 95192767.825515747 0 0 0 0 -72058374.972131014 36458930.301689148 0 36458930.301689148 146595370.47103882 0 0 0 0 -111575276.7954607 7704690.8515853882 0 7704690.8515853882 140833380.37732506 0 0 0 0 -42294579.012943268 17822735.869267464 0 17822735.869267464 75684964.933806419 0 0 0 0 -39178307.784032822 11164903.170290947 0 11164903.170290947 60962923.063147068 0 0 0 0 -44503619.125180244 8548713.2367687225 0 8548713.2367687225 46329466.841020703 0 0 0 0 -74625892.323722839 5423224.9988594055 0 5423224.9988594055 68666356.794181347 0 0 0 0 -31260463.75553894 13531502.351493359 0 13531502.351493359 62093627.160514832 0 0 0 0 -18487447.172735691 15723459.119176328 0 15723459.119176328 51535693.637375832 0 0 0 0 -11517652.302218437 36489508.536446452 0 36489508.536446452 71721157.146831512 0 0 0 0 -39110755.712273598 21220602.620901108 0 21220602.620901108 77700675.216144443 0 0 0 0 -11339213.004919101 4613551.8367895307 0 4613551.8367895307 32683910.185068678 0 0 0 0 36390626.823346138 -32998313.23418808 0 -32998313.23418808 41518258.238552094 0 0 0 0 -16030479.482364655 -24804051.656719208 0 -24804051.656719208 22799745.123962402 0 0 0 0 36807345.405549884 35064960.088088989 0 35064960.088088989 -7706276.0732498169 0 0 0 0 -772400.31917428889 -3022613.3472675048 0 -3022613.3472675048 8256766.5770843467 0 0 0 0 -39529139.363265038 28647035.458374023 0 28647035.458374023 -9660099.8324356079 0 0 0 0 -7988982.3359264638 6450428.5711538726 0 6450428.5711538726 53699687.089325562 0 0 0 0 -95104415.337264776 -44647782.654764175 0 -44647782.654764175 87132121.070983887 0 0 0 0 -18611244.693929315 -4280424.0477433205 0 -4280424.0477433205 41519784.404693604 0 0 0 0 -46027978.704092503 14222905.090744019 0 14222905.090744019 79753375.33530426 0 0 0 0 -47696471.348065794 -23410579.648979664 0 -23410579.648979664 52571265.353729248 0 0 0 0 -14498088.335487366 -3923897.6422271729 0 -3923897.6422271729 54422376.034956932 0 0 0 0 -14603970.758396626 4180591.9834222794 0 4180591.9834222794 55473719.418426514 0 0 0 0 -21894640.870703816 -11516791.553701401 0 -11516791.553701401 60698836.428436279 0 0 0 0 -24968622.219078064 3252306.4149093628 0 3252306.4149093628 53386627.807559967 0 0 0 0 -16644568.376054879 2077753.3515974209 0 2077753.3515974209 47189725.471301481 0 0 0 0 -17557152.516485214 -4006446.7670898438 0 -4006446.7670898438 41297398.614165306 0 0 0 0 -13751603.013601303 3156363.199596405 0 3156363.199596405 42657159.309532166 0 0 0 0 -28108525.451085567 -999941.77240896225 0 -999941.77240896225 32767473.387943268 0 0 0 0 942884.47275412083 -52301055.25905633 0 -52301055.25905633 48407945.749660492 0 0 0 0 -16340544.133696079 -28377754.496030807 0 -28377754.496030807 27930754.127689362 0 0 0 0 -10917837.909878731 -468616.81148910522 0 -468616.81148910522 14554059.385261536 0 0 0 0 1153445.5211591721 14455823.532314301 0 14455823.532314301 21680378.582708359 0 0 0 0 199044.20779997166 -1673087.0673118145 0 -1673087.0673118145 111449.25455430895 0 0 0 0 -8000564.5087114573 -51562491.927696228 0 -51562491.927696228 135735916.29384613 0 0 0 0 -275868.46194532036 -1402946.651521544 0 -1402946.651521544 1633345.6150669828 0 0 0 0 63593223.051414013 -81602402.109283447 0 -81602402.109283447 51200736.240539551 0 0 0 0 -8281640.8826719522 2837675.9632469048 0 2837675.9632469048 38480129.07269381 0 0 0 0 -47928214.134697914 8067882.4737224579 0 8067882.4737224579 50303872.222946167 0 0 0 0 -33098621.100240707 24545806.167079926 0 24545806.167079926 68555994.68239212 0 0 0 0 -16911210.579696655 9970293.5819091797 0 9970293.5819091797 31705860.541579485 0 0 0 0 -1928207.2950992584 24478845.831949234 0 24478845.831949234 30971625.388519287 0 0 0 0 -22020220.237642288 7199303.0252799988 0 7199303.0252799988 19396682.761177063 0 0 0 0 -24863624.86978054 -239947.33348846436 0 -239947.33348846436 24988561.535942078 0 0 0 0 -21292856.428243756 -1763652.9491629601 0 -1763652.9491629601 9891283.4608707428 0 0 0 0 -21359476.150827408 3726191.5985069275 0 3726191.5985069275 28781611.906745911 0 0 0 0 -12995306.533830287 9568869.8975654971 0 9568869.8975654971 26915664.768557802 0 0 0 0 -14897010.516620666 -2907132.6015014648 0 -2907132.6015014648 21953229.455238342 0 0 0 0 -29519438.418913841 2035336.022190094 0 2035336.022190094 8435376.2010231018 0 0 0 0 -7643539.539143987 2020794.289883198 0 2020794.289883198 13556745.355375847 0 0 0 0 2693915.040430326 -13852362.146895589 0 -13852362.146895589 761856.69144782051 0 0 0 0 -15789849.488502067 12908148.805608075 0 12908148.805608075 28529614.665562041 0 0 0 0 -53830806.518539429 -18334063.982200623 0 -18334063.982200623 49684534.970592022 0 0 0 0 -7695650.758976941 -9077149.5303748678 0 -9077149.5303748678 31872958.347186174 0 0 0 0 -71582161.049499512 -22802327.180057526 0 -22802327.180057526 49056769.298319101 0 0 0 0 -2187569.0693475772 -15331851.312147703 0 -15331851.312147703 33350546.62456537 0 0 0 0 -74318720.134914398 -25312181.726953983 0 -25312181.726953983 66173749.06772995 0 0 0 0 -161901026.78288651 -85719885.717809677 0 -85719885.717809677 33219186.369130135 0 0 0 0 -110435742.25914383 -13180816.588113785 0 -13180816.588113785 65894103.342056274 0 0 0 0 -68970489.284547806 -584183.19313812256 0 -584183.19313812256 63837414.381170273 0 0 0 0 -55080384.503728867 22462281.307462692 0 22462281.307462692 72125293.976625443 0 0 0 0 -112540305.05986714 28019406.744442046 0 28019406.744442046 107234695.41501617 0 0 0 0 44931856.779583931 3550449.9531602859 0 3550449.9531602859 41176046.125228882 0 0 0 0 -15206513.918254852 69992814.557418823 0 69992814.557418823 91813367.435764313 0 0 0 0 -83967410.347234726 44248239.108482361 0 44248239.108482361 113208363.53115463 0 0 0 0 125554477.3468442 165137182.36668897 0 165137182.36668897 147018123.73141861 0 0 0 0 -81070465.735982895 25437594.146879196 0 25437594.146879196 95710633.259063721 0 0 0 0 -163546433.03727341 24574662.71556282 0 24574662.71556282 147875339.85643768 0 0 0 0 -307296798.62379456 -78496689.813453674 0 -78496689.813453674 122512452.8621254 0 0 0 0 -134837677.65767097 -51243924.648036957 0 -51243924.648036957 -23697964.666501999 0 0 0 0 -174861053.91835976 -49474223.17604351 0 -49474223.17604351 344946303.43996525 0 0 0 0 184800057.63373804 -79635614.415190935 0 -79635614.415190935 19015201.904577255 0 0 0 0 -172814855.21961212 -34048210.928928375 0 -34048210.928928375 58294847.29486084 0 0 0 0 -95308860.658212662 -165834727.20556641 0 -165834727.20556641 -165493111.26950681 0 0 0 0 -303130280.61866283 -187903470.41860676 0 -187903470.41860676 67772727.373365402 0 0 0 0 31255430.578364372 45779519.82134819 0 45779519.82134819 61754791.699996233 0 0 0 0 -327367136.42212296 -141817839.66916466 0 -141817839.66916466 -6470857.7438774109 0 0 0 0 5208818.0286179055 -3566019.0298603405 0 -3566019.0298603405 16350598.528361237 0 0 0 0 30993962.08112812 36838864.156379223 0 36838864.156379223 62555247.624930859 0 0 0 0 -11049231.371591568 -338744.78845691681 0 -338744.78845691681 23510908.545789719 0 0 0 0 -934286.63226574147 3423307.2960956409 0 3423307.2960956409 21052627.225774057 0 0 0 0 980943.18275171239 -12305714.639813527 0 -12305714.639813527 20891783.912544064 0 0 0 0 1963823.8151135445 27646059.464766741 0 27646059.464766741 67239504.348408699 0 0 0 0 -112428424.8371048 -88070014.453968048 0 -88070014.453968048 29547470.565968513 0 0 0 0 -223972384.14979744 -229751892.57550812 0 -229751892.57550812 -150174696.45164108 0 0 0 0 -918175.38083387911 -1404923.2037802422 0 -1404923.2037802422 3949225.4486921714 0 0 0 0 37491591.96308136 -101101238.29537201 0 -101101238.29537201 -73809951.622329712 0 0 0 0 -117177695.11207962 -35722788.291793823 0 -35722788.291793823 174466610.95639801 0 0 0 0 65023873.185367584 44672364.242202759 0 44672364.242202759 -320405420.04272461 0 0 0 0 70632892.655805588 16647734.510375977 0 16647734.510375977 -174888256.31228638 0 0 0 0 -78298388.077733994 99135794.518791199 0 99135794.518791199 221487917.58985901 0 0 0 0 55127774.126800537 156701408.60339355 0 156701408.60339355 2979192.6038665771 0 0 0 0 -44307687.259616852 -50468364.879516602 0 -50468364.879516602 89279190.936569214 0 0 0 0 -4010784.1094515109 -1437881.4088688716 0 -1437881.4088688716 4284225.4564725328 0 0 0 0 -180502437.63335419 -23301706.97227478 0 -23301706.97227478 171178825.96438885 0 0 0 0 -1206975.2219946198 -926762.27835939825 0 -926762.27835939825 1288289.26845071 0 0 0 0 74050643.067523956 -135295995.69367981 0 -135295995.69367981 141367692.84025574 0 0 0 0 391532978.92279434 -145651283.22895813 0 -145651283.22895813 -100847783.78184509 0 0 0 0 -45579115.783616066 180292368.89527893 0 180292368.89527893 252262197.14959717 0 0 0 0 111140425.35147476 230032729.64598083 0 230032729.64598083 173899142.22494507 0 0 0 0 -1319697.764296894 -1771560.8743007295 0 -1771560.8743007295 -787770.95558829606 0 0 0 0 -207508211.09685516 262116142.52651978 0 262116142.52651978 164028755.90577698 0 0 0 0 -276274865.2247963 -152792951.93226624 0 -152792951.93226624 328351583.69258118 0 0 0 0 -15297633.699799137 -975101.90207155794 0 -975101.90207155794 22517851.481199447 0 0 0 0 76811846.041749001 -2226248.2761669159 0 -2226248.2761669159 -129454655.61228943 0 0 0 0 -212177570.67385101 -52770144.208190918 0 -52770144.208190918 11183202.77381897 0 0 0 0 99582574.302597046 -14327146.948806763 0 -14327146.948806763 15239090.565864563 0 0 0 0 -127464026.7095108 211737401.64440918 0 211737401.64440918 -52791586.911987305 0 0 0 0 -172579221.6607151 141354793.22365189 0 141354793.22365189 279053532.29353333 0 0 0 0 72200064.297344208 76113632.853591919 0 76113632.853591919 22097958.987136841 0 0 0 0 3940652.9085206985 -27261106.802051544 0 -27261106.802051544 137749684.10662842 0 0 0 0 -4740401.8586233594 24726874.152911395 0 24726874.152911395 95231.024206407368 0 0 0 0 191845.47919082642 108244926.02540588 0 108244926.02540588 63085633.189147949 0 0 0 0 -803511.61712265015 105579764.22695923 0 105579764.22695923 140794590.00144958 0 0 0 0 -11828652.36653557 23154195.017550454 0 23154195.017550454 -1653958.3482387029 0 0 0 0 -34537206.23809433 125246990.62123108 0 125246990.62123108 190074609.30915833 0 0 0 0 -103971875.24977493 14650024.253219604 0 14650024.253219604 242340925.20449829 0 0 0 0 10186862.651544571 76446034.715385437 0 76446034.715385437 142490795.35922241 0 0 0 0 -17440164.484414905 23322761.018584505 0 23322761.018584505 163858.40834728628 0 0 0 0 -105471610.23006439 72680904.764450073 0 72680904.764450073 147651521.27127838 0 0 0 0 -86442536.966869354 43199985.575164795 0 43199985.575164795 125209114.51605225 0 0 0 0 -176303791.6133194 100781478.87414551 0 100781478.87414551 129025958.37094116 0 0 0 0 -132288943.9098053 25161357.673858643 0 25161357.673858643 145997852.31256104 0 0 0 0 -135657810.67344093 49766816.634906769 0 49766816.634906769 53461458.398681641 0 0 0 0 -144448431.45092773 121198339.27883911 0 121198339.27883911 30687711.538345337 0 0 0 0 -175384600.36502075 87727847.101486206 0 87727847.101486206 168157789.67577362 0 0 0 0 119259555.47514343 -129673643.28547668 0 -129673643.28547668 104906460.71514893 0 0 0 0 113903977.19141006 -61541115.779573441 0 -61541115.779573441 58095175.161804199 0 0 0 0 15919.586534079164 -2686714.1154812798 0 -2686714.1154812798 5859330.1811337769 0 0 0 0 27660872.281150818 16466601.019714355 0 16466601.019714355 118960411.96742249 0 0 0 0 52744352.951843262 -179537966.04665375 0 -179537966.04665375 282527969.56008911 0 0 0 0 -3846212.2281799316 -52305765.780136108 0 -52305765.780136108 193030757.65052795 0 0 0 0 -41620232.505409241 24037834.531890869 0 24037834.531890869 314672912.66124344 0 0 0 0 -59243304.001823425 55714278.816802979 0 55714278.816802979 259638850.93675232 0 0 0 0 -6600577.2741107941 1169112.9449996948 0 1169112.9449996948 45354827.597808838 0 0 0 0 -12307488.237062266 1048205.5399783403 0 1048205.5399783403 29578155.640898176 0 0 0 0 -37315668.3139534 -1839330.4387054443 0 -1839330.4387054443 12033286.043609619 0 0 0 0 -135904190.70847321 -33393801.382720947 0 -33393801.382720947 127942215.55627441 0 0 0 0 -12174602.139787404 11372193.459641945 0 11372193.459641945 34788652.211599842 0 0 0 0 -4028730.8664550781 12771364.210296631 0 12771364.210296631 88090410.378328323 0 0 0 0 -124629561.00991821 -20356569.71697998 0 -20356569.71697998 127396163.47271729 0 0 0 0 -119277857.75559998 56730492.754455566 0 56730492.754455566 122518528.42767334 0 0 0 0 -43820788.193203926 8711416.3777160645 0 8711416.3777160645 15465172.123535156 0 0 0 0 -12018814.65245565 -18778121.078019567 0 -18778121.078019567 44083892.501458034 0 0 0 0 -44919640.82000351 2503345.0966491699 0 2503345.0966491699 -988389.91875076294 0 0 0 0 -50085153.34437561 12467387.662353516 0 12467387.662353516 109042546.72264862 0 0 0 0 -96304060.574935913 -56352359.99319458 0 -56352359.99319458 63885340.357910156 0 0 0 0 -6036488.0648040771 -74585002.008605957 0 -74585002.008605957 138606431.68511963 0 0 0 0 -26356098.726486206 -6297626.6770935059 0 -6297626.6770935059 97443455.8565979 0 0 0 0 -40765387.288200378 30721562.85647583 0 30721562.85647583 33451833.134338379 0 0 0 0 -16003030.50989728 -18927.075913827866 0 -18927.075913827866 46586115.572167553 0 0 0 0 -14885874.1947107 -5657603.4081326649 0 -5657603.4081326649 58774273.867113143 0 0 0 0 -14034175.848057803 933289.76481984043 0 933289.76481984043 31792061.915313646 0 0 0 0 -11498532.443164825 -10078970.87165451 0 -10078970.87165451 41585607.796272278 0 0 0 0 -82829408.858956337 -33351748.676643372 0 -33351748.676643372 63892465.452789307 0 0 0 0 -37230083.029835701 -23113422.452857971 0 -23113422.452857971 7022039.7991943359 0 0 0 0 -484936.29762068857 2279460.2785679526 0 2279460.2785679526 -504005.72677391768 0 0 0 0 43173702.435184479 -34497601.812927246 0 -34497601.812927246 37299038.636291504 0 0 0 0 -356656.38891648315 -915033.85323568434 0 -915033.85323568434 926977.3376492653 0 0 0 0 166305912.77912331 60371340.842956543 0 60371340.842956543 67709946.082550049 0 0 0 0 -11076212.984414082 -187972.68625320494 0 -187972.68625320494 17673006.232890859 0 0 0 0 209285251.87757111 -3062637.7954711914 0 -3062637.7954711914 39918877.5184021 0 0 0 0 -9593575.254652977 13214330.685821533 0 13214330.685821533 63367535.207109451 0 0 0 0 -165698117.2918396 141430584.47293091 0 141430584.47293091 85256200.019866943 0 0 0 0 4104596.6066845357 12565617.625638962 0 12565617.625638962 50669866.24029541 0 0 0 0 -43445410.178024292 -83010016.169219971 0 -83010016.169219971 90274381.034851074 0 0 0 0 -15518624.310874175 3553876.1853849888 0 3553876.1853849888 51797277.608215332 0 0 0 0 -7002920.2474453831 7303740.5443261797 0 7303740.5443261797 32409924.512765266 0 0 0 0 -52557830.490100861 -54930570.98109436 0 -54930570.98109436 92514910.692214966 0 0 0 0 65597278.105408669 78745115.851707458 0 78745115.851707458 -37787737.564727783 0 0 0 0 -43236559.050369263 7324319.4301681519 0 7324319.4301681519 118321837.33599854 0 0 0 0 -23886826.24992685 19249367.340889618 0 19249367.340889618 9008959.1632475145 0 0 0 0 -71077581.460353851 82320409.888244629 0 82320409.888244629 124110621.00893402 0 0 0 0 -103381495.70566559 -34233506.6434021 0 -34233506.6434021 29169363.169380188 0 0 0 0 16822175.526332855 101329386.80355835 0 101329386.80355835 61061577.590576172 0 0 0 0 -7386038.7608548719 -917643.27235002816 0 -917643.27235002816 9009173.0521983691 0 0 0 0 -33204369.868659019 14790194.219329834 0 14790194.219329834 129673625.264328 0 0 0 0 46147493.696392059 17314011.891967773 0 17314011.891967773 -84197219.580963135 0 0 0 0 3492970.7711075246 -1171365.9577178955 0 -1171365.9577178955 87679999.424087524 0 0 0 0 -8840680.6215686798 19904563.307193756 0 19904563.307193756 82915230.038330078 0 0 0 0 -27436437.699677467 28703088.28553772 0 28703088.28553772 110310552.75126648 0 0 0 0 -30989461.094976425 -28628572.175704956 0 -28628572.175704956 114220515.11408997 0 0 0 0 -4096241.1499291733 36888992.804336548 0 36888992.804336548 -3485147.7414093018 0 0 0 0 -76823326.526277393 43498679.567255497 0 43498679.567255497 80512985.323974609 0 0 0 0 92133.436668291688 15589305.731529236 0 15589305.731529236 45441430.561254978 0 0 0 0 -4919202.7911663353 27518481.356742859 0 27518481.356742859 45609444.678741455 0 0 0 0 -47838659.078617573 23903013.275470734 0 23903013.275470734 39884183.631286621 0 0 0 0 -36304186.101785183 2592115.33177948 0 2592115.33177948 75640662.834590912 0 0 0 0 -789804.55440697796 -1090632.8843951672 0 -1090632.8843951672 4882385.6186098326 0 0 0 0 -58235946.329541922 28279201.100753784 0 28279201.100753784 77977986.573104858 0 0 0 0 -4863625.3108634949 19602389.616043091 0 19602389.616043091 34547443.590240479 0 0 0 0 -11204877.956608415 -55867986.618438721 0 -55867986.618438721 64328412.193213463 0 0 0 0 -3387279.3703338373 -2468852.6166229025 0 -2468852.6166229025 6637093.3771671951 0 0 0 0 1273998.0144765377 23509736.024735451 0 23509736.024735451 36581961.932800293 0 0 0 0 -2842489.4493198395 15382075.064910889 0 15382075.064910889 31941917.519996643 0 0 0 0 -2859251.6691465378 13896636.406799316 0 13896636.406799316 51887246.486022949 0 0 0 0 -6614956.9205360413 -4687470.9506835938 0 -4687470.9506835938 55928566.878082275 0 0 0 0 389936.99073410034 18563106.47253418 0 18563106.47253418 30113988.508239746 0 0 0 0 -1362148.8412301266 -664372.33718121052 0 -664372.33718121052 15892919.995284718 0 0 0 0 -5375597.5670863353 7849582.8253241135 0 7849582.8253241135 31753156.058218561 0 0 0 0 -26885078.996449556 2901435.9589757919 0 2901435.9589757919 31263342.722412109 0 0 0 0 66317692.289815903 -11582326.964385986 0 -11582326.964385986 -102408435.51005554 0 0 0 0 -2368410.6475628368 -1157739.1264349744 0 -1157739.1264349744 10937550.633726755 0 0 0 0 -3591123.7905082703 3112809.5623035431 0 3112809.5623035431 1735705.4572753906 0 0 0 0 -1685346.4482569781 4626846.5178634636 0 4626846.5178634636 13772649.906869553 0 0 0 0 -2073615.232521486 6628926.1852733381 0 6628926.1852733381 18030675.28007035 0 0 0 0 -3053565.4502725992 -1866236.8402762823 0 -1866236.8402762823 26167074.188837368 0 0 0 0 -63895530.178472519 63908231.696746826 0 63908231.696746826 -74450862.165145874 0 0 0 0 -7423831.2517389059 14035786.979194641 0 14035786.979194641 43180290.688831329 0 0 0 0 -46724670.617091656 117535080.45881653 0 117535080.45881653 270367258.15649414 0 0 0 0 52081.896061046973 4800659.2089104578 0 4800659.2089104578 -281236.58065962046 0 0 0 0 86333135.427319527 -98024500.047607422 0 -98024500.047607422 -158230179.26251221 0 0 0 0 -317224046.66049862 402967960.08145142 0 402967960.08145142 475419279.53527832 0 0 0 0 -47847274.467298508 -50400775.055862427 0 -50400775.055862427 29659419.668960571 0 0 0 0 -81678962.727888107 -40104564.771484375 0 -40104564.771484375 15164117.68560791 0 0 0 0 -67833928.192064285 12739233.364265442 0 12739233.364265442 34623585.444625854 0 0 0 0 999180.43151705049 9887599.5934251938 0 9887599.5934251938 24232343.96237281 0 0 0 0 -13979759.81154988 30253146.475652158 0 30253146.475652158 29186319.747825623 0 0 0 0 -32149257.74831152 18150883.339431763 0 18150883.339431763 34522460.368790388 0 0 0 0 -32413973.26208806 -6900937.707195282 0 -6900937.707195282 40606629.714584351 0 0 0 0 -33799666.987662315 -11621576.102836609 0 -11621576.102836609 34043214.703689575 0 0 0 0 -35409582.154931545 -9103639.8712615967 0 -9103639.8712615967 32382633.713363647 0 0 0 0 -627630.66361641884 -6166461.1213188171 0 -6166461.1213188171 36312901.74937439 0 0 0 0 -26415579.978162766 7967773.2960166931 0 7967773.2960166931 45349011.540252686 0 0 0 0 -16688652.649117947 11045181.525466919 0 11045181.525466919 18845464.670082092 0 0 0 0 -27162906.678757191 3675750.9135131836 0 3675750.9135131836 18550095.815082788 0 0 0 0 3898496.6351928711 19816815.43258667 0 19816815.43258667 19172216.583526611 0 0 0 0 -68874011.291694641 10677267.348388672 0 10677267.348388672 49505549.323028564 0 0 0 0 -54253034.607685089 -12899913.761734009 0 -12899913.761734009 23670160.363525391 0 0 0 0 -2017114.0964454077 -317515.00238310546 0 -317515.00238310546 1947495.4420155883 0 0 0 0 78591708.89623642 74168403.347457886 0 74168403.347457886 50618709.007995605 0 0 0 0 56291499.58993721 95527023.742843628 0 95527023.742843628 82815663.929398537 0 0 0 0 -25218354.098297119 17411090.038711548 0 17411090.038711548 33238182.611328125 0 0 0 0 -20381464.827388763 403376.65341186523 0 403376.65341186523 21483917.850830078 0 0 0 0 3966602.7790145874 7192592.9002227783 0 7192592.9002227783 18627154.417419434 0 0 0 0 -46611271.406318665 16533329.467407227 0 16533329.467407227 37600409.315216064 0 0 0 0 -12977558.97544322 7092324.7753565237 0 7092324.7753565237 23741221.484526843 0 0 0 0 -48726010.441173553 9601707.1406097412 0 9601707.1406097412 36179639.683532715 0 0 0 0 19804582.170075417 55101237.912666321 0 55101237.912666321 30878226.118530273 0 0 0 0 -14537252.621209195 4759101.1573785618 0 4759101.1573785618 21131900.075444341 0 0 0 0 -40419219.286315918 -27385104.86592865 0 -27385104.86592865 33686106.405471325 0 0 0 0 -37903472.09365654 -24084834.199962616 0 -24084834.199962616 -7053616.9050292969 0 0 0 0 709702.68796464987 1158312.457202591 0 1158312.457202591 1355649.3082164302 0 0 0 0 47921585.213697433 44432946.563613892 0 44432946.563613892 142442480.45669556 0 0 0 0 14906207.220315933 63606153.314056396 0 63606153.314056396 164978132.14387321 0 0 0 0 23375579.063005447 16835015.635360718 0 16835015.635360718 23275803.94342041 0 0 0 0 -28302008.462596893 -10923971.7758255 0 -10923971.7758255 87716989.251251221 0 0 0 0 -71642642.556454659 -23622309.030538559 0 -23622309.030538559 87244552.073242188 0 0 0 0 -5973402.8688969035 -1703021.8609060571 0 -1703021.8609060571 2026217.3393608928 0 0 0 0 -14239535.503625393 -3959985.9086380005 0 -3959985.9086380005 72692399.657730103 0 0 0 0 -21693893.96528244 -12990207.54069519 0 -12990207.54069519 -3337353.5117950439 0 0 0 0 -16528396.448991314 -1196188.744229421 0 -1196188.744229421 21241456.401090898 0 0 0 0 -19211648.730091095 -5809499.7042541504 0 -5809499.7042541504 -17531.633666992188 0 0 0 0 -2589125.0293833381 -415168.8064969629 0 -415168.8064969629 1498148.8871421665 0 0 0 0 6568662.8534469604 37841476.770011902 0 37841476.770011902 78905773.337265015 0 0 0 0 -2014865.1017124201 -349524.66524470598 0 -349524.66524470598 1981953.8173055649 0 0 0 0 37168616.817470789 77306450.159542084 0 77306450.159542084 67822712.402008057 0 0 0 0 -60099912.625392914 -30093339.98916626 0 -30093339.98916626 40236978.234741211 0 0 0 0 -42610254.47110939 -128028374.95982361 0 -128028374.95982361 62117959.492279053 0 0 0 0 -28738908.898797989 36098889.585662842 0 36098889.585662842 138081504.24853516 0 0 0 0 -242884922.24749756 118672171.18247986 0 118672171.18247986 107960695.85889435 0 0 0 0 -97218080.481021404 -112618616.03185654 0 -112618616.03185654 138240573.60290527 0 0 0 0 -3428797.378746477 -547727.25292116404 0 -547727.25292116404 3328266.477930963 0 0 0 0 -67157365.059907913 115202261.39959717 0 115202261.39959717 80508753.759307861 0 0 0 0 10330600.12347126 31783454.450719833 0 31783454.450719833 80134359.677322388 0 0 0 0 -12529941.411460876 79343698.141670227 0 79343698.141670227 -36623599.467803955 0 0 0 0 24546949.567491531 10021516.147994995 0 10021516.147994995 92534381.743587494 0 0 0 0 -2166132.7068045316 33210.616373971105 0 33210.616373971105 3691142.936531052 0 0 0 0 56927559.082609177 -12520965.336029053 0 -12520965.336029053 154656001.10969543 0 0 0 0 -179182220.25315285 239208475.31026077 0 239208475.31026077 550353680.63195801 0 0 0 0 682908589.72607803 331982684.9690094 0 331982684.9690094 307351524.39520264 0 0 0 0 1643094538.2992477 659488997.40248871 0 659488997.40248871 -192803697.93869781 0 0 0 0 877818630.93778157 1446220515.4662933 0 1446220515.4662933 1350898204.9174805 0 0 0 0 91216469.739404678 188975845.22020721 0 188975845.22020721 471021310.25643921 0 0 0 0 36605349.067604065 22002515.820053101 0 22002515.820053101 -63657953.875286102 0 0 0 0 23810100.228835106 155625426.5931015 0 155625426.5931015 -8150987.4939880371 0 0 0 0 56005682.420660019 261406352.12451172 0 261406352.12451172 322253698.78640747 0 0 0 0 -85385153.406887054 158219103.43882751 0 158219103.43882751 421701868.331604 0 0 0 0 -4372167.921046108 2126598.6167802662 0 2126598.6167802662 9856271.6278964058 0 0 0 0 49576327.769111633 52684662.992767334 0 52684662.992767334 49163808.884335518 0 0 0 0 275108079.46253204 47469366.691986084 0 47469366.691986084 149909284.39254761 0 0 0 0 -86871787.883329272 136695431.33078909 0 136695431.33078909 343886976.2298584 0 0 0 0 -19218765.399879456 423182460.91891479 0 423182460.91891479 433667499.29550171 0 0 0 0 -8195537.5630302429 38744788.940551758 0 38744788.940551758 81058897.054508209 0 0 0 0 -4988221.0469744466 7051980.3702258468 0 7051980.3702258468 17812334.348819748 0 0 0 0 -3506507.6265258789 26799243.41986084 0 26799243.41986084 62591200.444915771 0 0 0 0 -35855469.714653015 20938104.32019043 0 20938104.32019043 79978876.842437744 0 0 0 0 -32389073.57036972 6850293.9735679626 0 6850293.9735679626 58565502.298400879 0 0 0 0 12650073.222919464 69488486.720092773 0 69488486.720092773 80816822.204833984 0 0 0 0 -35461324.986481667 16719347.981063843 0 16719347.981063843 74594617.826843262 0 0 0 0 33572049.115989685 56350434.565383911 0 56350434.565383911 136647839.36227417 0 0 0 0 66913873.196563721 123086216.99932861 0 123086216.99932861 174931195.4032228 0 0 0 0 12804057.400039673 47424929.420440674 0 47424929.420440674 175024447.79986572 0 0 0 0 -97480634.648410797 175917478.26145935 0 175917478.26145935 338679784.86621094 0 0 0 0 263452490.43179321 196964814.84324646 0 196964814.84324646 138549549.1781311 0 0 0 0 122715900.04175568 107078811.48729706 0 107078811.48729706 112793645.30163574 0 0 0 0 240375732.93918991 69001851.863067627 0 69001851.863067627 50633599.912597656 0 0 0 0 114152673.66198349 131591407.82350159 0 131591407.82350159 128448370.34155273 0 0 0 0 92229320.93447876 107081339.55128479 0 107081339.55128479 103496273.39562988 0 0 0 0 37113777.372177124 92886767.743606567 0 92886767.743606567 145158126.80877686 0 0 0 0 509601.54435918061 3991975.5744943717 0 3991975.5744943717 1999098.1068154573 0 0 0 0 -82108493.705249786 26914856.300819397 0 26914856.300819397 54586893.011932373 0 0 0 0 429627323.60896683 368826390.77492523 0 368826390.77492523 125458172.87698364 0 0 0 0 -61775541.001338959 122636347.41223145 0 122636347.41223145 343365312.18212366 0 0 0 0 328160565.00973511 116444054.24604797 0 116444054.24604797 48476230.989318848 0 0 0 0 9255711.3763618469 32621345.707550049 0 32621345.707550049 16750788.070129395 0 0 0 0 2511545.3410896519 10917137.637144117 0 10917137.637144117 5550111.4609871209 0 0 0 0 35154975.96604681 27203781.96522522 0 27203781.96522522 -10669173.426147461 0 0 0 0 -2034254.895234067 5335328.7464908436 0 5335328.7464908436 8102194.3938063756 0 0 0 0 66073666.451114655 52490763.351257324 0 52490763.351257324 45396191.369003296 0 0 0 0 101724957.94892144 89451933.522595882 0 89451933.522595882 55677553.915039062 0 0 0 0 52961001.419189453 88526441.384963989 0 88526441.384963989 97325116.346366882 0 0 0 0 100140848.88925171 35352762.162017822 0 35352762.162017822 46821613.662740707 0 0 0 0 53770439.558853149 63404329.68196106 0 63404329.68196106 47360687.574401855 0 0 0 0 5134855.7645833232 7752524.1784303114 0 7752524.1784303114 4971431.0007059276 0 0 0 0 48862524.009082794 26544472.991516113 0 26544472.991516113 13025375.142742157 0 0 0 0 84269135.919452667 56973728.518302917 0 56973728.518302917 16128049.475067139 0 0 0 0 32954063.080158234 22295612.345184326 0 22295612.345184326 13600686.6173172 0 0 0 0 29680880.810688019 45450267.486976624 0 45450267.486976624 29644714.071105957 0 0 0 0 2336019036.5465508 2421403161.3524323 0 2421403161.3524323 2137129392.8309131 0 0 0 0 196947.40125419013 425577.62716887891 0 425577.62716887891 5393263.2734381333 0 0 0 0 2526060684.8753095 2048561802.2084618 0 2048561802.2084618 1834712933.6036377 0 0 0 0 1681706636.265352 1741757566.7637177 0 1741757566.7637177 1934712930.0080719 0 0 0 0 40231324.756263733 -9380852.4355163574 0 -9380852.4355163574 12845569.314758301 0 0 0 0 15235745.554066658 20703718.926052094 0 20703718.926052094 43670601.839477539 0 0 0 0 77519310.055557251 21627614.243133545 0 21627614.243133545 9403012.9947509766 0 0 0 0 -1662539.551482521 1707475.326908391 0 1707475.326908391 3461705.4783916846 0 0 0 0 69923181.356464386 60215235.084960938 0 60215235.084960938 54471091.019470215 0 0 0 0 -19329738.76524353 10270961.248409271 0 10270961.248409271 54785498.641220093 0 0 0 0 -20452871.632585764 6265347.3345222473 0 6265347.3345222473 44501693.817947388 0 0 0 0 -29060962.326674938 5364494.2527809143 0 5364494.2527809143 48295744.452270508 0 0 0 0 -20520831.507595062 -2654797.3311347961 0 -2654797.3311347961 39608566.742599487 0 0 0 0 -5773679.9363975525 7197643.5972442627 0 7197643.5972442627 35487098.526496887 0 0 0 0 -11658950.696996689 5455595.0093154907 0 5455595.0093154907 46167251.051391602 0 0 0 0 -13529881.690101743 5857781.146938324 0 5857781.146938324 54612698.679077148 0 0 0 0 -1605024.7581791878 4005808.9271850586 0 4005808.9271850586 54834078.037746429 0 0 0 0 3258201.8222607374 9381737.2208786011 0 9381737.2208786011 48503719.940582275 0 0 0 0 -8709807.9845982324 842556.3157909885 0 842556.3157909885 26611437.940378733 0 0 0 0 -2031407.9975004196 12024486.923118591 0 12024486.923118591 54366761.886978149 0 0 0 0 190824.8359996893 1213820.203372173 0 1213820.203372173 4025404.5038990378 0 0 0 0 -1562106.3411486149 13009664.355302811 0 13009664.355302811 45913116.205680847 0 0 0 0 -7113336.485277134 5317967.5006362256 0 5317967.5006362256 28516192.799880952 0 0 0 0 -5475755.2290288508 5424179.4154033661 0 5424179.4154033661 45374590.225509644 0 0 0 0 4020106.7949905396 21634371.534835815 0 21634371.534835815 46176870.912658691 0 0 0 0 -14655924.707071334 12123307.334399398 0 12123307.334399398 30081428.445753962 0 0 0 0 19879102.642112732 22315481.116516113 0 22315481.116516113 50764026.780712128 0 0 0 0 18154292.813652039 28966669.478118896 0 28966669.478118896 54832672.576690674 0 0 0 0 11714571.613983154 16287356.347961426 0 16287356.347961426 49831978.925292969 0 0 0 0 -5487040.7621707916 24747075.714179993 0 24747075.714179993 66470913.730651855 0 0 0 0 -7712265.8628482819 3520725.2587432861 0 3520725.2587432861 11639550.81942749 0 0 0 0 6377918.1026611328 80440278.988891602 0 80440278.988891602 148839656.19935608 0 0 0 0 6377918.1029052734 80440278.98840332 0 80440278.98840332 148839656.19929504 0 0 0 0 6377918.1028747559 80440278.98840332 0 80440278.98840332 148839656.19900513 0 0 0 0 -8138593.0751822721 12120581.018685907 0 12120581.018685907 24595914.870092772 0 0 0 0 8331519.2239456177 44311771.231842041 0 44311771.231842041 83649334.911315918 0 0 0 0 -14131141.268027129 3525858.9541436061 0 3525858.9541436061 26671420.917227492 0 0 0 0 18560270.032348633 68321837.128295898 0 68321837.128295898 106238079.60134125 0 0 0 0 -8058878.45652771 63669550.124557495 0 63669550.124557495 132064898.84191895 0 0 0 0 39741426.993438721 88348483.301826477 0 88348483.301826477 124632911.42224121 0 0 0 0 57380430.969864845 73924078.930624008 0 73924078.930624008 53098174.556991577 0 0 0 0 29957261.044589996 63702441.893463135 0 63702441.893463135 69949110.253753662 0 0 0 0 52606109.719932556 89994687.929641724 0 89994687.929641724 100027098.55926895 0 0 0 0 40962532.639692307 50099983.695241928 0 50099983.695241928 36349262.480148315 0 0 0 0 39562991.256732941 52065040.873168945 0 52065040.873168945 45280226.551780701 0 0 0 0 37487541.625732422 51536795.202857971 0 51536795.202857971 66710899.379577637 0 0 0 0 323156.88258528709 15564522.017944336 0 15564522.017944336 56784615.735916138 0 0 0 0 -13658017.160641162 10600121.95519959 0 10600121.95519959 38925526.992666766 0 0 0 0 29199623.322870255 55918478.941049576 0 55918478.941049576 65202937.77684021 0 0 0 0 29704623.381053925 60004790.875213623 0 60004790.875213623 89442289.091552734 0 0 0 0 -4797356.3517165184 25170877.637485504 0 25170877.637485504 45790784.8412323 0 0 0 0 -3864129.4464709759 28337773.782096863 0 28337773.782096863 55571459.287010193 0 0 0 0 -13831100.891057014 13300148.875 0 13300148.875 71523321.811309814 0 0 0 0 -15234386.378857136 7991702.0028839111 0 7991702.0028839111 51457564.528671265 0 0 0 0 -14992785.440093994 10923160.648097992 0 10923160.648097992 31623824.189920425 0 0 0 0 -11546861.712057829 12051909.036827087 0 12051909.036827087 30784172.662471771 0 0 0 0 -11756249.810004473 16107523.271759033 0 16107523.271759033 41406678.05683136 0 0 0 0 -59199609.302602768 13814697.644733429 0 13814697.644733429 63693761.241567612 0 0 0 0 5313642.510190459 9364206.4747628998 0 9364206.4747628998 18378917.428606272 0 0 0 0 1062742.9176442139 -112794624.65540004 0 -112794624.65540004 -105529391.32396698 0 0 0 0 -11394358.630438566 15445856.954376221 0 15445856.954376221 25657696.901943207 0 0 0 0 -752101.9699806571 43561578.445913553 0 43561578.445913553 32905499.540920258 0 0 0 0 -3681698.8672552104 10414937.674430929 0 10414937.674430929 29009785.662963774 0 0 0 0 44003274.297409058 46596729.585693359 0 46596729.585693359 42578365.024215698 0 0 0 0 -10587036.103992779 19166371.022165794 0 19166371.022165794 37447010.613508508 0 0 0 0 24251325.498397116 25741914.900327686 0 25741914.900327686 20741172.198752951 0 0 0 0 23523909.881458662 81035649.905853271 0 81035649.905853271 -11171465.762611389 0 0 0 0 37754922.873840332 44197739.62638092 0 44197739.62638092 44873997.396026611 0 0 0 0 34230939.051557064 31434675.141653061 0 31434675.141653061 30945855.051727295 0 0 0 0 8453922.2645049784 10061189.13512186 0 10061189.13512186 11263963.073256321 0 0 0 0 -37963367.015925407 -28218102.477264404 0 -28218102.477264404 -23901764.749465942 0 0 0 0 9664388.0522546768 9804240.5894355774 0 9804240.5894355774 14829655.782577515 0 0 0 0 5663643.8843688965 14621184.082229614 0 14621184.082229614 22927744.162994385 0 0 0 0 17896080.710722502 8178987.9187786654 0 8178987.9187786654 1273515.9035367444 0 0 0 0 937131.09626004344 -1418703.3806596026 0 -1418703.3806596026 -1294056.9318893328 0 0 0 0 -239663072.65024608 479749525.02220917 0 479749525.02220917 4264161873.3022156 0 0 0 0 853610304.13058472 28871119.170341492 0 28871119.170341492 -2324880649.3027649 0 0 0 0 363915992.43894172 349980094.69345093 0 349980094.69345093 4256576230.7714539 0 0 0 0 1398395035.0050786 2273122438.8729019 0 2273122438.8729019 6616557204.5231094 0 0 0 0 -168871889.83553925 2110128799.0593529 0 2110128799.0593529 7408599494.9916992 0 0 0 0 -915827139.22125959 2338186671.2389832 0 2338186671.2389832 9597422012.4499512 0 0 0 0 659928903.28982663 2458448029.1054955 0 2458448029.1054955 3488558514.9956512 0 0 0 0 280626783.12382269 -507316335.9704361 0 -507316335.9704361 3304284322.3276367 0 0 0 0 11168722.930482566 20652086.288463593 0 20652086.288463593 34038190.229330063 0 0 0 0 -122789355.42061917 172057334.14484406 0 172057334.14484406 -17642260.323577881 0 0 0 0 5845608.1449143812 3089787.9133960903 0 3089787.9133960903 17330035.659788765 0 0 0 0 1085729.2273944069 3829098.8789295405 0 3829098.8789295405 5863018.6111821197 0 0 0 0 -161862510.34947759 133512887.63991547 0 133512887.63991547 -25691527.050880432 0 0 0 0 -143867335.96696836 221844758.6952343 0 221844758.6952343 168495690.66669464 0 0 0 0 422084130.69888121 281043253.69971466 0 281043253.69971466 -62190590.452320099 0 0 0 0 -562081987.55560088 -579841350.39914703 0 -579841350.39914703 275413109.97736359 0 0 0 0 879575196.79023468 3385316539.5422812 0 3385316539.5422812 6610229293.5200195 0 0 0 0 2095148.3382693895 3419717.5005317368 0 3419717.5005317368 13243281.572401259 0 0 0 0 -483413711.76444554 -1299463243.626194 0 -1299463243.626194 6576965859.4690981 0 0 0 0 653872179.37243104 1523440895.5285759 0 1523440895.5285759 2721712958.8861122 0 0 0 0 603274329.45122862 -200133101.09103203 0 -200133101.09103203 -104988556.01754761 0 0 0 0 2145326195.3406689 2417553215.0255861 0 2417553215.0255861 2695511006.285553 0 0 0 0 2090513598.8453469 2959801915.8943939 0 2959801915.8943939 3174890368.8438263 0 0 0 0 1604969339.7329597 2237660625.4247723 0 2237660625.4247723 2450679679.6426849 0 0 0 0 2258953474.2043858 2280938191.3520889 0 2280938191.3520889 2357917652.0571899 0 0 0 0 1580225844.3314323 2275757942.45994 0 2275757942.45994 2958301226.3312225 0 0 0 0 2293343813.8969927 2324019580.6183624 0 2324019580.6183624 2141423860.440537 0 0 0 0 1741734913.0732813 1401114963.2125759 0 1401114963.2125759 1493882221.9330139 0 0 0 0 3818794.5726388749 2453668.9440962858 0 2453668.9440962858 13085384.111573718 0 0 0 0 3916043.6993465424 19449965.445159912 0 19449965.445159912 24248281.632080078 0 0 0 0 2106888.3006860213 16944726.316806462 0 16944726.316806462 17590671.417583108 0 0 0 0 5387742.7625155011 13839584.723154478 0 13839584.723154478 12582729.534090377 0 0 0 0 -145473.4251417676 5991976.2572769541 0 5991976.2572769541 25976858.821794264 0 0 0 0 35643826.187781334 36297055.473617554 0 36297055.473617554 -388712172.70471191 0 0 0 0 1666721698.1648047 1401272204.7168674 0 1401272204.7168674 1515458165.2009735 0 0 0 0 3283795717.8530006 2498331867.2673111 0 2498331867.2673111 1477565567.7272816 0 0 0 0 3079930920.1790624 3405695683.4619293 0 3405695683.4619293 2899916801.2490883 0 0 0 0 3319790821.9858108 4216891823.5555344 0 4216891823.5555344 5443059559.5232697 0 0 0 0 3767246738.3302512 3612390276.5785828 0 3612390276.5785828 5201553910.0674553 0 0 0 0 7875447963.8522797 6061067879.9509659 0 6061067879.9509659 4975429713.8314209 0 0 0 0 -361590670.05199623 -948093978.74079132 0 -948093978.74079132 4186911294.9345703 0 0 0 0 265049.75877976744 2021656.0377989938 0 2021656.0377989938 9682377.6762404293 0 0 0 0 601156736.47009397 1027782363.8396826 0 1027782363.8396826 -887402141.80995178 0 0 0 0 5570207144.7517815 2975372832.79245 0 2975372832.79245 861091896.29672623 0 0 0 0 3854102912.4230065 4225335661.7976837 0 4225335661.7976837 9170935347.9104614 0 0 0 0 5659698826.2011604 4378749644.7038803 0 4378749644.7038803 6835333120.0882721 0 0 0 0 5585356747.9912348 1605251715.1474109 0 1605251715.1474109 7696040041.8471527 0 0 0 0 3863588512.3357902 2983786856.6572723 0 2983786856.6572723 6613517142.3623505 0 0 0 0 1965071128.2781351 2838374052.6621399 0 2838374052.6621399 7459157224.2365036 0 0 0 0 652154216.37631524 2814653073.2483788 0 2814653073.2483788 6618504707.4864578 0 0 0 0 1930778359.3499024 2537274563.1275482 0 2537274563.1275482 5324348473.6781769 0 0 0 0 1290296278.2469778 2509653130.3306274 0 2509653130.3306274 3564594070.924942 0 0 0 0 1782056078.2175086 3519511992.3989449 0 3519511992.3989449 5328341661.644989 0 0 0 0 1025339709.2914732 2704519404.6850853 0 2704519404.6850853 4301510763.9824066 0 0 0 0 -93852912.13717562 1662663122.1209106 0 1662663122.1209106 4858239864.2425003 0 0 0 0 -741411366.86737108 1848257367.5619583 0 1848257367.5619583 6600039660.3880987 0 0 0 0 -1619287928.1810584 336459090.3781414 0 336459090.3781414 4000303291.363739 0 0 0 0 -670683722.96579599 1815784401.7454681 0 1815784401.7454681 4223374693.2521095 0 0 0 0 412581491.94589895 1998086240.4996033 0 1998086240.4996033 3562454894.357132 0 0 0 0 425211414.82579213 1793165027.6385574 0 1793165027.6385574 3459732208.914032 0 0 0 0 -27476386.2493117 1436698680.8982763 0 1436698680.8982763 3230784008.6927338 0 0 0 0 950945618.86560512 1799307437.2280502 0 1799307437.2280502 2623568961.5362549 0 0 0 0 941379385.40145183 1709796102.9864807 0 1709796102.9864807 2658624460.4545746 0 0 0 0 -544652805.90850449 519061549.97045898 0 519061549.97045898 3600436318.4842758 0 0 0 0 -393483888.43760377 28152555.875484824 0 28152555.875484824 2377025000.3203735 0 0 0 0 -89535111.220963836 1171589217.7015667 0 1171589217.7015667 2993079515.8707581 0 0 0 0 267719300.32782221 1048722623.0989838 0 1048722623.0989838 2909148829.7966614 0 0 0 0 -897702842.91404819 979330723.22292423 0 979330723.22292423 3814436149.4959412 0 0 0 0 -328536280.3018961 879588793.79540253 0 879588793.79540253 3690868014.8752441 0 0 0 0 -208687589.36530566 1120770801.1069126 0 1120770801.1069126 3767087094.1560364 0 0 0 0 733526193.45858002 869961063.52411652 0 869961063.52411652 3623486911.9321365 0 0 0 0 -5820218.588491153 -54155.283580698073 0 -54155.283580698073 10048472.058019459 0 0 0 0 1406943757.658982 3407278652.0480957 0 3407278652.0480957 6612806373.5910339 0 0 0 0 -161631972.9568463 1191777754.9897578 0 1191777754.9897578 3952756915.5300598 0 0 0 0 -157000194.93780804 1125936189.187561 0 1125936189.187561 3258103864.1028824 0 0 0 0 -985321935.60153222 -634857777.22284889 0 -634857777.22284889 1286300486.1854401 0 0 0 0 -4909487.0452083498 130504.12881568819 0 130504.12881568819 10963679.691550702 0 0 0 0 -144769790.44587582 1626764112.845047 0 1626764112.845047 4570213502.7592773 0 0 0 0 -2467398262.4168682 883027931.48182297 0 883027931.48182297 6613673321.2496643 0 0 0 0 -59250761.925938249 1673666341.0464325 0 1673666341.0464325 3467325705.3807831 0 0 0 0 -1201261672.4738708 1047776566.6660271 0 1047776566.6660271 4104417215.2439499 0 0 0 0 -820709089.00235891 111535241.35568237 0 111535241.35568237 6289591945.9971008 0 0 0 0 154512786.21643901 -130703649.55335236 0 -130703649.55335236 4947592405.8905334 0 0 0 0 -1320060554.6700201 -1490859501.4813385 0 -1490859501.4813385 6934968834.4137421 0 0 0 0 -3037236951.2195702 989968988.77114105 0 989968988.77114105 4503945111.443779 0 0 0 0 -1470377.6346981078 1714274.2947543859 0 1714274.2947543859 3441787.8708552457 0 0 0 0 -351405144.08900642 72962134.250183105 0 72962134.250183105 3325684154.689476 0 0 0 0 -1499833791.9623032 -285813616.92828369 0 -285813616.92828369 5418917212.6640015 0 0 0 0 -2053233912.8546066 76647218.366790771 0 76647218.366790771 5330924516.9560547 0 0 0 0 -236737608.14328098 -932522750.66546631 0 -932522750.66546631 3963269463.6618805 0 0 0 0 -378955895.76715565 -271330057.44337463 0 -271330057.44337463 2638192531.7696533 0 0 0 0 1141836199.0842848 -1384660611.7129211 0 -1384660611.7129211 3973476740.0321198 0 0 0 0 930456165.15871716 3020858377.0443878 0 3020858377.0443878 5820971698.6585999 0 0 0 0 -669154137.61409378 3663224116.82621 0 3663224116.82621 7794348017.3158569 0 0 0 0 -2988665.0095430394 62384.676008872688 0 62384.676008872688 4548329.087724261 0 0 0 0 -331136862.49678993 2446869335.6395569 0 2446869335.6395569 6108377658.3674622 0 0 0 0 -3147168660.2813435 1374229920.6138458 0 1374229920.6138458 3575165506.0479736 0 0 0 0 -2818707938.6049314 -1506511436.270874 0 -1506511436.270874 2626055290.7207603 0 0 0 0 -2559948208.7893887 506020663.68539429 0 506020663.68539429 5759806308.9760132 0 0 0 0 -2419304857.4527664 29426599.147277832 0 29426599.147277832 4789140582.9871216 0 0 0 0 -2354830984.8525238 1333901227.1103516 0 1333901227.1103516 7860545925.5874147 0 0 0 0 -2086661113.1351929 1222564959.5043945 0 1222564959.5043945 6546893198.7925453 0 0 0 0 -2396693905.7205977 356636529.69987869 0 356636529.69987869 6497679807.5031738 0 0 0 0 -1044322467.1311655 1170325682.6711807 0 1170325682.6711807 4301389879.2177734 0 0 0 0 -1219048435.7336235 1660624813.3966751 0 1660624813.3966751 5587376871.8525391 0 0 0 0 -2345754395.5366211 618980651.80657959 0 618980651.80657959 5456924777.7327271 0 0 0 0 -1593358211.321537 782217381.53143311 0 782217381.53143311 5343463145.5411987 0 0 0 0 -1578935030.2930698 1001425865.4909668 0 1001425865.4909668 4437559828.3120728 0 0 0 0 -1826203293.4815464 244956429.98268127 0 244956429.98268127 4567299107.8699951 0 0 0 0 -1262681383.4160614 564043138.60592651 0 564043138.60592651 4267946061.1776428 0 0 0 0 -1239736535.4635487 744835519.37081909 0 744835519.37081909 4486379322.6417046 0 0 0 0 -929997707.63998795 899419732.8973465 0 899419732.8973465 3057284897.0530396 0 0 0 0 -980845352.9379921 1186733798.7745209 0 1186733798.7745209 4301133660.6372375 0 0 0 0 -399246712.74442959 630747897.09893417 0 630747897.09893417 2271449802.0438232 0 0 0 0 -363730767.04761606 1184997075.7990472 0 1184997075.7990472 3741506623.95047 0 0 0 0 -406078620.05903816 1220863242.188858 0 1220863242.188858 3721629894.4543228 0 0 0 0 -572564567.88849449 1182337450.1762085 0 1182337450.1762085 43947770.390106201 0 0 0 0 -1403573433.8626652 921075373.70962524 0 921075373.70962524 2376450748.3589783 0 0 0 0 -788928038.86084938 454444925.20574951 0 454444925.20574951 2976247850.0444946 0 0 0 0 -600253987.58021092 788590585.11573029 0 788590585.11573029 2198965453.513916 0 0 0 0 -74642307.971931458 -5003503.1031646729 0 -5003503.1031646729 159882812.85005951 0 0 0 0 -2936147.3768092897 2662250.2721379995 0 2662250.2721379995 5071243.2161408886 0 0 0 0 188604212.0852561 -34014328.47958374 0 -34014328.47958374 -1253746567.5939636 0 0 0 0 -270268602.82328558 420187982.81823349 0 420187982.81823349 311533046.7015686 0 0 0 0 301047126.85968906 459238837.78523207 0 459238837.78523207 365902679.53427124 0 0 0 0 319701703.10176533 -1208583851.2991104 0 -1208583851.2991104 1829133486.7124329 0 0 0 0 215470234.85587597 -376860384.98020935 0 -376860384.98020935 759162832.73733521 0 0 0 0 401510400.87184286 -62506063.493202209 0 -62506063.493202209 -485754280.69725037 0 0 0 0 -7909158.5584559422 11401897.424321324 0 11401897.424321324 16407442.198211752 0 0 0 0 -259927482.3059845 -34745126.863883972 0 -34745126.863883972 35329542.887176514 0 0 0 0 6031922.6439733179 21942043.049424175 0 21942043.049424175 29355345.036796123 0 0 0 0 -243623029.82437125 204909279.65438461 0 204909279.65438461 275555409.77212524 0 0 0 0 18320198.389360905 19275654.154899597 0 19275654.154899597 5509712.1190185547 0 0 0 0 -1786277.7237308789 7896071.0348989144 0 7896071.0348989144 15592147.276431274 0 0 0 0 22202428.526309967 43741584.436244965 0 43741584.436244965 24774795.485076904 0 0 0 0 10368074.813148499 22728246.99005127 0 22728246.99005127 17556445.233032227 0 0 0 0 7544269.3626995087 36389427.916114807 0 36389427.916114807 55770740.058105469 0 0 0 0 8718935.1358044427 26359881.94807858 0 26359881.94807858 29596964.392526656 0 0 0 0 -9857986.1109313965 83828383.080200195 0 83828383.080200195 62994883.13722229 0 0 0 0 -12219937.416638918 -3963854.2080350965 0 -3963854.2080350965 16888877.833442021 0 0 0 0 684144878.19663239 1279156281.2086487 0 1279156281.2086487 2230872354.2163696 0 0 0 0 11779122.386878967 61173826.271270752 0 61173826.271270752 74182246.820541382 0 0 0 0 375011363.46452475 926396975.64454651 0 926396975.64454651 2151323172.1131592 0 0 0 0 -363515.93518977705 -177480.6375983879 0 -177480.6375983879 745691.674492836 0 0 0 0 -249875716.0313797 978799560.32885742 0 978799560.32885742 3881324442.6170654 0 0 0 0 -198945765.81445479 112654173.72169876 0 112654173.72169876 53521666.291870117 0 0 0 0 21091664.753494263 29546867.72946167 0 29546867.72946167 -9321944.0876922607 0 0 0 0 6129649.1725154957 3689347.6234778538 0 3689347.6234778538 10804399.268898532 0 0 0 0 665672227.47949409 1107473963.018219 0 1107473963.018219 2920281900.277626 0 0 0 0 585690323.25826263 1444908715.9385376 0 1444908715.9385376 3587585000.558136 0 0 0 0 522139167.05460739 1698712322.7976532 0 1698712322.7976532 3392120804.5829468 0 0 0 0 973275172.66498351 1391567345.6218643 0 1391567345.6218643 2629867959.4580078 0 0 0 0 -337969830.70518273 816162222.39217091 0 816162222.39217091 -1144225703.4065094 0 0 0 0 531333049.4300108 2200405100.8022575 0 2200405100.8022575 5028719035.1234131 0 0 0 0 1131877.8624928528 716323.33937031776 0 716323.33937031776 3813254.7923897132 0 0 0 0 963453667.19263875 1564131730.4224701 0 1564131730.4224701 1328499664.26297 0 0 0 0 620213963.80602694 930349990.32223511 0 930349990.32223511 1144119940.9141998 0 0 0 0 1386860792.746901 2137202160.1018524 0 2137202160.1018524 1923645335.9312134 0 0 0 0 559422326.3327198 1371683822.9745178 0 1371683822.9745178 2517725550.971489 0 0 0 0 717458693.7447629 1494359798.2068405 0 1494359798.2068405 1589396117.8913956 0 0 0 0 560380834.13941956 963746220.21047211 0 963746220.21047211 827868678.77593994 0 0 0 0 427418681.82384396 962084530.25762939 0 962084530.25762939 896372338.87423706 0 0 0 0 1099559811.0424743 1545403373.6824341 0 1545403373.6824341 1029516446.2353401 0 0 0 0 875716155.12237215 1685975232.870697 0 1685975232.870697 1379925408.9722061 0 0 0 0 850453038.82229185 1484090463.9052582 0 1484090463.9052582 1331101352.4375305 0 0 0 0 1254471334.2086477 1287545888.611084 0 1287545888.611084 1414847661.0289536 0 0 0 0 1279386492.9221492 1720492003.2749176 0 1720492003.2749176 1437919618.9564285 0 0 0 0 874544875.92214966 1771464858.2807007 0 1771464858.2807007 1785570079.6736298 0 0 0 0 551927586.17163754 1125239076.8428192 0 1125239076.8428192 1922693916.0572815 0 0 0 0 220937063.4519515 863666644.5582695 0 863666644.5582695 2194781633.1543579 0 0 0 0 -934755935.83731484 -528155553.11359024 0 -528155553.11359024 377223619.26202393 0 0 0 0 -83260457.20605278 253214030.69671631 0 253214030.69671631 1493730567.5908813 0 0 0 0 -94761232.371938705 800302038.49465942 0 800302038.49465942 2277052905.6544533 0 0 0 0 791023488.4525795 1486908077.3514404 0 1486908077.3514404 -772580720.22195435 0 0 0 0 769721317.46765661 1589165108.9952774 0 1589165108.9952774 1527733864.645607 0 0 0 0 795919196.47699499 1716332843.3932381 0 1716332843.3932381 616658056.73831177 0 0 0 0 -600364378.17381036 -453956509.35408783 0 -453956509.35408783 6610645755.0211639 0 0 0 0 -98313.436601918482 -19052325.020843506 0 -19052325.020843506 3951534063.7328491 0 0 0 0 -26469352.267835781 233793444.7157402 0 233793444.7157402 1687456537.5587616 0 0 0 0 19388733.319003884 11064155.637034535 0 11064155.637034535 815060189.73202515 0 0 0 0 134186625.64547968 790828456.17964172 0 790828456.17964172 7702731831.8128052 0 0 0 0 387450943.18044972 -2589059333.1644135 0 -2589059333.1644135 7595636555.481842 0 0 0 0 -148641.17317150574 1626104.077529192 0 1626104.077529192 3581256.8201611489 0 0 0 0 -1971397880.7927437 -652024606.39089203 0 -652024606.39089203 5778620031.9908905 0 0 0 0 1076483.6240572422 3591629.2854219154 0 3591629.2854219154 6072639.6435548514 0 0 0 0 -793241516.13492012 -82517205.389907837 0 -82517205.389907837 3565145475.8778076 0 0 0 0 21173329.986696508 82343617.244707108 0 82343617.244707108 2267365428.4633484 0 0 0 0 -13742222.285023212 38933008.194717407 0 38933008.194717407 2339473429.6504364 0 0 0 0 30074543.420567513 -728018495.73844147 0 -728018495.73844147 3732685185.2455139 0 0 0 0 1468661.5385502821 1717333.5062876344 0 1717333.5062876344 2556573.8590224758 0 0 0 0 -442296320.68252039 79423732.582962036 0 79423732.582962036 7294355801.8452759 0 0 0 0 197276084.11713195 3822193737.1248169 0 3822193737.1248169 193119932.76095581 0 0 0 0 401633508.94286597 1823166291.3181458 0 1823166291.3181458 3021898897.9739227 0 0 0 0 1523135519.9972324 2347681652.5661469 0 2347681652.5661469 1799335722.478241 0 0 0 0 307693334.14498997 -325353578.32144165 0 -325353578.32144165 1505386053.3674946 0 0 0 0 265386996.56468582 3355337144.8224945 0 3355337144.8224945 4920254592.9220734 0 0 0 0 1670674589.3477774 -449420129.03273773 0 -449420129.03273773 6261502168.7495728 0 0 0 0 -225540462.34468484 1426900532.7168121 0 1426900532.7168121 6057057460.340271 0 0 0 0 127442660.74361706 275899534.44065857 0 275899534.44065857 1578139753.8543091 0 0 0 0 1547553937.0266664 881777317.20446396 0 881777317.20446396 7744168023.4993744 0 0 0 0 -193053710.50835237 70040788.175590515 0 70040788.175590515 6024854785.8211823 0 0 0 0 1723283682.4507377 -1821793839.8096542 0 -1821793839.8096542 6736447048.4707947 0 0 0 0 123703855.74595402 -480902002.24479675 0 -480902002.24479675 6615358992.6018696 0 0 0 0 2167780.8221475524 1637513.3695557937 0 1637513.3695557937 3189167.9067867659 0 0 0 0 -628369908.86176777 -1139152118.0939484 0 -1139152118.0939484 6146675728.6022873 0 0 0 0 -139601997.81620789 -1447673271.4114685 0 -1447673271.4114685 4673171151.8100433 0 0 0 0 579579.50733856938 3652448.0778921843 0 3652448.0778921843 6360395.7584762573 0 0 0 0 6938905918.6579628 796957702.68466187 0 796957702.68466187 3454250990.6741333 0 0 0 0 -84249899.529624939 -5075754307.8047791 0 -5075754307.8047791 8464656407.66539 0 0 0 0 2485651.1502157077 5241499.6863006577 0 5241499.6863006577 8565815.6528056413 0 0 0 0 835921228.82057476 1052420961.3788376 0 1052420961.3788376 -347726657.89306641 0 0 0 0 1299199771.6068792 3099980371.359684 0 3099980371.359684 1163919352.9097595 0 0 0 0 -312501155.64998794 -71927029.883026123 0 -71927029.883026123 2746940640.6061182 0 0 0 0 454798880.31200504 -799197773.44815826 0 -799197773.44815826 2752755463.0849762 0 0 0 0 -1114924892.5713196 395021286.93239594 0 395021286.93239594 155492074.92376709 0 0 0 0 5136553.1021349831 14530975.71766274 0 14530975.71766274 22104002.846087098 0 0 0 0 -374525887.48809814 -1017381091.7977753 0 -1017381091.7977753 411474117.3817482 0 0 0 0 1058251208.9504399 -198747826.18517303 0 -198747826.18517303 -194431679.9637146 0 0 0 0 -55374246.366518974 -548229039.29937744 0 -548229039.29937744 275248971.4413147 0 0 0 0 -127878980.01854348 31942884.01691246 0 31942884.01691246 344889589.1569519 0 0 0 0 -198463928.78886223 -150048126.30831909 0 -150048126.30831909 143462359.17993164 0 0 0 0 -165080727.85059357 -150888896.42146301 0 -150888896.42146301 127310305.27643776 0 0 0 0 150007067.54844666 447101331.83312988 0 447101331.83312988 1298007117.4231567 0 0 0 0 -3228132.4640636444 96828155.121551514 0 96828155.121551514 144185719.78956604 0 0 0 0 -12834510.190831212 -9304324.4542239159 0 -9304324.4542239159 14515763.300854191 0 0 0 0 -34704097.902709961 36895776.820579529 0 36895776.820579529 107542854.02639771 0 0 0 0 -6787802.3588806177 -10350618.904847033 0 -10350618.904847033 2933138.4967168719 0 0 0 0 -404198980.33016205 337947939.31587219 0 337947939.31587219 335971464.59025574 0 0 0 0 -2778918.7009581998 -4891455.8965530396 0 -4891455.8965530396 4906866.2336120605 0 0 0 0 -91999512.833559036 -141524985.87997437 0 -141524985.87997437 467973304.09777451 0 0 0 0 91695820.270977974 31639739.211929321 0 31639739.211929321 -172297512.15164185 0 0 0 0 14570157.799290657 -332758503.94946289 0 -332758503.94946289 -473864788.87643433 0 0 0 0 -1343717.35190906 938683.57888060808 0 938683.57888060808 5192645.667480845 0 0 0 0 -3467764.1824900382 -3207776.1768338252 0 -3207776.1768338252 -715075.7137337774 0 0 0 0 334499203.51664066 188905936.04562378 0 188905936.04562378 -868635987.64428711 0 0 0 0 -318280183.71992588 -307342881.77897644 0 -307342881.77897644 -225652197.79727173 0 0 0 0 -5763643.1591800908 -11155171.077792738 0 -11155171.077792738 1876814.0962234735 0 0 0 0 -147093493.33455849 -36442517.656860352 0 -36442517.656860352 89479425.183364868 0 0 0 0 -320081554.59821796 181201708.72294617 0 181201708.72294617 -60798465.142921448 0 0 0 0 -362893866.4149394 146588631.23159027 0 146588631.23159027 516490539.7052002 0 0 0 0 -7336637.5640810914 -6726340.5998278633 0 -6726340.5998278633 1120242.1877975613 0 0 0 0 -56907031.802968055 -125983078.7063446 0 -125983078.7063446 -462967226.12142944 0 0 0 0 416774063.89187312 -223846702.90707397 0 -223846702.90707397 -446959336.91941833 0 0 0 0 -96108999.417067528 145217435.45492554 0 145217435.45492554 134477043.43475342 0 0 0 0 588200734.31472504 804482528.46648026 0 804482528.46648026 501058647.60421753 0 0 0 0 -116486626.12369204 -408138229.07342529 0 -408138229.07342529 -241402236.33227539 0 0 0 0 670165493.46188807 -167573940.33932495 0 -167573940.33932495 -369990876.47397614 0 0 0 0 -857269415.85763168 13843723.913150787 0 13843723.913150787 1745936946.226593 0 0 0 0 -1476787.3574517304 1468243.0124781933 0 1468243.0124781933 639212.45653508604 0 0 0 0 276327511.06457996 688062582.10896301 0 688062582.10896301 504648645.42834473 0 0 0 0 1265210660.1122246 1689002609.1139908 0 1689002609.1139908 2621077541.7553711 0 0 0 0 1894164764.0366631 1752908315.1503983 0 1752908315.1503983 2526108283.9509583 0 0 0 0 -58764251.935537577 62011594.990478516 0 62011594.990478516 1896446832.1733322 0 0 0 0 -150808637.98082012 164328649.80158997 0 164328649.80158997 1572221848.651413 0 0 0 0 177727562.10606116 774724526.14433289 0 774724526.14433289 2395875268.2289734 0 0 0 0 -322010187.64159799 645463731.42199707 0 645463731.42199707 2874281187.6333618 0 0 0 0 -758730758.38541913 876194694.59158325 0 876194694.59158325 2771083379.0856934 0 0 0 0 -1285797820.3984547 653207010.16543579 0 653207010.16543579 2429066364.8266449 0 0 0 0 -104767315.4426505 1082477379.7220154 0 1082477379.7220154 2095788139.0512085 0 0 0 0 -448478519.59576607 -531924992.52850342 0 -531924992.52850342 -593148573.13287354 0 0 0 0 207155212.46238118 631899843.64035034 0 631899843.64035034 1439923485.6202698 0 0 0 0 -629891694.21790385 -642069569.57534409 0 -642069569.57534409 448558279.54315186 0 0 0 0 271826075.80637825 495726887.94158936 0 495726887.94158936 -517208474.39512634 0 0 0 0 9736086.4427051544 113750990.55603027 0 113750990.55603027 -426472434.77424622 0 0 0 0 296009828.92595577 473717440.6668396 0 473717440.6668396 -612662487.45555115 0 0 0 0 -2510607.3313302305 -1602927.8943377882 0 -1602927.8943377882 541235.04077570885 0 0 0 0 517685847.59282637 902036939.08139038 0 902036939.08139038 685492127.55944824 0 0 0 0 -371035456.49356747 -144927077.28234863 0 -144927077.28234863 1285731987.9853745 0 0 0 0 -366794909.05112743 -207119965.94241333 0 -207119965.94241333 141217879.53022766 0 0 0 0 -1895521400.7355132 -143777636.31408691 0 -143777636.31408691 2112976872.9569244 0 0 0 0 1023580214.5694792 -238648590.57913589 0 -238648590.57913589 -408064123.42861938 0 0 0 0 -531595.24903307657 784314.71684338711 0 784314.71684338711 5409780.6798095405 0 0 0 0 -609640921.88922715 -465370245.78649139 0 -465370245.78649139 -426314621.98825073 0 0 0 0 -204528.6736669213 33837.743798248004 0 33837.743798248004 2478465.4393374622 0 0 0 0 348023336.87611485 914840233.79477572 0 914840233.79477572 693362366.74150085 0 0 0 0 -272878556.65036458 180833721.42645264 0 180833721.42645264 452411280.826828 0 0 0 0 61194379.918366589 283086275.93239689 0 283086275.93239689 1407445696.1868896 0 0 0 0 436565.82557211537 209389724.40212631 0 209389724.40212631 -465799.26705932617 0 0 0 0 -212375945.6683794 -28699695.385002136 0 -28699695.385002136 741921542.72819519 0 0 0 0 -221080649.44690815 418123951.26157379 0 418123951.26157379 502421242.93737793 0 0 0 0 -806295025.13932502 -131780106.06213379 0 -131780106.06213379 217914632.77774429 0 0 0 0 -146068978.23284143 24349306.414173126 0 24349306.414173126 84892799.36038208 0 0 0 0 -430826169.4678067 298841728.50485229 0 298841728.50485229 56545770.784934998 0 0 0 0 -190735028.81945157 464801008.91373026 0 464801008.91373026 -82978835.712799072 0 0 0 0 -294100604.92451096 -91787522.368133545 0 -91787522.368133545 226463454.18054962 0 0 0 0 747444713.36425996 712774935.54032898 0 712774935.54032898 -621335592.44723511 0 0 0 0 -390980.47568870004 1523503.9338737659 0 1523503.9338737659 4221279.0563073605 0 0 0 0 -584488951.33453226 -1415479221.2268829 0 -1415479221.2268829 882039978.17855835 0 0 0 0 -388723.83710689424 674072.52128696907 0 674072.52128696907 5481294.7367478162 0 0 0 0 30204430.674956322 -536292137.35507202 0 -536292137.35507202 380290424.08856201 0 0 0 0 -1168087700.4676037 -678927986.76383972 0 -678927986.76383972 997972099.5630188 0 0 0 0 238669517.68591213 -212412577.97732544 0 -212412577.97732544 -1135932588.3288422 0 0 0 0 -552902529.56354809 -626331791.24287415 0 -626331791.24287415 81660887.87317276 0 0 0 0 -1344624036.8861058 813971606.77568817 0 813971606.77568817 634473701.81008911 0 0 0 0 -2478471765.0865707 528394730.4199028 0 528394730.4199028 1078132602.168457 0 0 0 0 -661462.79860716104 2687618.0567073645 0 2687618.0567073645 12029678.079051375 0 0 0 0 -92552.233743581804 718362.36122666893 0 718362.36122666893 1289172.3211961985 0 0 0 0 1385805288.5410635 575697147.0255127 0 575697147.0255127 -408805365.95947266 0 0 0 0 9043655.004809618 1348238365.693512 0 1348238365.693512 -93768975.472686768 0 0 0 0 30026078.08417505 -68808422.15309906 0 -68808422.15309906 1385035532.2009888 0 0 0 0 -69687814.232762337 -629979828.65760803 0 -629979828.65760803 -304028998.61205482 0 0 0 0 1649733624.6872482 2082052859.1342468 0 2082052859.1342468 21365761.952667236 0 0 0 0 1647517117.8243008 1398335028.9355774 0 1398335028.9355774 -755831760.47232056 0 0 0 0 1203792813.7949333 2068265321.92276 0 2068265321.92276 1266030745.1843033 0 0 0 0 1093441087.7971411 1786087940.1882172 0 1786087940.1882172 579887420.45336914 0 0 0 0 1478165499.5630322 2778301241.5539246 0 2778301241.5539246 1681193332.129303 0 0 0 0 1326375443.7976689 1849795968.2834129 0 1849795968.2834129 1603334031.943573 0 0 0 0 1054720635.8485546 1379685599.3119507 0 1379685599.3119507 1924508732.8022461 0 0 0 0 835278215.40111017 1526425765.48106 0 1526425765.48106 1834285506.6287231 0 0 0 0 1324363551.2352486 1010775871.5535431 0 1010775871.5535431 1693437808.4021301 0 0 0 0 2164215647.9774303 1398485298.932724 0 1398485298.932724 797944935.95827484 0 0 0 0 1978275726.4911575 427497605.10028076 0 427497605.10028076 2192140814.1209412 0 0 0 0 898973938.10151577 524784317.44438171 0 524784317.44438171 2571238198.9778137 0 0 0 0 177027026.60557747 1184377496.1849823 0 1184377496.1849823 2336496256.2206421 0 0 0 0 449451872.30253029 -878085112.74824524 0 -878085112.74824524 1048281515.0337677 0 0 0 0 -24158859.533566475 -515947736.50493622 0 -515947736.50493622 826881506.43823242 0 0 0 0 -133249624.55535221 -231676036.46492767 0 -231676036.46492767 -175549201.38638306 0 0 0 0 573043879.14910698 -538136089.21172333 0 -538136089.21172333 535500982.72000122 0 0 0 0 231402.36445983406 -2865616.7492755353 0 -2865616.7492755353 910046.67802923545 0 0 0 0 818693505.32039261 -712337404.36075592 0 -712337404.36075592 585423985.48126221 0 0 0 0 869706225.87052035 1157608644.2613525 0 1157608644.2613525 1798843351.2633362 0 0 0 0 -1767618.8262357484 -3123069.154824147 0 -3123069.154824147 4528957.2404510081 0 0 0 0 948584828.58489084 1046885211.3316574 0 1046885211.3316574 900028860.67425537 0 0 0 0 342513237.20737839 969252824.08761597 0 969252824.08761597 2148308172.6564903 0 0 0 0 659089577.17271042 1182233665.7784119 0 1182233665.7784119 2081986580.9606323 0 0 0 0 416678496.81982613 1237399805.4314842 0 1237399805.4314842 2071586988.8174438 0 0 0 0 845388780.57267284 481696677.69096375 0 481696677.69096375 156208043.75320435 0 0 0 0 -5937077.0851726281 -7245017.7797310352 0 -7245017.7797310352 4569166.7575359084 0 0 0 0 324765505.24855614 -106779720.88070679 0 -106779720.88070679 130756755.01472473 0 0 0 0 75845909.350593567 908792748.60074615 0 908792748.60074615 1574259201.552063 0 0 0 0 441734087.30020094 684562903.06165314 0 684562903.06165314 1092887496.1521606 0 0 0 0 159774996.2465229 944919562.7749939 0 944919562.7749939 1366237877.6965942 0 0 0 0 -210379462.34005833 491191913.29302979 0 491191913.29302979 1110040427.1671143 0 0 0 0 -365873843.98784256 881021367.79742432 0 881021367.79742432 293423380.89575195 0 0 0 0 -566065.98216075404 305983.33429357409 0 305983.33429357409 831983.53017222881 0 0 0 0 325184862.25498772 910248531.35940552 0 910248531.35940552 1210871781.3251801 0 0 0 0 218643546.69049263 1085816449.7236938 0 1085816449.7236938 1572736925.7841797 0 0 0 0 431832175.66318893 1035257542.4020386 0 1035257542.4020386 1291727800.2098389 0 0 0 0 456139284.16482258 956186036.15753174 0 956186036.15753174 1469937185.8845215 0 0 0 0 306471200.66301537 935387063.83898926 0 935387063.83898926 1697639098.9816895 0 0 0 0 365768000.89618087 1282348788.2781925 0 1282348788.2781925 1937543569.6708374 0 0 0 0 456024930.87963867 886645180.60600281 0 886645180.60600281 1553909709.7870178 0 0 0 0 429433564.68195724 1106297529.3876648 0 1106297529.3876648 2134773472.8490677 0 0 0 0 849758202.95019007 1314819050.9292755 0 1314819050.9292755 2201414671.3019104 0 0 0 0 435620958.2100687 1091564782.0270615 0 1091564782.0270615 2585449453.6684875 0 0 0 0 753223389.49365902 1362942150.1402893 0 1362942150.1402893 2684251067.7661896 0 0 0 0 1180439029.9656858 911110134.63999939 0 911110134.63999939 2420438001.717865 0 0 0 0 678540334.54806685 1042913635.271904 0 1042913635.271904 2390997528.7654419 0 0 0 0 650689875.55495644 913793536.43499756 0 913793536.43499756 2155001169.5176888 0 0 0 0 1871651371.8362875 1668810721.7880249 0 1668810721.7880249 2381093953.4585266 0 0 0 0 759439737.98800373 1195295836.8271484 0 1195295836.8271484 2194759442.1920776 0 0 0 0 -507567.77542646881 44098.509215556085 0 44098.509215556085 2292485.0336435586 0 0 0 0 491351660.35098886 -47309765.249969482 0 -47309765.249969482 -1354838479.4535675 0 0 0 0 175757661.77235222 1762009016.8850479 0 1762009016.8850479 4633878795.8980103 0 0 0 0 1739166.092125691 402519.96368695796 0 402519.96368695796 629972.92012919486 0 0 0 0 4722308.5914257169 77854241.439254761 0 77854241.439254761 499311516.73799133 0 0 0 0 945899150.55799627 1017813454.9938507 0 1017813454.9938507 -366699667.96990967 0 0 0 0 851436828.59351587 1573919212.4292908 0 1573919212.4292908 1701195978.7415619 0 0 0 0 911076174.2345829 1339245349.7620544 0 1339245349.7620544 1037204755.0648499 0 0 0 0 -509863.37989625288 -1365348.9348031506 0 -1365348.9348031506 1843338.9831804708 0 0 0 0 -10167637.206662178 362195064.34368896 0 362195064.34368896 1089897132.7239685 0 0 0 0 430617739.79286337 264681011.53736877 0 264681011.53736877 492798266.85046387 0 0 0 0 37990437.398163289 149958434.5132761 0 149958434.5132761 195494128.90731812 0 0 0 0 2994060.5580663383 -50707185.241379738 0 -50707185.241379738 166546894.35266113 0 0 0 0 -84937063.249774694 -147350175.83683014 0 -147350175.83683014 -87348415.405303955 0 0 0 0 -417706380.75997746 50092748.914031982 0 50092748.914031982 236265935.44589233 0 0 0 0 -113144358.75865984 199159171.51796722 0 199159171.51796722 429361886.18807983 0 0 0 0 304667451.83483863 -25247142.44367981 0 -25247142.44367981 29963724.85377121 0 0 0 0 155025790.30819058 258860252.19297028 0 258860252.19297028 -97353488.628234863 0 0 0 0 969100993.0154438 -109323920.42001343 0 -109323920.42001343 -142846381.60978699 0 0 0 0 918541396.77576447 -22472127.524932861 0 -22472127.524932861 570109620.71144104 0 0 0 0 263252.8541066614 -642689.44287244976 0 -642689.44287244976 796173.4381070286 0 0 0 0 362658867.0582695 -31523473.717849731 0 -31523473.717849731 254396349.06365967 0 0 0 0 653737789.85870266 -120491210.14483643 0 -120491210.14483643 1407506116.1771851 0 0 0 0 767280887.52740812 157573237.509552 0 157573237.509552 1190327729.5108643 0 0 0 0 279551476.12304401 237958580.19529724 0 237958580.19529724 3096925874.7180786 0 0 0 0 352811864.61419106 1104916617.8783875 0 1104916617.8783875 4198791146.5953979 0 0 0 0 1223485792.1935234 1533613571.5925598 0 1533613571.5925598 3343777064.439209 0 0 0 0 426043654.42829704 1350155086.2451782 0 1350155086.2451782 2283977105.937851 0 0 0 0 488315996.849823 380918328.79150391 0 380918328.79150391 2721697239.944519 0 0 0 0 459363734.06531429 936481850.72615051 0 936481850.72615051 900044432.57913208 0 0 0 0 -91988102.37861824 1086259127.4553833 0 1086259127.4553833 1952925396.1669006 0 0 0 0 393530128.55828989 1275649292.2466965 0 1275649292.2466965 1535279409.0050964 0 0 0 0 810068219.71330452 1808856420.5879211 0 1808856420.5879211 1898387075.0495758 0 0 0 0 514298490.679492 1402414996.5233154 0 1402414996.5233154 1795938878.0419006 0 0 0 0 735061753.91470623 1976978146.9383698 0 1976978146.9383698 1631908846.258606 0 0 0 0 866679918.43494415 2178412336.6412048 0 2178412336.6412048 1940096197.0016174 0 0 0 0 829622552.82189083 2251957351.618988 0 2251957351.618988 2374606910.8213501 0 0 0 0 966071802.89830852 2528914120.5908403 0 2528914120.5908403 2838827200.5769653 0 0 0 0 337057141.09747946 1627302194.5973778 0 1627302194.5973778 2926883326.0259399 0 0 0 0 -1538111195.4333115 -503141375.94947815 0 -503141375.94947815 2269123240.3018341 0 0 0 0 -128271.84880739043 1829564.2679097108 0 1829564.2679097108 6585746.3426293433 0 0 0 0 1820331505.8812227 2707333864.1291046 0 2707333864.1291046 1614919888.9827576 0 0 0 0 -555215329.6722765 747347013.71645355 0 747347013.71645355 3738138770.6575317 0 0 0 0 958976261.83261752 2297949600.5302353 0 2297949600.5302353 4776482481.7821045 0 0 0 0 -251342785.35823637 -182905856.87512207 0 -182905856.87512207 1416479976.4752808 0 0 0 0 -961391420.34750462 -136993266.48696899 0 -136993266.48696899 3132019093.6572266 0 0 0 0 778651217.67498624 1495032220.8173752 0 1495032220.8173752 2176501260.9977112 0 0 0 0 -484448927.49215579 791676543.26985168 0 791676543.26985168 3126388491.9816132 0 0 0 0 -32990034.799151421 746389077.16726685 0 746389077.16726685 2866073729.8222046 0 0 0 0 710827735.65590382 1627765705.4557037 0 1627765705.4557037 3344817095.1526241 0 0 0 0 368986167.5432086 1856514573.2197762 0 1856514573.2197762 4180239905.8520508 0 0 0 0 3864822849.1227875 1195724193.5311279 0 1195724193.5311279 3362812510.553772 0 0 0 0 3114020109.0210323 192190699.24035645 0 192190699.24035645 4156837325.754837 0 0 0 0 65764.20582674921 501966.44277092442 0 501966.44277092442 2647783.6393814683 0 0 0 0 642916680.48705959 -256359077.86876106 0 -256359077.86876106 102468432.1831665 0 0 0 0 1922594249.011003 1935127102.7751045 0 1935127102.7751045 1832490362.1600952 0 0 0 0 133203966.6960454 -276466853.24397278 0 -276466853.24397278 1328890311.9312134 0 0 0 0 900792809.60611629 348805853.78024292 0 348805853.78024292 -587306256.89541626 0 0 0 0 -222550909.06224108 34819815.417434692 0 34819815.417434692 199426452.32712746 0 0 0 0 1403143139.2649355 1043359399.1549683 0 1043359399.1549683 437742793.47885513 0 0 0 0 434481157.01557553 1424226246.5741272 0 1424226246.5741272 2161989923.943512 0 0 0 0 100651033.97109962 977576547.29238796 0 977576547.29238796 1439453036.9980011 0 0 0 0 155480288.74462044 798709740.95832825 0 798709740.95832825 769442064.48321533 0 0 0 0 -1033754.781238875 426049178.04216242 0 426049178.04216242 1436874573.9298096 0 0 0 0 -209380858.07126582 518067162.29821014 0 518067162.29821014 1827990904.805336 0 0 0 0 -216060411.61266619 596869480.7456665 0 596869480.7456665 2319975638.7289734 0 0 0 0 58630889.579437256 73569518.325042725 0 73569518.325042725 -270368231.42666626 0 0 0 0 210606.0225476406 882580.09875438362 0 882580.09875438362 503574.70522501692 0 0 0 0 9480606.6070894152 2715854.2909823805 0 2715854.2909823805 -26527.466655615717 0 0 0 0 709750774.80290318 424262842.21838379 0 424262842.21838379 464782930.75218964 0 0 0 0 14402010.903373718 -623641.08042907715 0 -623641.08042907715 25867550.184181213 0 0 0 0 23083256.447555542 -12073620.996520996 0 -12073620.996520996 12626843.015457153 0 0 0 0 24819830.003168106 -4916438.5169334412 0 -4916438.5169334412 -15428165.983184814 0 0 0 0 23928850.058011055 -3819055.5775947571 0 -3819055.5775947571 5119336.3860778809 0 0 0 0 18287688.269575119 1807171.4120635986 0 1807171.4120635986 13042019.231414795 0 0 0 0 1555765.8568631301 9666900.068198137 0 9666900.068198137 9439315.1499183029 0 0 0 0 -33327140.775449596 17921507.015129089 0 17921507.015129089 13952588.684448242 0 0 0 0 8594875.000619173 697758.93978881836 0 697758.93978881836 -1074797.0321807861 0 0 0 0 14129386.638968468 21968351.294815063 0 21968351.294815063 19223891.713439941 0 0 0 0 22196514.526282072 23392913.419189453 0 23392913.419189453 -3287751.3920288086 0 0 0 0 8606259.3587603569 14819793.170562744 0 14819793.170562744 -4725635.7169189453 0 0 0 0 22287571.399954796 20017701.427627563 0 20017701.427627563 -11843902.848754883 0 0 0 0 -965254.30476140976 28928812.214599609 0 28928812.214599609 -3406250.9346313477 0 0 0 0 -25705819.896609873 5931975.7596282959 0 5931975.7596282959 6829812.4897155762 0 0 0 0 14157994.237279415 3631999.7888717651 0 3631999.7888717651 2584268.1637573242 0 0 0 0 7637510.2305850983 11575619.028549194 0 11575619.028549194 2703763.4391708374 0 0 0 0 27975569.452231407 8188480.4751281738 0 8188480.4751281738 3146285.6868438721 0 0 0 0 -67619712.091907501 -9838664.9120788574 0 -9838664.9120788574 32719614.795928955 0 0 0 0 31900503.173134804 -72161275.120559692 0 -72161275.120559692 64583178.952789307 0 0 0 0 125733757.37052345 -58074300.715698242 0 -58074300.715698242 64809915.511027813 0 0 0 0 -55140235.677553415 72608766.025985718 0 72608766.025985718 6578781.3972473145 0 0 0 0 -70383737.691188097 -3379108.1502075195 0 -3379108.1502075195 15486115.587463379 0 0 0 0 18322021.731203556 37351951.619567871 0 37351951.619567871 224198.14437866211 0 0 0 0 16612357.407994747 27546343.144866943 0 27546343.144866943 -15777608.777328491 0 0 0 0 74819772.843173981 27456565.812103271 0 27456565.812103271 -36982789.193023682 0 0 0 0 50507716.824889183 -17679083.828445435 0 -17679083.828445435 224135548.02526855 0 0 0 0 98896749.95933336 -74624556.633735657 0 -74624556.633735657 56949651.879333496 0 0 0 0 87124341.481173307 28026595.943967819 0 28026595.943967819 -169711544.65301514 0 0 0 0 -30911101.975965619 -197226000.97421265 0 -197226000.97421265 205761593.33364868 0 0 0 0 173480226.39245677 149975978.69322205 0 149975978.69322205 479563967.83631897 0 0 0 0 131367680.51820791 -79606085.877803802 0 -79606085.877803802 249860581.14468384 0 0 0 0 -135949069.54506207 203668729.93170929 0 203668729.93170929 1047616172.9928894 0 0 0 0 -25952658.459858894 -107612449.9004364 0 -107612449.9004364 210053165.47979736 0 0 0 0 56893089.832456589 106635461.15646362 0 106635461.15646362 657826397.24874878 0 0 0 0 132455011.58995438 9214132.9294586182 0 9214132.9294586182 130111318.97728729 0 0 0 0 189342574.36158848 417611477.77166748 0 417611477.77166748 741323007.42734528 0 0 0 0 290399455.90186357 435264200.82504272 0 435264200.82504272 58400173.507720947 0 0 0 0 377836746.0740869 448943172.1109066 0 448943172.1109066 452116660.63650513 0 0 0 0 236072746.18213499 731677510.20292664 0 731677510.20292664 1415650608.6055298 0 0 0 0 487739570.31473267 902167460.3778615 0 902167460.3778615 1559777229.8291931 0 0 0 0 462832967.50669479 473300485.58462524 0 473300485.58462524 882002531.85426331 0 0 0 0 2387182.3706467366 3443961.6377697922 0 3443961.6377697922 -1020636.1862620562 0 0 0 0 14937341.114361763 -91228724.103317261 0 -91228724.103317261 474940354.16723633 0 0 0 0 248010112.43854666 599788350.64794922 0 599788350.64794922 656773107.59056854 0 0 0 0 475761746.73472601 982117455.61326885 0 982117455.61326885 1712595966.303833 0 0 0 0 378684955.38065434 339387576.51019287 0 339387576.51019287 1000838580.4200897 0 0 0 0 722020170.31228542 686831975.75215149 0 686831975.75215149 1731117911.8542938 0 0 0 0 1072981184.4088447 1330146590.7396545 0 1330146590.7396545 1697345086.8104095 0 0 0 0 504377946.48604107 1107925748.928894 0 1107925748.928894 2630721681.7795687 0 0 0 0 594724849.9932785 1627352330.8987789 0 1627352330.8987789 2228948770.3878174 0 0 0 0 -428720.35769535135 526933.56290309876 0 526933.56290309876 1572679.5374883264 0 0 0 0 254152244.35489655 1205250450.6385803 0 1205250450.6385803 2231046557.7838135 0 0 0 0 830509499.52649784 1336207952.7126694 0 1336207952.7126694 1909101804.485054 0 0 0 0 41915002.525434017 410095642.74061584 0 410095642.74061584 1136139127.6054382 0 0 0 0 522830957.60091114 1043205306.8555603 0 1043205306.8555603 1686489972.9945679 0 0 0 0 464356403.47414112 1079548902.9696808 0 1079548902.9696808 2229546975.7179413 0 0 0 0 474822412.7866106 1289617143.6091309 0 1289617143.6091309 1910172751.4554596 0 0 0 0 204626619.71079063 676682061.82608795 0 676682061.82608795 1709471534.2887268 0 0 0 0 818546841.05010462 1326794858.1428909 0 1326794858.1428909 2017537331.4915619 0 0 0 0 521138783.15538979 1117021037.3484802 0 1117021037.3484802 2069801271.6289825 0 0 0 0 589459453.78366733 1098423963.329361 0 1098423963.329361 2130767961.1842346 0 0 0 0 506991474.73300743 1504151654.7814789 0 1504151654.7814789 2449775703.5748787 0 0 0 0 606712517.67991543 1092984020.7440948 0 1092984020.7440948 2478114998.7947941 0 0 0 0 -617098.59848145396 703875.22675202787 0 703875.22675202787 3217676.8156119585 0 0 0 0 633235994.08610439 1612823976.6648865 0 1612823976.6648865 2435146916.8090515 0 0 0 0 619747299.36402321 1223923342.0966339 0 1223923342.0966339 2495190493.9304047 0 0 0 0 701672008.67181683 1008021716.1451073 0 1008021716.1451073 2101462559.9272461 0 0 0 0 569874291.31714392 1097165094.8373032 0 1097165094.8373032 2504952904.9230194 0 0 0 0 5364066.4670715928 1906266.4668509513 0 1906266.4668509513 517349.44016563892 0 0 0 0 182757557.29019833 107920285.55003357 0 107920285.55003357 -496163986.73026276 0 0 0 0 8001896.3663191292 2465409.7794761881 0 2465409.7794761881 143238.85532580316 0 0 0 0 393159408.62969303 516143446.58929443 0 516143446.58929443 1206375958.850647 0 0 0 0 72523507.500452995 884344037.6890564 0 884344037.6890564 2414542319.4134827 0 0 0 0 43014698.171551704 89209692.513999939 0 89209692.513999939 -344231661.24716187 0 0 0 0 -174605901.9678545 72333304.26802063 0 72333304.26802063 31019984.70677948 0 0 0 0 32781879.353926659 -17492283.388694763 0 -17492283.388694763 -96870052.254104614 0 0 0 0 -25061143.222929001 106926685.2598877 0 106926685.2598877 -87682595.192443848 0 0 0 0 -170133640.48188543 99754125.239643097 0 99754125.239643097 83660376.07043457 0 0 0 0 -191029764.54201376 129096211.73389244 0 129096211.73389244 372126412.39849854 0 0 0 0 -1332549.5884612608 -656167.81207527965 0 -656167.81207527965 961799.88541073352 0 0 0 0 -312705105.60937881 126164975.16117859 0 126164975.16117859 125223050.32806396 0 0 0 0 -47579868.097305298 5416783.0695800781 0 5416783.0695800781 127107393.92224884 0 0 0 0 -220093051.01985359 -101849029.20962524 0 -101849029.20962524 62649764.363372803 0 0 0 0 -112120868.5770551 312379844.69305801 0 312379844.69305801 237667844.90058899 0 0 0 0 -255925253.28360939 -108014214.70341492 0 -108014214.70341492 7163362.6078338623 0 0 0 0 165518791.88674164 162736603.48680115 0 162736603.48680115 -458052325.73681641 0 0 0 0 123782276.04988956 215368795.98077393 0 215368795.98077393 -296915790.25281525 0 0 0 0 110158832.59029496 86604825.235961914 0 86604825.235961914 32920135.699401855 0 0 0 0 -63729248.196014404 -41845306.483032227 0 -41845306.483032227 237319334.32727051 0 0 0 0 30458950.689169884 142253991.00138855 0 142253991.00138855 415262681.02789307 0 0 0 0 -1919592.0378494612 -1180289.1693753228 0 -1180289.1693753228 1837122.6548955142 0 0 0 0 36051575.950470924 -31345103.702224731 0 -31345103.702224731 137542598.97563171 0 0 0 0 27687887.982086182 29125065.453613281 0 29125065.453613281 -260231377.55044556 0 0 0 0 -50245746.940505028 -130373422.03905487 0 -130373422.03905487 257514239.34588623 0 0 0 0 -6560515.3459628951 2138708.7844293565 0 2138708.7844293565 165064.9043661356 0 0 0 0 21151138.601237059 -2116167.5878448486 0 -2116167.5878448486 92376125.713043213 0 0 0 0 33321598.621496916 -91298287.486480713 0 -91298287.486480713 60573099.543930054 0 0 0 0 -1036060.0265535945 177892.92866840214 0 177892.92866840214 1264255.1770941988 0 0 0 0 39162872.745699883 -52643231.125335693 0 -52643231.125335693 -110377320.57971191 0 0 0 0 -62910081.673734665 -257363317.86616516 0 -257363317.86616516 -14031392.782791138 0 0 0 0 -257699902.65469575 237470306.57010841 0 237470306.57010841 345341753.29379272 0 0 0 0 50571419.314367294 -34870754.456420898 0 -34870754.456420898 -443730340.46283722 0 0 0 0 -10880344.652956907 4099331.5112976953 0 4099331.5112976953 897851.71500740945 0 0 0 0 -39285374.022089005 98092758.190429688 0 98092758.190429688 216187871.58163452 0 0 0 0 63537237.631462097 -706470.48503112793 0 -706470.48503112793 -337078911.08417511 0 0 0 0 -14580635.62787183 6447570.5291576609 0 6447570.5291576609 2792813.3251289129 0 0 0 0 -14970196.151832581 35758343.912940979 0 35758343.912940979 -221208936.81234741 0 0 0 0 -16589280.02776432 50261559.903831482 0 50261559.903831482 95318464.665405273 0 0 0 0 -8747331.9969015121 39473469.471763611 0 39473469.471763611 79693259.153411865 0 0 0 0 17724921.582454681 64167796.268417358 0 64167796.268417358 30505273.018463135 0 0 0 0 -15705236.994981766 38702156.48348999 0 38702156.48348999 79613879.318695068 0 0 0 0 -10473603.371040344 36682451.003555298 0 36682451.003555298 37053230.587097168 0 0 0 0 101325931.23085999 136391524.41547394 0 136391524.41547394 15403189.731292725 0 0 0 0 19232636.376464844 -18099734.697052002 0 -18099734.697052002 -73652659.526779175 0 0 0 0 -2320889.1031103618 1571129.4583355114 0 1571129.4583355114 3405036.1209154427 0 0 0 0 -52724030.876685143 64047763.536521435 0 64047763.536521435 79624140.860565186 0 0 0 0 16553480.511603355 33799598.860237122 0 33799598.860237122 34570668.389007568 0 0 0 0 17347376.704283714 10542695.803482056 0 10542695.803482056 -34739341.24822998 0 0 0 0 -2304756.9343399294 4797662.4473127276 0 4797662.4473127276 5539240.0424464196 0 0 0 0 -7425601.0318717957 6408493.9238891602 0 6408493.9238891602 29681182.786193848 0 0 0 0 20122966.527801514 16517263.727218628 0 16517263.727218628 7780263.6631469727 0 0 0 0 29516283.483722687 13530444.313964844 0 13530444.313964844 -3387603.3739318848 0 0 0 0 30355664.966721535 11867677.864578247 0 11867677.864578247 -25907719.20425415 0 0 0 0 21618650.103423119 35469733.570167542 0 35469733.570167542 -2351099.9370422363 0 0 0 0 15946481.455450058 32886622.320968628 0 32886622.320968628 33041876.432373047 0 0 0 0 3668493.5852341652 -3701700.0517730713 0 -3701700.0517730713 -1451531.5181732178 0 0 0 0 -3835803.2254315712 2433971.1967365518 0 2433971.1967365518 13087181.739982761 0 0 0 0 13012191.732601635 4709534.598815918 0 4709534.598815918 -4257782.4092407227 0 0 0 0 559757.53098305152 1440659.4864727668 0 1440659.4864727668 -752388.68593935668 0 0 0 0 -9188485.7893157005 5730814.8684387207 0 5730814.8684387207 13310134.943885803 0 0 0 0 162969.45795323094 9050329.8479911238 0 9050329.8479911238 8575347.7401265651 0 0 0 0 -1684902.4653644711 24286486.575737 0 24286486.575737 13814598.793609619 0 0 0 0 -10662989.599061754 5388117.9167263899 0 5388117.9167263899 12762181.543098837 0 0 0 0 7499234.0754818935 10101395.844295889 0 10101395.844295889 9021843.8990186155 0 0 0 0 -11300170.603962898 14217113.66558075 0 14217113.66558075 47727672.082641602 0 0 0 0 31394722.224809647 3930146.255355835 0 3930146.255355835 21155909.128112793 0 0 0 0 5664054.7767772675 6674008.0365905762 0 6674008.0365905762 33935239.82131958 0 0 0 0 2181981.5208475431 4226076.8685897887 0 4226076.8685897887 -1190560.1750875711 0 0 0 0 479542.49602432782 1838932.3350509778 0 1838932.3350509778 2663116.6363197267 0 0 0 0 -12925868.676061753 -274117.51059603691 0 -274117.51059603691 20501724.691014439 0 0 0 0 -5404381.8728971481 765576.49787902832 0 765576.49787902832 8170987.370513916 0 0 0 0 89951999.166944027 44835860.086133957 0 44835860.086133957 33158610.23777771 0 0 0 0 -17249198.41787285 24795589.082763985 0 24795589.082763985 25701759.430479437 0 0 0 0 28760912.332473755 2370719.4743652344 0 2370719.4743652344 39946545.85260582 0 0 0 0 75489197.236698151 27445013.112091064 0 27445013.112091064 81926645.856216431 0 0 0 0 -6998016.6793251038 62090948.190071106 0 62090948.190071106 -39301467.486206055 0 0 0 0 -17463837.120559521 10838468.733387105 0 10838468.733387105 6885332.339737799 0 0 0 0 64452034.446521759 37133811.902648926 0 37133811.902648926 -220143576.984375 0 0 0 0 -16370185.293681145 31386954.672149658 0 31386954.672149658 94002340.948547363 0 0 0 0 -33371300.373840332 273456468.59570312 0 273456468.59570312 230810778.95855713 0 0 0 0 -8208025.2316474915 69668335.819335938 0 69668335.819335938 -125047643.55662155 0 0 0 0 -4608464.3318836642 6827729.1513568237 0 6827729.1513568237 -3467517.7938553989 0 0 0 0 -93613380.531937122 140414963.52362442 0 140414963.52362442 -170901344.78479004 0 0 0 0 136527793.43332672 94260025.912384033 0 94260025.912384033 18786440.410217285 0 0 0 0 42448629.413944244 122603499.86634827 0 122603499.86634827 -191823307.28585815 0 0 0 0 68886907.932229996 121681455.69775391 0 121681455.69775391 -151836083.70092773 0 0 0 0 36878405.086528778 92737512.029159546 0 92737512.029159546 -166317514.98300171 0 0 0 0 -479277882.24199867 543676227.03933716 0 543676227.03933716 -199126164.95755005 0 0 0 0 598766483.81820107 319428499.47091675 0 319428499.47091675 -301289823.47134399 0 0 0 0 352274949.226017 -164727843.65808868 0 -164727843.65808868 44337154.28666687 0 0 0 0 323954856.82177162 -69302117.90574646 0 -69302117.90574646 -145120124.45462036 0 0 0 0 309724642.15455246 -140264699.05767822 0 -140264699.05767822 77987703.555679321 0 0 0 0 342360639.91611481 452030082.11286926 0 452030082.11286926 -286179327.27911377 0 0 0 0 942951959.15760803 38968019.827957153 0 38968019.827957153 -244376304.66680336 0 0 0 0 -41358511.276538849 -183757708.05643463 0 -183757708.05643463 323568281.13626099 0 0 0 0 397689061.01773453 -268259560.29725647 0 -268259560.29725647 152720650.49556732 0 0 0 0 144763556.26478767 -432023944.59593201 0 -432023944.59593201 598535874.03782654 0 0 0 0 205228873.53782749 -174174629.4540863 0 -174174629.4540863 61943987.321258545 0 0 0 0 151258632.39315033 -106522267.53924561 0 -106522267.53924561 119481299.26953125 0 0 0 0 -42982017.309468508 -169316907.78731108 0 -169316907.78731108 435412801.67242432 0 0 0 0 81203934.504570007 25039402.280677795 0 25039402.280677795 -122230431.38378906 0 0 0 0 27631687.417126656 -76413732.961185455 0 -76413732.961185455 87070417.027404785 0 0 0 0 96310125.863840103 -46133389.922714233 0 -46133389.922714233 42668006.985567093 0 0 0 0 163930548.6407795 62603512.532531738 0 62603512.532531738 -174265887.34625244 0 0 0 0 87934936.537981033 71375429.651626587 0 71375429.651626587 -219844735.83563232 0 0 0 0 38675585.955088615 72907397.082502842 0 72907397.082502842 -169264638.39648438 0 0 0 0 33179142.334728718 -13043943.762500763 0 -13043943.762500763 -135852590.23849487 0 0 0 0 10114083.181232452 60346556.227203369 0 60346556.227203369 -240309269.8556366 0 0 0 0 -34174801.576078653 -66885760.234477997 0 -66885760.234477997 -202381601.7361145 0 0 0 0 -57627720.085054398 39368621.483787537 0 39368621.483787537 -165724355.54154968 0 0 0 0 -21201332.007781863 -71692576.543088913 0 -71692576.543088913 -66687443.178741455 0 0 0 0 -13578889.004133224 78476277.721862793 0 78476277.721862793 32645759.420532227 0 0 0 0 19283103.443294525 50873016.349212646 0 50873016.349212646 -152398529.7118988 0 0 0 0 -67813502.643648148 126546995.38130951 0 126546995.38130951 -43045304.546051025 0 0 0 0 30691735.712340355 -38370974.889068604 0 -38370974.889068604 -486074760.52955627 0 0 0 0 -136564716.07454556 -202603173.84311676 0 -202603173.84311676 544963928.61477661 0 0 0 0 -15083541.470245838 55726831.177703857 0 55726831.177703857 -33219118.32235527 0 0 0 0 -124933242.91270065 20686938.44317627 0 20686938.44317627 226204913.64093018 0 0 0 0 -65519229.2862463 92193819.608764648 0 92193819.608764648 196096500.72145081 0 0 0 0 84167002.262180805 -185184381.26236725 0 -185184381.26236725 1456709226.8769836 0 0 0 0 -943787.08815741399 680577.9028525725 0 680577.9028525725 1385097.8569528535 0 0 0 0 6084526.1797719002 -426715341.85878754 0 -426715341.85878754 1392356925.1292419 0 0 0 0 -36584016.047230363 -75935028.999278069 0 -75935028.999278069 268658154.72790527 0 0 0 0 -25849460.313205719 26685698.680236816 0 26685698.680236816 177815336.56985474 0 0 0 0 -116947553.81749058 143302784.26728821 0 143302784.26728821 555578283.29966736 0 0 0 0 -165030311.80804253 -191537413.16899109 0 -191537413.16899109 888862249.4490509 0 0 0 0 -166075931.90423393 -112092027.55111694 0 -112092027.55111694 580907039.29325867 0 0 0 0 -58903990.764681816 -172133673.45462036 0 -172133673.45462036 548747625.42462158 0 0 0 0 -2493163.6669692993 -336135557.50131226 0 -336135557.50131226 693733142.48788452 0 0 0 0 -4581150.5577564565 -219393.76846926659 0 -219393.76846926659 972827.00845177472 0 0 0 0 -287548636.66995668 -467062496.58589554 0 -467062496.58589554 492744253.95407104 0 0 0 0 -85946894.623705387 -133005310.43044472 0 -133005310.43044472 715639626.33224487 0 0 0 0 123201423.19787598 10365865.450836182 0 10365865.450836182 -179601151.54992676 0 0 0 0 -229328474.44143534 -344835984.76672363 0 -344835984.76672363 119715387.84686279 0 0 0 0 -1710428.8800508524 -1062539.8904026821 0 -1062539.8904026821 1320827.5197774433 0 0 0 0 -141800749.40037394 -258326740.57711792 0 -258326740.57711792 1834116333.7868652 0 0 0 0 517979508.71585941 94928186.284042358 0 94928186.284042358 -650913409.67748642 0 0 0 0 -583949.07436152454 46742.732995718718 0 46742.732995718718 603266.15305127017 0 0 0 0 -132909414.75689268 -346984147.99845505 0 -346984147.99845505 1814585643.7200012 0 0 0 0 -15217427.268701553 186607896.10092163 0 186607896.10092163 270234290.22608948 0 0 0 0 -4147502.1816534363 -173862.04836627841 0 -173862.04836627841 815107.59851504862 0 0 0 0 -62899986.027006149 -8092544.0059204102 0 -8092544.0059204102 414713141.26873016 0 0 0 0 41881843.533957481 102178973.65076447 0 102178973.65076447 -37154754.335601807 0 0 0 0 11105723.315403938 219375173.42142487 0 219375173.42142487 -7769511.4838562012 0 0 0 0 45807257.256393433 -7404610.7553939819 0 -7404610.7553939819 -168969516.01065063 0 0 0 0 109832.85059529729 1184083.0582556799 0 1184083.0582556799 -330050.6053866595 0 0 0 0 -369519007.06244946 -54291130.486663818 0 -54291130.486663818 21113596.374908447 0 0 0 0 -1533073.3683159947 23201604.166698456 0 23201604.166698456 -9376767.0096435547 0 0 0 0 28425540.559353828 42568208.250427246 0 42568208.250427246 -11514810.263595581 0 0 0 0 19901298.114012718 33564539.278949738 0 33564539.278949738 -4551301.1336364746 0 0 0 0 169696025.52238941 -335235180.55813503 0 -335235180.55813503 70033849.382034302 0 0 0 0 -2069634.6165194418 60204.86788045615 0 60204.86788045615 561623.5681823343 0 0 0 0 118700997.27978706 -4189336.5332794189 0 -4189336.5332794189 -116033789.23268127 0 0 0 0 -376212840.86813927 -338924935.99282837 0 -338924935.99282837 572845988.28398895 0 0 0 0 -105654126.49452686 -114506397.52004623 0 -114506397.52004623 158605159.95629883 0 0 0 0 -332305288.06538773 127644567.33033752 0 127644567.33033752 4542637.6568756104 0 0 0 0 -115512446.35881233 -169755565.91743469 0 -169755565.91743469 -9683610.1726150513 0 0 0 0 -215887198.18347931 355039195.36680603 0 355039195.36680603 457309826.15641785 0 0 0 0 -242751106.8605212 -172192865.81952357 0 -172192865.81952357 227282532.35220337 0 0 0 0 170081457.57553864 -196855472.49684143 0 -196855472.49684143 300824851.94008636 0 0 0 0 260858494.79437828 468397012.13723755 0 468397012.13723755 253132056.15240479 0 0 0 0 520970752.6865654 302238549.06369019 0 302238549.06369019 224371593.79575157 0 0 0 0 576223734.58846664 511164287.82989502 0 511164287.82989502 237743660.09818554 0 0 0 0 -184156624.46210766 5196850.9938354492 0 5196850.9938354492 299896562.00682068 0 0 0 0 569210868.59269524 519158581.64923096 0 519158581.64923096 327152816.48734283 0 0 0 0 12041130.179453036 -11256764.91766306 0 -11256764.91766306 8373898.5061147958 0 0 0 0 -5387853.2195412824 672211.44027151167 0 672211.44027151167 5624631.0210910439 0 0 0 0 484912001.27786636 295338275.14364624 0 295338275.14364624 -359466884.01902771 0 0 0 0 2256443164.6139946 -337495447.40380859 0 -337495447.40380859 -195765455.61743164 0 0 0 0 1152156645.3607445 516176493.96024323 0 516176493.96024323 69557512.052734375 0 0 0 0 5738375.2488304935 -4241148.9208226353 0 -4241148.9208226353 1679514.3881097436 0 0 0 0 823803141.85342979 877050315.82506561 0 877050315.82506561 1210909207.3433075 0 0 0 0 517851272.36968994 321404716.33474731 0 321404716.33474731 456634520.62671661 0 0 0 0 204620169.58081818 48584294.254196167 0 48584294.254196167 2044085992.6867981 0 0 0 0 966021328.90468121 -1145595376.0111313 0 -1145595376.0111313 1622451320.6780396 0 0 0 0 2633744427.6332436 -488900001.72168732 0 -488900001.72168732 183395109.26477051 0 0 0 0 795598132.84915161 126994278.27963638 0 126994278.27963638 71469439.657897949 0 0 0 0 1115281211.7157083 -656533253.04674721 0 -656533253.04674721 366588153.65081787 0 0 0 0 140908484.68937111 -330009672.39489746 0 -330009672.39489746 883980487.55155182 0 0 0 0 118780053.39813042 -477563352.63155365 0 -477563352.63155365 789862261.40917969 0 0 0 0 -182691298.72732735 -202208378.3286438 0 -202208378.3286438 666369466.47986603 0 0 0 0 -190440389.48395157 -291204990.19128418 0 -291204990.19128418 683957887.77088928 0 0 0 0 -445353725.39487398 -323051137.79361069 0 -323051137.79361069 918276429.85745239 0 0 0 0 -436171488.11506653 96449746.514335632 0 96449746.514335632 566090490.32672119 0 0 0 0 765390.59671523026 405657921.28866261 0 405657921.28866261 870894313.47259521 0 0 0 0 100546.04496764985 1300671.5942492485 0 1300671.5942492485 3658165.5501869395 0 0 0 0 87507081.507093847 52863869.97756958 0 52863869.97756958 -323861606.79381561 0 0 0 0 -190405612.19820654 240041523.42300272 0 240041523.42300272 1622588473.3662415 0 0 0 0 -186463502.8068794 19075221.832366943 0 19075221.832366943 2128911236.8563175 0 0 0 0 186607882.94635737 597850815.41957092 0 597850815.41957092 890320331.67163086 0 0 0 0 238391641.74262565 418952201.21478844 0 418952201.21478844 -16264900.054260254 0 0 0 0 -609841991.44357109 -442568696.35784149 0 -442568696.35784149 595773215.4091568 0 0 0 0 -38647.555296258652 242490.46893675812 0 242490.46893675812 2287089.2041175961 0 0 0 0 177978613.66307116 793576022.15293884 0 793576022.15293884 761696221.41291809 0 0 0 0 322037050.81305766 326270596.48943329 0 326270596.48943329 -81460166.369293213 0 0 0 0 -117433.71982378257 685116.47008575499 0 685116.47008575499 4915700.892762959 0 0 0 0 530647270.71496344 169526005.44732666 0 169526005.44732666 309001.37582397461 0 0 0 0 703638815.95315862 362554155.59246826 0 362554155.59246826 255245515.60519409 0 0 0 0 540574425.43084097 60816553.551010132 0 60816553.551010132 76521196.786338806 0 0 0 0 179716893.65476608 -11185143.588592529 0 -11185143.588592529 1104117037.0241394 0 0 0 0 74176440.758446693 -24511410.89251709 0 -24511410.89251709 1417122195.0878296 0 0 0 0 165243478.46088505 52856762.2449646 0 52856762.2449646 1240018377.003479 0 0 0 0 166881432.60556006 146948890.10502768 0 146948890.10502768 1544051173.7023926 0 0 0 0 -85478956.752086639 164366399.56973267 0 164366399.56973267 2153643528.7856445 0 0 0 0 930972187.50159097 828666941.23690796 0 828666941.23690796 1193786584.634491 0 0 0 0 252098012.6657939 167188290.32344055 0 167188290.32344055 1577349300.7600098 0 0 0 0 845349.86040035763 1768013.7687794715 0 1768013.7687794715 4426399.1041573957 0 0 0 0 7756146.56108284 33261091.398010254 0 33261091.398010254 -211044426.28265381 0 0 0 0 -84577940.101751089 -352532875.96176147 0 -352532875.96176147 1792539619.215332 0 0 0 0 531280.46834802628 40026275.209228516 0 40026275.209228516 -216167738.40618896 0 0 0 0 509021.74717060477 39949703.640873909 0 39949703.640873909 -72307081.428955078 0 0 0 0 152232737.64907551 -171185115.60894775 0 -171185115.60894775 1080638558.220108 0 0 0 0 853389.6498239676 1895068.9605112299 0 1895068.9605112299 6188596.3540844955 0 0 0 0 -17085877.767075539 50442857.27746582 0 50442857.27746582 -47961561.989135742 0 0 0 0 -949306.01656150818 -113156792.26763916 0 -113156792.26763916 1248385608.942688 0 0 0 0 -224869787.17536545 -42394568.273925781 0 -42394568.273925781 1361289490.2473145 0 0 0 0 63426021.807325363 -161415451.09649658 0 -161415451.09649658 1237217342.7421875 0 0 0 0 61389987.448064804 -207436959.9520874 0 -207436959.9520874 1284445177.6698608 0 0 0 0 17076898.609347343 -198564405.76428223 0 -198564405.76428223 1357898928.8555908 0 0 0 0 -11876961.335907936 -183160923.73620605 0 -183160923.73620605 1304860511.4974365 0 0 0 0 60798320.79910183 -162663775.80136108 0 -162663775.80136108 1643312941.4831238 0 0 0 0 97448406.377506256 -384537553.43228149 0 -384537553.43228149 1206341657.6414185 0 0 0 0 -16489339.915717602 -279545515.64862061 0 -279545515.64862061 1422873922.8213348 0 0 0 0 -1488065.0219932653 -2477482.2747716159 0 -2477482.2747716159 3326712.5595181119 0 0 0 0 5353542.0513749123 -262955470.23355103 0 -262955470.23355103 1251473296.171875 0 0 0 0 17654304.039354324 -183133133.07165527 0 -183133133.07165527 1224582110.1059265 0 0 0 0 11118859.88228035 -216278760.65203857 0 -216278760.65203857 1277039393.8223267 0 0 0 0 56769860.742974281 -220863202.69168091 0 -220863202.69168091 1218815927.9287109 0 0 0 0 56954830.758915901 -170213949.15869141 0 -170213949.15869141 1305772995.262207 0 0 0 0 52856179.496138096 -191746232.59580994 0 -191746232.59580994 1263292480.3625488 0 0 0 0 62859574.59674263 -228032250.12017822 0 -228032250.12017822 1297780586.6234131 0 0 0 0 55611654.347277641 -190990861.76971436 0 -190990861.76971436 1285086784.0924072 0 0 0 0 61174601.024887085 -210948446.79312134 0 -210948446.79312134 1376782843.277832 0 0 0 0 40166735.036184311 -202658429.93725586 0 -202658429.93725586 1312111385.524353 0 0 0 0 -124599127.96200562 -155484768.99401855 0 -155484768.99401855 1383531726.5368652 0 0 0 0 39205273.983982086 -215688610.27868652 0 -215688610.27868652 1349416085.8266602 0 0 0 0 207452198.63523102 -312438646.40075684 0 -312438646.40075684 1431088045.6854248 0 0 0 0 -5888370.8907928467 -326809315.08361816 0 -326809315.08361816 1533915541.0898438 0 0 0 0 127795161.70562744 -187723363.20214844 0 -187723363.20214844 1358047317.2371826 0 0 0 0 -38686.307869185461 -56435.660781025887 0 -56435.660781025887 92873.900413170457 0 0 0 0 286988200.13483429 -531063431.6340332 0 -531063431.6340332 1622783690.49646 0 0 0 0 -4619399.6291160583 -217767599.56170654 0 -217767599.56170654 1377305274.8795166 0 0 0 0 55323147.969089508 -333893293.64129639 0 -333893293.64129639 1350770203.0659332 0 0 0 0 -24709464.604002953 -262200913.31396484 0 -262200913.31396484 1337575339.0847626 0 0 0 0 175860433.19567823 -108168750.26739502 0 -108168750.26739502 1302797452.3281097 0 0 0 0 131296656.61414337 -317335965.30004883 0 -317335965.30004883 1274831471.8615112 0 0 0 0 103154305.92692232 -200965530.38728333 0 -200965530.38728333 896245171.80291748 0 0 0 0 67332209.377725601 -266786383.19036865 0 -266786383.19036865 1086434284.1184692 0 0 0 0 82923890.444050789 -258276637.99542236 0 -258276637.99542236 1220492823.3941345 0 0 0 0 -29848789.77788353 -265961483.44473267 0 -265961483.44473267 1221423721.0199585 0 0 0 0 -69448020.843161643 -197066027.26808929 0 -197066027.26808929 1071994725.7180786 0 0 0 0 -37751927.194394976 -12562849.075691223 0 -12562849.075691223 891902512.05935669 0 0 0 0 103131221.68941259 -204839241.53340149 0 -204839241.53340149 861612261.89981079 0 0 0 0 225318850.734056 140729606.46817017 0 140729606.46817017 688872151.94071198 0 0 0 0 81040037.824604511 -77183125.523376465 0 -77183125.523376465 1241635052.8873901 0 0 0 0 108539629.56273508 -112803373.49243164 0 -112803373.49243164 1168561286.6257782 0 0 0 0 222179611.3610878 163063753.56816101 0 163063753.56816101 1115722148.2991228 0 0 0 0 517077676.01239312 189946444.49260235 0 189946444.49260235 -4038326.313659668 0 0 0 0 553066199.23427391 101246363.41152954 0 101246363.41152954 -222282803.88835907 0 0 0 0 437295752.75911629 133059445.50291443 0 133059445.50291443 -39355328.437774658 0 0 0 0 123723927.8041532 -180264525.10119629 0 -180264525.10119629 332720043.96240234 0 0 0 0 -314154883.1390624 -610651147.54445648 0 -610651147.54445648 574642073.25106812 0 0 0 0 -68614003.85827738 274675343.30186081 0 274675343.30186081 193956771.40420532 0 0 0 0 -525741.26253400394 246079.25060771406 0 246079.25060771406 704460.04663641751 0 0 0 0 101628177.14126503 345252854.46179962 0 345252854.46179962 -618726442.4810791 0 0 0 0 -2113373.1405206458 598753.36571313441 0 598753.36571313441 -41586.547136209905 0 0 0 0 54244289.533712864 -46707243.191299438 0 -46707243.191299438 -823817246.37522888 0 0 0 0 -107053606.42848396 423846915.76267242 0 423846915.76267242 -44202717.577285767 0 0 0 0 17190573.401595116 89792475.669387817 0 89792475.669387817 500020675.26161194 0 0 0 0 -1334475.8901375956 859629.50072453916 0 859629.50072453916 1897125.8282010108 0 0 0 0 173961940.40814638 -266765080.2310791 0 -266765080.2310791 350332998.32044983 0 0 0 0 -140998276.99259615 -318032398.66285706 0 -318032398.66285706 932070840.3369751 0 0 0 0 46222043.168413877 -146986759.1946106 0 -146986759.1946106 1023043998.2454529 0 0 0 0 29177300.337734222 -321943337.78668213 0 -321943337.78668213 1149182245.7537231 0 0 0 0 -52804803.937686682 -226114810.96286774 0 -226114810.96286774 1386049357.894104 0 0 0 0 17975574.561611176 -59289336.973754883 0 -59289336.973754883 1487503404.1449432 0 0 0 0 166849484.16659164 -400045536.85179901 0 -400045536.85179901 862180134.71337891 0 0 0 0 82849199.104782104 -47966839.343978882 0 -47966839.343978882 1344754713.5310974 0 0 0 0 104169696.35373116 -427355050.18753052 0 -427355050.18753052 1371104608.2457428 0 0 0 0 -1657518.0706329299 134089.30010050535 0 134089.30010050535 415801.86269605905 0 0 0 0 227878003.3462429 84145894.395706177 0 84145894.395706177 -142047349.75109863 0 0 0 0 -236520599.49521446 142653882.34176636 0 142653882.34176636 16348570.710220337 0 0 0 0 -130782335.12763548 -292064411.90937805 0 -292064411.90937805 1682533010.092041 0 0 0 0 -2376217.9166806042 -2285832.3222984821 0 -2285832.3222984821 1968475.5662521161 0 0 0 0 -883107206.02598953 -197129159.0222168 0 -197129159.0222168 -127500497.39070511 0 0 0 0 -564526228.72474384 -36033985.265258789 0 -36033985.265258789 135670935.72061157 0 0 0 0 -278554025.02520132 -643650216.42062378 0 -643650216.42062378 -219001823.2734375 0 0 0 0 -139270796.65495491 -35586209.565704346 0 -35586209.565704346 132456934.98775101 0 0 0 0 -80650324.061589241 -14075970.34500885 0 -14075970.34500885 95187032.15524292 0 0 0 0 -192719949.51306725 44846567.988182068 0 44846567.988182068 124535842.15951538 0 0 0 0 -27727309.352865219 94421320.328338623 0 94421320.328338623 26372758.396903992 0 0 0 0 35513079.175331116 -11728969.473167419 0 -11728969.473167419 140135151.02578735 0 0 0 0 3419274.9583625793 125781878.63182831 0 125781878.63182831 127340642.27688599 0 0 0 0 -39051238.392151833 65461897.247512817 0 65461897.247512817 41770665.431915283 0 0 0 0 -11234064.520549774 54622062.521240234 0 54622062.521240234 42849608.108118057 0 0 0 0 -61823156.732738495 66079457.28616333 0 66079457.28616333 125647717.23135471 0 0 0 0 -40501864.601631165 25075951.045204163 0 25075951.045204163 16564501.765304565 0 0 0 0 -1183584.298494339 30418750.486480713 0 30418750.486480713 -3434339.5762939453 0 0 0 0 -42767385.217374802 26102816.632446289 0 26102816.632446289 51907472.192252159 0 0 0 0 -26156235.891768932 9802408.502828598 0 9802408.502828598 16051778.223846436 0 0 0 0 -3723439.4953412414 2957405.1844582558 0 2957405.1844582558 15499374.652118891 0 0 0 0 -92170234.181065321 12938084.002685547 0 12938084.002685547 51201011.544952393 0 0 0 0 -25366026.135828018 3532697.9929199219 0 3532697.9929199219 55228133.925918579 0 0 0 0 5462095.9156208038 12885075.030441284 0 12885075.030441284 27024193.002380371 0 0 0 0 9335938.4785070419 12037716.966201782 0 12037716.966201782 2747444.8672180176 0 0 0 0 -10055495.10861969 19475448.974182129 0 19475448.974182129 6875300.9770202637 0 0 0 0 -2201116.2857483104 4074785.0859336555 0 4074785.0859336555 3975515.9706814736 0 0 0 0 -90673994.63091588 1618450.4615783691 0 1618450.4615783691 24126733.874664307 0 0 0 0 -50125467.878851891 15190563.758773804 0 15190563.758773804 18313209.745697021 0 0 0 0 -22036897.746661663 -188131419.81969833 0 -188131419.81969833 10250860.423706055 0 0 0 0 -3917596.6797587452 2729396.0659664162 0 2729396.0659664162 15478335.280054852 0 0 0 0 38273396.113556862 -32916469.312713623 0 -32916469.312713623 27658768.95892334 0 0 0 0 -1558845.4334762909 1061435.3322019354 0 1061435.3322019354 3021131.1440035105 0 0 0 0 334505031.45282364 138294457.13070679 0 138294457.13070679 78250885.013305664 0 0 0 0 339681375.74765587 50992292.614898682 0 50992292.614898682 5771026.6626052856 0 0 0 0 331860825.04228401 -115622994.18310547 0 -115622994.18310547 -23323127.94683075 0 0 0 0 -116738688.2513504 -345360487.2010498 0 -345360487.2010498 -42854887.741699219 0 0 0 0 273991375.33767891 -329680831.78573608 0 -329680831.78573608 -444872258.20965576 0 0 0 0 542797727.05936241 -39047084.635040283 0 -39047084.635040283 -293699408.04873657 0 0 0 0 -1863683.2327492575 4139388.1448978037 0 4139388.1448978037 11618161.718303502 0 0 0 0 -3492203.1646294594 6980242.9822463989 0 6980242.9822463989 29569894.949310303 0 0 0 0 -18223701.735163212 8688772.0377655029 0 8688772.0377655029 314804.59722900391 0 0 0 0 -22087215.276272416 33231883.21194458 0 33231883.21194458 -22608588.24206543 0 0 0 0 -41962427.327591419 58056786.405059814 0 58056786.405059814 2655012.8536376953 0 0 0 0 -67907079.485731125 73541168.834991455 0 73541168.834991455 14963550.008796692 0 0 0 0 -66860551.615550518 64408353.984405518 0 64408353.984405518 9553819.4188842773 0 0 0 0 -63395076.237953663 39937730.640258789 0 39937730.640258789 12715877.306556702 0 0 0 0 -36842078.925364494 37074121.637817383 0 37074121.637817383 12982238.865951538 0 0 0 0 -21665470.829926968 35983739.389892578 0 35983739.389892578 -31886882.404785156 0 0 0 0 -23099502.342553139 51247769.771972656 0 51247769.771972656 -48068796.110916138 0 0 0 0 -43635051.858285904 52132032.904449463 0 52132032.904449463 -18233920.067260742 0 0 0 0 -19012862.69453001 63687572.218292236 0 63687572.218292236 -28282998.872802734 0 0 0 0 -47744956.72092557 75517313.929626465 0 75517313.929626465 -28700978.368835449 0 0 0 0 -37127422.576579094 124587458.35336304 0 124587458.35336304 -86057525.74017334 0 0 0 0 -29116577.624171257 95184973.604370117 0 95184973.604370117 -74156836.810081482 0 0 0 0 -29634709.099976353 90732171.522651672 0 90732171.522651672 6199534.6969299316 0 0 0 0 -41894650.136594772 100930786.51213074 0 100930786.51213074 -18960833.080749512 0 0 0 0 -42170696.202334404 84772196.878295898 0 84772196.878295898 -5802968.0310974121 0 0 0 0 -47037139.974651575 89267712.389526367 0 89267712.389526367 10053222.303649902 0 0 0 0 -33040773.694985151 105899978.21603394 0 105899978.21603394 13794232.212310791 0 0 0 0 -60488426.453698635 92933768.4296875 0 92933768.4296875 51273516.845031738 0 0 0 0 -16236666.214960098 98225733.626174927 0 98225733.626174927 39455761.232452393 0 0 0 0 -86174085.032443523 67005412.489822388 0 67005412.489822388 50240865.287109375 0 0 0 0 -81768304.872499466 22973797.985671997 0 22973797.985671997 65624309.211181641 0 0 0 0 -86478850.775539249 46038197.615311027 0 46038197.615311027 36528597.343719482 0 0 0 0 -61604823.608032703 46127725.570587158 0 46127725.570587158 31546506.267089844 0 0 0 0 -236601369.2266531 -89123990.585205078 0 -89123990.585205078 7257132.4764328003 0 0 0 0 372554.08618308045 1538861.1443673149 0 1538861.1443673149 587010.84831547737 0 0 0 0 -4079315.8249387741 73413051.238693237 0 73413051.238693237 337262014.34429932 0 0 0 0 60954914.342834473 29972072.382141113 0 29972072.382141113 32206562.261795044 0 0 0 0 530004.34645149065 288517.67013751715 0 288517.67013751715 -124685.26722678542 0 0 0 0 -102286121.4280715 -470116955.25564575 0 -470116955.25564575 7978399.2415599823 0 0 0 0 -22410237.852124929 8188008.4632110596 0 8188008.4632110596 -45087049.83638382 0 0 0 0 -199753474.72147262 62382031.659561157 0 62382031.659561157 153922234.93099976 0 0 0 0 168726999.83364019 77671185.989898682 0 77671185.989898682 147535377.90756226 0 0 0 0 -30785262.24435715 -42386735.896733284 0 -42386735.896733284 419413998.04614258 0 0 0 0 379858988.04299802 -282327983.38867188 0 -282327983.38867188 269594001.0240097 0 0 0 0 424952622.85006022 -704951978.89024353 0 -704951978.89024353 847940096.35889435 0 0 0 0 -356504.78783128777 -362238.06211441755 0 -362238.06211441755 2286924.2386975437 0 0 0 0 71827116.88956064 -129217852.82303238 0 -129217852.82303238 691791728.21755981 0 0 0 0 2710613.7628229046 110806777.40916443 0 110806777.40916443 230852028.48254395 0 0 0 0 104801500.80005327 -69737837.304748535 0 -69737837.304748535 236922408.15752649 0 0 0 0 105620.69701127478 92165185.808181763 0 92165185.808181763 88633130.720214844 0 0 0 0 206115.50017930442 123472.59486988187 0 123472.59486988187 -174149.77574364841 0 0 0 0 66852594.809232056 92821021.237731934 0 92821021.237731934 25948921.429595947 0 0 0 0 -14049955.551946046 52696476.0389781 0 52696476.0389781 155280980.67059326 0 0 0 0 155644.7637304081 87408.77368119359 0 87408.77368119359 -190535.75509434938 0 0 0 0 -15973588.179074287 68975757.742088318 0 68975757.742088318 22180632.15423584 0 0 0 0 27889392.253825009 124894007.06106567 0 124894007.06106567 -159149829.80893707 0 0 0 0 57106981.393996224 -29903884.406036377 0 -29903884.406036377 -150208206.512146 0 0 0 0 -111245.76640283552 81143110.093963623 0 81143110.093963623 -134847814.70718384 0 0 0 0 -21256635.556092713 -19608905.335517883 0 -19608905.335517883 44157608.764251709 0 0 0 0 1208515.4292704463 -102644910.93084717 0 -102644910.93084717 118640381.4855423 0 0 0 0 257903.56771399124 -587715.0305602625 0 -587715.0305602625 1579708.1101569384 0 0 0 0 41976342.555819482 -44721556.519592285 0 -44721556.519592285 109240973.03265381 0 0 0 0 2632876.5800998509 -12111291.489044189 0 -12111291.489044189 30731141.333061218 0 0 0 0 -9738059.3085956573 -7071445.8465881348 0 -7071445.8465881348 32840884.986907959 0 0 0 0 -58351.103405099457 1123.1768572703004 0 1123.1768572703004 119517.68744894862 0 0 0 0 -5304027.501263082 2266051.6253204346 0 2266051.6253204346 16233916.910339355 0 0 0 0 -9601109.1531600207 -4820483.7825698853 0 -4820483.7825698853 4603036.6116027832 0 0 0 0 9176269.9062051401 -40381489.41204071 0 -40381489.41204071 58767825.756103516 0 0 0 0 -90819.017823173635 -10249.815013572574 0 -10249.815013572574 166842.06668359041 0 0 0 0 152742.92204012832 39827377.438522339 0 39827377.438522339 49141882.050270081 0 0 0 0 -14434821.466385998 8161811.3285522461 0 8161811.3285522461 -21780525.396595001 0 0 0 0 63797.80435020123 41351544.759127185 0 41351544.759127185 29996422.001403809 0 0 0 0 -50340.844890712331 32706180.763119634 0 32706180.763119634 -33602085.452514648 0 0 0 0 -16302260.553967386 50402020.509523392 0 50402020.509523392 -24887737.49407959 0 0 0 0 -224044.9649213489 414334.82308769226 0 414334.82308769226 3808457.740961045 0 0 0 0 225989468.81833062 -229755816.91050088 0 -229755816.91050088 447478631.7562561 0 0 0 0 217951958.18723226 -631399841.79219055 0 -631399841.79219055 629961354.3850708 0 0 0 0 -34480305.898231745 -224762053.95115662 0 -224762053.95115662 581280975.5602417 0 0 0 0 134617995.19664526 -275700271.03826904 0 -275700271.03826904 426585815.44534683 0 0 0 0 139412745.19358063 -253709273.64940643 0 -253709273.64940643 491629776.55711365 0 0 0 0 516598.0532469537 1383195.6151153296 0 1383195.6151153296 5822580.904687047 0 0 0 0 -29096116.708739728 4235207.870223999 0 4235207.870223999 15287395.592559814 0 0 0 0 -28193161.420783341 36937169.936294556 0 36937169.936294556 -8943022.1080322266 0 0 0 0 1309222.7007097304 -1728047.230682373 0 -1728047.230682373 11371474.706298828 0 0 0 0 -16752376.681847095 -4875066.118637085 0 -4875066.118637085 36318154.925140381 0 0 0 0 -562159.98361602426 9846463.9880523682 0 9846463.9880523682 46204178.797393799 0 0 0 0 2844673.7186142206 3712074.2519836426 0 3712074.2519836426 -738906.95957565308 0 0 0 0 -24441010.606907904 17273351.248008728 0 17273351.248008728 23634859.660980225 0 0 0 0 25402908.755460739 -146703314.99960327 0 -146703314.99960327 331505105.0328064 0 0 0 0 1832488.513692826 1907790.9339547604 0 1907790.9339547604 8162756.9142832756 0 0 0 0 44348545.593451977 -165671203.01223755 0 -165671203.01223755 273461641.37008667 0 0 0 0 105658331.58897686 -175443339.4209137 0 -175443339.4209137 337016918.16292953 0 0 0 0 -113197.9118936914 718040.80037765205 0 718040.80037765205 1151636.6943207327 0 0 0 0 121240013.96028757 -321385248.85762405 0 -321385248.85762405 691657148.54534912 0 0 0 0 47607675.462924957 -62471178.625728607 0 -62471178.625728607 -88784233.294281006 0 0 0 0 -22636561.294111252 -10504711.623504639 0 -10504711.623504639 95699216.562072754 0 0 0 0 -23285851.822664559 -18670253.719325066 0 -18670253.719325066 20504634.296051025 0 0 0 0 -100897.01685719937 1395675.054863289 0 1395675.054863289 3458851.1290545519 0 0 0 0 -9615619.9051179886 -17546833.472473145 0 -17546833.472473145 5021716.0882110596 0 0 0 0 22433223.813901424 -249384956.63040924 0 -249384956.63040924 457414273.34365845 0 0 0 0 -6775857.4774112701 -765937.02770996094 0 -765937.02770996094 17515772.034255981 0 0 0 0 217566417.88156319 -94845256.220870972 0 -94845256.220870972 61101295.296747208 0 0 0 0 259557.93889454938 1972763.061621964 0 1972763.061621964 6635096.975808017 0 0 0 0 -36258.273958206177 -4272581.5420684814 0 -4272581.5420684814 19335939.076812744 0 0 0 0 -8982069.0646572113 -2950719.5525512695 0 -2950719.5525512695 22830483.630325317 0 0 0 0 -7980954.7532777786 25914055.50428772 0 25914055.50428772 -5085868.4121017456 0 0 0 0 -7456301.5238347054 547500.96601104736 0 547500.96601104736 19672717.499084473 0 0 0 0 -3791856.7406654935 3572649.7002196163 0 3572649.7002196163 15054273.045574412 0 0 0 0 -7158271.4432989359 20063565.709040642 0 20063565.709040642 -8264537.3844909668 0 0 0 0 24418661.666381836 -5720169.2462005615 0 -5720169.2462005615 5729917.2304992676 0 0 0 0 -201071906.24103546 106095971.21188354 0 106095971.21188354 -828550116.76348877 0 0 0 0 -8738294.2319216616 1457223.8125271089 0 1457223.8125271089 17264471.997092903 0 0 0 0 -309669657.03623343 251846000.89910889 0 251846000.89910889 315346611.62493896 0 0 0 0 -497759.23797143158 1218277.2903210148 0 1218277.2903210148 1966145.5332851261 0 0 0 0 -148429682.54729939 -384935526.0629282 0 -384935526.0629282 143588158.13851929 0 0 0 0 691674971.08962846 506535586.95005894 0 506535586.95005894 268461991.46392822 0 0 0 0 170167437.52683097 472723130.95682836 0 472723130.95682836 302798900.96170044 0 0 0 0 -91363725.872877836 -226548548.99315071 0 -226548548.99315071 1130482379.323822 0 0 0 0 864806822.00711823 -586125134.82278442 0 -586125134.82278442 250290576.54934692 0 0 0 0 136257233.90548664 -566759864.9607439 0 -566759864.9607439 259162059.31967163 0 0 0 0 21021742.372843742 -234376205.87393951 0 -234376205.87393951 417162695.78097534 0 0 0 0 -58991877.836933136 -190814059.91622925 0 -190814059.91622925 419712962.5721159 0 0 0 0 -89512133.322945118 -243468752.30216026 0 -243468752.30216026 601713622.72467041 0 0 0 0 25256879.254190445 208587939.7046814 0 208587939.7046814 423029297.93202972 0 0 0 0 2516645.8100851518 -1024890.6333227679 0 -1024890.6333227679 144337.41890831292 0 0 0 0 597015717.89209747 -396909700.80952454 0 -396909700.80952454 135797675.92993164 0 0 0 0 22523115.503580093 222151390.48098755 0 222151390.48098755 899068549.55509949 0 0 0 0 130925849.86562729 71257082.05027771 0 71257082.05027771 -37084431.243225098 0 0 0 0 17990748.086278915 -498408.66226196289 0 -498408.66226196289 87720109.056213379 0 0 0 0 63060363.437580109 42645334.403167725 0 42645334.403167725 124227339.58596802 0 0 0 0 20096733.785849571 -36008796.820785522 0 -36008796.820785522 67735481.041671753 0 0 0 0 13256140.794698715 -22481068.537590027 0 -22481068.537590027 11546061.553253174 0 0 0 0 6337737.2250959016 -2345874.0609548092 0 -2345874.0609548092 1231200.4004943669 0 0 0 0 3722049.5724313511 -6779616.4591166675 0 -6779616.4591166675 15477288.11712715 0 0 0 0 2536140.1302685738 -6184243.4263916016 0 -6184243.4263916016 23121460.95123291 0 0 0 0 42303050.778495312 -37816049.035871506 0 -37816049.035871506 -62930997.189941406 0 0 0 0 53672789.131612778 3251827.3789672852 0 3251827.3789672852 14415908.022634506 0 0 0 0 -1252347.9773228168 -7309894.4242744446 0 -7309894.4242744446 35827941.310577393 0 0 0 0 -283626.44789457321 -7792228.9139251709 0 -7792228.9139251709 35888573.60546875 0 0 0 0 -637979.14795840753 5278602.6362481937 0 5278602.6362481937 33548987.692317747 0 0 0 0 -651502.88914752007 -1623001.3482055664 0 -1623001.3482055664 66182336.78818512 0 0 0 0 -5690108.5401467085 -712116.73458862305 0 -712116.73458862305 56898226.836486816 0 0 0 0 1881327.1319743395 1916239.2281188965 0 1916239.2281188965 39966669.236091614 0 0 0 0 4281234.011800766 -11586602.980319977 0 -11586602.980319977 26563303.62121582 0 0 0 0 6792497.4492797852 -8523865.8295669556 0 -8523865.8295669556 23161767.861083984 0 0 0 0 -903839.15071070357 3375312.6026859879 0 3375312.6026859879 23047710.09891063 0 0 0 0 -3818645.6157220602 11952077.374954224 0 11952077.374954224 52991939.456588745 0 0 0 0 2135973.0944827497 27696141.671081543 0 27696141.671081543 80349768.207397461 0 0 0 0 -6777781.9274166226 -17757377.272575378 0 -17757377.272575378 66309900.681396484 0 0 0 0 -1137723.0694100936 -1311107.7282873914 0 -1311107.7282873914 10118464.758302271 0 0 0 0 -9764660.566812098 6714826.2619476318 0 6714826.2619476318 28031778.34777832 0 0 0 0 8608983.9394362271 -18550675.936004639 0 -18550675.936004639 36541889.363098145 0 0 0 0 -2493842.898609323 2169196.5173082948 0 2169196.5173082948 4352880.9763268828 0 0 0 0 -3783233.2641568184 -9887900.3556251526 0 -9887900.3556251526 29116204.054016113 0 0 0 0 3359991.3322079182 -9509753.989944458 0 -9509753.989944458 27068554.230178833 0 0 0 0 2602026.2743044486 -5929432.2717758343 0 -5929432.2717758343 16979720.465272233 0 0 0 0 1767099.7528250217 -9442153.4458084106 0 -9442153.4458084106 25788299.536590576 0 0 0 0 -1782557.3588415384 -6038600.7890319824 0 -6038600.7890319824 24267294.341644287 0 0 0 0 36214797.514359474 37134574.764625549 0 37134574.764625549 112282565.59056091 0 0 0 0 2838946.7126381528 1403292.3888335899 0 1403292.3888335899 12314857.534123957 0 0 0 0 -10749633.092209101 3529657.3460388184 0 3529657.3460388184 21706727.154022217 0 0 0 0 -10242933.15338375 -6520301.8934736252 0 -6520301.8934736252 32709565.678375244 0 0 0 0 2683502.9523633718 -5700102.039855957 0 -5700102.039855957 23131964.452345371 0 0 0 0 -9954780.3728433549 -752319.20692443848 0 -752319.20692443848 44729582.392089844 0 0 0 0 14520312.640406951 -41661457.260047913 0 -41661457.260047913 86149409.453277588 0 0 0 0 -13407757.619379442 -4402387.8113498688 0 -4402387.8113498688 46547304.952972412 0 0 0 0 289741.94368572114 -1113340.4884602949 0 -1113340.4884602949 4552082.089053899 0 0 0 0 3160005.2906961441 -25019351.498840332 0 -25019351.498840332 52778698.429611206 0 0 0 0 -8332447.4682011306 16276599.026351929 0 16276599.026351929 13412316.344329834 0 0 0 0 -7093192.1613811087 -11715610.908228874 0 -11715610.908228874 52428234.364379883 0 0 0 0 -14257807.652512193 -4865746.1550598145 0 -4865746.1550598145 78889394.992355347 0 0 0 0 -9254093.8825735897 -5615663.9586105347 0 -5615663.9586105347 54724153.238922119 0 0 0 0 20700.183462313493 154584.81478403509 0 154584.81478403509 167610.72187942266 0 0 0 0 -14855158.870041762 -10282616.23960495 0 -10282616.23960495 91664532.144958496 0 0 0 0 3138204.885590408 2576153.5802001953 0 2576153.5802001953 49475654.344436646 0 0 0 0 -7372624.5828575864 -24983025.417236328 0 -24983025.417236328 128186058.32836151 0 0 0 0 11927.134880087728 -1058315.1561431885 0 -1058315.1561431885 35942375.603729248 0 0 0 0 10925450.116929103 5281718.9050598145 0 5281718.9050598145 12213574.204833984 0 0 0 0 137.54766260266661 57657.863712921739 0 57657.863712921739 73232.716040059924 0 0 0 0 -14967394.574875267 10448946.831359863 0 10448946.831359863 74151514.247802734 0 0 0 0 11914.431164261441 -15056810.844802856 0 -15056810.844802856 106874393.69606018 0 0 0 0 4826839.0513714598 19782240.688072205 0 19782240.688072205 45546436.581359863 0 0 0 0 -4058899.4323016517 -6932113.5313644409 0 -6932113.5313644409 22755796.048904419 0 0 0 0 265058.23015201092 23632827.948738098 0 23632827.948738098 -11344204.902938843 0 0 0 0 4867175.5310145915 -32276426.165344238 0 -32276426.165344238 113560285.03826904 0 0 0 0 361168.15654154611 -732241.86947955191 0 -732241.86947955191 2404811.7152537853 0 0 0 0 9427.5907122114077 18024352.233386092 0 18024352.233386092 -22152483.072387695 0 0 0 0 -169113706.13173485 -59483042.890258789 0 -59483042.890258789 140381592.87655258 0 0 0 0 59872255.686053276 -8363054.6262588501 0 -8363054.6262588501 -32234847.623535156 0 0 0 0 -174435800.89100444 -216417966.58894527 0 -216417966.58894527 12142372.493911743 0 0 0 0 17201316.366548739 -23671413.315979213 0 -23671413.315979213 24728791.777463377 0 0 0 0 16847661.203674316 23928437.275215149 0 23928437.275215149 -18751161.448810577 0 0 0 0 -78140782.167404175 70756554.497097015 0 70756554.497097015 235174835.96458435 0 0 0 0 -81384040.437034607 47197994.084068298 0 47197994.084068298 274194126.75388336 0 0 0 0 -2259430.3878860474 40311443.30418396 0 40311443.30418396 89926552.578086853 0 0 0 0 23526352.683344841 -20043223.272583008 0 -20043223.272583008 186319562.23628235 0 0 0 0 2318945.579746577 3861002.4946062118 0 3861002.4946062118 121422.75470215641 0 0 0 0 33269869.988271952 52064694.034684181 0 52064694.034684181 392066458.45820618 0 0 0 0 340351993.71489716 -63702216.750827789 0 -63702216.750827789 -3846490.9876098633 0 0 0 0 148199616.43367577 -161264652.48855591 0 -161264652.48855591 232384406.03271866 0 0 0 0 137605627.37429929 64282849.595066071 0 64282849.595066071 -44670472.944137573 0 0 0 0 317760927.76070023 -129632923.97021484 0 -129632923.97021484 765589.38700866699 0 0 0 0 466267078.58725524 -450512060.04936886 0 -450512060.04936886 246534952.79579163 0 0 0 0 279103023.64730072 -126557335.80521393 0 -126557335.80521393 74740454.080596924 0 0 0 0 510692365.39079654 -203718658.74541473 0 -203718658.74541473 -132785437.75660706 0 0 0 0 353805943.76619816 138729256.12638092 0 138729256.12638092 216879581.24703979 0 0 0 0 435128031.98737907 421227796.51568604 0 421227796.51568604 324104001.5783844 0 0 0 0 14990118.829569284 -17262870.07960923 0 -17262870.07960923 16602451.331403866 0 0 0 0 -113894633.26027775 -207980547.07813263 0 -207980547.07813263 -35154150.410736084 0 0 0 0 346984435.81129551 1333138.494348526 0 1333138.494348526 69079370.148834229 0 0 0 0 -70802990.64553833 89417329.950897217 0 89417329.950897217 326209341.86370468 0 0 0 0 -92175304.972032309 -21149237.453370094 0 -21149237.453370094 78119998.08883667 0 0 0 0 -514587804.93361092 -29718574.915458679 0 -29718574.915458679 157231440.72463989 0 0 0 0 158890318.03102112 192820161.93954468 0 192820161.93954468 -384914439.13011169 0 0 0 0 61416269.473392487 178627937.98036194 0 178627937.98036194 299886019.66108704 0 0 0 0 -2406048.2468856275 4627452.6691372991 0 4627452.6691372991 2711527.776213184 0 0 0 0 -67070928.835918427 11457206.14239502 0 11457206.14239502 12414333.463684082 0 0 0 0 -72210698.397016525 18181894.96081543 0 18181894.96081543 33596704.379089355 0 0 0 0 -59273440.042982101 32284204.01763916 0 32284204.01763916 24436520.520080566 0 0 0 0 -281387653.28153324 229198392.90786743 0 229198392.90786743 -115563182.95578003 0 0 0 0 -1242150.5104005169 -17984.918000817299 0 -17984.918000817299 1269236.0452462602 0 0 0 0 -3952658.9290733747 1599835.3804547787 0 1599835.3804547787 4826833.0106875114 0 0 0 0 -61705736.247867584 23323396.854614258 0 23323396.854614258 6995068.4882202148 0 0 0 0 -54460031.696332932 -6752241.0146942139 0 -6752241.0146942139 15851484.713169098 0 0 0 0 -116440.54050173983 4844718.3598993719 0 4844718.3598993719 9485216.5018558502 0 0 0 0 -43061051.722080231 -103201357.96983337 0 -103201357.96983337 -137956697.84785461 0 0 0 0 10433021.179443359 -30355339.748168945 0 -30355339.748168945 -48088914.612213135 0 0 0 0 -6504676.8029232025 -39977470.520561218 0 -39977470.520561218 -41245971.668304443 0 0 0 0 62582305.287418365 168390929.45419312 0 168390929.45419312 128745553.83595276 0 0 0 0 -250542686.37051964 103455130.29570007 0 103455130.29570007 284077335.72286987 0 0 0 0 16986854.306150436 287814785.3792038 0 287814785.3792038 270394267.99932861 0 0 0 0 46765067.18806839 397470412.73265076 0 397470412.73265076 552902465.28918457 0 0 0 0 -101539.88915575389 1579921.25464724 0 1579921.25464724 3784480.8986802846 0 0 0 0 48625296.088445663 -619082449.81332397 0 -619082449.81332397 660582219.02725601 0 0 0 0 103136681.55815125 -755267882.61115265 0 -755267882.61115265 953637357.66101074 0 0 0 0 539158405.99680901 435392047.86317444 0 435392047.86317444 48365340.61579895 0 0 0 0 -836169940.3448391 49778508.933380127 0 49778508.933380127 213573323.45571899 0 0 0 0 -146120329.46149445 149315700.53837585 0 149315700.53837585 193283466.36325073 0 0 0 0 -131841351.57315636 214866667.2142334 0 214866667.2142334 383987296.94229221 0 0 0 0 -296552822.91843796 140932546.31558228 0 140932546.31558228 735827303.79345703 0 0 0 0 20066523.963353015 -31854874.501564831 0 -31854874.501564831 30759220.676696941 0 0 0 0 -261076598.10633087 120601522.74224091 0 120601522.74224091 393342247.11402893 0 0 0 0 -11160356.378078703 -1998814.877474837 0 -1998814.877474837 18274021.576166674 0 0 0 0 -99134974.345905304 -69132556.673294067 0 -69132556.673294067 4627736.5995101929 0 0 0 0 -113824264.94535828 -64590689.021461487 0 -64590689.021461487 119789785.25769043 0 0 0 0 10575603.302387252 -21175238.490008637 0 -21175238.490008637 15424737.280095845 0 0 0 0 -220917923.66750336 77310293.050727844 0 77310293.050727844 354432289.58911133 0 0 0 0 -144048672.17686462 -73760591.690551758 0 -73760591.690551758 66567815.263977051 0 0 0 0 1811553.1166620255 -6508229.3791732788 0 -6508229.3791732788 1099094.3586425781 0 0 0 0 25537747.405490875 -13566535.537059784 0 -13566535.537059784 28260368.71762085 0 0 0 0 -509928.04534209706 -6983150.3532526121 0 -6983150.3532526121 21554850.842700899 0 0 0 0 8668349.3526268005 -29925863.125907898 0 -29925863.125907898 49565537.957565308 0 0 0 0 8462799.7535225693 -9587421.7810973413 0 -9587421.7810973413 17303136.171302631 0 0 0 0 -31109870.944408417 -64543965.916809082 0 -64543965.916809082 47392154.907512665 0 0 0 0 -113025846.12111378 54275603.188610077 0 54275603.188610077 70227611.87902832 0 0 0 0 -498438860.42366028 -4297407.6090698242 0 -4297407.6090698242 1339682095.5579834 0 0 0 0 -116455610.03398514 43639935.550750732 0 43639935.550750732 153458098.5127182 0 0 0 0 213666010.81169701 -170379114.8418808 0 -170379114.8418808 211421145.25057983 0 0 0 0 429358078.06894302 -234366476.94232178 0 -234366476.94232178 -1091157652.1578369 0 0 0 0 352425223.53739166 -935091400.90771484 0 -935091400.90771484 -104266921.378479 0 0 0 0 692613125.14050293 1151326423.4602661 0 1151326423.4602661 142354959.84407425 0 0 0 0 -1489236479.4159889 -93452638.219100952 0 -93452638.219100952 251157417.27252197 0 0 0 0 -357481870.42935181 443794406.40429688 0 443794406.40429688 -2532892298.9856873 0 0 0 0 -337775.56069149449 -434104.90787055343 0 -434104.90787055343 1553929.1661958247 0 0 0 0 3749126.4691085815 1182949111.8009644 0 1182949111.8009644 142520159.90226007 0 0 0 0 2594414133.1639214 -386615898.58654785 0 -386615898.58654785 265866005.5355835 0 0 0 0 -338903897.93083572 -65479074.935119629 0 -65479074.935119629 2449860612.4563599 0 0 0 0 -320073103.35825348 -158421113.57727051 0 -158421113.57727051 395307455.99047852 0 0 0 0 -112826754.19467545 -380565020.22592163 0 -380565020.22592163 -915629546.78297424 0 0 0 0 -3826841.9149418734 -3537379.7286865488 0 -3537379.7286865488 26538708.858705312 0 0 0 0 -5788229.5814208984 -8923649.72265625 0 -8923649.72265625 63325384.566253662 0 0 0 0 -12614608.059928894 -59791576.1121521 0 -59791576.1121521 71531989.523303986 0 0 0 0 12245984.392715454 -60086354.146179199 0 -60086354.146179199 61960412.811523438 0 0 0 0 14047041.828004044 -25250664.789045006 0 -25250664.789045006 42885528.976216316 0 0 0 0 -19058111.282501221 -64235026.650512695 0 -64235026.650512695 139039891.1060791 0 0 0 0 -3620238.7537889481 3013561.5678787231 0 3013561.5678787231 122872119.47698975 0 0 0 0 34379465.375324249 -86705508.0884552 0 -86705508.0884552 50904689.130477905 0 0 0 0 -33845063.11706543 -16060570.924087524 0 -16060570.924087524 251298867.67089844 0 0 0 0 -3345596.2121729665 -4990137.1286286116 0 -4990137.1286286116 11102986.000592709 0 0 0 0 16442593.832683563 -104881847.5436554 0 -104881847.5436554 165259952.15280151 0 0 0 0 15847298.816455841 -46285642.274734497 0 -46285642.274734497 81056313.510284424 0 0 0 0 6379247.9194704872 -8886596.801010333 0 -8886596.801010333 20143366.17381534 0 0 0 0 19260488.346511841 -28149301.401138306 0 -28149301.401138306 28734525.040542603 0 0 0 0 29948287.531147003 -37962757.954803467 0 -37962757.954803467 22668172.595855713 0 0 0 0 -699025.39370322227 -6308811.5213165283 0 -6308811.5213165283 35044707.477661133 0 0 0 0 27811198.237464905 -70361149.395263672 0 -70361149.395263672 75445014.445762634 0 0 0 0 13289645.082881927 -41157835.670928955 0 -41157835.670928955 48640899.758544922 0 0 0 0 -1577122.0845868494 -14390366.33076629 0 -14390366.33076629 32897607.55199568 0 0 0 0 -1353400.8839292526 -20941988.694572449 0 -20941988.694572449 45550582.807678223 0 0 0 0 7248145.5099974554 -8205847.4026241824 0 -8205847.4026241824 33985008.143263489 0 0 0 0 -23729233.258415222 -32033073.786712646 0 -32033073.786712646 46942464.727233887 0 0 0 0 -752312.49058145098 -5164959.8460232969 0 -5164959.8460232969 4243786.540774554 0 0 0 0 66108.182556626853 -15818734.915656988 0 -15818734.915656988 36340026.425425068 0 0 0 0 -5022489.1195027828 -15788041.922065735 0 -15788041.922065735 25789625.60256958 0 0 0 0 -11850715.40341568 -5329965.0116958618 0 -5329965.0116958618 28587814.363113403 0 0 0 0 982445.39694261551 -6793910.2938842773 0 -6793910.2938842773 34865188.795806885 0 0 0 0 -195197.241147995 -15979880.39414978 0 -15979880.39414978 50773128.521560669 0 0 0 0 5023521.2151138075 -975077.16551209241 0 -975077.16551209241 35452643.669761702 0 0 0 0 -1104791.8856456494 -3010703.9571259357 0 -3010703.9571259357 11091726.212841794 0 0 0 0 15475389.142616272 -41856651.462257385 0 -41856651.462257385 69928242.166320801 0 0 0 0 20912691.196170807 -38512457.9389534 0 -38512457.9389534 53593077.025985718 0 0 0 0 10544087.327194214 -25480723.36100769 0 -25480723.36100769 47086936.520824432 0 0 0 0 5189833.1904945374 -29488453.493644714 0 -29488453.493644714 48074255.460067749 0 0 0 0 10300428.517971039 -27253092.687217712 0 -27253092.687217712 46302864.936553955 0 0 0 0 2609275.8700027466 -16802374.139282227 0 -16802374.139282227 36867722.222640991 0 0 0 0 -9570345.0094127655 -10121318.894203186 0 -10121318.894203186 43602963.690216064 0 0 0 0 8919667.6955089569 -26787454.385681152 0 -26787454.385681152 44613680.627853394 0 0 0 0 19440210.209956169 -33442562.541805267 0 -33442562.541805267 50349393.226745605 0 0 0 0 9864787.8501110077 -23522790.715923309 0 -23522790.715923309 53007546.964630127 0 0 0 0 8451761.6562271118 -58598425.37322998 0 -58598425.37322998 80100331.481697083 0 0 0 0 24306873.414085388 -27463325.543014526 0 -27463325.543014526 56814697.525146484 0 0 0 0 -135595890.01169968 -19596038.499847412 0 -19596038.499847412 77561169.813922882 0 0 0 0 -837771.24231888866 -616188.47806493565 0 -616188.47806493565 3782598.0529315658 0 0 0 0 -87162229.494189262 112154674.0321579 0 112154674.0321579 -24710646.188964844 0 0 0 0 -86686606.208156586 65746456.075088501 0 65746456.075088501 60598883.146194458 0 0 0 0 -81959935.875454426 75374979.346431732 0 75374979.346431732 68387669.981689453 0 0 0 0 -96528468.776004791 68986932.436302185 0 68986932.436302185 82569658.623397827 0 0 0 0 -43946011.468977928 33375971.94405365 0 33375971.94405365 45542690.182220459 0 0 0 0 205729924.48928642 16125511.852106094 0 16125511.852106094 -45224016.068664551 0 0 0 0 -42871.634850696661 5326493.6574449874 0 5326493.6574449874 4889557.0787758492 0 0 0 0 -2364630.5021809726 -1817802.3578304946 0 -1817802.3578304946 6955978.3740640432 0 0 0 0 3306513876.1283073 -1069966591.2259827 0 -1069966591.2259827 290674432.42799377 0 0 0 0 56836855.15470171 212975264.05883789 0 212975264.05883789 -69871051.041488647 0 0 0 0 -328324744.07975197 67094904.842765808 0 67094904.842765808 83116958.887440681 0 0 0 0 275949524.67002296 -43067164.198083878 0 -43067164.198083878 49328546.704177856 0 0 0 0 337135333.97415066 12145300.625640869 0 12145300.625640869 -422816875.82372284 0 0 0 0 669242869.12916958 -563542170.30975342 0 -563542170.30975342 213846849.404953 0 0 0 0 -3935185850.7828364 -303437767.83312225 0 -303437767.83312225 2002922163.7138901 0 0 0 0 207009030.4209013 -28635612.972553253 0 -28635612.972553253 155115434.37828064 0 0 0 0 201488196.72744942 -64256368.982414246 0 -64256368.982414246 43415381.318939209 0 0 0 0 142123672.81473923 -87371409.943904877 0 -87371409.943904877 161697141.97835541 0 0 0 0 252842228.62650585 -120461137.29088211 0 -120461137.29088211 25489515.772674561 0 0 0 0 21610920.422831178 -33055412.369300842 0 -33055412.369300842 -28857585.535690308 0 0 0 0 289320097.28402281 -212214519.15387344 0 -212214519.15387344 163903840.16867483 0 0 0 0 -4107929.4222221114 -1081409.9113116805 0 -1081409.9113116805 17766449.225973465 0 0 0 0 -32232342.380284071 61217298.452354431 0 61217298.452354431 5831519.7137756348 0 0 0 0 125591200.0449295 -106787470.92896271 0 -106787470.92896271 95789641.708057746 0 0 0 0 5823624.3432731628 -206384998.3154335 0 -206384998.3154335 95523157.515266418 0 0 0 0 47016543.257087708 -195421650.75520325 0 -195421650.75520325 4198563.7043094635 0 0 0 0 76229863.385425568 -287660939.7580452 0 -287660939.7580452 -28929736.539108276 0 0 0 0 16716155.507118225 -227448124.15478516 0 -227448124.15478516 -49846467.311569214 0 0 0 0 45204806.566914558 -216923487.14793277 0 -216923487.14793277 -76147692.312438965 0 0 0 0 -24601328.491569519 -148232711.572258 0 -148232711.572258 12958629.63999939 0 0 0 0 56938607.022315979 -154596576.17223358 0 -154596576.17223358 -27572016.08531189 0 0 0 0 87339484.268112183 -221897138.21088028 0 -221897138.21088028 13740314.46269989 0 0 0 0 52229795.163227081 -113763543.49249649 0 -113763543.49249649 67096766.834375381 0 0 0 0 9677812.3475494385 -190340693.42921448 0 -190340693.42921448 -149072812.18707657 0 0 0 0 -170719752.5192337 -125023774.91204453 0 -125023774.91204453 -42745537.803028107 0 0 0 0 -37760499.730000496 -196315342.47323608 0 -196315342.47323608 -23100017.693145752 0 0 0 0 -209003526.33358765 -168185098.97404861 0 -168185098.97404861 -11475695.834403992 0 0 0 0 -201178750.62718201 -238442073.05692291 0 -238442073.05692291 -57564060.608566284 0 0 0 0 -203563754.12311554 -202079267.91055298 0 -202079267.91055298 51890877.843839645 0 0 0 0 -111026883.5437355 -200688439.57726383 0 -200688439.57726383 -3531155.9559631348 0 0 0 0 -86362469.958518982 -126830842.28248215 0 -126830842.28248215 5300917.832321167 0 0 0 0 -36761466.043838501 -179642993.10962296 0 -179642993.10962296 49275911.984802246 0 0 0 0 6991699.9743270874 -105035192.13259125 0 -105035192.13259125 62480448.964569092 0 0 0 0 -220816697.31571198 -192483781.3631897 0 -192483781.3631897 51036750.275184631 0 0 0 0 -58079276.151475906 -231705512.02180672 0 -231705512.02180672 -23239389.699249268 0 0 0 0 191117460.89182472 -117366849.39352036 0 -117366849.39352036 84904869.323982239 0 0 0 0 133511341.87120676 -146561397.22268915 0 -146561397.22268915 42458731.257659912 0 0 0 0 73323829.532444 -139335768.05347443 0 -139335768.05347443 12327644.665664673 0 0 0 0 66766483.017337799 -77209827.677223206 0 -77209827.677223206 87562089.197189331 0 0 0 0 132227113.50432205 -43220161.459350586 0 -43220161.459350586 138582512.2274704 0 0 0 0 302638917.08641624 -17790313.30345726 0 -17790313.30345726 88141781.626678467 0 0 0 0 127940938.78915024 -92537119.518638611 0 -92537119.518638611 86989714.605079651 0 0 0 0 110036480.73597336 -65702711.816162109 0 -65702711.816162109 117866909.61932373 0 0 0 0 110162986.509655 -102939650.30999565 0 -102939650.30999565 44812426.783340454 0 0 0 0 37222411.849456787 -68476652.346115112 0 -68476652.346115112 120216830.96814728 0 0 0 0 -5776568.724120833 515951.10338821635 0 515951.10338821635 5625930.2784996182 0 0 0 0 70690369.116518021 -123203776.60255337 0 -123203776.60255337 -28299700.535430908 0 0 0 0 -201368381.35857391 -193486505.8836937 0 -193486505.8836937 373217037.99734116 0 0 0 0 -10003635.872940402 826829.79863201827 0 826829.79863201827 9838882.2055070251 0 0 0 0 165382308.50782251 -385389018.77397251 0 -385389018.77397251 425590011.51797485 0 0 0 0 -195149960.7967453 -185107592.39134979 0 -185107592.39134979 384595883.22077179 0 0 0 0 120114788.12736511 -132269564.34700775 0 -132269564.34700775 262594272.78552246 0 0 0 0 -194100791.13452911 -28296219.714599609 0 -28296219.714599609 289324512.24074554 0 0 0 0 -36116249.813087463 -334995932.50849915 0 -334995932.50849915 582763816.42304993 0 0 0 0 194360469.44602203 -269916717.01905823 0 -269916717.01905823 389831197.7077179 0 0 0 0 266425562.42939758 -497570975.67066193 0 -497570975.67066193 148508058.93400574 0 0 0 0 -9566233.3405499496 974757.73931373656 0 974757.73931373656 9792701.3907259107 0 0 0 0 281802845.69604492 -136126371.4154911 0 -136126371.4154911 99041158.640289307 0 0 0 0 -501351211.37590408 -88128911.114772797 0 -88128911.114772797 166018707.68734741 0 0 0 0 -596270953.92744446 125383428.8974762 0 125383428.8974762 75034183.443615437 0 0 0 0 3482791.5083927438 -9013321.6027996484 0 -9013321.6027996484 11367730.151931912 0 0 0 0 129152909.88711548 -112718841.08139038 0 -112718841.08139038 116803670.30889893 0 0 0 0 -8505072.7612838745 -18064457.522731781 0 -18064457.522731781 29830631.152938843 0 0 0 0 14681354.172384173 -43450633.811541125 0 -43450633.811541125 44873277.612713866 0 0 0 0 -18900108.820953369 -15241407.614883423 0 -15241407.614883423 9802578.8578491211 0 0 0 0 -31251687.066165388 -24230727.120455086 0 -24230727.120455086 37890849.036636353 0 0 0 0 57915615.543823242 -170410826.92256165 0 -170410826.92256165 204445791.73614502 0 0 0 0 9482910.0154313743 -49077818.834760733 0 -49077818.834760733 37716694.988745973 0 0 0 0 -5788271.2651297599 2399092.9820249006 0 2399092.9820249006 4594622.3000760376 0 0 0 0 -70899880.790710449 -149568525.10988617 0 -149568525.10988617 49697132.495170593 0 0 0 0 -37047939.69102478 -30489235.653289795 0 -30489235.653289795 2712204.3685302734 0 0 0 0 211797279.42511749 -131635912.05973053 0 -131635912.05973053 -20709865.532714844 0 0 0 0 -39326658.276679993 -42007419.23179245 0 -42007419.23179245 25823872.493797302 0 0 0 0 -2768843.6779275835 -11179225.950758386 0 -11179225.950758386 21510696.929165609 0 0 0 0 6773178.7798260851 -33414483.288586192 0 -33414483.288586192 19998722.627423689 0 0 0 0 -338658658.09010315 19535780.06867981 0 19535780.06867981 33839793.869674683 0 0 0 0 -369290037.938797 65584564.833564758 0 65584564.833564758 228224345.41292572 0 0 0 0 -311174819.1255455 -42035176.692836761 0 -42035176.692836761 267195694.00421143 0 0 0 0 -335533850.24486542 -92360788.0103302 0 -92360788.0103302 163796613.54803467 0 0 0 0 -370255497.58889008 -34165974.610977173 0 -34165974.610977173 100626882.25457764 0 0 0 0 -378869379.67155457 -125449989.01639557 0 -125449989.01639557 205468368.34989929 0 0 0 0 -266366726.59749031 -162029029.06479454 0 -162029029.06479454 114121074.83328247 0 0 0 0 -213880437.72351074 -279022345.1765976 0 -279022345.1765976 231761673.59674072 0 0 0 0 -270047206.94390869 -183028023.66257095 0 -183028023.66257095 80998831.682357788 0 0 0 0 -256962911.46854401 -147873580.5389328 0 -147873580.5389328 74989204.183708191 0 0 0 0 -253503814.31296539 -78636592.862468719 0 -78636592.862468719 50645372.28302002 0 0 0 0 -367066333.11688232 -6849025.2823486328 0 -6849025.2823486328 70407105.782226801 0 0 0 0 -304085335.14515686 -57994930.036300659 0 -57994930.036300659 101214660.15742493 0 0 0 0 -19226676.507663727 -12586122.377054214 0 -12586122.377054214 32987984.376266479 0 0 0 0 -3311568.4396077693 -23288157.438570589 0 -23288157.438570589 38662860.733416691 0 0 0 0 -16942944.508975983 -28784636.74813509 0 -28784636.74813509 40475240.818534851 0 0 0 0 9285082.5222930908 -21665273.673423767 0 -21665273.673423767 29236878.039171219 0 0 0 0 85598.56472915411 209554.18914742768 0 209554.18914742768 -236217.90844246931 0 0 0 0 -7074761.9330825806 -9024205.2028846741 0 -9024205.2028846741 23288444.185516357 0 0 0 0 -26485865.087611437 -22242533.737030655 0 -22242533.737030655 21334536.774299622 0 0 0 0 -144237055.22168732 -111694093.99639511 0 -111694093.99639511 25818161.048217773 0 0 0 0 10648901.819763131 -35576300.93790286 0 -35576300.93790286 32484415.667757943 0 0 0 0 -184486360.93215179 -153095160.59381104 0 -153095160.59381104 33881906.529907227 0 0 0 0 -187108681.45075989 -144329607.03958511 0 -144329607.03958511 5300105.4597930908 0 0 0 0 -159484337.48294067 -133903331.2472496 0 -133903331.2472496 4572049.4499628544 0 0 0 0 -1167494346.3058605 32423602.57940276 0 32423602.57940276 -1403934887.0555038 0 0 0 0 2293926.4093654663 -6571571.8556054262 0 -6571571.8556054262 -278874.44530430995 0 0 0 0 260426434.87731171 332444125.22722054 0 332444125.22722054 -1278214891.151722 0 0 0 0 -195038692.39144525 -810038089.91908538 0 -810038089.91908538 -610490986.85044479 0 0 0 0 2173163.7501838254 -20720817.894865442 0 -20720817.894865442 40763779.923096061 0 0 0 0 -60075370.533594131 -45512777.357400894 0 -45512777.357400894 -378705278.57927132 0 0 0 0 -224868028.89884186 -191447193.40006256 0 -191447193.40006256 79288986.600933075 0 0 0 0 -232086829.94491577 -172760945.91600037 0 -172760945.91600037 47941407.257003784 0 0 0 0 -227683602.4152832 -154479655.8418045 0 -154479655.8418045 56295795.612548828 0 0 0 0 -219228756.23957825 -182941396.20089722 0 -182941396.20089722 44633783.008939743 0 0 0 0 -209682723.57510376 -183708105.04797363 0 -183708105.04797363 -2402354.5996780396 0 0 0 0 -210262031.34568787 -185143957.02151108 0 -185143957.02151108 9119591.9738616943 0 0 0 0 -245494253.45109558 -219649630.03637695 0 -219649630.03637695 4446770.539891243 0 0 0 0 -175067128.71130371 -209321817.62018967 0 -209321817.62018967 -103001980.38484192 0 0 0 0 -156108987.08354187 -162607668.90794754 0 -162607668.90794754 -32893384.44719696 0 0 0 0 -265971169.10091019 -275811754.24621868 0 -275811754.24621868 -100585778.39687347 0 0 0 0 29995274.877073668 -32958748.177286472 0 -32958748.177286472 28528969.892210908 0 0 0 0 -1289706973.5045471 -1045634022.1037064 0 -1045634022.1037064 950961967.37705708 0 0 0 0 -216473754.99736786 -181404813.13673401 0 -181404813.13673401 -143481818.50106239 0 0 0 0 2475245944.3411255 288226799.56119347 0 288226799.56119347 -418546104.86724997 0 0 0 0 -233673102.12879181 -486543626.65918255 0 -486543626.65918255 -593255070.14581871 0 0 0 0 -632003167.23794937 334662740.44117928 0 334662740.44117928 -789390233.68840027 0 0 0 0 726105129.55743313 120441544.7540288 0 120441544.7540288 -859727828.73881912 0 0 0 0 -907672058.27424765 -472012286.72566438 0 -472012286.72566438 -456120283.56410217 0 0 0 0 39599202.908633836 -44193948.862702593 0 -44193948.862702593 33163751.387700818 0 0 0 0 1746449396.6811304 -1554388033.6271791 0 -1554388033.6271791 -1332001849.7001405 0 0 0 0 414664476.72737312 -1767428501.6851292 0 -1767428501.6851292 -1148242673.1107368 0 0 0 0 -1150084440.6214194 800898855.0012629 0 800898855.0012629 2791491645.8294449 0 0 0 0 -139595022.87335205 448422342.38239193 0 448422342.38239193 2147441332.6586409 0 0 0 0 -32719352.957983017 -33601935.706726551 0 -33601935.706726551 300786020.99752235 0 0 0 0 -331816462.78012085 151963708.48787022 0 151963708.48787022 429790353.15602875 0 0 0 0 457009914.53515148 815541624.11132264 0 815541624.11132264 -443571922.37480164 0 0 0 0 7433578.7391986847 125087189.20314312 0 125087189.20314312 26311209.703626633 0 0 0 0 -20517811.744719505 253144376.81781054 0 253144376.81781054 -406181174.48249054 0 0 0 0 25146838.825263977 112340602.36848307 0 112340602.36848307 -113877802.04771805 0 0 0 0 25032157.566587448 58651157.41675663 0 58651157.41675663 46789748.55573082 0 0 0 0 -180129552.21855164 54148475.844804764 0 54148475.844804764 357416011.81051826 0 0 0 0 -14942665.377613068 112897460.86534882 0 112897460.86534882 122599659.56887054 0 0 0 0 -51148840.021026611 21521510.849614143 0 21521510.849614143 -31347177.536952972 0 0 0 0 -44379464.087059021 45129143.444122314 0 45129143.444122314 25469633.528610229 0 0 0 0 -67278410.830007553 -5487145.4015436172 0 -5487145.4015436172 51450538.200567245 0 0 0 0 -29059766.372749329 1869312.5511956215 0 1869312.5511956215 -37529303.540880203 0 0 0 0 -28015635.315700531 -30095268.239089012 0 -30095268.239089012 33799647.164230347 0 0 0 0 -356018.55563155934 -2402387.4524196014 0 -2402387.4524196014 3706278.9790852456 0 0 0 0 -1888479.1205749512 68639319.161049843 0 68639319.161049843 -61254410.699756622 0 0 0 0 -19295273.450836182 81658946.978798866 0 81658946.978798866 -43460551.220655203 0 0 0 0 -1020233.7728233337 115114109.23752213 0 115114109.23752213 16977956.141967535 0 0 0 0 83291399.914726257 94617493.367077827 0 94617493.367077827 68093541.235519409 0 0 0 0 6258627.6206102371 33290363.12831068 0 33290363.12831068 -74568627.478897095 0 0 0 0 62806713.8058815 -120174418.52241755 0 -120174418.52241755 -63346066.62532258 0 0 0 0 -1378842.1793734361 -4892590.8000108488 0 -4892590.8000108488 23046225.196674369 0 0 0 0 -28376566.134515762 11201289.399564266 0 11201289.399564266 68410611.597158432 0 0 0 0 -2467882.8490958363 1175278.3827467011 0 1175278.3827467011 4045311.5929482817 0 0 0 0 11642028.897129059 -17435917.006296396 0 -17435917.006296396 16347927.994595289 0 0 0 0 76243789.875896454 -2560259.3040158749 0 -2560259.3040158749 -7426063.0874872208 0 0 0 0 -39909443.588857651 -55191612.003827602 0 -55191612.003827602 24270179.551239967 0 0 0 0 10154651.879154444 -30142878.824614294 0 -30142878.824614294 20757784.815012217 0 0 0 0 35607439.200480461 -5349023.8175888062 0 -5349023.8175888062 -9646328.1506671906 0 0 0 0 12529198.095427305 -11333628.786204666 0 -11333628.786204666 -10581930.199828073 0 0 0 0 -30133342.3085742 -18661309.429180294 0 -18661309.429180294 27277217.376985073 0 0 0 0 113536025.27501678 -37935949.967449188 0 -37935949.967449188 -44091827.341451645 0 0 0 0 1173092.3537146114 -8096513.9567141505 0 -8096513.9567141505 10870568.995715052 0 0 0 0 19392320.24596405 -35822622.674710274 0 -35822622.674710274 -8015950.0048084259 0 0 0 0 -14124863.837665558 -1853669.1027326584 0 -1853669.1027326584 -5537023.2939872742 0 0 0 0 -6024589.6567764282 -23892522.91650486 0 -23892522.91650486 32259305.175727844 0 0 0 0 14020831.116749056 -22798434.93872229 0 -22798434.93872229 28508841.065018259 0 0 0 0 41723170.039154053 -93498271.636376858 0 -93498271.636376858 -38109052.679871082 0 0 0 0 96338808.00006485 -79557944.507205963 0 -79557944.507205963 -41802190.500312805 0 0 0 0 58756521.109779358 300815797.24307585 0 300815797.24307585 -382103829.64381599 0 0 0 0 3615907.8496743245 -3128356.0370850349 0 -3128356.0370850349 -3160927.5709966719 0 0 0 0 -46497331.025528431 -116588393.5186168 0 -116588393.5186168 -19921042.795080185 0 0 0 0 188967263.31079102 282625506.78129578 0 282625506.78129578 -610571336.40293646 0 0 0 0 -9691244.3289318085 -106019163.34069538 0 -106019163.34069538 -183465995.73211384 0 0 0 0 10074402.158027649 -41608446.746048927 0 -41608446.746048927 -80249592.289524078 0 0 0 0 32517187.418567657 20292615.455903053 0 20292615.455903053 -183356589.68179703 0 0 0 0 -24256067.36315918 -34269201.203694344 0 -34269201.203694344 -4479041.2623662949 0 0 0 0 7069514.8331341743 -33597453.689197898 0 -33597453.689197898 -17411905.406723022 0 0 0 0 159955755.59501839 16921823.2168293 0 16921823.2168293 35252914.588983059 0 0 0 0 292310938.96512556 355778756.00151968 0 355778756.00151968 276972050.01554871 0 0 0 0 691487159.46755791 307246371.60671616 0 307246371.60671616 69867202.506694794 0 0 0 0 479496256.16729736 428574302.22078323 0 428574302.22078323 119257171.81003952 0 0 0 0 494139947.86973 222899259.75126266 0 222899259.75126266 -30698938.106613159 0 0 0 0 64086853.999958038 -30886132.689540863 0 -30886132.689540863 -179498612.21406746 0 0 0 0 60176955.488859177 72345701.541785479 0 72345701.541785479 -35165251.348129272 0 0 0 0 -57376.855027124286 -338202.35867124889 0 -338202.35867124889 1793810.8707462475 0 0 0 0 401195073.43136787 394944324.50860977 0 394944324.50860977 344891636.60694885 0 0 0 0 508716573.84851503 738451152.68602562 0 738451152.68602562 638805325.76537323 0 0 0 0 -19053981.224334717 24466178.649662018 0 24466178.649662018 -61077046.191116333 0 0 0 0 -72051412.980272293 56744493.814512253 0 56744493.814512253 4930599.1088867188 0 0 0 0 140458.4513296131 -743151.21373996697 0 -743151.21373996697 5251288.441504471 0 0 0 0 1272150.708336653 -2558917.9882801864 0 -2558917.9882801864 14818547.448304767 0 0 0 0 -21909696.55676651 96769114.60644722 0 96769114.60644722 26193221.368824005 0 0 0 0 -78262800.889873505 -3660910.7128219604 0 -3660910.7128219604 17250865.193992615 0 0 0 0 -191161664.85752332 14475506.454685092 0 14475506.454685092 127253422.48617554 0 0 0 0 -95890485.523511887 13559448.854795456 0 13559448.854795456 21503942.897628784 0 0 0 0 -10790330.819272041 85037567.479646683 0 85037567.479646683 285454656.63363647 0 0 0 0 -77010086.504501343 -41542850.124517441 0 -41542850.124517441 153861074.62193298 0 0 0 0 4068932.6592330933 116186987.04700661 0 116186987.04700661 128247282.61713409 0 0 0 0 43024982.685638428 64453243.80291748 0 64453243.80291748 161471618.537323 0 0 0 0 229560677.41106796 134693421.72330475 0 134693421.72330475 140717101.74703979 0 0 0 0 187460177.13288641 279648877.22075987 0 279648877.22075987 417793542.71291351 0 0 0 0 575137025.78840256 460744815.30541229 0 460744815.30541229 127187046.42050171 0 0 0 0 45522985.427951813 -113759222.26804733 0 -113759222.26804733 122363770.01000786 0 0 0 0 455308005.59850693 561922495.40385437 0 561922495.40385437 700180839.99566841 0 0 0 0 33333348.464118958 -46990033.33379364 0 -46990033.33379364 464826259.10958481 0 0 0 0 1091479531.783865 276794088.39930344 0 276794088.39930344 197028252.33455658 0 0 0 0 519079758.5287075 246343002.58211517 0 246343002.58211517 86749732.090330124 0 0 0 0 575376812.61857224 -41071684.249458313 0 -41071684.249458313 815007700.98269653 0 0 0 0 466173146.45765877 253170458.30393982 0 253170458.30393982 198310844.61494446 0 0 0 0 7450056.0090808868 10978644.525112152 0 10978644.525112152 -17661722.545192719 0 0 0 0 -1349415.1761623598 551205.10399136459 0 551205.10399136459 3396263.7498177551 0 0 0 0 66098845.373268127 -46245261.849821091 0 -46245261.849821091 95984661.128486633 0 0 0 0 84450768.894500732 43031739.637611389 0 43031739.637611389 -4417773.2314224243 0 0 0 0 89508567.84030515 -68062146.434366226 0 -68062146.434366226 -1513198.4242172241 0 0 0 0 114355229.18297005 36704076.779211044 0 36704076.779211044 88496173.473716736 0 0 0 0 36504430.862485886 -19087759.134044647 0 -19087759.134044647 -57557690.245681763 0 0 0 0 -24088494.277732849 -21132326.259319305 0 -21132326.259319305 -17669685.736564636 0 0 0 0 -30328767.938982725 -50920335.99294734 0 -50920335.99294734 1430914.1472072601 0 0 0 0 -70715465.868570328 -160381018.94973183 0 -160381018.94973183 -67366382.590912819 0 0 0 0 -4120097.5781453382 -5315115.9631627426 0 -5315115.9631627426 22835360.927654848 0 0 0 0 -52867208.611188889 -6821422.4082984924 0 -6821422.4082984924 6991267.0688209534 0 0 0 0 -6029051.6549323928 -3729120.2656382793 0 -3729120.2656382793 26399756.990623731 0 0 0 0 -166945897.93437958 -147159402.00293732 0 -147159402.00293732 43860695.814879894 0 0 0 0 -14337990.861764908 -31045868.336401463 0 -31045868.336401463 -7012541.2064332962 0 0 0 0 -6853345.0901813507 -1762578.368309021 0 -1762578.368309021 6005342.8544578552 0 0 0 0 -35565487.200487137 -24850602.564379215 0 -24850602.564379215 17362329.500612259 0 0 0 0 9614780.6100158691 -14969425.60273838 0 -14969425.60273838 8224754.5658416748 0 0 0 0 11460429.799160004 -23756973.992742777 0 -23756973.992742777 10952418.77145195 0 0 0 0 5738635.1208162308 -6729535.7499783039 0 -6729535.7499783039 39220379.897565842 0 0 0 0 -221886.82761085033 -1485082.4541895315 0 -1485082.4541895315 3423814.4231402795 0 0 0 0 3670437.139125824 -3585890.7831907272 0 -3585890.7831907272 49215248.860303879 0 0 0 0 -7522280.6109938007 3054572.4681420145 0 3054572.4681420145 16043606.811364114 0 0 0 0 -5683715.3041248322 10908501.573997498 0 10908501.573997498 35789815.578372955 0 0 0 0 -33269290.27809906 21623049.111994743 0 21623049.111994743 54456959.44841671 0 0 0 0 -23712112.155501366 -6825416.9575018883 0 -6825416.9575018883 23148636.682144165 0 0 0 0 -18688980.515143394 -12786718.912108898 0 -12786718.912108898 1561544.6935958862 0 0 0 0 -19819211.303642273 -22564848.006039619 0 -22564848.006039619 52280486.82249403 0 0 0 0 -4034926.7492834255 -5773164.9946927773 0 -5773164.9946927773 21614549.796112761 0 0 0 0 -49105803.474020004 -76104982.491682053 0 -76104982.491682053 -56772590.559234619 0 0 0 0 -44091812.098582745 -25242583.534814358 0 -25242583.534814358 24726837.705888748 0 0 0 0 -9763052.093963623 -15405428.619793892 0 -15405428.619793892 16832751.057500839 0 0 0 0 -29697308.061441422 -12102361.273107529 0 -12102361.273107529 23871058.780763626 0 0 0 0 -3452242.7027988434 -20173268.612155914 0 -20173268.612155914 -23270330.52569437 0 0 0 0 -19924391.031301498 -44969319.152477264 0 -44969319.152477264 -20405550.552589417 0 0 0 0 2795686.0611559469 -3964906.4693597071 0 -3964906.4693597071 -2186610.0264167823 0 0 0 0 21243338.711697578 17770513.821758747 0 17770513.821758747 38684588.092437744 0 0 0 0 18293665.706817627 4646254.6485519409 0 4646254.6485519409 30138260.093162537 0 0 0 0 -11079218.695495605 8989645.1474075317 0 8989645.1474075317 51099773.206283569 0 0 0 0 -2749696.282333374 -21833609.625368118 0 -21833609.625368118 49228686.892295837 0 0 0 0 -15523184.090820312 -7100328.7525482178 0 -7100328.7525482178 37287960.401750565 0 0 0 0 7531978.6746479943 -17040779.989330254 0 -17040779.989330254 34466233.775425218 0 0 0 0 7913907.084087573 -20801172.031071924 0 -20801172.031071924 28836024.610083405 0 0 0 0 3181047.731967926 -6962706.4019927979 0 -6962706.4019927979 35229238.312885284 0 0 0 0 13204250.62195015 -35253006.440655708 0 -35253006.440655708 29423566.581939697 0 0 0 0 9134556.596496582 -19170434.539398193 0 -19170434.539398193 18230091.10925293 0 0 0 0 11717414.511620058 -28101142.275688961 0 -28101142.275688961 17467775.186944112 0 0 0 0 2461755.6976444083 -15139688.097889856 0 -15139688.097889856 10682045.505198754 0 0 0 0 573916.37790228613 -2982261.9774027094 0 -2982261.9774027094 13697225.227097949 0 0 0 0 4075360.3981494904 -12975204.501925945 0 -12975204.501925945 8850241.3468322754 0 0 0 0 -11748343.692409515 -11115005.761249542 0 -11115005.761249542 3037107.5815353394 0 0 0 0 4618242.7899246216 -14245653.32043767 0 -14245653.32043767 26617348.440885305 0 0 0 0 -4379201.5858345032 -23462102.893532157 0 -23462102.893532157 18266805.31571579 0 0 0 0 -1082004.8066101074 -27115563.657123566 0 -27115563.657123566 21208621.606283784 0 0 0 0 582177.33784623002 -12397825.504633529 0 -12397825.504633529 5828794.7244990375 0 0 0 0 -4709080.7805938721 -18359680.37272191 0 -18359680.37272191 14485199.209151745 0 0 0 0 648925.4241065979 -14612591.814007998 0 -14612591.814007998 17039624.910374045 0 0 0 0 -4401952.8283424377 -12271078.598892689 0 -12271078.598892689 9421828.583091259 0 0 0 0 -13912266.48764801 -16529070.727855682 0 -16529070.727855682 7557786.9082479477 0 0 0 0 -4655933.4444923401 -19821977.377286434 0 -19821977.377286434 17793958.697747469 0 0 0 0 3831285.372912718 -10335743.20405815 0 -10335743.20405815 17764082.799357772 0 0 0 0 109862533.81243134 -61264192.540128708 0 -61264192.540128708 -28413844.018421173 0 0 0 0 -77295938.477464676 7991588.4784088135 0 7991588.4784088135 17160962.991565704 0 0 0 0 -347830424.91236877 -278251747.64174652 0 -278251747.64174652 346738438.28762817 0 0 0 0 -23301299.127799988 -9660672.9808692932 0 -9660672.9808692932 28707103.549182892 0 0 0 0 794911.91534558125 -6826597.9206563383 0 -6826597.9206563383 14788976.072431138 0 0 0 0 -13363623.383508682 -14128650.861406326 0 -14128650.861406326 2033316.4735870361 0 0 0 0 310309.47102118784 -11978928.311010169 0 -11978928.311010169 12317473.479367413 0 0 0 0 -7491255.1276510749 -5076202.272516272 0 -5076202.272516272 38953576.827799089 0 0 0 0 -1562648.7310791016 -12283420.64666748 0 -12283420.64666748 25594412.777786255 0 0 0 0 -24686339.479862019 7882659.2141702808 0 7882659.2141702808 57888179.361403674 0 0 0 0 -1561316.6499938243 537552.58643913362 0 537552.58643913362 27397210.797540762 0 0 0 0 -24238726.490222931 -7193042.8884983063 0 -7193042.8884983063 27337376.313312531 0 0 0 0 -25219442.158405304 -7606769.1005477905 0 -7606769.1005477905 28484834.294780731 0 0 0 0 -21006172.351955414 -9969060.5580997467 0 -9969060.5580997467 28061146.582565308 0 0 0 0 -3946643.1919626924 -13753412.405768227 0 -13753412.405768227 31245473.994238853 0 0 0 0 -22824530.117830276 -11247106.579768181 0 -11247106.579768181 29184372.069442749 0 0 0 0 20860870.057590485 -9029091.2554626465 0 -9029091.2554626465 31185666.182403564 0 0 0 0 -4830066.5571784973 -6070454.3525428772 0 -6070454.3525428772 51479663.101722717 0 0 0 0 5668052.791536767 -14632767.961630767 0 -14632767.961630767 21718435.404811315 0 0 0 0 2562621.9333686829 19711417.505519867 0 19711417.505519867 57199680.886428833 0 0 0 0 388609483.08499146 -111136896.91139984 0 -111136896.91139984 90869456.243270874 0 0 0 0 -25103965.684310913 -13345403.36038208 0 -13345403.36038208 49982708.452617645 0 0 0 0 -1026002.7688683867 -16543804.376917994 0 -16543804.376917994 22628291.558704503 0 0 0 0 1339900.6572475433 -22682687.81205368 0 -22682687.81205368 33881306.030807495 0 0 0 0 -35586761.278743744 -13473929.768844604 0 -13473929.768844604 38366327.153663635 0 0 0 0 -76642540.984977722 -47473182.313396454 0 -47473182.313396454 36521835.309082031 0 0 0 0 3479020.4456856214 -13948578.368651196 0 -13948578.368651196 17832953.377990365 0 0 0 0 -12786465.109867096 -27358847.652183533 0 -27358847.652183533 9352282.0733413696 0 0 0 0 -34311867.442977905 -27339532.441513062 0 -27339532.441513062 14990342.238998413 0 0 0 0 -15485392.304916382 -18593779.410228729 0 -18593779.410228729 16606886.871063232 0 0 0 0 -75046594.698570251 13052822.448318481 0 13052822.448318481 199758360.75765991 0 0 0 0 -23847102.257118225 -77603151.569999695 0 -77603151.569999695 1577145.34375 0 0 0 0 -32381861.378433228 -49184740.564331055 0 -49184740.564331055 -15573936.031620026 0 0 0 0 -17943708.884435654 -8613911.4120426178 0 -8613911.4120426178 48526247.626754761 0 0 0 0 -26674877.663671494 -9113400.4556121826 0 -9113400.4556121826 27096969.360439301 0 0 0 0 -3813651.2961263712 -10430958.536802517 0 -10430958.536802517 33637783.988659173 0 0 0 0 58342219.031665802 4090079.2516403198 0 4090079.2516403198 33691437.601287842 0 0 0 0 -29078738.212284088 -9453510.2106208801 0 -9453510.2106208801 30855006.914279938 0 0 0 0 -26586417.91405201 -5271290.2658081055 0 -5271290.2658081055 24715618.885917664 0 0 0 0 -2598402.2039115233 -863870.68832555134 0 -863870.68832555134 31944164.903109901 0 0 0 0 -49844949.260347366 -5775192.1176242828 0 -5775192.1176242828 36900929.621059418 0 0 0 0 -82370649.116970301 40686093.966893673 0 40686093.966893673 84207768.836959839 0 0 0 0 -37877489.097698212 -238652.00092315674 0 -238652.00092315674 27118286.385420799 0 0 0 0 -34417264.380026817 -11601390.59551096 0 -11601390.59551096 35588661.84954071 0 0 0 0 -392944213.91000366 -681234001.29779053 0 -681234001.29779053 395939796.20645905 0 0 0 0 -46180622.854106903 -118307324.48019791 0 -118307324.48019791 -423710013.58587646 0 0 0 0 -5624178.1244815905 -9316971.9883761778 0 -9316971.9883761778 37120753.281577587 0 0 0 0 -45884933.561130524 41634648.601638794 0 41634648.601638794 10259663.454223633 0 0 0 0 -27121451.550125122 -5541374.6834278107 0 -5541374.6834278107 30604122.988819122 0 0 0 0 -35499428.67250824 -2571762.1653213501 0 -2571762.1653213501 37313509.500286102 0 0 0 0 -38044021.116979599 -9343135.8125905991 0 -9343135.8125905991 26983360.700241089 0 0 0 0 -39790398.857467651 1918308.5198898315 0 1918308.5198898315 28983328.123752594 0 0 0 0 -53160133.632490158 -32355397.843178749 0 -32355397.843178749 64433723.545274734 0 0 0 0 -5544409.1963727269 -4198377.6466031484 0 -4198377.6466031484 36376924.264174752 0 0 0 0 -43662914.305339813 3283849.1329517365 0 3283849.1329517365 39115158.705341339 0 0 0 0 -46502129.060425758 7993005.742181778 0 7993005.742181778 31382080.703437805 0 0 0 0 -65428750.197769165 72081101.093597412 0 72081101.093597412 28513409.775268555 0 0 0 0 -101576487.83517456 81645959.030731201 0 81645959.030731201 64474468.365240097 0 0 0 0 -37565398.020279884 -6005319.0890555382 0 -6005319.0890555382 46122825.904029846 0 0 0 0 -52408216.918235779 -4716156.5761299133 0 -4716156.5761299133 45618661.968551636 0 0 0 0 -37521252.095016479 3726885.1918182373 0 3726885.1918182373 46261922.716490626 0 0 0 0 -31970496.503097534 37924197.417251587 0 37924197.417251587 76376690.675136566 0 0 0 0 -13219136.037506104 17939104.941947937 0 17939104.941947937 -4380344.293296814 0 0 0 0 -9279652.6050300598 36860301.702590942 0 36860301.702590942 -15853772.967002869 0 0 0 0 -89437905.731855392 40745838.903663635 0 40745838.903663635 78125037.218658447 0 0 0 0 -21156732.87588501 -39927825.197753906 0 -39927825.197753906 64961131.820495605 0 0 0 0 -135417223.71124268 -82818065.759155273 0 -82818065.759155273 75120715.600524902 0 0 0 0 -138617495.15260696 21323967.445026398 0 21323967.445026398 45511479.047515869 0 0 0 0 -3770140.5399290454 2927216.1372017972 0 2927216.1372017972 4321999.6210566834 0 0 0 0 1486119.6678543091 -23421945.902832031 0 -23421945.902832031 23584861.743614197 0 0 0 0 -8354324.2747058012 -3553071.6764705405 0 -3553071.6764705405 32730431.252023578 0 0 0 0 -12427469.51347208 -18839181.812914848 0 -18839181.812914848 28165171.944732666 0 0 0 0 -12940600.150585175 -13673886.920349121 0 -13673886.920349121 24811859.546096802 0 0 0 0 -12140478.244286776 -12052439.641227722 0 -12052439.641227722 26792075.08706665 0 0 0 0 4135725.2001785263 -15087810.431095712 0 -15087810.431095712 17634221.295358345 0 0 0 0 -57679371.483848572 16503502.860263824 0 16503502.860263824 16244987.052398682 0 0 0 0 -14572923.331924438 -78363890.318443298 0 -78363890.318443298 -245408257.883255 0 0 0 0 -2615736.608490441 -1460639.6276289914 0 -1460639.6276289914 5657130.539516449 0 0 0 0 -88797828.315567017 15980578.480733871 0 15980578.480733871 18480627.58203125 0 0 0 0 -159425.69431022089 -988180.32400017418 0 -988180.32400017418 10791100.305548403 0 0 0 0 1968420.9227313995 -10712194.075115204 0 -10712194.075115204 30166097.538806915 0 0 0 0 -1193719.2328918129 -2629136.5893248059 0 -2629136.5893248059 9734883.1530337036 0 0 0 0 -27088429.805282593 18014446.731060028 0 18014446.731060028 54794916.481643677 0 0 0 0 -3498575.2425003052 -18398045.025168896 0 -18398045.025168896 46432803.397920609 0 0 0 0 -4175822.469570199 -5868440.6631796462 0 -5868440.6631796462 20800108.090965547 0 0 0 0 -23631607.594078064 -1504761.7264919281 0 -1504761.7264919281 32417373.602378845 0 0 0 0 -50647384.123186111 14596021.963813782 0 14596021.963813782 25592479.441206932 0 0 0 0 -52472281.515573502 -28240429.477104187 0 -28240429.477104187 69402454.199226379 0 0 0 0 1311932.2211437225 -30756238.189664841 0 -30756238.189664841 35014418.508573532 0 0 0 0 2313008.5841007233 -61143835.073638916 0 -61143835.073638916 75645852.743494034 0 0 0 0 112695491.67068481 65799937.430046082 0 65799937.430046082 -58480369.763973236 0 0 0 0 1242409.6640901389 -1889942.1740744133 0 -1889942.1740744133 3870786.3482997236 0 0 0 0 -13601753.17932415 -9714673.2480459213 0 -9714673.2480459213 -36281227.996604919 0 0 0 0 -53014396.972272873 29330306.994417191 0 29330306.994417191 98725260.545633316 0 0 0 0 -574037.74887466431 107889125.98800278 0 107889125.98800278 77681776.582778931 0 0 0 0 1369850.4874191284 -6456884.9974851608 0 -6456884.9974851608 22951203.980937004 0 0 0 0 -1635138.3195720166 890219.40650761197 0 890219.40650761197 4104365.589076689 0 0 0 0 25053421.171831131 20502990.717850685 0 20502990.717850685 26595348.403699875 0 0 0 0 -69698366.441474915 -2295276.6468410492 0 -2295276.6468410492 33428667.996375084 0 0 0 0 -73441937.734901428 20224992.090999603 0 20224992.090999603 -4861325.8715381622 0 0 0 0 -37611265.478713989 33151422.614634514 0 33151422.614634514 -71234121.689247131 0 0 0 0 -28366941.846084595 -47181602.766277313 0 -47181602.766277313 183983405.39745903 0 0 0 0 15599549.816202164 -14801477.092305183 0 -14801477.092305183 44585566.134902954 0 0 0 0 761462.36662942171 -1000150.4130078247 0 -1000150.4130078247 762180.21168033592 0 0 0 0 28139818.894920349 6514130.6600437164 0 6514130.6600437164 -52408635.410312653 0 0 0 0 -9240390.9272956848 7442491.4018325806 0 7442491.4018325806 141827018.76281166 0 0 0 0 -12840185.76926136 -14208993.313199043 0 -14208993.313199043 44628247.65681076 0 0 0 0 -18234543.833652496 -8173305.0434036255 0 -8173305.0434036255 41336694.822834015 0 0 0 0 -17778579.168149948 -3253030.3378200531 0 -3253030.3378200531 104911350.62034225 0 0 0 0 -2949589.5972805023 -7653048.0661430359 0 -7653048.0661430359 46412290.768703461 0 0 0 0 -6483485.8590250015 4658.8439917564392 0 4658.8439917564392 85894722.133537292 0 0 0 0 -2600261.8971252441 -11130974.783973694 0 -11130974.783973694 58510997.438789368 0 0 0 0 -8313788.5632306933 48605104.13700068 0 48605104.13700068 30943212.384815216 0 0 0 0 -229829.32940101624 -52920632.838956833 0 -52920632.838956833 117888578.03527451 0 0 0 0 920488.02502771933 -1218211.1303908005 0 -1218211.1303908005 1448625.6170192901 0 0 0 0 -5402209.4920425415 -30960262.015708923 0 -30960262.015708923 115897395.62967682 0 0 0 0 14283428.45866394 -53253548.717220306 0 -53253548.717220306 102481135.59635925 0 0 0 0 9119783.7354269028 -17690445.42300415 0 -17690445.42300415 67754693.434806824 0 0 0 0 4293414.8271903992 -17124506.239097595 0 -17124506.239097595 84652967.350820541 0 0 0 0 -11598848.026303291 -2142102.2144374847 0 -2142102.2144374847 76325642.229187012 0 0 0 0 782807.50204849243 -5519813.9135980606 0 -5519813.9135980606 73675174.17780304 0 0 0 0 -3928096.5878143311 -11312116.554279327 0 -11312116.554279327 76891708.173524857 0 0 0 0 -3388836.5505943298 -10468453.479545593 0 -10468453.479545593 70339198.218950272 0 0 0 0 -3524927.5375938416 -9515430.2364807129 0 -9515430.2364807129 70504241.89157486 0 0 0 0 -8143073.8027229309 -8277109.945318222 0 -8277109.945318222 72780045.589553833 0 0 0 0 -8950466.388381958 -4556535.6431770325 0 -4556535.6431770325 64947118.41904068 0 0 0 0 173512.96886253357 -14441559.395187378 0 -14441559.395187378 66604675.598175049 0 0 0 0 26564262.443861008 -32354494.284758091 0 -32354494.284758091 34488249.344715118 0 0 0 0 1567632.7886505127 -15774978.645898819 0 -15774978.645898819 47277818.2135849 0 0 0 0 -212107.90009403229 -8105390.5040578842 0 -8105390.5040578842 39145639.599143982 0 0 0 0 -168525436.1356144 -155432178.68911362 0 -155432178.68911362 151695538.00663185 0 0 0 0 -258906307.7879405 82780643.30707407 0 82780643.30707407 82343602.557624817 0 0 0 0 -2407379.9534833431 -27489594.05960989 0 -27489594.05960989 68123194.126091003 0 0 0 0 3511571.8706970215 -8907875.5742683411 0 -8907875.5742683411 48229650.364379883 0 0 0 0 -10191569.000171777 -1279118.1259983685 0 -1279118.1259983685 19334218.656806439 0 0 0 0 -7283627.494734738 -2862556.3338583671 0 -2862556.3338583671 15100184.079370644 0 0 0 0 -636844.46516799927 -7227778.8507423401 0 -7227778.8507423401 69361078.853363037 0 0 0 0 -14681424.595096588 -12436880.195053101 0 -12436880.195053101 72355347.196117401 0 0 0 0 -64891811.509685516 77345343.732860565 0 77345343.732860565 -73142768.006856918 0 0 0 0 -9786535.931307381 -183873.20133765682 0 -183873.20133765682 22819907.765311606 0 0 0 0 -36007646.116217613 29122948.600867271 0 29122948.600867271 7346628.0216712952 0 0 0 0 -4932020.4177079201 -2786212.8860082626 0 -2786212.8860082626 22525452.881114244 0 0 0 0 -5285227.424934444 -13306561.552238036 0 -13306561.552238036 18908496.688648749 0 0 0 0 -3127560.0768489838 -23732999.761095047 0 -23732999.761095047 36119366.929073334 0 0 0 0 -3005503.2444534302 -6025091.6576171964 0 -6025091.6576171964 23230892.868012309 0 0 0 0 -14994365.19906716 3022938.9891920248 0 3022938.9891920248 20686596.195059262 0 0 0 0 -17805711.446239471 -26021538.113140106 0 -26021538.113140106 56158319.46077919 0 0 0 0 -12133814.424819946 -18925984.151931763 0 -18925984.151931763 51063356.888859749 0 0 0 0 -3006808.8260303498 -6055754.7297534635 0 -6055754.7297534635 23990938.306817852 0 0 0 0 -1518730.2235870361 -7474516.3392543793 0 -7474516.3392543793 19248561.136335373 0 0 0 0 -12886000.654555678 -5652960.6061658859 0 -5652960.6061658859 26532134.921579361 0 0 0 0 -6452756.7289042752 -4950315.9606419932 0 -4950315.9606419932 32132281.376627818 0 0 0 0 -4195797.0075128451 -13365398.332931805 0 -13365398.332931805 20838226.062535755 0 0 0 0 -12135095.797060847 -18230324.916190028 0 -18230324.916190028 29926456.377651215 0 0 0 0 -5445769.1585924625 -1124025.7898182869 0 -1124025.7898182869 19691164.022642136 0 0 0 0 -12056662.238341689 -3590063.026412487 0 -3590063.026412487 14093887.714410782 0 0 0 0 -13224234.666266084 2512078.8044176102 0 2512078.8044176102 18429637.337817192 0 0 0 0 -8125883.4852371495 -3681928.8851743038 0 -3681928.8851743038 26187608.260488715 0 0 0 0 -76035905.088989258 23432483.771150589 0 23432483.771150589 45004105.021780014 0 0 0 0 -74994071.938302994 19539747.639301777 0 19539747.639301777 58793058.555549622 0 0 0 0 -65465697.621790886 36612526.03664875 0 36612526.03664875 7785609.0287704468 0 0 0 0 -62059639.359731674 23787271.753018379 0 23787271.753018379 43281530.802177429 0 0 0 0 -85702547.453231096 12100724.339400649 0 12100724.339400649 66971136.271354675 0 0 0 0 -81533037.463329315 50801739.627622604 0 50801739.627622604 49238686.027233124 0 0 0 0 -72533215.33708477 27153463.046154976 0 27153463.046154976 74318306.865623474 0 0 0 0 -28974992.371440887 -17650443.981180191 0 -17650443.981180191 33126968.738035202 0 0 0 0 -13316346.133207321 12024341.723327637 0 12024341.723327637 55510137.329750061 0 0 0 0 -69433422.353031158 4765543.6071968079 0 4765543.6071968079 69566454.057200909 0 0 0 0 -112857741.93296432 -70229478.505060196 0 -70229478.505060196 58378034.379833221 0 0 0 0 -12570078.714833563 -4263357.0273665227 0 -4263357.0273665227 49088040.464948744 0 0 0 0 -13198048.264377544 -20370.258544750512 0 -20370.258544750512 31655139.341868229 0 0 0 0 -14165840.696548462 -4921333.2807846069 0 -4921333.2807846069 22013377.978914261 0 0 0 0 -29922784.735996246 -3441119.5701065063 0 -3441119.5701065063 44859447.551574707 0 0 0 0 18703555.802739143 -27173042.56172514 0 -27173042.56172514 50871286.481018066 0 0 0 0 -5615096.5248938259 -19741961.979737908 0 -19741961.979737908 40226179.449637629 0 0 0 0 33233872.41494751 -22219149.234176636 0 -22219149.234176636 37950626.439933777 0 0 0 0 -44561.060411557555 -180392.30705567822 0 -180392.30705567822 2833687.5770250056 0 0 0 0 -18023954.779623866 90117537.684605122 0 90117537.684605122 43224919.381835938 0 0 0 0 -2798249.7129986547 1070355.9621786177 0 1070355.9621786177 3767378.4372230545 0 0 0 0 -21164242.434584141 -41688249.398677707 0 -41688249.398677707 115510780.62561035 0 0 0 0 -4706453.6064147949 13936000.506820679 0 13936000.506820679 170136015.19459534 0 0 0 0 -29316477.220626831 15471375.784286499 0 15471375.784286499 -26305836.619003296 0 0 0 0 -52139255.231071472 -2754639.5340194702 0 -2754639.5340194702 166403937.9410553 0 0 0 0 -15269379.986282349 -40858715.787706375 0 -40858715.787706375 167217682.03942871 0 0 0 0 -1138729.4169577397 1831280.7309110425 0 1831280.7309110425 -2335333.0486822054 0 0 0 0 -15803979.926626205 -17409732.243829727 0 -17409732.243829727 21954577.864139557 0 0 0 0 -23580002.5247612 -27501640.660575867 0 -27501640.660575867 136343019.82049561 0 0 0 0 -10108757.781431468 -5313781.8881472442 0 -5313781.8881472442 41562604.569977738 0 0 0 0 -6688697.9413070679 -4715863.1542282104 0 -4715863.1542282104 23524984.966743469 0 0 0 0 -7998492.9565966427 -13104062.010770705 0 -13104062.010770705 50370209.346235268 0 0 0 0 -35885875.915008545 -20241711.347612381 0 -20241711.347612381 46519687.720451355 0 0 0 0 13710139.492279053 -21211513.372840881 0 -21211513.372840881 16483157.040981293 0 0 0 0 -1514008.1954553388 -3067448.0138089154 0 -3067448.0138089154 4430899.940501269 0 0 0 0 -3973412.6002959465 -22082917.455783166 0 -22082917.455783166 17491720.92682948 0 0 0 0 -8091700.627123368 -2342389.3175263712 0 -2342389.3175263712 22420638.616546106 0 0 0 0 -24496162.409099102 -9261660.2190074921 0 -9261660.2190074921 28731809.630496979 0 0 0 0 -19944229.114111185 -739651.47852277756 0 -739651.47852277756 24499701.94761467 0 0 0 0 -16844188.220769882 -3817766.6662216187 0 -3817766.6662216187 29802692.512290955 0 0 0 0 -7745723.1693515778 -7708311.5277843475 0 -7708311.5277843475 22013625.452865601 0 0 0 0 -4517522.8596862024 -3772133.1975229741 0 -3772133.1975229741 20145398.812154628 0 0 0 0 -13247908.770600319 -10938212.579669952 0 -10938212.579669952 22695002.289596558 0 0 0 0 -27124533.919796705 -284004.64172887802 0 -284004.64172887802 21194011.015152931 0 0 0 0 -5930838.7309125159 -711068.73721355095 0 -711068.73721355095 16299847.757950874 0 0 0 0 -36304798.273045897 1495848.5617414713 0 1495848.5617414713 30289112.307739258 0 0 0 0 -6156173.028789415 -2355455.4729338256 0 -2355455.4729338256 32156518.446023136 0 0 0 0 -21078326.525629997 9858667.5851173401 0 9858667.5851173401 26368872.742738724 0 0 0 0 -38559165.456443161 2158844.5567388535 0 2158844.5567388535 27462597.719161987 0 0 0 0 -12134092.085187199 7406424.0344738625 0 7406424.0344738625 30127490.445323255 0 0 0 0 -25792479.561562598 -3517186.0888899565 0 -3517186.0888899565 45886413.023071289 0 0 0 0 -29571837.10918808 -8162615.2217254639 0 -8162615.2217254639 44851501.731384277 0 0 0 0 -25127140.581506729 -7728323.2042541504 0 -7728323.2042541504 43092939.571662903 0 0 0 0 -22508284.675895691 -2245571.8749084473 0 -2245571.8749084473 44298368.903572083 0 0 0 0 -24266958.725812912 -3075395.8903427124 0 -3075395.8903427124 57170078.616409302 0 0 0 0 -15413731.742671967 3871826.7300338745 0 3871826.7300338745 44701243.07824707 0 0 0 0 -72914939.46043396 27154418.932418823 0 27154418.932418823 19311400.927400589 0 0 0 0 -13309252.167762756 6112112.2261276245 0 6112112.2261276245 46698502.748573303 0 0 0 0 -12760023.17960701 12099656.219340542 0 12099656.219340542 31804097.067854472 0 0 0 0 -67329480.312667847 13464698.713661194 0 13464698.713661194 10208579.439208984 0 0 0 0 -9883469.7900497522 -3998612.4854484973 0 -3998612.4854484973 32275986.060910761 0 0 0 0 1495241.4074511714 -10215236.87242499 0 -10215236.87242499 20800251.523277029 0 0 0 0 -35323004.849441528 -24508470.409667969 0 -24508470.409667969 61828983.946777344 0 0 0 0 14486649.293960571 -75527457.294830322 0 -75527457.294830322 78992874.146366119 0 0 0 0 -11215787.356132507 -68453080.35736084 0 -68453080.35736084 115090441.63903809 0 0 0 0 22531360.651885986 -28872071.77520752 0 -28872071.77520752 61406688.438934326 0 0 0 0 71985746.086967468 -42091061.756072998 0 -42091061.756072998 62830489.263214111 0 0 0 0 -2785309.4009323642 11748266.808681775 0 11748266.808681775 -2834023.8585774004 0 0 0 0 -12471514.474300647 -6049888.2142484039 0 -6049888.2142484039 52013011.11425586 0 0 0 0 -172447172.77285767 17652248.026367188 0 17652248.026367188 60271225.727752686 0 0 0 0 -41493911.026832581 -41494503.881340027 0 -41494503.881340027 55517916.985427856 0 0 0 0 107273575.13875961 -82348207.435211182 0 -82348207.435211182 87937463.003082275 0 0 0 0 -9101622.5896841548 -26872933.380053252 0 -26872933.380053252 84005261.587421685 0 0 0 0 -2678339.6623288393 -19486146.860782787 0 -19486146.860782787 48526616.4021805 0 0 0 0 -97464121.000671387 130336422.2442627 0 130336422.2442627 -1011987061.7836914 0 0 0 0 -101255893.93572998 5842521.038772583 0 5842521.038772583 79640047.847929001 0 0 0 0 21396439.614605188 -58569317.284527779 0 -58569317.284527779 53468279.524230957 0 0 0 0 -59503239.439285278 -223840834.04090881 0 -223840834.04090881 1631598620.5008545 0 0 0 0 -28093342.846374512 -34423955.495941162 0 -34423955.495941162 118255516.22680664 0 0 0 0 26724980.207374573 -87720931.807800293 0 -87720931.807800293 169937081.38882446 0 0 0 0 -37683838.619277954 91976646.456039429 0 91976646.456039429 192249036.93375778 0 0 0 0 -1462072.0373134613 24275538.206708908 0 24275538.206708908 45977176.565185547 0 0 0 0 -5240513.1664734706 -3159443.0163813755 0 -3159443.0163813755 14823452.555608913 0 0 0 0 -13526582.331718445 -64820178.784446716 0 -64820178.784446716 101898528.47477722 0 0 0 0 -12514386.810183782 -7671766.0587316826 0 -7671766.0587316826 54618220.281027079 0 0 0 0 -41608969.208732605 -78297569.64617157 0 -78297569.64617157 -49144422.231185913 0 0 0 0 -1698896.5298295021 28691707.577412844 0 28691707.577412844 75023366.097076416 0 0 0 0 -20008291.73399353 19733763.931335449 0 19733763.931335449 72167647.181091309 0 0 0 0 -71154148.649261475 -68325972.845092773 0 -68325972.845092773 117389742.48652649 0 0 0 0 -125431765.89817953 -43985038.23345089 0 -43985038.23345089 122039736.06103516 0 0 0 0 -123881603.4184351 -55633678.488653183 0 -55633678.488653183 106949975.90917969 0 0 0 0 -187989244.38248444 -68758232.264984131 0 -68758232.264984131 121809146.6602478 0 0 0 0 -59273401.949501038 -57556930.442504883 0 -57556930.442504883 100825695.07925415 0 0 0 0 -117179295.67494202 -40393167.415893555 0 -40393167.415893555 96487043.204238892 0 0 0 0 -65260606.139404297 -49061294.428009033 0 -49061294.428009033 110920697.87960815 0 0 0 0 -41177058.347984314 -43272026.750743866 0 -43272026.750743866 66522145.241821289 0 0 0 0 -96162799.418640137 16765520.393066406 0 16765520.393066406 1072675.2920265198 0 0 0 0 -119552327.558918 -38878644.696334839 0 -38878644.696334839 118975523.69326782 0 0 0 0 -117466514.44607544 -3811322.2585296631 0 -3811322.2585296631 106892204.70295715 0 0 0 0 -142881911.97858429 -14262416.690261841 0 -14262416.690261841 104899007.65786743 0 0 0 0 -152037227.10430908 12022022.469844818 0 12022022.469844818 149120747.74255371 0 0 0 0 -157872416.82372284 11883715.177688599 0 11883715.177688599 153103485.09890747 0 0 0 0 -173343469.02591705 81923345.040557861 0 81923345.040557861 189150073.71566772 0 0 0 0 -61335092.224063873 92986791.197463989 0 92986791.197463989 150573193.95498657 0 0 0 0 -63701240.021194577 151577320.51683092 0 151577320.51683092 109887001.74151611 0 0 0 0 -413785062.02619171 184473731.25907898 0 184473731.25907898 223471114.31256104 0 0 0 0 -256024327.83642769 58789630.080085754 0 58789630.080085754 187577387.01812744 0 0 0 0 -187627894.82795048 219489603.80702209 0 219489603.80702209 222450744.06399536 0 0 0 0 -215006241.03853607 26665686.315856934 0 26665686.315856934 206247770.15940762 0 0 0 0 -236683775.48343277 -1908111.0234680176 0 -1908111.0234680176 168584109.29733276 0 0 0 0 23825989.035076141 190034823.87263489 0 190034823.87263489 33870706.634162903 0 0 0 0 78002827.749263763 134949883.04099274 0 134949883.04099274 63787094.259887695 0 0 0 0 23433282.302883148 195789238.62834167 0 195789238.62834167 132279086.79614258 0 0 0 0 680514992.25671387 263692661.02663422 0 263692661.02663422 -63661369.935539246 0 0 0 0 -2221260.5685894517 131143.04838088341 0 131143.04838088341 61722.72790825367 0 0 0 0 417459320.12402344 658771488.322052 0 658771488.322052 -569954937.34805298 0 0 0 0 -77688624.018859863 530170314.41734314 0 530170314.41734314 -47445673.038467407 0 0 0 0 -452323849.04839325 726539101.48596191 0 726539101.48596191 -8908057.3547134399 0 0 0 0 -379916138.78739166 194834241.46391296 0 194834241.46391296 -412637537.79117966 0 0 0 0 -440738297.23987579 571440893.77256775 0 571440893.77256775 517106691.4269104 0 0 0 0 -225991477.2791748 -120873727.96539307 0 -120873727.96539307 81605947.72517395 0 0 0 0 -434323076.37389374 -12769474.579956055 0 -12769474.579956055 205460027.12688971 0 0 0 0 -323595217.79730225 113041065.24525452 0 113041065.24525452 279543799.97160339 0 0 0 0 -1051619403.8958206 -378399.50225830078 0 -378399.50225830078 264825353.08828735 0 0 0 0 -1192350502.4107056 -478565193.24301147 0 -478565193.24301147 44962743.656608582 0 0 0 0 -1745987408.8892365 304767414.36117554 0 304767414.36117554 485263473.01255035 0 0 0 0 -313728982.2686615 -192728886.86364746 0 -192728886.86364746 137307630.96318054 0 0 0 0 -229394079.2585144 -104716365.27879333 0 -104716365.27879333 82455443.5026474 0 0 0 0 -645015447.43256378 1311936748.3158112 0 1311936748.3158112 -1536920953.0504074 0 0 0 0 -210118148.44928932 -338870417.80872345 0 -338870417.80872345 -229748849.7749939 0 0 0 0 -6713517.6497269124 1986941.8965708762 0 1986941.8965708762 3264672.7761156857 0 0 0 0 -1661891496.570117 2061777045.4868698 0 2061777045.4868698 1745167333.733429 0 0 0 0 -829343731.65943909 210903494.50952148 0 210903494.50952148 -163514678.44068909 0 0 0 0 -6050947.7650137693 -5828406.0063312985 0 -5828406.0063312985 5444137.5048847049 0 0 0 0 -1617111192.4198265 204468695.88420105 0 204468695.88420105 697977814.22164917 0 0 0 0 -881008156.04333878 277402326.07266426 0 277402326.07266426 17704204.886474609 0 0 0 0 -309701621.04170227 278712703.30082703 0 278712703.30082703 -299808887.87902069 0 0 0 0 641309570.95034409 948142776.11366653 0 948142776.11366653 -82839127.409088135 0 0 0 0 -291073321.45214844 328736145.71162415 0 328736145.71162415 413297386.46601868 0 0 0 0 -2996415.6995610557 -2787960.5298662018 0 -2787960.5298662018 2275478.9827372134 0 0 0 0 -1151466664.4249287 1016787580.2026825 0 1016787580.2026825 158715264.5241394 0 0 0 0 -1216327488.6782532 -486624433.99572754 0 -486624433.99572754 -3133328056.4620972 0 0 0 0 -147202645.71437073 735715510.94247437 0 735715510.94247437 -563704865.47036743 0 0 0 0 -283926494.74897385 22568010.02015686 0 22568010.02015686 255518887.87518311 0 0 0 0 -1195418033.3243809 -347634239.59372711 0 -347634239.59372711 333708805.72433472 0 0 0 0 1205197122.5608158 1108456047.0040703 0 1108456047.0040703 797958584.60836792 0 0 0 0 -279565267.70136261 -286874148.51522827 0 -286874148.51522827 2148538890.7901611 0 0 0 0 1131827755.6020451 -1566839065.3295174 0 -1566839065.3295174 1137330795.3107758 0 0 0 0 -24990080.351428986 -705972160.19621277 0 -705972160.19621277 497757733.98035431 0 0 0 0 39584832.384918213 -631074270.53739548 0 -631074270.53739548 248934868.6158905 0 0 0 0 -1123144818.5470963 312834371.4434967 0 312834371.4434967 508916555.72067261 0 0 0 0 597542707.09883189 -732296056.83386326 0 -732296056.83386326 272562656.83268738 0 0 0 0 -736353630.5528183 420170806.53805542 0 420170806.53805542 -32243631.983215332 0 0 0 0 -3765737.7180602662 -3795081.8780851793 0 -3795081.8780851793 3828551.1704860181 0 0 0 0 -255095434.55588531 -521345033.4200325 0 -521345033.4200325 546586321.02529907 0 0 0 0 -353642139.00679016 -11549361.901550293 0 -11549361.901550293 357876708.18997192 0 0 0 0 -564849226.1910553 185994506.50104523 0 185994506.50104523 233166958.9871521 0 0 0 0 -344290509.47585297 280763286.46857452 0 280763286.46857452 -54989370.890365601 0 0 0 0 -410242421.76889229 154664606.73361015 0 154664606.73361015 118593158.03588867 0 0 0 0 -219883935.86951447 141405502.13269806 0 141405502.13269806 90615238.106552124 0 0 0 0 -237775058.20552349 24682467.515686989 0 24682467.515686989 88093784.127166748 0 0 0 0 -327890784.79317474 43349034.589679718 0 43349034.589679718 84747662.491165161 0 0 0 0 -30782126.987091064 -16348844.062393188 0 -16348844.062393188 20706615.756530762 0 0 0 0 -3061464.7613878753 -25734168.264049605 0 -25734168.264049605 26757594.607609674 0 0 0 0 -25336358.912158966 -20446080.453033447 0 -20446080.453033447 19561087.674942017 0 0 0 0 -73556009.195892334 8747566.5389175415 0 8747566.5389175415 8505349.1921844482 0 0 0 0 -23520863.179993093 -6453654.0212397054 0 -6453654.0212397054 17192265.864280857 0 0 0 0 -134916010.56356812 8844206.6551895142 0 8844206.6551895142 33530173.897293091 0 0 0 0 -30872775.913070679 1814572.8277130127 0 1814572.8277130127 28381160.419250488 0 0 0 0 -28505321.168746948 -13391696.230056763 0 -13391696.230056763 26746380.570526123 0 0 0 0 -33066539.971984863 -24021243.358787537 0 -24021243.358787537 36263852.772033691 0 0 0 0 171116.38489802927 -536779.94154832512 0 -536779.94154832512 1489137.6371661201 0 0 0 0 -12811041.722118724 1251397.7668597214 0 1251397.7668597214 33482216.06593293 0 0 0 0 -12283050.226213455 -6247701.8968664482 0 -6247701.8968664482 42000057.591231361 0 0 0 0 -24536715.904022217 -2778853.8486557007 0 -2778853.8486557007 31228290.386291504 0 0 0 0 -7748868.3676872253 4522430.5091552734 0 4522430.5091552734 69346257.320205688 0 0 0 0 -17952125.36076355 -6340576.8631057739 0 -6340576.8631057739 58302876.037631989 0 0 0 0 1327202.1306991577 -11302225.003036499 0 -11302225.003036499 85511771.530479431 0 0 0 0 -62638334.634559631 -9657691.6406402588 0 -9657691.6406402588 197959987.89785767 0 0 0 0 -17111225.680804983 1044466.9273923263 0 1044466.9273923263 9212088.496527046 0 0 0 0 51138311.155246735 90577302.1431427 0 90577302.1431427 59229062.432495117 0 0 0 0 -346644105.02401733 212728235.7731266 0 212728235.7731266 -119273396.81594849 0 0 0 0 -75189154.65397644 111171343.88867188 0 111171343.88867188 -118316193.92627716 0 0 0 0 
</DataArray>
<DataArray type="Float64" Name="cross_section_updated" format="ascii">
1 1 0.051453264937421278 1 1 1 1 0.051450126703525972 1 1 1 1 1 1 1 1 1 1 1 1 0.05554060933292948 1 1 1 1 0.055551093863956472 1 1 1 1 1 1 1 0.055537933252212277 1 1 1 1 1 1 1 1 0.061692614006851026 1 1 1 1 1 1 1 1 1 1 1 0.062714011093638541 0.048148792392460768 1 1 1 1 1 1 1 1 0.074963568954960036 1 1 1 1 1 1 1 1 1 1 1 1 1 1 1 1 1 1 1 1 1 1 0.068071157356537959 1 1 1 1 1 1 1 1 1 1 1 0.055119055229728375 1 1 1 0.05210803761284144 1 1 1 1 1 1 1 1 1 1 1 1 1 1 1 1 1 1 1 1 1 1 1 1 1 1 1 1 1 1 1 1 1 1 1 1 1 1 1 1 1 1 1 1 1 0.049668760537560717 1 0.055897201383946077 1 1 1 1 1 1 1 1 1 1 1 1 1 1 1 1 1 1 1 1 1 1 1 1 1 1 0.053230431895183838 1 1 0.050474034975786938 1 0.051749792026687905 1 1 1 1 1 1 1 1 1 1 1 1 1 1 0.04885495932180689 1 0.064895138122863516 1 1 1 1 1 1 1 0.061240262172954307 1 0.065237654992411728 1 1 1 1 1 1 0.04785639449896438 1 1 0.073069406937534304 1 1 1 1 1 1 0.072675569029116288 0.090814034266472221 1 1 0.049949292139667097 1 0.073782421132303863 1 0.050401272756429069 0.062629333944599588 1 1 1 0.079161312933340194 1 1 1 1 1 1 1 1 1 1 1 1 1 0.10517565259352804 1 1 1 1 1 1 1 0.11938527822226019 1 1 1 1 1 1 1 0.13231826759866444 1 1 1 1 0.052579285653452559 1 1 1 1 1 1 0.050307798896913947 1 1 1 0.057345633298177018 1 1 1 1 1 1 1 0.061349419292352783 1 1 1 1 1 1 0.050163512242388464 1 1 1 1 1 1 0.051791462891686721 1 1 1 1 1 1 1 0.049596081402348474 1 1 1 1 1 1 1 1 1 1 1 1 1 1 1 1 1 1 1 1 1 0.048302512657169019 0.050179570532482266 1 1 1 1 1 0.044159016693930776 1 1 1 1 1 1 1 0.070874258036834337 1 0.027609866373802035 1 1 1 0.071916401883606734 1 1 1 0.050782766754399924 1 0.050052859332981259 1 1 1 1 1 1 1 0.097493070524831943 1 1 1 1 1 1 1 0.1420646500304919 1 1 1 0.049916004184841906 1 1 1 1 1 1 1 1 1 1 1 1 1 1 1 1 1 1 1 1 1 1 1 1 1 1 1 1 1 1 1 1 0.10784532091416717 1 1 1 1 1 1 1 1 1 1 1 1 1 1 1 1 1 1 1 1 1 1 1 1 1 1 1 1 1 1 1 1 0.04990222765874603 1 1 1 1 1 1 1 1 1 1 1 1 1 1 1 1 1 1 1 1 0.049894953523792425 1 1 1 1 1 1 1 0.050185386725733597 1 1 1 1 1 0.050448748649051189 1 1 0.050012657039645261 1 0.05177349300942654 1 1 1 1 0.053704409059481317 1 1 0.055736323726373597 1 1 1 1 1 1 0.056733333143918804 1 1 1 1 1 1 1 1 1 1 1 1 1 1 1 1 1 1 1 0.054803028733930004 1 1 1 1 1 1 1 1 1 1 1 0.051296410020337413 0.053917906474890281 1 1 1 1 1 1 1 1 1 1 1 1 1 1 1 1 1 1 1 1 1 0.04983246429278694 1 0.049882809967869798 0.049072862783334378 1 1 0.051150809021280483 1 1 1 1 1 1 1 1 1 1 1 1 1 0.047599127102563546 1 1 1 1 1 1 1 0.048306907218504218 0.048357088332429909 1 1 1 1 1 1 1 1 0.051280425215535913 0.0507301248981369 1 1 1 0.049614243095078489 1 1 1 1 1 1 1 1 1 1 1 1 1 1 1 1 1 1 1 1 1 1 1 1 1 1 1 1 1 1 1 1 1 1 1 0.049963792455523792 1 1 0.050223783132431699 1 1 1 1 0.050565945261654005 1 1 1 0.049897760567490325 1 1 1 0.049941497846416265 1 1 0.049956225276060376 1 1 1 1 1 1 1 1 1 1 1 1 1 1 1 1 1 1 1 1 1 0.05027314668305443 1 1 1 0.050212393788568906 1 1 1 1 1 0.050326189059137535 1 1 1 1 1 1 0.050057431678641032 1 1 1 1 1 1 1 1 1 1 1 1 1 1 1 1 1 1 0.050118186811237808 1 1 1 1 1 1 1 1 1 1 1 1 1 1 1 1 1 1 1 1 1 0.050342162129222323 1 1 1 1 1 1 1 1 1 1 1 1 1 1 1 0.050293440823760999 1 1 1 1 1 1 1 1 1 1 1 1 1 1 1 1 1 1 0.065504413273997836 1 1 1 1 1 1 1 0.050248617896064579 1 1 1 1 1 1 1 1 1 1 1 1 1 1 1 1 1 1 1 1 1 0.053397376787644224 1 1 1 1 1 1 1 1 1 0.059760865768101357 1 1 1 1 1 1 1 1 0.11768829344006454 1 1 1 1 1 1 1 1 1 1 1 1 1 1 1 1 1 1 1 0.11177699737987094 1 1 1 1 1 0.12699685232350452 1 1 1 0.049785879181705885 1 1 1 1 1 1 0.043458520708305456 1 1 1 1 1 1 1 1 1 1 0.053080085082627848 1 1 1 1 1 1 1 1 1 1 1 1 0.048861929304103352 1 0.059814464112115572 1 1 1 1 1 1 1 0.11158677153598272 1 0.05897391915253123 1 1 1 1 1 1 1 1 1 1 1 1 1 1 1 1 1 1 1 1 1 1 1 1 1 1 1 1 1 1 1 1 1 1 1 1 1 1 1 1 1 1 1 1 1 0.055022069650467194 0.05683710911165378 1 1 0.049720757489112061 1 1 1 1 1 1 1 1 1 1 1 1 1 1 1 1 0.047041200878958342 1 1 1 1 0.11551208233865737 1 1 0.050804581934358176 1 1 1 1 1 1 0.10660447393865675 1 0.10062332442141213 1 1 0.049821325356938687 1 1 1 1 1 1 1 1 1 1 0.049054235713462485 1 1 1 1 1 0.057219392015484608 0.05007573385339921 1 1 1 1 0.073611319647236176 1 1 0.075839964714709565 1 0.070887768748627455 1 1 1 1 1 0.055393867809998359 1 1 0.050020788276592683 1 1 1 1 1 1 1 1 1 1 1 1 0.052785608499090669 1 1 1 1 1 1 1 1 1 1 1 1 1 1 1 0.052389818770460714 1 0.050004408904690906 1 0.055494479342650803 0.055402728893842582 1 0.054501112638278386 1 1 0.050056758747160035 1 1 1 1 1 1 0.038858638176034591 1 0.049712480788360394 1 1 0.037060208666977477 1 1 1 0.076781872260309067 1 1 0.050068482683242793 1 1 1 1 1 0.063424480747981002 1 1 0.055927506869346943 1 1 1 1 1 0.050851391303543866 1 0.07179940298092663 1 1 0.074620163223306779 1 1 0.059984678991224318 1 1 1 1 1 1 1 1 0.057062173392391835 1 1 1 1 1 1 1 1 1 1 0.054282317289885654 1 1 1 1 0.047706588132093164 1 1 0.041756149781069632 1 1 1 1 1 0.069809354411203187 1 1 1 1 1 0.049991600134297813 1 0.049637007503684577 1 1 1 1 1 1 0.050984532953687503 1 1 1 1 1 1 1 1 0.066600977618877399 0.06167433545823349 0.051679237467577105 1 1 1 1 0.065046740478529624 1 0.050328179704305198 1 1 1 0.077963295600141827 0.050048071752491936 1 1 1 0.053692567210290476 1 1 1 0.061496321645933091 1 0.049975675289981432 1 0.05317853966880344 0.071267857695238773 1 0.050000203342244295 1 1 1 1 0.062645004494405562 1 1 1 0.050784262383474194 1 0.054114332507754867 1 0.071694746340296739 1 1 1 1 1 1 1 0.050387176167890485 1 1 1 1 0.072540878766561151 1 1 1 1 1 1 1 1 0.049981588333187131 1 0.051268900745247828 0.0520178560112632 1 1 1 0.052263726376236053 1 1 1 1 0.051884909369451629 0.055189708732703735 1 1 0.072396452519788004 0.050197547255038555 1 1 1 1 1 0.050076782520534421 1 1 1 1 1 1 1 1 0.050076372002681058 1 0.050145147220396404 1 1 1 1 1 1 1 1 1 1 1 1 1 1 1 1 1 0.050065638587808381 1 1 1 1 1 1 1 1 1 1 1 1 1 1 1 1 1 1 1 1 1 1 1 1 1 0.049938682108956904 1 0.050210349316382866 1 1 1 1 1 0.049995554985948334 0.050015859026055126 1 1 1 1 0.052682915761277344 0.049297608976310914 1 0.047650243135467625 1 1 0.052580366397855648 1 1 0.050502439733402432 1 1 1 1 0.05160688536464425 0.049922288742459922 1 1 1 1 1 1 1 1 0.049994564788693248 1 1 0.049977526017528612 1 1 1 0.050071072381925125 1 1 0.050013612354766396 1 1 1 1 1 1 0.049875440266860166 1 1 1 1 1 1 0.050886624167621644 1 1 1 1 1 0.049547547810830567 1 1 0.051165948858752135 0.051273522096458204 1 1 0.05224686568526038 1 1 0.050009782970923358 1 1 1 1 1 1 1 1 1 1 1 1 0.049668674493272558 1 0.055106129884345545 1 1 0.052481011800314156 1 1 1 1 1 1 0.049988326089063839 1 1 1 0.050561602829361209 0.050769127914240618 0.050005311023012089 1 1 1 0.065620409974749647 0.048134110929316104 1 0.054006333669375808 0.05647106954303252 1 1 0.050959751631657793 1 1 0.050739204423761293 1 0.050923460144287266 1 0.048282738289758445 1 1 1 0.053558842340258664 0.050597204986756544 1 1 0.054629562682796576 0.047810284169610667 0.049314396224689507 0.049782320595646024 1 1 1 0.048802223460157404 0.05286215852833212 1 1 0.050472725596988788 0.050676362158974191 0.052515744746640516 1 0.045763487953922807 0.053117524367616242 1 1 0.060135630140504492 1 0.05152005556389401 0.054946692563931601 1 0.058245360333729068 1 1 0.049275304987664782 1 0.05451723196654433 0.050091833440612014 1 1 1 1 0.050725893726472709 0.05180252412561126 1 1 0.049950346860848094 1 1 1 0.05052288461937518 1 1 1 1 1 1 1 1 1 1 1 1 1 1 1 1 1 1 1 1 1 1 1 1 1 1 1 1 1 1 1 1 1 1 1 1 1 1 1 1 1 1 1 1 1 1 1 1 1 1 1 1 1 1 1 1 1 1 0.059635082980069559 1 0.052487936800329253 1 1 1 1 1 1 1 1 1 1 1 1 1 1 0.05766347409421807 1 1 1 1 1 1 1 1 1 1 0.053551872663883129 1 1 1 1 1 1 1 1 1 1 1 1 1 1 1 1 1 1 1 1 1 1 1 1 1 1 1 1 1 1 1 1 1 1 1 1 1 1 1 1 1 1 1 1 1 1 0.049743133016770753 1 1 1 0.048943141262114562 1 0.051431687933746362 1 1 1 1 1 0.053721867910399901 1 0.054707181442298018 1 1 1 1 1 1 1 1 1 1 1 1 1 1 1 1 1 1 1 1 1 1 1 1 1 0.051841730829579082 1 1 1 1 1 1 0.066012849447176336 1 0.055589537891692284 1 1 1 0.080002414077294401 1 1 0.074872429389738274 1 1 1 1 1 1 1 1 1 1 1 1 1 1 1 1 1 1 1 1 1 1 1 1 1 1 1 1 1 1 1 1 1 1 1 1 1 0.045146295161687736 1 0.059950587105671083 1 1 1 1 1 1 1 1 1 1 0.049857477765490855 1 1 1 1 1 1 1 1 1 1 1 1 1 1 1 1 1 0.06273320986617642 1 1 1 0.049981409142055372 0.058070412807114495 1 0.049099531345239478 1 1 1 1 1 1 1 1 0.05376655528681893 1 1 1 1 0.052657715791882012 1 1 1 1 1 1 1 0.050060440690236283 1 1 0.083160934051208113 1 0.072690424614032606 1 1 0.050266328816046084 1 1 0.034302544090004869 0.049953640465680973 1 1 1 1 1 1 1 1 1 1 1 1 1 1 1 0.082679554903747593 1 0.042854010300724839 1 1 1 0.060867092146313945 1 0.046106175308702854 1 1 1 1 1 1 1 1 1 1 1 1 0.049579151858797951 1 0.053308289118268487 1 1 1 1 1 1 1 1 0.049534005620496285 1 1 0.049742949723160033 1 1 1 0.060831103985634974 0.057407184689978352 1 1 1 1 1 1 1 1 1 1 1 1 1 1 1 1 1 1 1 1 1 0.050370985624939281 1 1 1 1 1 0.049994193340170072 1 0.049338559431011876 1 1 1 1 0.05084007273165192 1 1 0.057863010564014911 1 1 1 1 1 0.062165176023237415 1 1 1 1 0.070437867820363848 1 1 1 1 1 1 1 0.051934591105146935 1 1 1 0.055079738094097205 1 1 1 1 1 1 1 1 1 1 1 0.053262095033867127 1 1 1 1 1 1 1 1 0.049840287371104144 1 1 1 1 1 1 0.0496904506867933 1 1 1 1 1 1 0.049906584890120384 1 1 1 1 1 1 1 1 1 1 1 0.048002535880563746 1 1 1 0.049815472459538206 1 1 1 0.057677184692077901 1 0.057122037305617476 1 1 1 1 1 1 0.050056421574431222 1 1 1 1 1 1 1 1 1 1 1 1 1 1 1 0.056471473566856549 1 1 1 1 1 0.06020209398608202 1 1 1 1 1 1 1 1 0.054188697213597592 1 1 1 1 1 1 1 1 1 1 1 1 1 1 1 1 0.049028303924940626 1 1 1 1 0.052099969291509368 1 1 1 1 1 1 1 1 1 1 1 1 1 1 1 1 1 1 1 1 1 1 1 1 1 1 0.05913680257371122 1 1 1 0.0499545689769271 1 0.051233713240946166 1 1 1 1 0.054465491385543227 1 0.051780055196214744 1 1 1 1 1 0.050799395043815657 1 1 1 1 1 1 1 1 1 0.06167108838625901 1 1 1 1 1 1 1 1 1 1 1 1 1 1 1 1 1 1 1 1 1 1 1 1 0.04752341381687563 0.051999213548189947 1 1 1 1 1 0.049984846331056966 1 1 1 0.048967391924380155 1 1 1 0.046900102393143947 1 1 0.055638087466231646 1 0.049376825546084399 1 1 1 1 0.049461676042089002 1 1 1 1 0.049160311723245705 0.0499821367655389 1 1 1 1 1 1 1 1 1 1 1 1 0.049924013407244283 1 1 1 1 0.050001532061994973 1 1 1 1 1 0.05183444330300669 1 1 0.0506329195638104 1 1 1 1 1 1 1 1 1 1 1 1 1 1 1 1 0.049989120445665926 1 1 0.050505831298640835 1 1 1 0.05095987801104971 1 1 1 1 1 1 1 1 1 1 1 0.050454046712408884 1 1 1 1 1 1 1 1 1 1 1 1 1 1 1 1 0.050224068171576812 1 1 0.062912328736674836 1 0.057602943580857449 1 1 0.057507640352185661 1 0.050698820680589597 1 0.056252074992854562 1 1 1 1 1 1 1 1 1 1 1 1 1 0.053991795301101819 1 0.053840877088040105 0.049911409607972815 1 1 0.053188827113500856 0.050391651250501816 1 1 0.049997802669439449 0.050505988341133019 1 1 1 0.053084185401634842 1 0.051777584656560086 1 1 0.054066799817392201 1 1 1 1 0.054259615781408796 0.050091098767286055 1 0.060933536497011102 1 1 0.049751639555257784 0.050034413363469539 1 1 0.05070651060635481 1 1 1 0.051108971370540726 1 1 1 0.053848470745147758 0.058509926206726959 0.050598701059134325 1 1 0.049249542183466402 1 0.069341161682550334 0.050014251516273187 1 1 1 1 1 1 1 1 1 1 1 0.051182826944874305 0.05235044412348943 1 0.052596329410668011 1 0.051919492311302856 1 0.050051551215167196 1 1 1 0.050042580227432819 1 1 1 1 1 0.050911518920743803 1 1 1 1 1 1 1 1 1 1 1 1 1 1 1 1 1 1 1 1 1 1 1 1 0.053440595107589445 1 1 1 1 1 1 1 1 1 1 1 1 1 1 1 1 1 1 0.05614640343353991 1 1 1 1 1 1 1 1 1 1 1 0.05559815321325378 1 1 1 1 1 0.053025711566749859 1 1 1 1 1 1 1 1 1 1 1 1 1 1 0.052592396987139529 1 1 1 1 1 1 1 1 1 1 1 1 1 1 0.048144561242644303 1 0.061329855683222911 1 1 1 1 0.057300001986335336 1 1 1 1 1 1 1 1 1 1 1 1 0.047806611479276409 1 0.049941009860798233 1 1 1 1 0.048858394323707963 1 1 1 1 1 1 1 0.060831976575361546 1 1 1 1 1 1 1 0.050007592417226132 1 1 1 0.046416312197169893 1 0.04999950690904955 1 1 1 1 1 1 1 1 1 0.048555681875280976 1 1 1 1 1 1 1 1 1 1 1 1 1 1 1 1 1 1 1 1 1 1 1 1 1 1 1 1 1 1 1 1 1 1 1 1 1 1 1 1 1 1 1 0.049881559850453366 1 1 0.048046010243663832 1 1 1 1 1 1 1 1 1 1 0.049962857543463524 1 1 1 1 1 0.050569244651199968 1 1 0.049337706563144068 1 1 1 1 1 1 0.047084824748941531 1 1 1 1 0.050015114817188802 1 1 0.048121180139178293 1 0.048991620958264176 1 1 1 1 1 1 1 1 1 1 1 0.049596567670708719 1 0.048000746190299051 1 1 1 1 0.049906867931412205 1 1 1 1 1 1 1 1 1 1 1 1 1 1 1 1 1 1 1 1 1 0.054742711220289605 1 1 1 1 0.051809371360428555 1 1 1 1 1 1 1 0.04925120315264496 1 1 1 1 1 0.056840979424997232 1 1 1 0.053780004715387741 1 1 1 0.054295818590794555 1 1 0.051778453094126452 1 1 1 0.050264207720004533 1 1 0.050059921404737841 1 1 1 1 1 1 1 1 1 1 1 1 1 1 1 1 1 1 1 1 1 1 1 1 1 1 1 1 1 1 1 0.051898758965828691 1 1 1 1 1 1 1 1 1 1 1 0.053236104868023805 1 1 1 1 1 1 1 1 1 1 1 1 1 1 1 0.059455272621014743 0.052449179910917451 1 1 1 0.053581727087630968 1 1 1 1 0.055425734310490526 1 1 0.053837893477086847 1 1 1 1 1 1 1 1 1 1 1 1 1 0.058224372799219576 0.053145802185879214 1 1 1 1 1 1 1 1 1 1 1 0.071023139538721872 1 1 0.059132312108297856 1 1 1 1 1 1 1 1 1 1 1 1 1 1 1 1 1 1 1 0.064469082383458179 1 1 1 0.050204363563906451 1 1 1 1 1 0.046435149616899901 1 1 1 1 1 1 1 1 1 1 1 1 1 1 1 1 1 1 1 1 0.055519652734414039 1 1 0.052867511591013813 1 1 1 1 1 1 1 1 1 1 1 1 1 1 1 1 1 1 1 0.056886337678018067 1 1 1 1 1 1 1 1 1 1 1 1 1 1 1 1 1 1 1 1 1 1 1 1 1 1 1 1 1 1 1 1 0.050484427185341685 1 1 1 1 1 1 0.069334457134761024 1 1 1 1 1 0.068978090570659747 1 1 1 1 0.067599455630528105 1 1 1 1 1 1 1 1 1 1 1 1 1 1 1 1 1 1 1 1 1 1 0.064334427420546805 1 1 1 1 1 1 1 0.05608155964989938 1 1 0.05617403919346433 1 1 0.049358944920526365 1 1 1 1 1 1 0.053010763376979589 1 1 1 1 1 1 1 1 1 1 0.035767643042840476 1 0.068017971386595003 1 1 1 1 1 1 1 1 0.04984445476424449 1 1 0.033945386239670694 1 1 1 0.065923468982683406 1 1 1 0.062448082403206318 1 1 1 0.050222869633912898 0.051533781835198952 1 1 0.044473409136126942 1 1 0.04451418204669038 1 1 0.050307071675183827 1 1 1 1 1 1 1 1 1 0.050306993223118456 1 1 1 0.044917517445789951 1 1 1 0.044662759653543008 1 1 1 0.050026723586307782 1 0.050064762618728942 1 1 0.048248516901392278 1 1 1 1 1 1 1 1 0.046363292722225891 1 1 0.047408900761241046 1 1 1 1 1 1 1 1 1 1 1 1 1 0.046171546822570179 1 0.049969553742050726 1 1 1 0.047042544706118197 0.05399087714034978 1 0.048339201240514849 1 1 1 1 0.050041594216818953 1 0.053646974717678111 1 1 1 1 1 1 1 1 1 0.051090364921350849 1 1 1 1 1 1 1 1 1 1 1 1 1 1 1 1 1 1 1 1 1 1 1 1 1 1 1 1 0.049057454305685158 1 1 1 1 1 1 0.051313487662897311 1 1 1 1 1 1 0.050996271828911685 1 1 1 1 1 1 0.050354500449206495 1 1 1 0.050031122372462725 1 1 1 0.049935856968625569 1 1 0.043868871193278078 1 1 1 1 1 1 0.050827518004468782 1 1 1 0.039113676162392474 0.056703437030667901 1 1 1 1 1 1 1 1 1 1 1 1 1 1 1 1 1 0.054286282908811226 1 1 1 1 1 1 1 0.050132853124259288 1 1 1 1 1 0.046281531298455691 1 1 1 1 1 0.049778370932158866 1 1 0.066467973646025802 1 1 1 1 0.050071124615139732 1 1 1 1 1 1 0.090609342293709288 1 0.045372387571759432 1 0.090988733906804564 0.043651098928448137 1 0.048331475339513465 1 1 1 0.054616949391944988 1 1 1 1 1 0.061132332820967528 1 1 1 0.052408946743689865 1 1 1 1 0.056536387615419889 0.048652414753050995 0.060599243963987123 1 1 1 1 0.050272110798218847 0.051985115652887437 1 0.054028877352977865 1 1 1 1 1 1 0.050016749081193301 1 0.041624305970251005 1 1 0.049834426538262658 1 1 1 0.044342726930873613 1 1 0.05566581241345539 1 1 1 1 1 1 1 1 1 1 1 1 0.050614692920036779 1 1 1 1 0.042076486754298141 1 1 1 1 0.041332859464970666 1 1 1 1 1 1 1 1 1 0.051837642492431876 0.047931324600955054 0.064267261936237996 1 1 1 0.050001326206544787 0.050041489536004416 1 1 0.050561053136277713 1 0.04741422548620728 1 1 1 1 1 1 1 0.077604092042843298 1 1 1 1 1 1 1 1 1 1 1 1 1 1 1 1 0.050249523965714304 1 1 1 1 1 1 1 1 1 0.050735363731541777 1 1 0.0398392913585583 1 0.054439065022284808 1 0.050217149301223604 1 1 0.075679521378390041 1 1 1 0.050005209386242908 0.053287759027907729 1 1 0.04896306916884078 1 1 1 0.076877319705053598 1 1 1 1 0.049635765175565325 1 1 1 1 1 1 1 1 1 1 1 0.053770231643419424 0.050066961561571893 1 1 1 1 1 1 1 1 1 1 1 1 1 1 1 1 1 1 1 1 1 1 1 1 1 1 1 1 1 1 1 1 0.050164234219129918 1 1 1 1 1 1 1 1 1 1 1 1 1 1 1 1 1 1 1 0.065671294206414002 1 1 1 1 1 1 0.050058042701106642 0.055990022627524456 1 1 0.054176361859006331 0.05410811733812193 1 1 1 0.054978177092104924 1 1 1 1 1 1 1 1 1 1 1 1 1 1 1 1 1 1 1 1 1 1 1 0.059959279657565152 1 0.055407657939095981 1 0.053337400733883718 1 1 1 1 1 1 0.042406580362073343 1 0.052802202431417519 0.054820033810150118 1 1 0.087684683777151884 1 1 1 1 1 1 0.049958202454175059 0.092390823882037384 1 1 0.053184168049677509 0.047968739157015473 1 1 0.04329580642082656 0.049985125336907688 1 1 1 1 1 1 1 1 0.042973472999228428 1 1 1 1 1 0.047041016007279689 1 1 0.092483358639994878 1 1 1 0.049885209659563154 1 1 1 1 1 1 1 1 1 1 1 1 1 1 1 1 1 1 1 1 1 1 1 1 1 1 1 1 1 1 1 1 1 1 0.050966131490766543 1 1 0.033704098499207955 1 0.075595414550456541 0.042580787794486138 1 1 1 1 1 1 1 1 1 0.072330655478597988 1 1 1 1 1 0.068984238867253217 1 1 1 1 1 1 1 0.050521756551299722 1 1 1 1 1 1 1 1 0.051585455520164941 1 1 1 1 1 0.052581237305501211 1 1 1 1 1 1 1 1 1 1 1 1 1 1 1 1 1 1 1 1 1 1 1 1 1 1 1 1 1 1 0.050083539585121933 0.050288081020095396 1 1 1 1 1 1 1 0.051281748359502076 1 1 1 0.050118301856231548 1 0.050822085856626002 1 1 1 1 1 1 1 1 1 1 1 1 1 1 1 1 1 1 1 1 1 0.05025855377547668 1 1 1 1 1 1 0.05028958916273036 1 1 1 1 1 1 1 0.050015172478931245 1 1 0.050070069895280553 1 1 1 1 1 1 0.049031476674107122 1 1 1 0.054523839841659934 1 1 0.057789383080797778 0.048638806090234618 1 1 1 1 1 1 1 1 1 1 1 1 1 1 1 1 1 1 1 1 1 1 1 1 1 1 1 1 0.050671716283192121 1 1 1 1 1 1 1 1 1 1 1 1 1 1 1 1 1 1 1 0.038008729232047296 1 1 1 0.045050143718313666 0.050101458618883078 1 1 1 1 1 0.050046676309678378 1 1 1 0.050335666052368555 1 1 1 1 1 0.050520157562842394 1 1 1 1 1 1 1 1 1 1 1 1 1 1 1 1 1 1 1 1 1 0.050125189746360224 1 1 1 1 1 1 0.04969663266126656 1 1 1 1 1 1 1 1 1 1 1 1 0.050112100923823469 1 1 1 1 0.054565473386388522 1 0.050112273102193627 1 1 1 1 1 1 1 1 1 1 1 1 1 0.048654378475746093 1 1 1 1 1 0.045695007084874922 1 1 1 1 1 1 0.054552952697230941 1 1 1 1 1 1 1 1 1 1 1 1 0.054750092403675982 1 1 0.062546043369208437 1 1 0.047999907655233633 1 1 0.0494658221326508 1 1 1 1 1 1 1 1 1 1 0.069893789286329056 1 1 1 1 1 1 1 1 0.050072695309806931 1 1 1 0.049970917726415265 1 1 1 0.051599108268678681 1 1 0.076456617847672409 1 1 1 0.056686547431831061 1 1 1 1 1 0.076194090107931683 1 0.049996591218909765 1 1 1 1 0.049953786986433921 0.069455490680883511 1 1 1 0.049060238038662628 1 1 1 1 0.049790655116043081 1 1 1 1 1 1 1 1 1 1 1 1 1 1 1 0.050516991011501061 1 1 0.074210956665244826 0.069408006790418253 1 1 1 1 0.066752886103612005 1 1 1 1 1 1 0.05339713603359364 1 1 1 1 1 1 0.051112550853435391 1 1 1 1 1 1 1 1 0.049240656399894202 1 1 1 1 1 1 1 1 1 1 0.050765086871015434 1 1 0.049533603399141299 1 1 0.054026995909631309 1 1 1 1 1 0.060712890536041737 0.049928911191716288 1 1 0.049999581522966144 0.052142830644378593 1 0.053999966107658989 1 0.048089609215903537 1 0.050449329387212936 0.048302339766134655 1 1 0.050509179257958156 1 0.056573404383941775 1 0.047810652783587336 1 0.051584181598555087 1 0.054662810850972188 1 1 0.050039859284478821 1 0.061771886127270866 1 0.061237138837535787 1 1 1 1 1 1 0.070950064785573752 1 1 1 0.050047660644476064 1 1 1 1 1 1 1 1 1 0.0530348735328912 1 1 0.068519279132254127 1 0.050948623267279655 1 0.046929756533725345 1 1 1 0.043412128532756486 0.051804684850535507 1 1 1 1 1 1 1 1 1 1 1 0.050226651753001963 1 1 1 1 1 0.0499281061674412 1 1 1 1 1 1 1 1 1 1 1 1 1 1 1 1 1 0.049929301219045048 1 1 1 1 1 1 0.05696186249712485 1 1 1 0.056746517104201935 1 1 0.051298200810366547 1 1 1 0.045106809101726215 1 0.055360428261807051 0.051540723402463309 1 1 1 1 1 1 1 1 1 0.04629771038834387 1 1 1 1 1 1 1 0.050151052150052097 1 0.050089469688868529 1 0.050043911393576973 1 1 1 1 1 1 1 1 1 1 1 1 1 1 1 1 1 1 1 1 1 1 1 1 1 1 1 1 1 1 1 1 1 1 1 1 1 0.061870488869415735 1 1 0.062044526455924787 0.044422655317927613 1 1 1 1 0.04330474156977427 1 1 1 1 1 0.061889128052828951 1 1 0.04997630658625396 0.082925005160803839 1 1 1 1 1 1 0.063736384408261557 1 0.050015497108337158 1 1 0.044084127724876826 0.049911106126352828 1 0.060176504897891774 1 1 1 0.051403633135998814 1 1 1 1 0.05175724126159096 1 1 1 0.046809793356898936 1 1 0.062769047064276717 0.049861231594126115 1 1 1 0.053322691900454459 1 1 1 1 0.050434311332907295 1 1 0.05106326477382768 1 1 1 0.056300639498222407 1 1 0.054620470666690346 1 1 1 0.066362234660055114 1 0.066370297402223305 1 1 0.048611129664419689 1 1 0.058088035260695677 0.049963991505303326 1 1 0.060962953755891579 1 0.049924996165813224 0.057564239527345018 1 1 1 1 0.078972197399824001 1 1 1 1 0.083824768322135659 1 1 1 1 1 1 1 1 1 1 1 1 0.048827074255058209 1 1 1 1 0.049997972888701163 1 0.062478632327539592 1 1 1 1 1 0.064447190357615106 0.049996787656390478 0.050040289220049425 1 1 1 1 1 1 1 1 0.059749368216012289 1 1 1 1 1 1 0.047159095199403638 1 1 1 1 0.043648650667101066 1 1 1 1 1 1 1 1 1 1 1 1 1 1 1 1 1 1 0.052306236841642539 1 0.088428780561099679 1 1 0.046365886156023085 0.076820952414319424 1 0.066167807241199042 1 1 0.051445377753306515 1 0.049543481013777313 1 0.048603708190110909 1 0.050634315325322685 1 1 1 1 0.050188915943060103 1 1 1 0.051637922472565628 1 1 1 1 1 1 1 1 1 1 1 1 1 1 1 1 1 1 1 1 1 1 1 1 1 0.050268044072979828 1 1 1 1 1 0.062608439472479419 1 1 1 1 1 1 1 1 1 1 1 0.050600186574390929 1 1 1 1 1 0.050093916873591104 1 1 0.0454066483664851 0.067363615523335058 1 1 1 0.055410278951146752 1 1 0.050133643726423385 0.055820232031376649 1 0.064718872753834866 1 1 1 1 1 1 1 1 1 1 1 1 1 1 1 1 0.050643294349662402 1 1 1 1 0.050047633871942013 1 1 1 1 1 1 1 1 0.050335118267298459 0.050298088137768801 1 1 0.050017587045077395 1 1 1 1 1 1 1 1 1 0.050226103422311819 0.050199280548234845 1 1 0.049999692035668945 1 1 1 0.049984767851026568 1 1 1 1 1 1 1 1 1 1 1 1 1 1 1 1 1 1 1 1 1 1 1 1 1 1 0.05018468158595972 1 1 1 1 1 1 1 1 1 1 1 1 1 1 1 1 1 1 1 1 0.045889172064646003 1 1 1 0.058467985301983778 0.0500010768821149 1 1 1 0.040021089128903044 1 1 0.049579267913131761 1 1 1 1 1 0.051262408630642547 1 0.056515050805932554 1 1 1 1 1 1 1 1 0.048353313583481355 1 1 1 0.047198745380171811 1 1 0.049121600446711135 1 0.050001284955539162 1 1 1 0.05517677550705026 1 1 1 0.064508708055011382 1 1 1 1 1 1 1 1 1 1 1 1 1 1 1 1 1 0.06998975681767175 1 1 1 1 1 1 1 1 1 0.053147476794547656 1 1 1 1 1 1 1 1 0.071580296012996231 1 1 1 1 1 1 1 1 1 1 1 1 1 0.049977178974168771 1 1 1 0.048536526953993492 1 1 1 1 1 1 1 1 1 1 1 1 1 1 1 1 1 1 1 0.058487047525240442 1 1 1 0.052637821158975626 1 0.050041992622878034 1 1 1 0.04693567668840512 1 1 1 0.049971545304974885 0.062750592800665583 1 1 1 1 1 1 1 1 1 1 1 1 1 1 1 1 1 1 1 1 1 1 0.051301488644978938 1 1 1 1 0.052801270631013475 1 1 1 1 0.051499781986034526 1 1 1 1 1 1 1 0.054964861328389819 1 1 1 1 0.053269076319896275 1 1 1 1 1 1 0.051165821009172732 1 1 1 1 1 1 0.050597161853481211 1 1 1 0.050264673002496318 1 1 1 1 1 1 1 1 1 0.050996113053555461 1 1 1 1 1 1 0.052478734207401137 1 1 1 1 1 1 1 1 1 1 1 0.049994148632838423 1 1 0.043633079120534442 1 1 1 1 1 0.050424124318976846 1 1 0.054072107177900397 1 1 1 1 1 1 1 0.045047163693161515 0.067105170739262504 1 1 1 1 0.071453892303393315 1 1 1 1 1 1 0.049995637798438144 1 1 1 1 1 1 1 1 1 1 0.046638782004547186 1 1 1 1 1 1 1 1 1 1 1 1 0.047296869060392821 1 0.050128692956818238 1 1 1 0.02782238941773673 1 1 0.088619458313110286 1 1 1 1 0.029435662651163583 1 1 1 1 1 0.089818839437996012 1 1 1 1 1 1 1 1 0.087013302431619088 1 1 1 1 0.048184564388892737 1 1 1 1 1 1 1 0.049375738516901274 1 1 1 1 1 1 1 1 1 1 0.048466343967909595 1 1 1 0.051097767868262325 1 0.051061217489527813 1 1 1 1 1 1 0.048614333399841961 1 0.05353011597535956 1 0.050132110201075303 1 1 1 1 0.048178818944290117 1 1 1 1 1 1 1 1 1 1 1 1 1 1 0.051346256860258149 1 0.025548056360867565 1 1 1 1 1 1 1 0.049593854379647084 1 1 1 1 1 1 1 1 1 1 1 1 1 0.031802865312563447 1 1 1 1 0.038493830668910246 1 1 1 1 1 1 1 1 1 1 1 1 1 1 1 1 1 1 1 1 1 1 1 1 0.049483327588970887 1 1 1 1 0.078929356193748648 1 1 1 0.05001830247646348 1 1 0.050015825604116215 1 1 0.049987966783577045 1 1 1 1 1 1 1 1 1 1 1 1 1 1 1 0.049999654928416737 1 1 0.049965968083417051 1 1 1 1 1 1 1 0.047525216538309205 1 1 1 1 1 0.047001282222520258 1 1 1 0.05779384713449779 1 1 1 0.060263729393405949 1 1 1 1 1 1 1 0.05959328699344002 1 1 1 0.04928227291607206 1 0.05230343638554058 0.050232375513232799 1 1 1 1 1 0.050276955941402329 1 1 1 1 1 1 1 1 1 1 0.05927277208114605 1 1 1 1 1 1 1 1 1 1 1 1 1 1 1 1 1 1 1 1 1 1 1 1 1 1 1 1 1 1 1 1 1 1 1 1 1 0.05000079304790557 1 1 1 1 1 1 1 1 1 1 1 1 1 1 1 1 0.049983503420955241 1 1 1 1 1 1 1 1 1 0.050000781771032218 1 1 1 1 1 1 1 0.049995536637378213 1 1 1 1 1 1 1 1 1 1 1 1 1 1 1 1 1 1 1 1 1 0.0549158995531909 1 1 1 1 1 1 1 1 1 1 1 1 1 1 1 1 1 0.055544949636090961 1 1 1 1 1 1 1 1 1 1 1 1 1 1 1 1 1 1 1 1 1 1 1 1 1 1 1 1 1 1 1 1 1 1 1 1 1 1 1 1 1 1 1 1 1 1 0.054249846155767577 1 1 1 1 1 1 1 1 1 1 1 1 1 0.0554830485746753 1 0.049945990497130631 1 1 1 1 1 0.049823997231064426 1 1 1 1 1 0.050911506888326803 0.051287118735801128 1 1 1 1 1 1 1 1 1 1 1 1 1 1 1 1 1 0.049405066200900294 0.055377485054682429 1 1 1 1 1 1 0.050343395766910125 1 0.055133151870482844 1 1 1 1 1 1 1 1 1 0.053614854758535051 1 1 1 1 1 1 1 1 1 1 1 1 1 1 1 1 1 1 1 0.05182630703984864 1 1 1 1 1 0.049418861080782341 1 0.048698462303476693 1 1 1 1 1 1 1 0.048476928192107492 1 1 1 0.049279601222694341 1 1 1 0.044959481851414546 1 1 0.045146861735704952 1 1 1 0.076926228261090662 1 1 0.069397292634333974 1 0.083022855163534651 1 0.083753989408794458 1 1 0.066047046660480391 1 1 1 1 1 1 1 1 1 1 1 1 1 1 1 1 1 1 1 1 1 0.050136558852016289 1 0.083854918616113716 1 1 1 1 1 1 1 0.083687603618988318 1 1 1 1 1 1 1 1 1 1 1 1 1 1 1 1 1 1 1 0.050401231854512611 1 1 1 0.050689092429426166 1 1 1 1 1 1 1 1 1 1 0.053509441446192074 1 1 1 1 0.057482790511919228 1 1 0.051292124831525551 1 1 1 1 1 0.058983050049856427 1 1 1 1 0.048151583400670508 1 0.05280605354824551 1 1 0.079420975361068957 1 1 1 1 1 1 1 0.076381450320403999 1 1 0.052751022252587737 1 0.071074124044008202 1 1 1 1 1 1 1 1 1 1 1 1 1 1 1 1 1 1 0.053046614377447572 1 1 1 1 1 1 1 0.050064107160387561 1 1 1 1 0.053387710340125558 1 1 1 1 1 1 1 1 1 0.050603032402099388 1 1 1 1 0.057019963443174726 1 1 1 1 1 1 1 1 1 1 1 1 0.049017335471776835 1 1 1 1 1 1 1 1 1 0.066141552455518338 1 1 1 1 1 1 1 1 1 1 1 1 0.057907785939055989 1 1 0.05191742487166446 1 1 1 1 1 1 1 1 1 0.050653106625176456 0.084954522138408664 0.067920229987033107 1 1 1 0.05000496784546779 1 1 1 1 1 1 0.069816115191161321 1 1 1 0.049711288329360857 0.049722990246426416 1 1 1 1 1 1 1 1 1 1 1 1 0.073876237414678289 1 1 1 0.05025376611215937 0.043580882985917564 1 1 1 1 1 0.046030062234483589 1 1 1 1 0.058796966357581741 1 1 1 1 0.050126488754861948 1 1 1 1 1 0.080701687313476225 0.055953074740844988 0.052450923156615939 1 1 1 0.047910878174394024 0.043667827754836054 1 1 1 1 1 1 1 1 1 0.078018044903468212 0.050114982646553036 1 1 1 0.050361846555284945 0.050287863683754846 1 1 1 1 1 1 1 1 1 1 1 1 1 1 1 1 1 0.078780252094593106 1 0.079475732237515001 1 1 1 1 0.06991290131664038 1 1 1 1 1 1 1 0.069568678527796052 1 1 1 1 1 1 1 0.080312242739221856 1 1 0.052278965198751713 1 0.067908111008696453 0.05457019592028927 1 1 1 0.05350793648786703 0.050017546190951528 1 1 1 0.049822698785277293 0.054558691980479967 1 1 1 1 1 1 1 1 1 1 0.052455357122748701 1 1 1 1 1 1 1 0.05879635702701444 1 1 1 1 0.056991153403217046 1 1 1 1 1 1 0.071965435618629073 1 1 1 1 0.05180892853399164 1 0.065741912083216628 1 1 1 1 1 1 1 1 1 1 1 1 1 1 0.068389305318704519 1 1 1 1 1 1 1 0.074949029788287991 1 1 1 1 0.050096116500033289 1 1 1 0.043992271455496709 1 1 1 1 1 1 1 1 1 1 1 1 1 1 1 1 1 1 1 1 1 1 0.046693940086874046 1 0.049034349183020208 1 1 0.049593771880077818 1 1 1 0.048646825647925634 1 1 0.048365899358318032 1 1 1 1 1 1 1 1 1 1 1 1 1 1 1 1 1 1 1 1 0.049734358096645503 0.047503224891512895 0.048124726709512664 1 1 1 1 1 1 1 1 1 1 1 1 1 0.055260655261727278 1 1 1 0.053317511437562713 1 1 0.052130966685330501 1 1 1 1 0.051944857160869745 1 1 0.060233210926650474 0.047683278427208368 1 1 1 1 0.04993372064120892 1 1 0.050354799142807216 1 0.050125208021453815 1 1 1 1 1 1 1 1 1 1 1 1 0.055406076828270819 1 1 1 1 1 1 1 0.05090258589417794 1 0.049287155103976243 1 1 1 1 0.053759460981176871 1 1 1 1 1 1 1 1 1 1 1 1 1 1 1 1 1 1 1 1 1 1 1 0.052143198943355472 1 1 1 0.049155359179814513 1 0.056065704787720008 1 1 1 0.046163869571509489 1 1 1 1 1 0.049931613114274305 1 1 0.058874231465905418 1 1 1 1 1 1 1 1 0.051524213581073529 1 1 1 1 1 0.05092288641415537 1 1 1 1 1 1 1 1 1 1 1 1 1 1 0.0537625024260776 1 1 1 1 0.053707438894069856 1 1 1 1 1 1 1 1 1 1 1 1 0.050207446234671903 1 1 1 1 0.050543879033643963 1 1 1 1 1 1 1 1 1 1 1 1 1 0.050475614992737929 1 1 0.05055293152417719 1 1 1 0.051579277113081287 1 1 1 1 1 1 1 1 1 1 1 1 1 0.05164202724483237 0.054777773179115523 1 0.045874404481292798 0.05282755020324241 1 1 1 0.04751529916794054 0.060047472154707245 1 0.043228368098789924 1 0.051891306437597214 1 0.055937503400870461 1 1 1 0.045411604417500681 1 0.050362622255884802 1 1 1 1 0.054677677753191552 1 1 1 1 1 1 0.050216276793189817 1 1 1 1 1 0.060881340472849585 1 1 0.04999806595329432 1 1 0.055082577748836486 1 1 0.050012102933138444 1 1 1 1 1 0.0605511337132984 1 0.061971153047881068 1 1 1 1 1 1 1 1 1 1 1 1 1 0.050705985028384061 1 1 0.050205602060645074 1 1 1 1 1 1 1 1 1 0.052640765504886125 1 1 1 1 1 1 1 1 1 0.051655637455588391 1 1 0.050762289855303663 1 0.048813766793333366 1 1 1 1 1 1 1 0.063183622795690605 1 1 1 1 1 1 1 0.054461673337026256 1 0.064432432108627868 1 1 0.064123688285664643 1 1 1 0.050316580885361312 1 1 1 1 0.050834807534033327 1 1 1 1 1 0.049985374035912689 1 1 1 1 1 1 1 1 1 1 1 1 1 1 1 1 1 1 1 1 1 0.051776687302515653 1 1 0.05185750122853696 1 1 1 0.051016765442384183 1 1 1 1 0.050624692959665277 1 1 1 1 1 1 1 1 1 1 1 1 1 1 1 1 1 1 1 1 1 1 1 0.053442089502197497 1 1 1 1 1 1 0.059423858281310096 1 1 1 1 1 1 1 1 1 1 1 1 1 0.049944229215632574 1 0.072348320516080367 1 1 0.046314316783640661 1 1 1 1 0.048705363241618234 0.053331606642179175 1 0.051681804780536786 1 0.051031948802940194 1 1 1 1 1 0.044259659668751353 1 1 0.097493008754143851 0.0998569254846325 1 1 1 1 1 0.030340503171294775 1 1 0.050002112615821062 1 1 1 1 1 1 1 1 0.070799911283873612 0.029644122358285355 1 1 1 0.05580148215137521 1 0.049965981053248787 1 1 1 1 1 0.047142051987344266 1 0.031753756387218335 1 1 1 1 1 0.048233960518028945 0.047736500122614899 1 1 1 1 0.050072275842133057 1 1 1 1 0.049366844540956412 1 1 1 1 1 1 1 1 1 1 1 1 1 1 1 1 1 0.051135464054482507 1 1 0.050423121198676979 1 1 1 0.050158044373852725 1 1 1 1 1 1 1 1 1 1 1 1 1 1 1 1 1 1 1 0.050824360191369558 1 1 1 1 1 1 1 1 1 1 1 1 1 1 0.049912233337069137 0.049732183537226381 1 1 1 0.050131636451053591 1 1 1 1 1 0.051158826629497986 1 1 1 1 1 1 1 1 1 1 1 0.05025723705110554 1 1 0.050099192677252789 1 1 1 1 1 1 1 1 1 1 0.070968807180661259 1 1 1 0.056943020289321189 1 0.055528621463689344 1 0.053824235702314947 1 1 1 0.050010029472688629 0.058467017205082038 1 0.072800719369062461 1 1 0.051164702550285629 1 1 0.05271449472229045 0.072758451459980264 1 1 1 0.05870394514753205 1 1 0.054807882485068557 1 0.059718373912109754 1 1 1 0.057757966061855827 1 1 0.057880841877387491 0.055835116247921458 1 0.056271809630960165 1 1 0.065216801469698132 1 0.052853656558973366 1 1 1 1 1 1 1 1 1 0.050793760502896135 1 1 1 1 1 0.048761026403491489 1 1 1 1 1 1 1 1 1 1 0.061671231665916773 1 1 1 1 0.055426133178821946 0.058080691091619487 1 1 0.049510720963779904 1 0.051862799667652226 1 1 1 1 1 0.04393230629336637 1 1 0.064594762846294812 1 0.050043503154333202 1 1 1 1 1 1 1 0.064896054264156872 1 1 1 1 1 1 1 1 1 0.048452064908690085 1 0.050020685718283692 1 0.049976515332646493 1 0.062742834437423234 1 1 1 1 0.050097993620275255 1 1 1 1 1 0.050262468329530061 0.055360106297862297 1 1 1 1 1 1 0.049675172571798563 1 1 1 1 1 0.063609726726225835 1 1 1 1 0.047208230455572819 1 1 0.057086356507236119 1 0.0792444226081125 1 1 1 0.057568779179253897 1 0.047544571984663081 1 1 0.050650125028406157 0.050003425738328187 0.047163863201306958 1 1 1 1 1 1 0.050006439242482659 0.054161854008435026 0.048923835708590102 1 1 1 1 0.051249940497534119 1 0.050010082421100652 1 0.052102251813343582 1 1 1 1 1 1 0.050010885896282831 1 1 1 1 1 1 1 1 1 1 1 1 1 1 1 1 1 1 1 1 1 1 1 1 1 1 1 1 1 1 1 1 1 1 1 1 1 1 1 1 1 1 1 1 1 1 1 1 1 0.052823067566749399 1 1 1 0.058631954876458448 0.049941189437949403 1 1 1 1 1 1 1 1 1 1 1 1 1 1 1 1 1 1 1 0.048821192934472284 1 1 1 1 1 1 1 0.049952772484632563 1 1 0.052962013541940717 1 1 0.05461777864448604 1 1 0.049545808771196499 1 0.057003128465078323 1 1 0.059334315900840762 1 1 1 0.050036339802531707 1 0.058920605409975603 1 0.050792307903714765 0.061634980194400356 1 1 1 0.062004342346233421 0.049891426092606474 1 1 0.061119306524953683 1 1 0.062010011551611337 1 1 1 1 1 1 1 1 1 1 1 1 0.063599532464167816 1 1 1 1 0.063391897890532165 1 1 1 1 0.061238330167371513 1 1 1 1 1 1 1 1 1 0.050182990327150789 1 0.050003138333870836 1 1 1 1 0.048193495063649006 1 1 1 0.048229372157026967 1 1 1 1 1 1 0.04593724390602219 1 1 0.050340740971271086 1 1 1 0.061133381887015975 1 1 1 1 1 1 1 0.045875820848639844 1 1 1 1 1 0.047964093298353619 1 1 1 1 1 1 1 1 1 1 1 1 1 1 1 0.042916177821008247 1 1 1 1 1 0.048701593340509275 1 1 0.052352814486262236 1 0.048281175187806502 1 1 1 1 0.048988468699233977 0.050283081693348303 1 1 0.057746734012728437 1 1 1 1 1 1 1 1 1 1 1 0.050197273364080031 1 0.051962092864473446 1 1 1 1 1 0.050594668246247324 1 1 1 0.051036091346848056 1 1 1 0.051429646031161111 1 1 1 1 1 1 1 1 1 1 1 1 1 0.074114583432972711 1 1 1 1 1 1 1 0.054864402200937412 1 0.054674936945893024 1 1 1 1 1 1 1 0.049683500259867452 0.05737052190181139 1 1 1 1 1 1 1 1 1 0.050914871947984261 1 1 1 1 1 1 0.061843529815936882 0.054716054647187672 0.049971449449764727 1 0.05720830514820055 1 1 1 1 1 1 0.064042042527339221 1 0.050292357699535842 1 0.051520051551176657 1 0.053840069132283105 1 1 1 1 1 1 0.053276447104135219 1 1 0.05008333774705484 1 1 1 1 0.050426231472145921 1 1 1 1 1 1 1 1 1 1 1 1 1 1 1 1 1 1 1 1 1 0.10162285547279842 1 0.049229026882508617 1 1 1 1 1 1 1 1 1 1 1 1 1 1 1 1 1 1 1 1 1 1 1 1 1 1 1 1 1 1 1 1 1 1 1 1 1 1 1 1 1 1 1 1 1 1 1 1 1 1 1 1 1 1 1 1 1 1 0.049641432627578294 1 1 1 1 1 1 1 1 1 1 1 1 1 1 1 1 1 1 1 1 1 1 1 0.050167469119470037 1 1 1 0.047511939710164118 1 0.050514477328000559 1 1 1 1 1 1 1 1 1 1 1 1 1 1 1 1 1 1 1 1 1 1 1 1 1 1 1 1 1 1 1 1 1 1 1 1 1 1 1 0.048780478149075948 1 0.049873272593003184 1 1 1 1 1 1 1 1 1 1 1 1 1 1 1 1 1 1 1 1 1 1 1 1 1 0.057109954857869197 1 1 1 1 1 1 1 1 1 1 1 1 1 1 1 1 1 1 1 1 1 1 1 1 1 1 1 1 1 1 1 1 1 1 1 1 1 1 1 1 1 1 1 1 1 1 1 1 1 1 1 1 1 1 1 1 1 1 1 1 1 1 1 1 1 1 1 1 1 0.064015208462968612 1 1 1 1 1 1 1 0.06089400821043546 1 1 0.049889946876440432 1 1 1 1 1 1 1 1 1 1 1 1 1 1 1 1 1 1 1 1 0.068478426835160103 1 1 1 1 1 1 1 1 1 1 1 1 1 1 1 1 1 1 1 1 1 1 1 1 1 1 1 1 1 1 1 1 0.050010196209029661 1 1 1 1 0.051959250382887096 1 0.049641043435591524 1 1 1 1 1 1 0.050182014865512672 1 1 0.050595184304306887 1 1 0.049631246764780208 0.050000887924264284 1 0.050002569816821114 1 1 1 0.050022789574204418 1 1 1 1 1 1 1 1 1 1 1 1 1 1 1 0.04946457153944947 1 1 1 1 1 1 1 1 0.049362487669650665 1 1 1 1 1 1 1 1 1 1 1 1 1 1 1 1 1 1 1 1 1 1 1 1 1 1 1 1 1 1 1 1 1 1 1 1 0.064925008406421597 1 1 1 1 1 1 1 0.040710582098425069 1 1 0.047951164954334609 1 0.066036252976675022 1 1 1 1 1 1 1 1 1 1 1 0.049999588042121873 0.049977599159638737 1 1 0.049102250141787013 1 1 0.049794358064581025 0.050070116555806246 1 1 1 1 0.051248802158025797 1 0.048125237811111415 1 1 0.051732956354130631 1 0.050241126556625972 0.048719195849967326 1 0.055283301068950713 1 0.064222090850112115 1 1 1 1 1 1 1 0.049881346127045437 1 0.050005522709617528 1 1 1 1 1 0.04993070623823443 1 1 1 0.064553492301995058 1 1 0.04930022242849029 1 0.044910753632638946 1 0.047137373375467223 0.054566552589638634 1 1 0.049742702270271624 1 1 1 1 1 1 0.052635844243919511 1 1 1 1 1 1 1 1 0.039191094376823048 0.049856519108042299 1 1 1 0.047468373951567167 1 1 1 1 0.062855662630176723 0.036639600004345969 1 0.04222029796679376 1 1 1 0.04746977334337181 1 1 1 1 1 1 1 1 1 1 1 1 1 1 1 1 0.036125420854654741 1 1 1 1 1 1 0.052981549443108095 1 0.058666852141798412 1 1 1 0.052554975699160712 0.062929121350357164 1 1 0.04995254818582532 1 0.05029233885858804 1 1 1 1 1 1 1 1 1 1 1 1 0.050093917246128827 0.049987446418580425 1 1 1 1 1 0.045119503249716336 1 1 1 1 1 1 1 0.0486638877702135 1 1 1 0.050003125471651311 1 0.057196605593788016 1 1 0.049978603511831039 1 1 1 1 1 1 1 1 1 0.040812483187399634 1 1 0.046632215422914826 1 1 1 1 1 1 1 1 1 1 1 0.051674707349927462 1 1 1 1 1 1 1 1 1 1 1 1 1 1 1 1 1 1 1 1 1 1 0.056746427765376153 1 1 1 1 1 1 1 1 1 1 1 0.069477360536037258 1 1 1 1 0.08129398564130226 1 1 1 1 1 1 1 1 1 1 1 0.050920033237385302 1 1 1 1 1 0.05294924003404658 1 0.04978000443529268 1 1 1 1 1 1 1 1 1 0.09257327569797906 1 1 0.10289780397443687 1 1 0.02696519347939862 1 1 1 1 0.056394612286142891 1 1 1 1 1 1 1 1 1 1 1 1 1 1 1 1 1 1 1 1 1 0.03056408991232263 1 1 0.068688832401288785 1 0.043140935871792907 1 1 1 1 1 1 1 1 1 0.064471681048467705 1 1 0.042981471112159476 0.059206121266495791 0.053444294813273105 1 1 1 0.053802603353661362 1 1 1 1 1 1 0.051611153664917073 0.050491525747183491 1 0.038996143842130501 1 1 0.039813285037769541 1 1 0.064355782311358814 1 1 1 1 0.063872210266383914 1 1 1 1 0.057446403826748108 1 1 1 1 1 1 1 1 1 1 1 0.054176426093355434 1 1 0.049433615171019615 1 0.058631988275701846 0.049711668079930132 1 1 0.049985809781250758 0.054981630186100569 0.046290924017709657 1 1 1 1 1 1 1 1 1 1 0.052263580558281911 1 1 1 1 1 1 1 1 1 0.067071735613179667 1 1 1 1 1 0.056161137249540333 1 1 1 1 1 1 1 1 1 1 0.051087303890564678 1 1 1 1 1 1 1 1 1 1 1 1 1 1 1 1 1 1 1 1 1 1 1 1 0.064722059387643985 0.048883687457960567 1 1 1 1 1 1 1 1 0.056001051921442363 1 1 1 1 1 1 1 1 1 1 1 1 1 1 1 1 0.051059632198987841 1 1 1 1 0.050602208261904702 1 1 1 0.052678271020623696 0.051251336231158795 1 1 1 1 1 1 0.051264966981460325 1 0.051998651775129329 1 1 1 0.054357602145709241 1 1 1 1 1 1 1 1 0.04891524295054385 1 0.049691803464511318 0.055919324876972418 1 1 1 1 1 1 1 1 1 1 1 1 0.051431031182380182 1 1 0.052388953101358951 1 0.050605393792181236 1 1 1 1 1 1 1 1 1 1 1 1 1 1 1 1 1 1 1 1 1 1 1 0.05082621855119572 1 1 1 1 1 0.095954429668649074 1 1 1 1 1 1 1 1 1 1 0.052012264677672115 1 1 1 0.050541276695141912 1 1 1 1 1 1 1 1 1 1 1 0.049637572267896349 0.08512682826385351 1 1 1 1 1 0.074772139039038621 1 1 1 0.048103104245700475 1 1 1 1 1 1 1 1 1 1 0.053287563205246538 1 1 1 1 1 1 1 0.050497508719574438 0.038668567258745803 1 0.087901371656421409 1 1 1 1 0.052785311506663699 1 1 1 1 1 0.057078715478022055 1 1 1 1 1 1 1 1 1 1 0.049968436831693226 1 1 1 1 1 1 1 1 1 1 0.064557724858623711 1 1 1 1 1 1 1 0.054633579079180206 1 1 1 1 1 1 1 1 1 1 1 1 1 1 1 1 1 1 1 1 0.050600991485949744 1 1 1 0.051265900341133298 1 1 1 1 1 1 1 1 1 1 1 1 1 0.04931337856655308 1 0.050413309494119748 0.058824375154504373 1 0.047548689992878521 0.069169215045434052 1 1 1 1 1 0.049994506805781963 1 1 1 1 1 1 1 0.055440191671365421 1 1 0.068452762885625393 1 1 0.047738820457162288 1 1 0.062304589561075985 1 1 0.05028225550846166 0.058479514140291289 0.047766549134542632 0.049315107336938821 1 1 0.053919157780523981 0.057261675379813901 1 1 0.070478458410693556 1 1 0.047479365636160148 1 1 1 1 0.058516141092062463 0.070940312921088447 0.04983889977604225 0.079954075990068457 1 1 1 0.049953970613418081 1 0.053807347714405755 1 0.066649099730007169 1 0.049624198008637002 0.070837908421057444 1 1 1 1 1 1 1 0.054228143546542429 1 1 0.10588414688033961 1 0.049588725878276139 1 1 0.073386838489802098 0.028856545856668105 1 1 1 1 1 1 1 1 1 1 1 1 1 1 1 1 1 0.048903307026478993 1 1 1 1 1 1 1 1 1 1 1 1 1 1 1 1 1 0.046887512685957158 1 1 1 1 1 1 1 1 1 1 1 1 1 1 0.051028642718625478 0.046967762073898994 1 1 1 1 0.049988826820556505 1 0.047660285295773874 1 1 1 0.051957877698664376 0.053323230645437307 1 0.050949381359985904 1 1 1 1 1 1 1 1 1 1 1 1 1 1 1 1 1 1 1 0.048371718756592505 1 0.049703769798950845 1 1 1 1 0.050318830839481535 1 1 1 1 1 1 1 1 1 1 1 1 1 1 1 1 1 1 1 1 0.049679907928566649 1 1 1 1 1 1 1 1 1 1 1 1 1 1 0.050493936827993344 1 1 1 1 1 1 1 1 1 1 1 1 1 1 1 1 1 1 1 1 1 1 1 1 1 1 1 1 1 1 1 1 1 1 1 1 1 1 1 1 1 1 1 1 1 1 1 1 1 1 1 1 1 1 1 1 1 1 1 1 1 1 0.057388692089211581 1 1 1 0.055168226573058969 1 1 0.052996447168341745 1 1 1 1 1 1 1 1 1 1 1 0.052171779404717233 1 1 1 1 0.046592941514717462 1 1 1 1 1 1 1 1 1 1 1 1 1 1 1 1 1 1 1 1 1 1 1 1 1 1 1 1 1 0.053934843793260426 1 1 1 1 0.053945171164572758 1 1 1 1 1 1 1 1 1 1 0.059854655331930066 1 1 0.073977015154384568 1 1 1 1 1 1 1 1 1 1 1 1 0.049888626598576083 1 1 1 1 1 1 1 1 0.080182780528245304 1 1 1 1 1 1 1 1 1 1 0.057711035873117558 1 0.052504018005540852 1 1 1 0.064486975081764597 1 1 1 0.049211730266335872 1 0.068817885724869438 1 0.058624082791026717 0.049862801297209408 1 1 1 1 1 0.05800158497034992 1 1 1 1 1 1 1 1 1 1 1 1 1 1 1 1 1 1 1 1 1 1 1 0.051781953270818921 1 1 0.085272125779230379 1 1 1 0.05091680852214215 1 0.083152865872457279 1 1 1 1 1 1 1 1 1 1 1 1 0.050272290662098963 1 1 1 1 1 1 1 1 1 1 1 1 1 1 1 1 1 1 1 0.060880556370093347 1 1 1 1 1 1 1 1 1 1 1 1 1 1 1 1 1 1 1 1 1 1 1 1 1 1 1 0.054696148763341605 1 1 1 1 1 1 1 1 1 1 1 1 1 1 1 1 1 1 0.062296938413698433 1 1 1 0.060819633013029964 1 1 1 0.052734049637241501 0.05218945737109932 1 1 1 1 1 0.054043438710943713 1 1 1 1 1 1 1 0.058458712357162254 0.058267540743672561 1 1 1 0.053752465481327949 1 0.05263000177000763 1 1 1 1 1 1 0.059501723430994122 0.052867380045975812 1 1 0.06668053942738339 0.062889241899290932 1 1 1 1 1 1 1 1 1 1 0.049959109614767669 1 1 1 1 1 1 0.050722868081120975 1 1 1 1 1 1 1 1 1 1 1 1 1 1 1 1 1 0.050089501327394315 1 1 1 1 0.056043730084267267 1 1 0.050273984680054139 1 1 1 1 1 1 1 1 1 1 1 0.065493858830349944 1 0.063745338106286922 1 0.063036793245209222 1 1 1 1 1 1 1 1 1 1 1 1 1 1 1 1 1 1 1 0.050634003925063627 1 1 0.051689867657591038 1 1 1 0.050009814279742298 1 1 0.051978890134114129 1 1 1 1 0.052222816306158749 1 1 1 1 1 1 1 0.054303707753269974 1 1 1 1 1 1 1 1 1 1 1 1 1 1 1 1 1 1 1 1 1 1 1 1 1 1 1 1 1 0.059872038996415661 1 1 1 1 1 1 1 1 1 1 1 1 1 1 1 1 1 1 1 1 1 1 1 1 1 1 1 1 1 1 1 1 1 1 1 1 1 0.065708729713094341 0.043138866197162118 0.057324145993288167 1 1 0.084792565470464487 1 1 1 0.050779434397400375 1 0.05012119936843782 1 1 1 1 1 0.049645935450257223 1 1 1 1 1 1 1 0.088638663989009978 1 1 1 1 1 1 1 1 1 1 1 1 1 1 0.041045008821932974 1 1 1 0.049788033459446629 1 0.092887902488384078 1 1 1 1 1 1 1 1 0.038363607960469323 1 1 1 1 1 1 1 0.049995913881855529 1 0.050054501640511305 1 0.080643348836974937 1 1 1 1 1 1 1 1 0.051392914738147361 1 1 0.0608507017501747 0.041895990197416064 0.048696436522430393 1 0.062609237294406955 1 0.077203528342295533 1 1 1 1 1 1 1 1 1 1 1 1 1 1 1 1 1 1 1 1 1 0.062243887181641588 1 1 0.048914450540007141 0.069876915110395524 1 1 1 0.049902868162998257 1 1 1 1 1 1 1 0.047025633584450555 1 0.049163818604122056 1 1 1 1 0.050443070785284899 1 1 0.041906361690849693 1 1 1 1 1 1 1 0.039571289061243582 1 1 0.034507873380722864 1 1 1 0.030189841925264971 1 1 1 1 1 1 1 1 1 0.050055018841451214 1 1 1 1 1 1 0.073482784262665607 1 1 0.079411681575748794 1 1 1 1 0.079802563221292644 1 1 1 1 1 1 0.039514926654227095 0.042637594667516994 0.075238769520778584 1 1 1 0.050117072540571503 1 0.049999427676241021 1 0.0413612398986851 1 1 1 1 1 1 0.075784219038684389 1 1 1 0.026565347743652604 1 1 1 0.044321311567874291 1 1 1 1 1 1 1 1 1 1 1 1 0.049863036320197521 1 1 1 0.050184913639280904 1 1 1 1 1 0.049618222738276679 0.07526773451052618 1 1 0.048851939031188132 1 0.059645250034110323 0.064366749831986911 0.048981672632204862 1 1 1 0.04981820007618392 1 1 1 1 1 0.069579043876164759 1 1 1 1 1 1 1 1 1 1 1 1 0.049916385989657641 1 1 1 1 1 1 0.057858892693268937 1 1 0.057497125777636243 1 1 0.050030262265891065 1 1 1 1 1 0.050058095483981185 1 1 0.041038583838668694 1 0.050037359747471109 1 0.049953416739675911 1 1 1 1 1 1 0.049869802729333571 1 1 1 1 0.049244570386387652 1 1 1 1 1 1 1 1 1 1 0.04754387947582453 1 1 1 1 1 0.045301735524999116 1 1 1 1 1 1 1 1 1 1 1 1 1 1 1 0.050464200956390301 1 1 1 1 1 0.051360289988440735 1 0.048296893627633272 1 1 1 1 1 0.04785848109076915 1 1 1 1 1 0.051491608405747694 1 1 1 1 1 0.049420823866997206 1 1 1 1 1 1 1 1 1 1 0.06447079247754281 1 0.050009053978237059 1 0.06551542152957672 1 1 0.058211964392659341 1 1 1 1 1 1 1 1 0.068602871861697029 1 0.043361048244947131 1 1 1 1 1 1 1 1 1 1 0.064874036269282481 1 1 1 1 1 1 1 1 1 1 0.056198741153613958 1 1 1 0.058289530740469331 1 0.058876362197832863 0.084591729310450225 1 1 1 0.049876792294360567 1 1 1 0.066804219420765656 0.04954244557202838 1 1 1 1 1 1 1 1 1 1 0.055916432473582134 0.049777091423924613 1 1 1 1 1 0.052575011485651843 1 1 1 1 1 1 1 1 1 1 0.054091940359354343 1 0.05897619335449409 0.045803740261709712 0.06835700182994163 1 1 1 1 1 1 1 1 0.05690753629261542 1 1 1 1 1 1 1 1 1 1 1 1 1 1 1 1 1 1 1 1 1 1 1 1 1 1 1 1 1 0.049270387217486819 1 1 1 1 0.049859239581371242 1 1 1 1 1 1 1 1 0.04957290002074962 1 1 1 1 1 1 1 1 0.049411022475737976 1 1 1 1 1 1 1 1 1 1 1 1 1 1 1 1 1 1 1 1 1 1 1 1 1 1 0.047055065585437414 1 1 1 1 1 1 0.040651564494643681 1 0.083173256105142881 1 1 0.046479048899417209 1 1 1 0.087504750475084936 1 0.04364384690667749 1 1 1 0.050120945478380016 1 1 1 0.0536089065390511 1 1 1 1 1 1 0.050758036226252357 1 1 1 1 1 1 1 1 1 1 1 1 1 1 1 1 1 1 1 1 1 1 1 1 1 1 1 0.051590398922833569 1 0.054068186188094509 1 1 1 1 0.052477787265260915 1 1 1 1 1 1 1 1 1 1 1 1 1 0.052295995947648513 1 1 0.051868895968398221 1 1 0.059004040045289752 1 1 1 1 1 0.073624336203059776 1 1 1 1 1 1 1 1 0.045266473092839599 1 0.039600107352201624 1 1 1 1 1 0.048880153781261364 0.049988734322417808 1 1 0.053444487933627174 1 1 1 0.041253598125393018 1 1 1 1 1 1 1 0.050216791587435625 1 1 1 1 1 1 1 1 1 1 1 1 1 1 1 1 0.047472449719912407 1 1 1 1 1 0.05428419914190348 1 0.051966534480106713 1 1 1 1 1 1 1 1 1 1 1 1 0.053332489370960245 1 0.054410621443231166 1 1 1 1 1 1 0.059882518726170883 0.051014824709163478 1 1 1 1 1 1 1 1 1 1 1 1 1 1 1 1 1 1 1 1 1 0.051410772745342982 1 1 0.054097501900771713 1 1 1 1 1 0.048903768820965227 1 1 1 1 1 1 0.049961897927042885 1 1 1 1 1 1 1 1 1 1 1 1 1 1 1 1 0.050050364848038556 1 1 0.051210278858734762 1 1 1 1 0.050599107202076402 1 1 1 1 1 1 1 1 1 1 1 0.050618624015954433 1 1 1 1 1 1 1 1 1 1 1 1 1 1 1 1 1 1 1 0.055471897282939678 1 1 1 1 1 1 1 1 1 1 1 1 0.051838007811977393 1 1 1 1 1 1 1 1 1 1 1 1 1 0.04988975765345377 0.056306379903329977 1 1 1 1 1 1 0.059891697859288259 1 1 1 1 1 1 1 1 1 1 1 1 1 1 1 1 1 1 1 1 1 1 1 1 1 1 1 1 1 1 1 1 1 1 1 0.050189050441032515 1 1 1 1 1 1 1 1 0.049659579249103199 1 1 1 1 1 1 1 1 1 1 1 1 0.049709944097141731 1 1 1 1 0.053466268385885099 1 0.055272125097641046 1 1 1 1 1 1 1 1 0.049551916068130683 1 1 1 1 1 1 1 1 1 1 0.0495323992542527 1 1 1 0.044370981520237364 1 1 0.049302369159265717 1 1 1 1 0.040528211448879262 1 1 0.037084059047323009 1 1 1 1 1 1 1 1 0.047890052104081766 1 1 1 0.046448080444135953 1 1 1 1 1 1 1 0.047296009676849229 1 0.05002703684816448 1 0.059029027316526428 1 0.061033539685661331 0.050918018531251094 1 1 1 0.050262336397286445 0.049869115775305506 0.054384791552489771 1 1 0.077834276185559464 1 1 1 0.033761685383118883 1 1 1 1 0.049834790939427151 1 1 1 1 1 1 1 1 1 1 1 1 1 1 1 1 1 1 1 1 1 1 1 1 1 1 1 1 1 1 1 1 1 1 1 1 1 1 0.050151048940065196 1 1 1 1 1 1 1 1 0.046744363513545092 1 1 1 1 0.048465994581501387 1 1 0.049561968920631125 1 1 0.047059105447853952 1 1 1 1 0.048957240830119944 1 1 1 1 1 0.048619427316763601 1 1 1 1 1 1 1 1 1 1 1 1 1 0.066121909543501209 0.050029145250620986 1 1 1 0.055630873249412835 1 1 1 1 1 1 1 1 1 1 1 1 1 1 0.050393053456332187 1 1 1 1 1 1 0.051648025559193803 1 1 0.053486033371171221 1 1 1 1 1 1 1 1 1 1 0.051079946175894599 1 1 1 1 1 0.051135732834709582 1 1 1 1 1 1 1 1 1 1 0.048377283968852478 1 1 1 1 1 1 1 1 1 1 1 1 1 1 1 0.050005643297426017 1 1 1 1 1 1 1 1 1 1 1 1 1 1 1 1 1 1 1 1 1 1 1 0.049981524481104163 1 0.048209126009032779 1 1 1 0.050132573421169349 1 1 1 1 1 1 1 1 1 0.04893416925107251 1 1 1 0.047705264892277131 1 1 1 1 1 1 1 1 1 1 1 1 1 1 1 1 0.060257090005205599 1 1 1 1 1 0.048103831656884366 1 1 1 0.06004239273588266 1 0.050167920323392207 1 1 1 1 1 1 0.059243745583095739 1 1 1 1 1 1 1 1 1 1 1 1 1 1 1 1 1 1 1 1 1 1 1 1 1 1 1 0.04920983973399122 1 1 0.049879323898537359 1 1 1 1 1 1 1 0.050390085388073352 1 1 1 1 0.049931793283379197 1 1 0.049932232787938596 1 1 1 1 1 1 0.050060712840582305 1 1 1 0.050032222478298069 1 1 1 0.050032305538429855 1 1 1 1 1 0.051613474581904961 1 1 1 1 1 0.053429645456216396 1 1 1 1 1 1 1 1 0.055260607862459329 1 1 0.050066068529809118 1 1 1 1 0.050236442079182986 1 1 1 1 0.050390042605435642 1 1 1 1 0.060418672030249962 1 1 1 0.059143351312893278 1 0.049845967466263255 1 1 1 1 1 1 1 1 1 1 0.051496032300391612 1 1 1 1 1 1 1 0.054054997509092276 0.051859705063840578 1 1 1 1 1 0.059759589565406508 1 1 1 1 1 0.0562544424104909 1 1 1 0.050394251954671232 1 1 0.050055390730031513 1 1 0.06415137721941698 1 1 1 0.056802201589227649 1 1 1 1 1 1 0.050299771593103268 1 1 1 1 1 0.050102443372011737 1 1 1 1 1 0.050033668154296364 1 1 1 1 1 1 0.050184563633724567 1 1 1 1 0.085410283431091638 1 1 1 1 1 0.050346592210498878 1 1 1 1 1 1 1 1 1 1 0.075741472190205883 1 1 1 1 1 1 1 0.046964795586756217 1 1 1 1 0.049041381171643514 0.047283291589727348 1 1 0.058881984020886541 1 1 1 1 1 1 1 0.053282963775659956 1 1 1 1 1 1 1 0.09550011767654247 1 0.04315228534853624 1 1 0.066271424070592194 1 1 1 1 0.049213138897308543 1 0.068551323658681385 1 1 1 1 1 1 1 1 1 1 0.049812815590032672 1 1 1 1 1 0.050630422101646505 1 1 1 0.095217115637506969 1 1 1 1 0.049782675473579903 1 1 0.05303163487707134 1 1 1 1 1 0.064437569443845155 1 0.07588553535505646 1 0.049988952904201481 0.050709807208074983 1 1 1 1 0.07060012968691555 0.049498413989556303 1 1 1 1 1 1 1 1 1 1 1 1 1 0.049839332215727561 1 1 1 1 1 1 0.048253098890720339 0.053694870358111435 1 1 1 1 1 1 1 1 1 1 1 1 1 0.061458511909181689 1 1 1 1 1 1 1 1 1 1 1 1 1 1 1 1 1 1 1 1 1 1 1 1 1 1 1 1 1 1 1 1 1 0.049731526294202411 1 1 0.049515604198688085 1 1 1 1 1 1 1 0.049813223155106591 1 1 1 0.049721975368973992 1 1 0.043124978052073895 1 1 1 0.079510027408797895 0.050026127975547965 1 1 1 1 0.070012634664784745 0.065583560470791835 1 1 1 1 1 1 1 1 1 1 1 1 1 1 0.080483014044055334 1 1 0.050000248645372641 1 1 1 0.075473997720484548 1 1 1 1 0.049722064919229675 1 1 0.082944412367717615 1 1 1 1 1 1 1 1 1 1 1 0.099386124931951814 1 1 1 1 1 1 1 0.11401606286329585 1 1 1 1 1 1 1 1 1 1 1 1 1 1 1 1 1 1 0.049874905639941979 1 1 1 1 1 1 0.067996190997270681 1 0.050245718071916787 1 1 1 1 1 0.048725334440560895 1 1 0.049489564439395783 1 1 1 0.084761314580575203 1 1 1 0.049488397339159558 1 1 1 1 1 1 1 1 1 1 1 1 1 1 0.050481941563769929 1 1 1 1 0.051444516448012671 0.061605995883082167 1 1 1 1 1 1 1 1 1 1 1 1 1 1 1 1 1 1 1 0.051697801548491178 1 1 1 1 1 1 1 1 0.063758351017555531 1 0.06363103873075758 1 1 1 1 1 1 1 0.050017568374071793 1 0.050635424488269486 1 1 1 1 1 0.063556657845870668 1 1 1 1 1 1 0.050516684274992112 1 1 1 1 1 0.056165847880642591 0.05060595089461889 1 1 1 0.040514073727241695 0.064969590708406452 0.057848607226538791 1 1 1 1 1 0.053934609162529928 1 1 1 1 1 0.066576551879514542 1 1 1 1 0.06140683179472077 1 0.059101009885367463 0.046339989058956713 1 0.05579036848696451 0.071745586513280335 1 1 1 0.074098308991002115 1 1 1 0.059539341872272514 1 1 1 0.054483721610390529 1 1 1 0.070878078425642477 1 1 1 1 1 1 1 1 0.07615786630582011 1 1 1 0.075271299654012414 1 1 1 1 1 1 0.07897264973332932 1 1 1 1 1 1 0.07859763124260262 1 1 1 1 1 1 1 1 1 1 1 1 1 1 0.049890103112926923 1 0.054223713976951152 1 1 1 0.071658340391870926 1 1 0.049526166192045147 1 0.050374489931533636 1 0.049817528049403377 1 1 0.063196481513213887 1 1 1 1 1 1 0.050268452136584284 1 1 1 1 0.050195025658854815 1 1 1 1 1 1 0.050097387763742549 1 1 1 1 1 1 1 1 1 1 0.049965842170025442 1 1 1 1 1 1 1 1 1 1 1 1 1 1 1 1 1 1 1 0.042248842947526184 0.045881704817076999 1 1 1 0.062417396123342891 1 1 0.042821206659061035 1 1 0.062291245058385875 1 1 0.050449105779502512 1 1 0.044447562097112293 0.051771622336032552 1 1 1 1 0.062515830761429803 1 1 1 1 1 1 1 1 1 1 1 0.039979311381646412 0.061045250009983822 1 1 1 0.046933569361146767 1 0.050022162609903692 1 0.050096064034816409 1 1 1 1 1 0.050102226212655025 1 1 0.082687108035291432 1 0.041506007284165307 1 1 0.049975936813614341 0.062639053917989809 0.067634989772688281 1 1 1 1 0.065785173121477275 1 1 0.062875534474405886 1 0.07537683308320331 1 1 0.054882006725615377 1 1 1 1 1 1 1 1 0.075344637950698595 1 0.074012310019780467 0.050266146747579142 1 1 1 1 1 0.050414954247197608 0.091226489192034299 1 1 1 0.056073675313588277 0.051459081948310198 1 1 1 1 1 1 1 1 0.050026386967069972 1 0.093280068097873814 1 1 1 1 1 1 1 1 1 1 1 1 1 1 1 1 1 1 1 1 1 1 1 1 1 1 1 1 1 0.049984583786156528 1 1 1 1 1 1 1 1 1 1 1 1 1 1 1 0.045898575747499677 1 1 0.050188417531811427 1 1 1 1 1 0.049851147458581033 1 1 1 1 1 1 1 1 1 1 1 1 1 0.050337270073230342 1 1 1 1 1 1 1 1 1 0.071013582986209439 1 1 0.030841109756884512 1 1 1 1 0.049996122578490031 0.07658289379833276 0.053376433009131939 1 1 1 1 1 0.038071421915197766 1 1 1 
</DataArray>
</CellData>
</Piece>
</UnstructuredGrid>
</VTKFile>
